TACC:  Starting up job 2475014 
TACC:  Starting parallel tasks... 

     Program PWSCF v.7.3 starts on 17Oct2025 at 19:55:44 

     This program is part of the open-source Quantum ESPRESSO suite
     for quantum simulation of materials; please cite
         "P. Giannozzi et al., J. Phys.:Condens. Matter 21 395502 (2009);
         "P. Giannozzi et al., J. Phys.:Condens. Matter 29 465901 (2017);
         "P. Giannozzi et al., J. Chem. Phys. 152 154105 (2020);
          URL http://www.quantum-espresso.org", 
     in publications or presentations arising from this work. More details at
     http://www.quantum-espresso.org/quote

     Parallel version (MPI & OpenMP), running on      10 processor cores
     Number of MPI processes:                10
     Threads/MPI process:                     1

     MPI processes distributed on     1 nodes
     189017 MiB available memory on the printing compute node when the environment starts
 
     Waiting for input...
     Reading input from standard input

     Current dimensions of program PWSCF are:
     Max number of different atomic species (ntypx) = 10
     Max number of k-points (npk) =  40000
     Max angular momentum in pseudopotentials (lmaxx) =  4
 
     R & G space division:  proc/nbgrp/npool/nimage =      10
     Subspace diagonalization in iterative solution of the eigenvalue problem:
     a serial algorithm will be used

 
     Parallelization info
     --------------------
     sticks:   dense  smooth     PW     G-vecs:    dense   smooth      PW
     Min         162      43     15                 4273      595     113
     Max         163      44     16                 4274      598     114
     Sum        1627     433    151                42735     5961    1139
 
     Using Slab Decomposition
 


     bravais-lattice index     =            2
     lattice parameter (alat)  =      10.2000  a.u.
     unit-cell volume          =     265.3020 (a.u.)^3
     number of atoms/cell      =            2
     number of atomic types    =            1
     number of electrons       =         8.00
     number of Kohn-Sham states=            8
     kinetic-energy cutoff     =      30.0000  Ry
     charge density cutoff     =     450.0000  Ry
     scf convergence threshold =      1.0E-08
     mixing beta               =       0.7000
     number of iterations used =            8  plain     mixing
     Exchange-correlation= SLA  PZ   NOGX NOGC
                           (   1   1   0   0   0   0   0)

     celldm(1)=  10.200000  celldm(2)=   0.000000  celldm(3)=   0.000000
     celldm(4)=   0.000000  celldm(5)=   0.000000  celldm(6)=   0.000000

     crystal axes: (cart. coord. in units of alat)
               a(1) = (  -0.500000   0.000000   0.500000 )  
               a(2) = (   0.000000   0.500000   0.500000 )  
               a(3) = (  -0.500000   0.500000   0.000000 )  

     reciprocal axes: (cart. coord. in units 2 pi/alat)
               b(1) = ( -1.000000 -1.000000  1.000000 )  
               b(2) = (  1.000000  1.000000  1.000000 )  
               b(3) = ( -1.000000  1.000000 -1.000000 )  


     PseudoPot. # 1 for Si read from file:
     /scratch/11018/zhc/Assisgnment2/Q1/1A/energy_cutoff_test/Si_LDA.UPF
     MD5 check sum: b5ade7b37ee992b02096e360e546dc2d
     Pseudo is Ultrasoft + core correction, Zval =  4.0
     Generated by new atomic code, or converted to UPF format
     Using radial grid of  899 points,  6 beta functions with: 
                l(1) =   0
                l(2) =   0
                l(3) =   1
                l(4) =   1
                l(5) =   2
                l(6) =   2
     Q(r) pseudized with  8 coefficients,  rinner =    0.900   0.900   0.900
                                                       0.900   0.900

     atomic species   valence    mass     pseudopotential
     Si                4.00    28.08550     Si( 1.00)

     48 Sym. Ops., with inversion, found (24 have fractional translation)



   Cartesian axes

     site n.     atom                  positions (alat units)
         1        Si     tau(   1) = (   0.0000000   0.0000000   0.0000000  )
         2        Si     tau(   2) = (  -0.2500000   0.2500000   0.2500000  )

     number of k points=    72
                       cart. coord. in units 2pi/alat
        k(    1) = (   0.0000000   0.0000000   0.0000000), wk =   0.0011574
        k(    2) = (  -0.0833333   0.0833333  -0.0833333), wk =   0.0092593
        k(    3) = (  -0.1666667   0.1666667  -0.1666667), wk =   0.0092593
        k(    4) = (  -0.2500000   0.2500000  -0.2500000), wk =   0.0092593
        k(    5) = (  -0.3333333   0.3333333  -0.3333333), wk =   0.0092593
        k(    6) = (  -0.4166667   0.4166667  -0.4166667), wk =   0.0092593
        k(    7) = (   0.5000000  -0.5000000   0.5000000), wk =   0.0046296
        k(    8) = (   0.0000000   0.1666667   0.0000000), wk =   0.0069444
        k(    9) = (  -0.0833333   0.2500000  -0.0833333), wk =   0.0277778
        k(   10) = (  -0.1666667   0.3333333  -0.1666667), wk =   0.0277778
        k(   11) = (  -0.2500000   0.4166667  -0.2500000), wk =   0.0277778
        k(   12) = (  -0.3333333   0.5000000  -0.3333333), wk =   0.0277778
        k(   13) = (   0.5833333  -0.4166667   0.5833333), wk =   0.0277778
        k(   14) = (   0.5000000  -0.3333333   0.5000000), wk =   0.0277778
        k(   15) = (   0.4166667  -0.2500000   0.4166667), wk =   0.0277778
        k(   16) = (   0.3333333  -0.1666667   0.3333333), wk =   0.0277778
        k(   17) = (   0.2500000  -0.0833333   0.2500000), wk =   0.0277778
        k(   18) = (   0.1666667  -0.0000000   0.1666667), wk =   0.0138889
        k(   19) = (   0.0000000   0.3333333   0.0000000), wk =   0.0069444
        k(   20) = (  -0.0833333   0.4166667  -0.0833333), wk =   0.0277778
        k(   21) = (  -0.1666667   0.5000000  -0.1666667), wk =   0.0277778
        k(   22) = (  -0.2500000   0.5833333  -0.2500000), wk =   0.0277778
        k(   23) = (   0.6666667  -0.3333333   0.6666667), wk =   0.0277778
        k(   24) = (   0.5833333  -0.2500000   0.5833333), wk =   0.0277778
        k(   25) = (   0.5000000  -0.1666667   0.5000000), wk =   0.0277778
        k(   26) = (   0.4166667  -0.0833333   0.4166667), wk =   0.0277778
        k(   27) = (   0.3333333   0.0000000   0.3333333), wk =   0.0138889
        k(   28) = (   0.0000000   0.5000000   0.0000000), wk =   0.0069444
        k(   29) = (  -0.0833333   0.5833333  -0.0833333), wk =   0.0277778
        k(   30) = (  -0.1666667   0.6666667  -0.1666667), wk =   0.0277778
        k(   31) = (   0.7500000  -0.2500000   0.7500000), wk =   0.0277778
        k(   32) = (   0.6666667  -0.1666667   0.6666667), wk =   0.0277778
        k(   33) = (   0.5833333  -0.0833333   0.5833333), wk =   0.0277778
        k(   34) = (   0.5000000   0.0000000   0.5000000), wk =   0.0138889
        k(   35) = (   0.0000000   0.6666667   0.0000000), wk =   0.0069444
        k(   36) = (  -0.0833333   0.7500000  -0.0833333), wk =   0.0277778
        k(   37) = (   0.8333333  -0.1666667   0.8333333), wk =   0.0277778
        k(   38) = (   0.7500000  -0.0833333   0.7500000), wk =   0.0277778
        k(   39) = (   0.6666667  -0.0000000   0.6666667), wk =   0.0138889
        k(   40) = (   0.0000000   0.8333333   0.0000000), wk =   0.0069444
        k(   41) = (   0.9166667  -0.0833333   0.9166667), wk =   0.0277778
        k(   42) = (   0.8333333   0.0000000   0.8333333), wk =   0.0138889
        k(   43) = (   0.0000000  -1.0000000   0.0000000), wk =   0.0034722
        k(   44) = (  -0.1666667   0.3333333   0.0000000), wk =   0.0277778
        k(   45) = (  -0.2500000   0.4166667  -0.0833333), wk =   0.0555556
        k(   46) = (  -0.3333333   0.5000000  -0.1666667), wk =   0.0555556
        k(   47) = (   0.5833333  -0.4166667   0.7500000), wk =   0.0555556
        k(   48) = (   0.5000000  -0.3333333   0.6666667), wk =   0.0277778
        k(   49) = (  -0.1666667   0.5000000   0.0000000), wk =   0.0277778
        k(   50) = (  -0.2500000   0.5833333  -0.0833333), wk =   0.0555556
        k(   51) = (   0.6666667  -0.3333333   0.8333333), wk =   0.0555556
        k(   52) = (   0.5833333  -0.2500000   0.7500000), wk =   0.0555556
        k(   53) = (   0.5000000  -0.1666667   0.6666667), wk =   0.0555556
        k(   54) = (   0.4166667  -0.0833333   0.5833333), wk =   0.0555556
        k(   55) = (   0.3333333   0.0000000   0.5000000), wk =   0.0277778
        k(   56) = (  -0.1666667   0.6666667  -0.0000000), wk =   0.0277778
        k(   57) = (   0.7500000  -0.2500000   0.9166667), wk =   0.0555556
        k(   58) = (   0.6666667  -0.1666667   0.8333333), wk =   0.0555556
        k(   59) = (   0.5833333  -0.0833333   0.7500000), wk =   0.0555556
        k(   60) = (   0.5000000   0.0000000   0.6666667), wk =   0.0277778
        k(   61) = (   0.8333333  -0.1666667   1.0000000), wk =   0.0277778
        k(   62) = (   0.7500000  -0.0833333   0.9166667), wk =   0.0555556
        k(   63) = (   0.6666667   0.0000000   0.8333333), wk =   0.0277778
        k(   64) = (  -0.1666667  -1.0000000  -0.0000000), wk =   0.0138889
        k(   65) = (   0.6666667  -0.3333333   1.0000000), wk =   0.0277778
        k(   66) = (   0.5833333  -0.2500000   0.9166667), wk =   0.0555556
        k(   67) = (   0.5000000  -0.1666667   0.8333333), wk =   0.0277778
        k(   68) = (   0.6666667  -0.1666667   1.0000000), wk =   0.0277778
        k(   69) = (   0.5833333  -0.0833333   0.9166667), wk =   0.0555556
        k(   70) = (   0.5000000   0.0000000   0.8333333), wk =   0.0277778
        k(   71) = (  -0.3333333  -1.0000000   0.0000000), wk =   0.0138889
        k(   72) = (  -0.5000000  -1.0000000   0.0000000), wk =   0.0069444

     Dense  grid:    42735 G-vectors     FFT dimensions: (  50,  50,  50)

     Smooth grid:     5961 G-vectors     FFT dimensions: (  25,  25,  25)

     Estimated max dynamical RAM per process >      18.11 MB

     Estimated total dynamical RAM >     181.09 MB

     Initial potential from superposition of free atoms

     starting charge       7.9988, renormalised to       8.0000
     Starting wfcs are    8 randomized atomic wfcs

     total cpu time spent up to now is        0.4 secs

     Self-consistent Calculation

     iteration #  1     ecut=    30.00 Ry     beta= 0.70
     CG style diagonalization
     ethr =  1.00E-02,  avg # of iterations =  3.7

     Threshold (ethr) on eigenvalues was too large:
     Diagonalizing with lowered threshold

     CG style diagonalization
     ethr =  7.32E-04,  avg # of iterations =  2.0

     total cpu time spent up to now is        1.1 secs

     total energy              =     -19.25687729 Ry
     estimated scf accuracy    <       0.05937488 Ry

     iteration #  2     ecut=    30.00 Ry     beta= 0.70
     CG style diagonalization
     ethr =  7.42E-04,  avg # of iterations =  3.0

     total cpu time spent up to now is        1.5 secs

     total energy              =     -19.26029217 Ry
     estimated scf accuracy    <       0.00169731 Ry

     iteration #  3     ecut=    30.00 Ry     beta= 0.70
     CG style diagonalization
     ethr =  2.12E-05,  avg # of iterations =  3.8

     total cpu time spent up to now is        1.9 secs

     total energy              =     -19.26050255 Ry
     estimated scf accuracy    <       0.00003883 Ry

     iteration #  4     ecut=    30.00 Ry     beta= 0.70
     CG style diagonalization
     ethr =  4.85E-07,  avg # of iterations =  4.3

     total cpu time spent up to now is        2.4 secs

     total energy              =     -19.26053586 Ry
     estimated scf accuracy    <       0.00000012 Ry

     iteration #  5     ecut=    30.00 Ry     beta= 0.70
     CG style diagonalization
     ethr =  1.45E-09,  avg # of iterations =  4.2

     total cpu time spent up to now is        2.9 secs

     End of self-consistent calculation

          k = 0.0000 0.0000 0.0000 (   725 PWs)   bands (ev):

    -5.8901   6.1997   6.1997   6.1997   8.7358   8.7358   8.7358   9.5923

          k =-0.0833 0.0833-0.0833 (   731 PWs)   bands (ev):

    -5.7976   5.3286   6.0527   6.0527   8.7809   8.9513   8.9513  10.2499

          k =-0.1667 0.1667-0.1667 (   730 PWs)   bands (ev):

    -5.5231   3.7863   5.7410   5.7410   8.5162   9.3922   9.3922  11.6621

          k =-0.2500 0.2500-0.2500 (   745 PWs)   bands (ev):

    -5.0772   2.2191   5.4283   5.4283   8.1860   9.6832   9.6832  13.1028

          k =-0.3333 0.3333-0.3333 (   751 PWs)   bands (ev):

    -4.4889   0.7907   5.1861   5.1861   7.9158   9.6725   9.6725  13.9479

          k =-0.4167 0.4167-0.4167 (   739 PWs)   bands (ev):

    -3.8530  -0.3609   5.0371   5.0371   7.7456   9.5509   9.5509  13.8361

          k = 0.5000-0.5000 0.5000 (   754 PWs)   bands (ev):

    -3.5070  -0.8803   4.9872   4.9872   7.6879   9.4933   9.4933  13.7464

          k = 0.0000 0.1667 0.0000 (   733 PWs)   bands (ev):

    -5.7667   5.5055   5.7580   5.7580   8.4436   9.3266   9.3266  10.2298

          k =-0.0833 0.2500-0.0833 (   731 PWs)   bands (ev):

    -5.5524   4.2520   5.3874   5.5852   8.4604   9.4162   9.8713  11.0990

          k =-0.1667 0.3333-0.1667 (   741 PWs)   bands (ev):

    -5.1621   2.7282   5.0706   5.2555   8.5897   9.4006  10.2555  11.5513

          k =-0.2500 0.4167-0.2500 (   742 PWs)   bands (ev):

    -4.6163   1.2698   4.8597   4.8969   8.4489   9.4641  10.2681  12.1212

          k =-0.3333 0.5000-0.3333 (   740 PWs)   bands (ev):

    -3.9767   0.0175   4.5962   4.7710   8.2840   9.4148  10.0613  13.1698

          k = 0.5833-0.4167 0.5833 (   743 PWs)   bands (ev):

    -3.4704  -0.7716   4.3874   4.8045   8.2052   9.4088   9.8543  13.9973

          k = 0.5000-0.3333 0.5000 (   740 PWs)   bands (ev):

    -3.5957  -0.5887   4.2889   4.9514   8.2348   9.5255   9.7416  14.0931

          k = 0.4167-0.2500 0.4167 (   745 PWs)   bands (ev):

    -4.1938   0.4051   4.3141   5.1953   8.3710   9.7143   9.7428  13.6218

          k = 0.3333-0.1667 0.3333 (   744 PWs)   bands (ev):

    -4.8142   1.7417   4.4733   5.5101   8.6013   9.6431   9.9102  12.6808

          k = 0.2500-0.0833 0.2500 (   739 PWs)   bands (ev):

    -5.3116   3.2229   4.7792   5.8441   8.8905   9.3479   9.7071  11.9265

          k = 0.1667-0.0000 0.1667 (   739 PWs)   bands (ev):

    -5.6443   4.5950   5.3101   6.0823   8.9875   9.1228   9.1320  11.0415

          k = 0.0000 0.3333 0.0000 (   737 PWs)   bands (ev):

    -5.3984   4.1570   4.9806   4.9806   7.8291  10.4652  10.5432  10.5432

          k =-0.0833 0.4167-0.0833 (   736 PWs)   bands (ev):

    -5.0660   3.0531   4.6277   4.6415   7.8469  10.0446  10.8613  11.1083

          k =-0.1667 0.5000-0.1667 (   742 PWs)   bands (ev):

    -4.5694   1.7197   4.1653   4.4209   8.0870  10.2245  10.6841  11.2688

          k =-0.2500 0.5833-0.2500 (   738 PWs)   bands (ev):

    -3.9493   0.4619   3.7180   4.3375   8.1269  10.4375  11.0779  11.1981

          k = 0.6667-0.3333 0.6667 (   732 PWs)   bands (ev):

    -3.3498  -0.4943   3.3668   4.3940   8.1593  10.2817  10.7969  12.5865

          k = 0.5833-0.2500 0.5833 (   737 PWs)   bands (ev):

    -3.2309  -0.6594   3.1472   4.5826   8.3123  10.2259  10.5668  14.1464

          k = 0.5000-0.1667 0.5000 (   734 PWs)   bands (ev):

    -3.7454   0.1193   3.0860   4.8839   8.5922  10.2740  10.4030  13.4553

          k = 0.4167-0.0833 0.4167 (   740 PWs)   bands (ev):

    -4.3834   1.2900   3.2271   5.2593   8.9438  10.1821  10.3287  12.2931

          k = 0.3333 0.0000 0.3333 (   740 PWs)   bands (ev):

    -4.9251   2.4507   3.7224   5.6303   9.2217   9.7397  10.0027  11.8248

          k = 0.0000 0.5000 0.0000 (   729 PWs)   bands (ev):

    -4.7912   2.6695   4.2731   4.2731   7.2301   9.2384  11.9637  11.9638

          k =-0.0833 0.5833-0.0833 (   732 PWs)   bands (ev):

    -4.3475   1.7483   3.7930   4.0236   7.3148   8.8768  12.2499  12.4445

          k =-0.1667 0.6667-0.1667 (   738 PWs)   bands (ev):

    -3.7616   0.7019   3.1418   3.9159   7.5275   9.3667  12.1107  12.3947

          k = 0.7500-0.2500 0.7500 (   735 PWs)   bands (ev):

    -3.1229  -0.2448   2.5825   3.9564   7.6120  10.5807  11.9419  12.1100

          k = 0.6667-0.1667 0.6667 (   735 PWs)   bands (ev):

    -2.7876  -0.6728   2.2105   4.1405   7.7966  11.6024  11.8093  12.3601

          k = 0.5833-0.0833 0.5833 (   734 PWs)   bands (ev):

    -3.1742  -0.1648   2.0843   4.4516   8.1334  11.5116  11.5972  13.3531

          k = 0.5000 0.0000 0.5000 (   742 PWs)   bands (ev):

    -3.8104   0.6740   2.3504   4.8520   8.5798  10.9811  11.2869  12.3167

          k = 0.0000 0.6667 0.0000 (   717 PWs)   bands (ev):

    -3.9560   1.1619   3.7382   3.7382   6.8097   8.0706  13.4751  13.4751

          k =-0.0833 0.7500-0.0833 (   735 PWs)   bands (ev):

    -3.4124   0.3669   3.2323   3.5939   6.9730   7.9458  13.7975  13.8432

          k = 0.8333-0.1667 0.8333 (   737 PWs)   bands (ev):

    -2.7707  -0.4120   2.4762   3.6009   7.1409   8.8306  13.6565  13.6829

          k = 0.7500-0.0833 0.7500 (   732 PWs)   bands (ev):

    -2.2870  -0.9151   1.8780   3.7579   7.3210  10.2977  13.3031  13.5086

          k = 0.6667-0.0000 0.6667 (   730 PWs)   bands (ev):

    -2.5635  -0.6265   1.6697   4.0520   7.6585  11.9370  12.6818  13.6253

          k = 0.0000 0.8333 0.0000 (   745 PWs)   bands (ev):

    -2.9105  -0.3072   3.4088   3.4088   6.6430   7.2431  15.0414  15.0414

          k = 0.9167-0.0833 0.9167 (   736 PWs)   bands (ev):

    -2.2865  -1.0039   2.9558   3.3749   6.8428   7.4262  15.2890  15.3847

          k = 0.8333 0.0000 0.8333 (   738 PWs)   bands (ev):

    -1.8166  -1.4165   2.2558   3.4942   7.0045   8.6565  14.7432  15.2677

          k = 0.0000-1.0000 0.0000 (   740 PWs)   bands (ev):

    -1.6814  -1.6814   3.2978   3.2978   6.7755   6.7755  16.3295  16.3296

          k =-0.1667 0.3333 0.0000 (   738 PWs)   bands (ev):

    -5.2793   3.4516   4.5221   5.4837   8.4821   9.7460  10.3435  11.0604

          k =-0.2500 0.4167-0.0833 (   737 PWs)   bands (ev):

    -4.8355   2.1915   3.9819   5.2031   8.7654   9.7050  10.7462  11.0301

          k =-0.3333 0.5000-0.1667 (   744 PWs)   bands (ev):

    -4.2493   0.8663   3.7124   4.8687   8.8103   9.5495  10.8026  11.6935

          k = 0.5833-0.4167 0.7500 (   737 PWs)   bands (ev):

    -3.6124  -0.2464   3.5863   4.6167   8.7609   9.3345  10.7170  12.9244

          k = 0.5000-0.3333 0.6667 (   738 PWs)   bands (ev):

    -3.2623  -0.7588   3.5514   4.5229   8.7440   9.2391  10.6703  14.2146

          k =-0.1667 0.5000 0.0000 (   736 PWs)   bands (ev):

    -4.6786   2.2560   3.8138   4.5425   7.9120   9.6486  11.0075  11.8379

          k =-0.2500 0.5833-0.0833 (   737 PWs)   bands (ev):

    -4.1364   1.1894   3.2656   4.2451   8.2452   9.8704  10.7444  12.2214

          k = 0.6667-0.3333 0.8333 (   735 PWs)   bands (ev):

    -3.4975   0.1123   2.9053   4.0284   8.3613  10.3626  10.9724  12.1996

          k = 0.5833-0.2500 0.7500 (   733 PWs)   bands (ev):

    -2.9856  -0.6139   2.6555   4.0099   8.4918  10.0889  12.0837  12.4526

          k = 0.5000-0.1667 0.6667 (   737 PWs)   bands (ev):

    -3.1256  -0.4213   2.5323   4.1872   8.7508   9.8947  12.0043  12.8305

          k = 0.4167-0.0833 0.5833 (   739 PWs)   bands (ev):

    -3.7311   0.4782   2.6018   4.5123   9.1266   9.7524  11.4535  11.9468

          k = 0.3333 0.0000 0.5000 (   744 PWs)   bands (ev):

    -4.3458   1.4749   3.0212   4.9044   9.3644   9.5296  10.8062  11.5234

          k =-0.1667 0.6667-0.0000 (   731 PWs)   bands (ev):

    -3.8550   0.9837   3.2957   3.7377   7.4978   8.5719  12.2615  13.4217

          k = 0.7500-0.2500 0.9167 (   737 PWs)   bands (ev):

    -3.2378   0.1371   2.6884   3.5132   7.8297   9.1226  11.9517  13.7908

          k = 0.6667-0.1667 0.8333 (   730 PWs)   bands (ev):

    -2.6335  -0.5934   2.1519   3.5216   7.9825  10.4337  11.6534  13.7233

          k = 0.5833-0.0833 0.7500 (   730 PWs)   bands (ev):

    -2.5580  -0.6682   1.8537   3.7251   8.2460  11.2110  12.2204  12.9230

          k = 0.5000 0.0000 0.6667 (   734 PWs)   bands (ev):

    -3.1088  -0.0666   1.9413   4.0788   8.6510  10.8061  11.6659  13.0224

          k = 0.8333-0.1667 1.0000 (   741 PWs)   bands (ev):

    -2.8306  -0.3424   3.0075   3.2096   7.3155   7.8194  13.6426  15.0378

          k = 0.7500-0.0833 0.9167 (   736 PWs)   bands (ev):

    -2.1884  -0.9935   2.3520   3.1640   7.6058   8.7548  13.3147  14.8103

          k = 0.6667 0.0000 0.8333 (   727 PWs)   bands (ev):

    -2.0239  -1.1129   1.8354   3.3656   7.8487  10.3042  12.8535  13.2366

          k =-0.1667-1.0000-0.0000 (   738 PWs)   bands (ev):

    -1.6408  -1.6408   2.9721   2.9721   7.4105   7.4105  15.1213  15.1213

          k = 0.6667-0.3333 1.0000 (   740 PWs)   bands (ev):

    -3.5617   0.5171   2.5402   3.8511   8.9892   9.8240  10.4163  13.2682

          k = 0.5833-0.2500 0.9167 (   732 PWs)   bands (ev):

    -2.9236  -0.2661   2.1862   3.5029   9.3556   9.9099  10.9163  13.6958

          k = 0.5000-0.1667 0.8333 (   734 PWs)   bands (ev):

    -2.5524  -0.7076   2.0929   3.3695   9.4698   9.7170  12.2564  12.7084

          k = 0.6667-0.1667 1.0000 (   737 PWs)   bands (ev):

    -2.6095  -0.4866   2.3362   2.9698   8.8071   9.1986  11.5638  14.5113

          k = 0.5833-0.0833 0.9167 (   732 PWs)   bands (ev):

    -2.0733  -1.0011   2.0080   2.8109   9.1457  10.4139  11.2911  12.6775

          k = 0.5000 0.0000 0.8333 (   730 PWs)   bands (ev):

    -2.3084  -0.7693   1.8793   3.0425   9.4508  10.6196  11.1649  12.4234

          k =-0.3333-1.0000 0.0000 (   738 PWs)   bands (ev):

    -1.5534  -1.5534   2.4615   2.4615   8.8659   8.8659  12.9502  12.9502

          k =-0.5000-1.0000 0.0000 (   724 PWs)   bands (ev):

    -1.5061  -1.5061   2.2440   2.2440  10.3883  10.3883  11.1896  11.1896

     highest occupied, lowest unoccupied level (ev):     6.1997    6.6430

!    total energy              =     -19.26053638 Ry
     estimated scf accuracy    <          1.4E-09 Ry

     The total energy is the sum of the following terms:
     one-electron contribution =       5.18380688 Ry
     hartree contribution      =       1.09837840 Ry
     xc contribution           =      -8.64296309 Ry
     ewald contribution        =     -16.89975857 Ry

     convergence has been achieved in   5 iterations

     Forces acting on atoms (cartesian axes, Ry/au):

     atom    1 type  1   force =     0.00000000    0.00000000    0.00000000
     atom    2 type  1   force =    -0.00000000   -0.00000000   -0.00000000

     Total force =     0.000000     Total SCF correction =     0.000000


     Computing stress (Cartesian axis) and pressure

          total   stress  (Ry/bohr**3)                   (kbar)     P=        1.47
   0.00000997   0.00000000   0.00000000            1.47        0.00        0.00
   0.00000000   0.00000997   0.00000000            0.00        1.47        0.00
   0.00000000   0.00000000   0.00000997            0.00        0.00        1.47


     Writing all to output data dir ./Si_k12.save/ :
     XML data file, charge density, pseudopotentials, collected wavefunctions
 
     init_run     :      0.14s CPU      0.21s WALL (       1 calls)
     electrons    :      2.33s CPU      2.53s WALL (       1 calls)
     forces       :      0.03s CPU      0.04s WALL (       1 calls)
     stress       :      0.19s CPU      0.20s WALL (       1 calls)

     Called by init_run:
     wfcinit      :      0.06s CPU      0.08s WALL (       1 calls)
     potinit      :      0.00s CPU      0.01s WALL (       1 calls)
     hinit0       :      0.04s CPU      0.07s WALL (       1 calls)

     Called by electrons:
     c_bands      :      2.00s CPU      2.16s WALL (       6 calls)
     sum_band     :      0.27s CPU      0.28s WALL (       6 calls)
     v_of_rho     :      0.01s CPU      0.01s WALL (       6 calls)
     newd         :      0.06s CPU      0.07s WALL (       6 calls)
     mix_rho      :      0.00s CPU      0.00s WALL (       6 calls)

     Called by c_bands:
     init_us_2    :      0.03s CPU      0.03s WALL (    1080 calls)
     init_us_2:cp :      0.02s CPU      0.03s WALL (    1080 calls)
     ccgdiagg     :      1.77s CPU      1.91s WALL (     432 calls)
     wfcrot       :      0.26s CPU      0.29s WALL (     360 calls)

     Called by *cgdiagg:
     h_psi        :      1.17s CPU      1.26s WALL (   10136 calls)
     s_psi        :      0.08s CPU      0.09s WALL (   19912 calls)

     Called by h_psi:
     h_psi:calbec :      0.17s CPU      0.19s WALL (   10136 calls)
     vloc_psi     :      0.88s CPU      0.95s WALL (   10136 calls)
     add_vuspsi   :      0.05s CPU      0.05s WALL (   10136 calls)
     hs_1psi      :      1.05s CPU      1.14s WALL (    9776 calls)
     s_1psi       :      0.22s CPU      0.24s WALL (    9776 calls)

     General routines
     calbec       :      0.30s CPU      0.33s WALL (   20704 calls)
     fft          :      0.01s CPU      0.03s WALL (      43 calls)
     ffts         :      0.00s CPU      0.00s WALL (      12 calls)
     fftw         :      0.80s CPU      0.86s WALL (   28768 calls)
     interpolate  :      0.00s CPU      0.01s WALL (       6 calls)
 
     Parallel routines
 
     PWSCF        :      2.82s CPU      3.48s WALL

 
   This run was terminated on:  19:55:48  17Oct2025            

=------------------------------------------------------------------------------=
   JOB DONE.
=------------------------------------------------------------------------------=
TACC:  Shutdown complete. Exiting. 
