TACC:  Starting up job 2560860 
TACC:  Starting parallel tasks... 

     Program PWSCF v.7.3 starts on 18Nov2025 at  0:21:16 

     This program is part of the open-source Quantum ESPRESSO suite
     for quantum simulation of materials; please cite
         "P. Giannozzi et al., J. Phys.:Condens. Matter 21 395502 (2009);
         "P. Giannozzi et al., J. Phys.:Condens. Matter 29 465901 (2017);
         "P. Giannozzi et al., J. Chem. Phys. 152 154105 (2020);
          URL http://www.quantum-espresso.org", 
     in publications or presentations arising from this work. More details at
     http://www.quantum-espresso.org/quote

     Parallel version (MPI & OpenMP), running on      10 processor cores
     Number of MPI processes:                10
     Threads/MPI process:                     1

     MPI processes distributed on     1 nodes
     187558 MiB available memory on the printing compute node when the environment starts
 
     Waiting for input...
     Reading input from standard input
Warning: card &CELL ignored
Warning: card  CELL_DYNAMICS = 'BFGS', ignored
Warning: card  PRESS=0.D0, ignored
Warning: card / ignored

     Current dimensions of program PWSCF are:
     Max number of different atomic species (ntypx) = 10
     Max number of k-points (npk) =  40000
     Max angular momentum in pseudopotentials (lmaxx) =  4
     Message from routine setup:
     using ibrav=0 with symmetry is DISCOURAGED, use correct ibrav instead
 
     R & G space division:  proc/nbgrp/npool/nimage =      10
     Subspace diagonalization in iterative solution of the eigenvalue problem:
     a serial algorithm will be used

 
     Parallelization info
     --------------------
     sticks:   dense  smooth     PW     G-vecs:    dense   smooth      PW
     Min         209      84     25                 7681     1944     321
     Max         210      85     26                 7684     1949     324
     Sum        2093     845    253                76819    19463    3231
 
     Using Slab Decomposition
 


     bravais-lattice index     =            0
     lattice parameter (alat)  =       7.2859  a.u.
     unit-cell volume          =     406.8765 (a.u.)^3
     number of atoms/cell      =            5
     number of atomic types    =            3
     number of electrons       =        44.00
     number of Kohn-Sham states=           22
     kinetic-energy cutoff     =      50.0000  Ry
     charge density cutoff     =     500.0000  Ry
     scf convergence threshold =      1.0E-08
     mixing beta               =       0.7000
     number of iterations used =            8  plain     mixing
     energy convergence thresh.=      1.0E-04
     force convergence thresh. =      1.0E-03
     Exchange-correlation= SLA  PZ   NOGX NOGC
                           (   1   1   0   0   0   0   0)
     nstep                     =           50


     celldm(1)=   7.285877  celldm(2)=   0.000000  celldm(3)=   0.000000
     celldm(4)=   0.000000  celldm(5)=   0.000000  celldm(6)=   0.000000

     crystal axes: (cart. coord. in units of alat)
               a(1) = (   1.000000   0.000000   0.000000 )  
               a(2) = (   0.000000   1.000000   0.000000 )  
               a(3) = (   0.000000   0.000000   1.052003 )  

     reciprocal axes: (cart. coord. in units 2 pi/alat)
               b(1) = (  1.000000  0.000000  0.000000 )  
               b(2) = (  0.000000  1.000000  0.000000 )  
               b(3) = (  0.000000  0.000000  0.950567 )  


     PseudoPot. # 1 for Pb read from file:
     /scratch/11018/zhc/assisgnment3/input_files/Pb_LDA.UPF
     MD5 check sum: 062a37469794d955244864f8fe2e5624
     Pseudo is Ultrasoft + core correction, Zval = 14.0
     Generated by new atomic code, or converted to UPF format
     Using radial grid of  899 points,  6 beta functions with: 
                l(1) =   0
                l(2) =   0
                l(3) =   1
                l(4) =   1
                l(5) =   2
                l(6) =   2
     Q(r) pseudized with  6 coefficients,  rinner =    1.000   1.000   1.000
                                                       1.000   1.000

     PseudoPot. # 2 for Ti read from file:
     /scratch/11018/zhc/assisgnment3/input_files/Ti_LDA.UPF
     MD5 check sum: 0d9f225c038fe889ca2a701dcc8d72cb
     Pseudo is Ultrasoft + core correction, Zval = 12.0
     Generated by new atomic code, or converted to UPF format
     Using radial grid of  851 points,  6 beta functions with: 
                l(1) =   0
                l(2) =   0
                l(3) =   1
                l(4) =   1
                l(5) =   2
                l(6) =   2
     Q(r) pseudized with  6 coefficients,  rinner =    1.000   1.000   1.000
                                                       1.000   1.000

     PseudoPot. # 3 for O  read from file:
     /scratch/11018/zhc/assisgnment3/input_files/O_LDA.UPF
     MD5 check sum: 194b818514d2a7dbb603bb78519a4f40
     Pseudo is Ultrasoft + core correction, Zval =  6.0
     Generated by new atomic code, or converted to UPF format
     Using radial grid of  737 points,  5 beta functions with: 
                l(1) =   0
                l(2) =   0
                l(3) =   1
                l(4) =   1
                l(5) =   2
     Q(r) pseudized with  8 coefficients,  rinner =    0.900   0.900   0.900
                                                       0.900   0.900

     atomic species   valence    mass     pseudopotential
     Pb               14.00   207.20000     Pb( 1.00)
     Ti               12.00    47.88000     Ti( 1.00)
     O                 6.00    16.00000     O ( 1.00)

      8 Sym. Ops. (no inversion) found



   Cartesian axes

     site n.     atom                  positions (alat units)
         1        Pb     tau(   1) = (   0.0000000   0.0000000   1.0574462  )
         2        Ti     tau(   2) = (   0.5000000   0.5000000   0.5675920  )
         3        O      tau(   3) = (   0.5000000   0.5000000   0.1046826  )
         4        O      tau(   4) = (   0.5000000   0.0000000   0.6433359  )
         5        O      tau(   5) = (   0.0000000   0.5000000   0.6433359  )

     number of k points=    30
                       cart. coord. in units 2pi/alat
        k(    1) = (   0.0000000   0.0000000   0.0000000), wk =   0.0138889
        k(    2) = (   0.0000000   0.0000000   0.2376418), wk =   0.0277778
        k(    3) = (   0.0000000   0.0000000  -0.4752837), wk =   0.0138889
        k(    4) = (   0.0000000   0.1666667   0.0000000), wk =   0.0555556
        k(    5) = (   0.0000000   0.1666667   0.2376418), wk =   0.1111111
        k(    6) = (   0.0000000   0.1666667  -0.4752837), wk =   0.0555556
        k(    7) = (   0.0000000   0.3333333   0.0000000), wk =   0.0555556
        k(    8) = (   0.0000000   0.3333333   0.2376418), wk =   0.1111111
        k(    9) = (   0.0000000   0.3333333  -0.4752837), wk =   0.0555556
        k(   10) = (   0.0000000  -0.5000000   0.0000000), wk =   0.0277778
        k(   11) = (   0.0000000  -0.5000000   0.2376418), wk =   0.0555556
        k(   12) = (   0.0000000  -0.5000000  -0.4752837), wk =   0.0277778
        k(   13) = (   0.1666667   0.1666667   0.0000000), wk =   0.0555556
        k(   14) = (   0.1666667   0.1666667   0.2376418), wk =   0.1111111
        k(   15) = (   0.1666667   0.1666667  -0.4752837), wk =   0.0555556
        k(   16) = (   0.1666667   0.3333333   0.0000000), wk =   0.1111111
        k(   17) = (   0.1666667   0.3333333   0.2376418), wk =   0.2222222
        k(   18) = (   0.1666667   0.3333333  -0.4752837), wk =   0.1111111
        k(   19) = (   0.1666667  -0.5000000   0.0000000), wk =   0.0555556
        k(   20) = (   0.1666667  -0.5000000   0.2376418), wk =   0.1111111
        k(   21) = (   0.1666667  -0.5000000  -0.4752837), wk =   0.0555556
        k(   22) = (   0.3333333   0.3333333   0.0000000), wk =   0.0555556
        k(   23) = (   0.3333333   0.3333333   0.2376418), wk =   0.1111111
        k(   24) = (   0.3333333   0.3333333  -0.4752837), wk =   0.0555556
        k(   25) = (   0.3333333  -0.5000000   0.0000000), wk =   0.0555556
        k(   26) = (   0.3333333  -0.5000000   0.2376418), wk =   0.1111111
        k(   27) = (   0.3333333  -0.5000000  -0.4752837), wk =   0.0555556
        k(   28) = (  -0.5000000  -0.5000000   0.0000000), wk =   0.0138889
        k(   29) = (  -0.5000000  -0.5000000   0.2376418), wk =   0.0277778
        k(   30) = (  -0.5000000  -0.5000000  -0.4752837), wk =   0.0138889

     Dense  grid:    76819 G-vectors     FFT dimensions: (  54,  54,  60)

     Smooth grid:    19463 G-vectors     FFT dimensions: (  36,  36,  36)

     Estimated max dynamical RAM per process >      36.56 MB

     Estimated total dynamical RAM >     365.57 MB

     Check: negative core charge=   -0.000004

     Initial potential from superposition of free atoms

     starting charge      42.9982, renormalised to      44.0000

     negative rho (up, down):  1.669E-02 0.000E+00
     Starting wfcs are   31 randomized atomic wfcs

     total cpu time spent up to now is        0.7 secs

     Self-consistent Calculation

     iteration #  1     ecut=    50.00 Ry     beta= 0.70
     CG style diagonalization
     ethr =  1.00E-02,  avg # of iterations =  2.1

     negative rho (up, down):  1.400E-02 0.000E+00

     total cpu time spent up to now is        1.2 secs

     total energy              =    -380.06118164 Ry
     estimated scf accuracy    <       1.02287242 Ry

     iteration #  2     ecut=    50.00 Ry     beta= 0.70
     CG style diagonalization
     ethr =  2.32E-03,  avg # of iterations =  4.8

     negative rho (up, down):  1.451E-02 0.000E+00

     total cpu time spent up to now is        2.2 secs

     total energy              =    -379.74792942 Ry
     estimated scf accuracy    <       3.95882761 Ry

     iteration #  3     ecut=    50.00 Ry     beta= 0.70
     CG style diagonalization
     ethr =  2.32E-03,  avg # of iterations =  4.3

     negative rho (up, down):  1.512E-02 0.000E+00

     total cpu time spent up to now is        3.0 secs

     total energy              =    -380.53656862 Ry
     estimated scf accuracy    <       0.31547779 Ry

     iteration #  4     ecut=    50.00 Ry     beta= 0.70
     CG style diagonalization
     ethr =  7.17E-04,  avg # of iterations =  3.4

     negative rho (up, down):  1.511E-02 0.000E+00

     total cpu time spent up to now is        3.7 secs

     total energy              =    -380.56035366 Ry
     estimated scf accuracy    <       0.04215858 Ry

     iteration #  5     ecut=    50.00 Ry     beta= 0.70
     CG style diagonalization
     ethr =  9.58E-05,  avg # of iterations =  3.8

     negative rho (up, down):  1.512E-02 0.000E+00

     total cpu time spent up to now is        4.5 secs

     total energy              =    -380.57134944 Ry
     estimated scf accuracy    <       0.00816847 Ry

     iteration #  6     ecut=    50.00 Ry     beta= 0.70
     CG style diagonalization
     ethr =  1.86E-05,  avg # of iterations =  3.9

     negative rho (up, down):  1.512E-02 0.000E+00

     total cpu time spent up to now is        5.2 secs

     total energy              =    -380.57362936 Ry
     estimated scf accuracy    <       0.00600761 Ry

     iteration #  7     ecut=    50.00 Ry     beta= 0.70
     CG style diagonalization
     ethr =  1.37E-05,  avg # of iterations =  3.3

     negative rho (up, down):  1.513E-02 0.000E+00

     total cpu time spent up to now is        5.9 secs

     total energy              =    -380.57363812 Ry
     estimated scf accuracy    <       0.00158208 Ry

     iteration #  8     ecut=    50.00 Ry     beta= 0.70
     CG style diagonalization
     ethr =  3.60E-06,  avg # of iterations =  3.6

     negative rho (up, down):  1.516E-02 0.000E+00

     total cpu time spent up to now is        6.6 secs

     total energy              =    -380.57398336 Ry
     estimated scf accuracy    <       0.00001043 Ry

     iteration #  9     ecut=    50.00 Ry     beta= 0.70
     CG style diagonalization
     c_bands:  1 eigenvalues not converged
     c_bands:  1 eigenvalues not converged
     c_bands:  1 eigenvalues not converged
     ethr =  2.37E-08,  avg # of iterations =  7.5

     negative rho (up, down):  1.519E-02 0.000E+00

     total cpu time spent up to now is        8.0 secs

     total energy              =    -380.57404870 Ry
     estimated scf accuracy    <       0.00003614 Ry

     iteration # 10     ecut=    50.00 Ry     beta= 0.70
     CG style diagonalization
     ethr =  2.37E-08,  avg # of iterations =  3.4

     negative rho (up, down):  1.529E-02 0.000E+00

     total cpu time spent up to now is        8.7 secs

     total energy              =    -380.57404077 Ry
     estimated scf accuracy    <       0.00002242 Ry

     iteration # 11     ecut=    50.00 Ry     beta= 0.70
     CG style diagonalization
     ethr =  2.37E-08,  avg # of iterations =  4.1

     negative rho (up, down):  1.529E-02 0.000E+00

     total cpu time spent up to now is        9.5 secs

     total energy              =    -380.57404585 Ry
     estimated scf accuracy    <       0.00000192 Ry

     iteration # 12     ecut=    50.00 Ry     beta= 0.70
     CG style diagonalization
     ethr =  4.35E-09,  avg # of iterations =  4.6

     negative rho (up, down):  1.530E-02 0.000E+00

     total cpu time spent up to now is       10.4 secs

     total energy              =    -380.57404677 Ry
     estimated scf accuracy    <       0.00000005 Ry

     iteration # 13     ecut=    50.00 Ry     beta= 0.70
     CG style diagonalization
     c_bands:  1 eigenvalues not converged
     c_bands:  1 eigenvalues not converged
     c_bands:  1 eigenvalues not converged
     c_bands:  1 eigenvalues not converged
     c_bands:  1 eigenvalues not converged
     c_bands:  1 eigenvalues not converged
     c_bands:  1 eigenvalues not converged
     c_bands:  2 eigenvalues not converged
     ethr =  1.23E-10,  avg # of iterations = 11.3

     negative rho (up, down):  1.530E-02 0.000E+00

     total cpu time spent up to now is       12.6 secs

     total energy              =    -380.57404751 Ry
     estimated scf accuracy    <       0.00000006 Ry

     iteration # 14     ecut=    50.00 Ry     beta= 0.70
     CG style diagonalization
     ethr =  1.23E-10,  avg # of iterations =  3.4

     negative rho (up, down):  1.530E-02 0.000E+00

     total cpu time spent up to now is       13.3 secs

     total energy              =    -380.57404750 Ry
     estimated scf accuracy    <       0.00000003 Ry

     iteration # 15     ecut=    50.00 Ry     beta= 0.70
     CG style diagonalization
     ethr =  7.43E-11,  avg # of iterations =  4.2

     negative rho (up, down):  1.530E-02 0.000E+00

     total cpu time spent up to now is       14.1 secs

     total energy              =    -380.57404751 Ry
     estimated scf accuracy    <       0.00000001 Ry

     iteration # 16     ecut=    50.00 Ry     beta= 0.70
     CG style diagonalization
     ethr =  2.72E-11,  avg # of iterations =  4.5

     negative rho (up, down):  1.530E-02 0.000E+00

     total cpu time spent up to now is       15.0 secs

     End of self-consistent calculation

          k = 0.0000 0.0000 0.0000 (  2421 PWs)   bands (ev):

   -45.1909 -21.8687 -21.7871 -21.7871  -7.1776  -6.0274  -5.7691  -4.4304
    -4.4304  -4.3904  -4.2722  -4.1614   4.8212   6.7251   6.7251   7.0930
     8.6999   8.6999   8.9353   9.2741   9.4285   9.4285

          k = 0.0000 0.0000 0.2376 (  2437 PWs)   bands (ev):

   -45.1906 -21.8918 -21.7862 -21.7862  -6.9714  -5.9660  -5.7004  -4.4480
    -4.4480  -4.3889  -4.2606  -4.2379   3.9634   6.7800   6.7800   7.2931
     8.4474   8.4474   8.8527   9.3591   9.5466   9.5466

          k = 0.0000 0.0000-0.4753 (  2426 PWs)   bands (ev):

   -45.1903 -21.9147 -21.7853 -21.7853  -6.7473  -5.8989  -5.6383  -4.4654
    -4.4654  -4.3874  -4.3202  -4.2506   3.4224   6.6027   6.8144   6.8144
     8.2900   8.2900   8.7740   9.6223   9.6223  10.6299

          k = 0.0000 0.1667 0.0000 (  2423 PWs)   bands (ev):

   -45.1905 -21.8679 -21.8075 -21.7863  -7.0327  -5.9933  -5.7383  -4.4548
    -4.4288  -4.4052  -4.2754  -4.1496   4.3355   6.7860   6.8351   7.1256
     8.6558   8.7223   8.9345   9.0510   9.1555   9.5471

          k = 0.0000 0.1667 0.2376 (  2432 PWs)   bands (ev):

   -45.1902 -21.8908 -21.8065 -21.7853  -6.8429  -5.9479  -5.6637  -4.4533
    -4.4470  -4.4044  -4.2700  -4.1887   3.7308   6.5710   6.9011   7.3760
     8.1151   8.4300   8.7524   9.1473   9.2171   9.9161

          k = 0.0000 0.1667-0.4753 (  2426 PWs)   bands (ev):

   -45.1899 -21.9135 -21.8054 -21.7844  -6.6467  -5.8964  -5.5865  -4.4650
    -4.4496  -4.4035  -4.2752  -4.2235   3.2786   6.2560   6.9414   7.0250
     7.9195   8.2815   8.8190   9.2063   9.2982  10.5527

          k = 0.0000 0.3333 0.0000 (  2422 PWs)   bands (ev):

   -45.1898 -21.8663 -21.8477 -21.7846  -6.7182  -5.9194  -5.6923  -4.4918
    -4.4348  -4.4255  -4.2703  -4.1545   3.7095   6.4159   7.0797   7.1165
     8.3144   8.3447   8.7883   8.8410   9.2738  10.1998

          k = 0.0000 0.3333 0.2376 (  2423 PWs)   bands (ev):

   -45.1895 -21.8887 -21.8466 -21.7836  -6.5946  -5.8773  -5.5964  -4.4589
    -4.4451  -4.4349  -4.2637  -4.1281   3.3457   6.2873   6.9876   7.2155
     7.7492   8.1734   8.3268   8.8932   9.4089  10.2775

          k = 0.0000 0.3333-0.4753 (  2430 PWs)   bands (ev):

   -45.1891 -21.9111 -21.8454 -21.7826  -6.5029  -5.8104  -5.4702  -4.4642
    -4.4354  -4.4180  -4.2997  -4.0749   3.0270   5.9674   6.7500   7.2599
     7.6354   7.8011   8.1146   8.9238   9.8489  10.1032

          k = 0.0000-0.5000 0.0000 (  2436 PWs)   bands (ev):

   -45.1894 -21.8682 -21.8649 -21.7837  -6.5448  -5.8628  -5.6971  -4.5078
    -4.4493  -4.4239  -4.2439  -4.1870   3.4905   6.0323   7.3474   7.3594
     7.8163   7.9621   8.7097   8.8796   9.3046  11.0019

          k = 0.0000-0.5000 0.2376 (  2430 PWs)   bands (ev):

   -45.1891 -21.8874 -21.8668 -21.7827  -6.4870  -5.7873  -5.5898  -4.4713
    -4.4502  -4.4439  -4.2299  -4.1237   3.1945   6.0042   7.0188   7.2608
     7.5658   7.7649   8.4363   8.8722   9.4084  10.4820

          k = 0.0000-0.5000-0.4753 (  2432 PWs)   bands (ev):

   -45.1888 -21.9097 -21.8653 -21.7817  -6.4691  -5.7064  -5.4161  -4.4637
    -4.4511  -4.4269  -4.2851  -4.0132   2.9265   5.8258   6.4403   7.3211
     7.5866   7.7894   7.8141   8.8672   9.7782  10.1453

          k = 0.1667 0.1667 0.0000 (  2431 PWs)   bands (ev):

   -45.1902 -21.8671 -21.8067 -21.8063  -6.8901  -5.9583  -5.7295  -4.4606
    -4.4451  -4.4089  -4.2514  -4.1386   4.0060   6.7095   6.9589   7.1817
     8.1805   8.2932   9.0269   9.0631   9.3693   9.7821

          k = 0.1667 0.1667 0.2376 (  2423 PWs)   bands (ev):

   -45.1898 -21.8898 -21.8057 -21.8054  -6.7115  -5.9326  -5.6553  -4.4635
    -4.4400  -4.4028  -4.2410  -4.1543   3.6076   6.4886   6.5967   7.3202
     8.0103   8.0278   8.8357   9.2090   9.4478   9.8861

          k = 0.1667 0.1667-0.4753 (  2444 PWs)   bands (ev):

   -45.1895 -21.9124 -21.8046 -21.8044  -6.5337  -5.9066  -5.5687  -4.4763
    -4.4185  -4.3801  -4.2465  -4.1759   3.2458   6.2740   6.3249   7.0131
     7.9183   7.9535   8.7393   9.2845   9.5061  10.2508

          k = 0.1667 0.3333 0.0000 (  2426 PWs)   bands (ev):

   -45.1894 -21.8654 -21.8466 -21.8047  -6.5839  -5.8862  -5.7270  -4.4849
    -4.4340  -4.3931  -4.2268  -4.1437   3.4950   6.4139   6.9595   7.2553
     7.6396   8.2282   8.5316   9.2067   9.3942  10.2796

          k = 0.1667 0.3333 0.2376 (  2430 PWs)   bands (ev):

   -45.1891 -21.8877 -21.8456 -21.8037  -6.4567  -5.8770  -5.6453  -4.4605
    -4.4347  -4.3697  -4.2062  -4.1022   3.3500   6.2367   6.3690   6.9237
     7.3759   8.0655   8.8866   9.1662   9.5010   9.9889

          k = 0.1667 0.3333-0.4753 (  2426 PWs)   bands (ev):

   -45.1888 -21.9100 -21.8444 -21.8027  -6.3674  -5.8537  -5.5242  -4.4581
    -4.4090  -4.3287  -4.2189  -4.0477   3.1610   5.8860   6.3009   6.6271
     6.8655   7.9237   8.9963   9.2114   9.4936   9.9367

          k = 0.1667-0.5000 0.0000 (  2428 PWs)   bands (ev):

   -45.1890 -21.8671 -21.8640 -21.8037  -6.4165  -5.8323  -5.7529  -4.4879
    -4.4260  -4.3712  -4.2080  -4.1774   3.2960   6.0510   7.0768   7.3026
     7.6018   7.9471   8.3974   9.2412   9.3905  10.6094

          k = 0.1667-0.5000 0.2376 (  2432 PWs)   bands (ev):

   -45.1887 -21.8864 -21.8657 -21.8027  -6.3477  -5.7976  -5.6677  -4.4587
    -4.4211  -4.3477  -4.1834  -4.0959   3.2323   6.0088   6.2640   6.6714
     7.3368   8.2088   8.6526   9.1769   9.5082   9.9531

          k = 0.1667-0.5000-0.4753 (  2416 PWs)   bands (ev):

   -45.1884 -21.9087 -21.8644 -21.8017  -6.3326  -5.7643  -5.5075  -4.4527
    -4.3773  -4.3251  -4.2020  -3.9868   3.1214   5.7790   6.1329   6.2829
     6.7227   8.0366   8.8612   9.1264   9.1530  10.1542

          k = 0.3333 0.3333 0.0000 (  2438 PWs)   bands (ev):

   -45.1886 -21.8637 -21.8446 -21.8444  -6.3183  -5.8195  -5.7787  -4.4647
    -4.4143  -4.3209  -4.1461  -4.1446   3.0913   6.3982   6.4937   7.3636
     7.5158   7.6653   8.3288   9.0507   9.8719  10.0080

          k = 0.3333 0.3333 0.2376 (  2428 PWs)   bands (ev):

   -45.1883 -21.8857 -21.8436 -21.8435  -6.1819  -5.8678  -5.7343  -4.4228
    -4.4073  -4.2603  -4.0973  -4.0657   3.2797   5.9471   6.0185   6.3948
     7.0385   7.5420   8.9482   9.4628   9.5075   9.8878

          k = 0.3333 0.3333-0.4753 (  2432 PWs)   bands (ev):

   -45.1880 -21.9079 -21.8425 -21.8425  -6.1124  -5.9127  -5.6109  -4.4003
    -4.3813  -4.1946  -4.0480  -3.9876   3.4444   5.5449   5.5642   6.1435
     6.7958   6.9539   8.2005   9.8414   9.8575  10.0200

          k = 0.3333-0.5000 0.0000 (  2462 PWs)   bands (ev):

   -45.1882 -21.8647 -21.8623 -21.8434  -6.1981  -5.7948  -5.7762  -4.4562
    -4.3903  -4.2558  -4.1803  -4.1093   2.9054   6.0442   6.5392   7.1763
     7.7085   7.8258   7.9483   9.0191   9.6877  10.0766

          k = 0.3333-0.5000 0.2376 (  2434 PWs)   bands (ev):

   -45.1879 -21.8845 -21.8636 -21.8425  -6.0638  -5.8227  -5.7930  -4.4136
    -4.3786  -4.1655  -4.0969  -4.0344   3.2065   5.8399   5.9896   6.0586
     6.8205   7.6139   8.4729   9.4614   9.4903  10.0470

          k = 0.3333-0.5000-0.4753 (  2420 PWs)   bands (ev):

   -45.1876 -21.9066 -21.8624 -21.8415  -6.0537  -5.8660  -5.6493  -4.3830
    -4.3564  -4.1024  -4.0125  -3.9307   3.5851   5.2759   5.4728   5.8977
     6.5562   6.9703   7.4140   9.9427  10.0192  10.1784

          k =-0.5000-0.5000 0.0000 (  2480 PWs)   bands (ev):

   -45.1879 -21.8636 -21.8636 -21.8609  -6.1419  -5.7511  -5.7511  -4.4453
    -4.3423  -4.2017  -4.2017  -4.0581   2.7133   5.8928   6.3707   7.3907
     7.3907   7.9439   7.9439   8.7860   9.2064  10.3379

          k =-0.5000-0.5000 0.2376 (  2432 PWs)   bands (ev):

   -45.1875 -21.8833 -21.8625 -21.8625  -5.9286  -5.8368  -5.8368  -4.4012
    -4.3402  -4.0556  -4.0556  -4.0238   3.1292   5.8495   5.9645   5.9645
     6.3773   7.5553   7.8161   9.4905   9.4905  10.3204

          k =-0.5000-0.5000-0.4753 (  2400 PWs)   bands (ev):

   -45.1872 -21.9054 -21.8614 -21.8614  -5.9117  -5.9117  -5.7088  -4.3571
    -4.3380  -3.9779  -3.9180  -3.9180   3.8026   5.3056   5.3056   5.7318
     6.3839   6.4024   6.6632  10.1903  10.1903  10.3032

     highest occupied level (ev):    11.0019

!    total energy              =    -380.57404752 Ry
     estimated scf accuracy    <          2.8E-10 Ry

     The total energy is the sum of the following terms:
     one-electron contribution =     -79.84694870 Ry
     hartree contribution      =      69.97391542 Ry
     xc contribution           =    -102.67333855 Ry
     ewald contribution        =    -268.02767569 Ry

     convergence has been achieved in  16 iterations

     negative rho (up, down):  1.530E-02 0.000E+00

     Forces acting on atoms (cartesian axes, Ry/au):

     atom    1 type  1   force =     0.00000000    0.00000000   -0.00005631
     atom    2 type  2   force =     0.00000000    0.00000000   -0.00117058
     atom    3 type  3   force =     0.00000000    0.00000000    0.00129642
     atom    4 type  3   force =     0.00000000    0.00000000   -0.00003476
     atom    5 type  3   force =     0.00000000    0.00000000   -0.00003476

     Total force =     0.001748     Total SCF correction =     0.000033


     Computing stress (Cartesian axis) and pressure


     negative rho (up, down):  1.530E-02 0.000E+00
          total   stress  (Ry/bohr**3)                   (kbar)     P=       -1.98
  -0.00000749   0.00000000   0.00000000           -1.10        0.00        0.00
   0.00000000  -0.00000749   0.00000000            0.00       -1.10        0.00
   0.00000000   0.00000000  -0.00002539            0.00        0.00       -3.74


     BFGS Geometry Optimization
     Energy error            =      0.0E+00 Ry
     Gradient error          =      1.3E-03 Ry/Bohr

     number of scf cycles    =   1
     number of bfgs steps    =   0

     energy             new  =    -380.5740475186 Ry

     new trust radius        =       0.0012964152 bohr
     new conv_thr            =       0.0000000100 Ry


ATOMIC_POSITIONS (crystal)
Pb               0.0000000000        0.0000000000        1.0051664815
Ti               0.5000000000        0.5000000000        0.5393817078
O                0.5000000000        0.5000000000        0.0996770419
O                0.5000000000        0.0000000000        0.6115295283
O                0.0000000000        0.5000000000        0.6115295283



     Writing config-only to output data dir ./pto_T3_eta0p004.save/ :
     XML data file
     NEW-OLD atomic charge density approx. for the potential

     Check: negative core charge=   -0.000004

     negative rho (up, down):  1.530E-02 0.000E+00

     total cpu time spent up to now is       16.1 secs

     Self-consistent Calculation

     iteration #  1     ecut=    50.00 Ry     beta= 0.70
     CG style diagonalization
     ethr =  1.00E-06,  avg # of iterations =  2.5

     Threshold (ethr) on eigenvalues was too large:
     Diagonalizing with lowered threshold

     CG style diagonalization
     c_bands:  2 eigenvalues not converged
     c_bands:  1 eigenvalues not converged
     c_bands:  1 eigenvalues not converged
     c_bands:  1 eigenvalues not converged
     c_bands:  1 eigenvalues not converged
     c_bands:  1 eigenvalues not converged
     c_bands:  1 eigenvalues not converged
     ethr =  3.00E-09,  avg # of iterations =  5.8

     negative rho (up, down):  1.530E-02 0.000E+00

     total cpu time spent up to now is       17.9 secs

     total energy              =    -380.57404892 Ry
     estimated scf accuracy    <       0.00000148 Ry

     iteration #  2     ecut=    50.00 Ry     beta= 0.70
     CG style diagonalization
     ethr =  3.36E-09,  avg # of iterations =  4.6

     negative rho (up, down):  1.530E-02 0.000E+00

     total cpu time spent up to now is       18.8 secs

     total energy              =    -380.57404871 Ry
     estimated scf accuracy    <       0.00000430 Ry

     iteration #  3     ecut=    50.00 Ry     beta= 0.70
     CG style diagonalization
     ethr =  3.36E-09,  avg # of iterations =  4.2

     negative rho (up, down):  1.530E-02 0.000E+00

     total cpu time spent up to now is       19.6 secs

     total energy              =    -380.57404954 Ry
     estimated scf accuracy    <       0.00000029 Ry

     iteration #  4     ecut=    50.00 Ry     beta= 0.70
     CG style diagonalization
     ethr =  6.64E-10,  avg # of iterations =  3.7

     negative rho (up, down):  1.530E-02 0.000E+00

     total cpu time spent up to now is       20.4 secs

     total energy              =    -380.57404962 Ry
     estimated scf accuracy    <       0.00000003 Ry

     iteration #  5     ecut=    50.00 Ry     beta= 0.70
     CG style diagonalization
     ethr =  7.26E-11,  avg # of iterations =  4.0

     negative rho (up, down):  1.530E-02 0.000E+00

     total cpu time spent up to now is       21.2 secs

     End of self-consistent calculation

          k = 0.0000 0.0000 0.0000 (  2421 PWs)   bands (ev):

   -45.1881 -21.8678 -21.7842 -21.7842  -7.1770  -6.0263  -5.7699  -4.4308
    -4.4308  -4.3910  -4.2729  -4.1617   4.8205   6.7256   6.7256   7.0946
     8.6942   8.6942   8.9354   9.2697   9.4296   9.4296

          k = 0.0000 0.0000 0.2376 (  2437 PWs)   bands (ev):

   -45.1878 -21.8909 -21.7832 -21.7832  -6.9705  -5.9649  -5.7014  -4.4484
    -4.4484  -4.3895  -4.2613  -4.2382   3.9621   6.7796   6.7796   7.2940
     8.4441   8.4441   8.8528   9.3577   9.5474   9.5474

          k = 0.0000 0.0000-0.4753 (  2426 PWs)   bands (ev):

   -45.1874 -21.9138 -21.7823 -21.7823  -6.7460  -5.8977  -5.6397  -4.4658
    -4.4658  -4.3881  -4.3206  -4.2513   3.4203   6.6038   6.8129   6.8129
     8.2887   8.2887   8.7741   9.6231   9.6231  10.6302

          k = 0.0000 0.1667 0.0000 (  2423 PWs)   bands (ev):

   -45.1877 -21.8670 -21.8045 -21.7833  -7.0321  -5.9923  -5.7391  -4.4552
    -4.4293  -4.4058  -4.2759  -4.1498   4.3351   6.7865   6.8357   7.1259
     8.6535   8.7169   8.9339   9.0518   9.1543   9.5452

          k = 0.0000 0.1667 0.2376 (  2432 PWs)   bands (ev):

   -45.1874 -21.8899 -21.8035 -21.7824  -6.8421  -5.9469  -5.6648  -4.4537
    -4.4474  -4.4050  -4.2706  -4.1890   3.7299   6.5705   6.9009   7.3767
     8.1137   8.4270   8.7527   9.1460   9.2175   9.9160

          k = 0.0000 0.1667-0.4753 (  2426 PWs)   bands (ev):

   -45.1871 -21.9126 -21.8025 -21.7814  -6.6454  -5.8953  -5.5880  -4.4654
    -4.4500  -4.4041  -4.2758  -4.2238   3.2771   6.2550   6.9400   7.0259
     7.9190   8.2803   8.8201   9.2050   9.2990  10.5532

          k = 0.0000 0.3333 0.0000 (  2422 PWs)   bands (ev):

   -45.1869 -21.8653 -21.8448 -21.7816  -6.7177  -5.9186  -5.6932  -4.4923
    -4.4354  -4.4259  -4.2707  -4.1548   3.7093   6.4168   7.0796   7.1174
     8.3147   8.3455   8.7885   8.8352   9.2711  10.1984

          k = 0.0000 0.3333 0.2376 (  2423 PWs)   bands (ev):

   -45.1866 -21.8878 -21.8437 -21.7806  -6.5937  -5.8765  -5.5976  -4.4593
    -4.4455  -4.4355  -4.2641  -4.1283   3.3453   6.2875   6.9877   7.2156
     7.7495   8.1724   8.3268   8.8912   9.4078  10.2767

          k = 0.0000 0.3333-0.4753 (  2430 PWs)   bands (ev):

   -45.1863 -21.9102 -21.8424 -21.7796  -6.5017  -5.8096  -5.4717  -4.4646
    -4.4360  -4.4185  -4.3002  -4.0751   3.0263   5.9661   6.7514   7.2586
     7.6356   7.8024   8.1143   8.9234   9.8459  10.1042

          k = 0.0000-0.5000 0.0000 (  2436 PWs)   bands (ev):

   -45.1865 -21.8653 -21.8640 -21.7807  -6.5443  -5.8621  -5.6981  -4.5083
    -4.4499  -4.4243  -4.2442  -4.1874   3.4902   6.0341   7.3464   7.3607
     7.8176   7.9627   8.7099   8.8735   9.3018  11.0007

          k = 0.0000-0.5000 0.2376 (  2430 PWs)   bands (ev):

   -45.1862 -21.8865 -21.8638 -21.7797  -6.4860  -5.7866  -5.5913  -4.4717
    -4.4508  -4.4443  -4.2303  -4.1239   3.1942   6.0055   7.0186   7.2606
     7.5672   7.7636   8.4364   8.8691   9.4081  10.4804

          k = 0.0000-0.5000-0.4753 (  2432 PWs)   bands (ev):

   -45.1859 -21.9088 -21.8624 -21.7787  -6.4680  -5.7057  -5.4178  -4.4641
    -4.4517  -4.4273  -4.2855  -4.0133   2.9262   5.8253   6.4408   7.3215
     7.5842   7.7909   7.8156   8.8660   9.7777  10.1431

          k = 0.1667 0.1667 0.0000 (  2431 PWs)   bands (ev):

   -45.1873 -21.8661 -21.8038 -21.8034  -6.8897  -5.9573  -5.7303  -4.4610
    -4.4455  -4.4094  -4.2520  -4.1389   4.0059   6.7104   6.9596   7.1812
     8.1765   8.2934   9.0272   9.0605   9.3703   9.7786

          k = 0.1667 0.1667 0.2376 (  2423 PWs)   bands (ev):

   -45.1870 -21.8889 -21.8027 -21.8024  -6.7107  -5.9316  -5.6564  -4.4639
    -4.4405  -4.4033  -4.2416  -4.1545   3.6069   6.4881   6.5965   7.3201
     8.0093   8.0283   8.8327   9.2089   9.4480   9.8858

          k = 0.1667 0.1667-0.4753 (  2444 PWs)   bands (ev):

   -45.1867 -21.9115 -21.8016 -21.8014  -6.5326  -5.9056  -5.5702  -4.4768
    -4.4190  -4.3805  -4.2472  -4.1761   3.2445   6.2728   6.3242   7.0144
     7.9182   7.9540   8.7372   9.2844   9.5061  10.2512

          k = 0.1667 0.3333 0.0000 (  2426 PWs)   bands (ev):

   -45.1865 -21.8645 -21.8437 -21.8017  -6.5836  -5.8853  -5.7278  -4.4853
    -4.4344  -4.3937  -4.2273  -4.1440   3.4950   6.4151   6.9591   7.2561
     7.6396   8.2241   8.5323   9.2059   9.3938  10.2776

          k = 0.1667 0.3333 0.2376 (  2430 PWs)   bands (ev):

   -45.1862 -21.8868 -21.8427 -21.8007  -6.4560  -5.8763  -5.6464  -4.4609
    -4.4351  -4.3703  -4.2067  -4.1024   3.3497   6.2368   6.3690   6.9241
     7.3757   8.0656   8.8861   9.1648   9.5002   9.9881

          k = 0.1667 0.3333-0.4753 (  2426 PWs)   bands (ev):

   -45.1859 -21.9091 -21.8415 -21.7997  -6.3664  -5.8530  -5.5257  -4.4586
    -4.4095  -4.3293  -4.2194  -4.0478   3.1604   5.8846   6.3012   6.6275
     6.8668   7.9246   8.9938   9.2122   9.4932   9.9355

          k = 0.1667-0.5000 0.0000 (  2428 PWs)   bands (ev):

   -45.1862 -21.8641 -21.8631 -21.8008  -6.4162  -5.8316  -5.7536  -4.4883
    -4.4265  -4.3719  -4.2084  -4.1777   3.2960   6.0528   7.0754   7.3038
     7.6031   7.9480   8.3920   9.2414   9.3892  10.6086

          k = 0.1667-0.5000 0.2376 (  2432 PWs)   bands (ev):

   -45.1858 -21.8855 -21.8627 -21.7998  -6.3469  -5.7969  -5.6689  -4.4592
    -4.4215  -4.3484  -4.1838  -4.0962   3.2321   6.0101   6.2642   6.6710
     7.3367   8.2087   8.6531   9.1745   9.5085   9.9514

          k = 0.1667-0.5000-0.4753 (  2416 PWs)   bands (ev):

   -45.1855 -21.9078 -21.8614 -21.7988  -6.3316  -5.7636  -5.5090  -4.4532
    -4.3777  -4.3259  -4.2024  -3.9869   3.1212   5.7781   6.1336   6.2836
     6.7229   8.0379   8.8609   9.1241   9.1537  10.1524

          k = 0.3333 0.3333 0.0000 (  2438 PWs)   bands (ev):

   -45.1858 -21.8627 -21.8416 -21.8415  -6.3186  -5.8187  -5.7789  -4.4650
    -4.4148  -4.3214  -4.1464  -4.1454   3.0915   6.3990   6.4958   7.3622
     7.5161   7.6612   8.3312   9.0501   9.8726  10.0069

          k = 0.3333 0.3333 0.2376 (  2428 PWs)   bands (ev):

   -45.1855 -21.8848 -21.8407 -21.8405  -6.1816  -5.8670  -5.7352  -4.4232
    -4.4078  -4.2609  -4.0980  -4.0659   3.2798   5.9467   6.0183   6.3956
     7.0398   7.5421   8.9479   9.4621   9.5055   9.8883

          k = 0.3333 0.3333-0.4753 (  2432 PWs)   bands (ev):

   -45.1851 -21.9070 -21.8396 -21.8395  -6.1115  -5.9120  -5.6122  -4.4008
    -4.3817  -4.1954  -4.0485  -3.9877   3.4442   5.5442   5.5646   6.1437
     6.7964   6.9561   8.1998   9.8393   9.8585  10.0184

          k = 0.3333-0.5000 0.0000 (  2462 PWs)   bands (ev):

   -45.1854 -21.8618 -21.8614 -21.8405  -6.1989  -5.7946  -5.7755  -4.4566
    -4.3908  -4.2562  -4.1806  -4.1101   2.9057   6.0457   6.5413   7.1740
     7.7050   7.8271   7.9490   9.0190   9.6875  10.0775

          k = 0.3333-0.5000 0.2376 (  2434 PWs)   bands (ev):

   -45.1851 -21.8836 -21.8606 -21.8396  -6.0636  -5.8220  -5.7937  -4.4140
    -4.3791  -4.1663  -4.0972  -4.0349   3.2068   5.8395   5.9900   6.0592
     6.8219   7.6138   8.4730   9.4600   9.4887  10.0478

          k = 0.3333-0.5000-0.4753 (  2420 PWs)   bands (ev):

   -45.1848 -21.9057 -21.8594 -21.8386  -6.0530  -5.8654  -5.6506  -4.3835
    -4.3569  -4.1034  -4.0126  -3.9310   3.5853   5.2761   5.4718   5.8989
     6.5573   6.9717   7.4134   9.9407  10.0203  10.1767

          k =-0.5000-0.5000 0.0000 (  2480 PWs)   bands (ev):

   -45.1850 -21.8606 -21.8606 -21.8600  -6.1432  -5.7504  -5.7504  -4.4456
    -4.3429  -4.2019  -4.2019  -4.0592   2.7137   5.8941   6.3735   7.3878
     7.3878   7.9449   7.9449   8.7857   9.2072  10.3389

          k =-0.5000-0.5000 0.2376 (  2432 PWs)   bands (ev):

   -45.1847 -21.8824 -21.8595 -21.8595  -5.9298  -5.8362  -5.8362  -4.4016
    -4.3407  -4.0558  -4.0558  -4.0249   3.1297   5.8508   5.9636   5.9636
     6.3801   7.5552   7.8163   9.4892   9.4892  10.3215

          k =-0.5000-0.5000-0.4753 (  2400 PWs)   bands (ev):

   -45.1844 -21.9045 -21.8584 -21.8584  -5.9111  -5.9111  -5.7099  -4.3575
    -4.3386  -3.9792  -3.9181  -3.9181   3.8034   5.3049   5.3049   5.7331
     6.3868   6.4021   6.6633  10.1886  10.1886  10.3042

     highest occupied level (ev):    11.0007

!    total energy              =    -380.57404963 Ry
     estimated scf accuracy    <          2.2E-09 Ry

     The total energy is the sum of the following terms:
     one-electron contribution =     -79.85615976 Ry
     hartree contribution      =      69.97938320 Ry
     xc contribution           =    -102.67400784 Ry
     ewald contribution        =    -268.02326523 Ry

     convergence has been achieved in   5 iterations

     negative rho (up, down):  1.530E-02 0.000E+00

     Forces acting on atoms (cartesian axes, Ry/au):

     atom    1 type  1   force =     0.00000000    0.00000000   -0.00019891
     atom    2 type  2   force =     0.00000000    0.00000000   -0.00037824
     atom    3 type  3   force =     0.00000000    0.00000000    0.00050317
     atom    4 type  3   force =     0.00000000    0.00000000    0.00003700
     atom    5 type  3   force =     0.00000000    0.00000000    0.00003700

     Total force =     0.000662     Total SCF correction =     0.000115
     SCF correction compared to forces is large: reduce conv_thr to get better values


     Computing stress (Cartesian axis) and pressure


     negative rho (up, down):  1.530E-02 0.000E+00
          total   stress  (Ry/bohr**3)                   (kbar)     P=       -1.53
  -0.00000668   0.00000000   0.00000000           -0.98        0.00        0.00
   0.00000000  -0.00000668   0.00000000            0.00       -0.98        0.00
   0.00000000   0.00000000  -0.00001782            0.00        0.00       -2.62

     Energy error            =      2.1E-06 Ry
     Gradient error          =      5.0E-04 Ry/Bohr

     bfgs converged in   2 scf cycles and   1 bfgs steps
     (criteria: energy <  1.0E-04 Ry, force <  1.0E-03 Ry/Bohr)

     End of BFGS Geometry Optimization

     Final energy             =    -380.5740496314 Ry

     File ./pto_T3_eta0p004.bfgs deleted, as requested
Begin final coordinates

ATOMIC_POSITIONS (crystal)
Pb               0.0000000000        0.0000000000        1.0051664815
Ti               0.5000000000        0.5000000000        0.5393817078
O                0.5000000000        0.5000000000        0.0996770419
O                0.5000000000        0.0000000000        0.6115295283
O                0.0000000000        0.5000000000        0.6115295283
End final coordinates



     Writing all to output data dir ./pto_T3_eta0p004.save/ :
     XML data file, charge density, pseudopotentials, collected wavefunctions
 
     init_run     :      0.37s CPU      0.46s WALL (       1 calls)
     electrons    :     18.20s CPU     19.34s WALL (       2 calls)
     update_pot   :      0.00s CPU      0.00s WALL (       1 calls)
     forces       :      0.20s CPU      0.21s WALL (       2 calls)
     stress       :      1.89s CPU      1.91s WALL (       2 calls)

     Called by init_run:
     wfcinit      :      0.15s CPU      0.18s WALL (       1 calls)
     potinit      :      0.01s CPU      0.01s WALL (       1 calls)
     hinit0       :      0.11s CPU      0.14s WALL (       1 calls)

     Called by electrons:
     c_bands      :     15.23s CPU     16.14s WALL (      22 calls)
     sum_band     :      2.02s CPU      2.13s WALL (      22 calls)
     v_of_rho     :      0.03s CPU      0.04s WALL (      23 calls)
     newd         :      0.95s CPU      1.05s WALL (      23 calls)
     mix_rho      :      0.03s CPU      0.03s WALL (      22 calls)

     Called by c_bands:
     init_us_2    :      0.14s CPU      0.15s WALL (    1470 calls)
     init_us_2:cp :      0.14s CPU      0.15s WALL (    1470 calls)
     ccgdiagg     :     13.57s CPU     14.40s WALL (     660 calls)
     wfcrot       :      1.69s CPU      1.79s WALL (     600 calls)

     Called by *cgdiagg:
     h_psi        :      8.72s CPU      9.24s WALL (   52079 calls)
     s_psi        :      1.36s CPU      1.45s WALL (  103558 calls)

     Called by h_psi:
     h_psi:calbec :      1.35s CPU      1.44s WALL (   52079 calls)
     vloc_psi     :      6.20s CPU      6.56s WALL (   52079 calls)
     add_vuspsi   :      0.76s CPU      0.81s WALL (   52079 calls)
     hs_1psi      :      8.35s CPU      8.85s WALL (   51479 calls)
     s_1psi       :      2.02s CPU      2.14s WALL (   51479 calls)

     General routines
     calbec       :      2.42s CPU      2.58s WALL (  104518 calls)
     fft          :      0.04s CPU      0.06s WALL (     152 calls)
     ffts         :      0.00s CPU      0.00s WALL (      45 calls)
     fftw         :      5.30s CPU      5.59s WALL (  144418 calls)
     interpolate  :      0.01s CPU      0.01s WALL (      23 calls)
 
     Parallel routines
 
     PWSCF        :     20.93s CPU     22.58s WALL

 
   This run was terminated on:   0:21:39  18Nov2025            

=------------------------------------------------------------------------------=
   JOB DONE.
=------------------------------------------------------------------------------=
TACC:  Shutdown complete. Exiting. 
