TACC:  Starting up job 2475238 
TACC:  Starting parallel tasks... 

     Program PWSCF v.7.3 starts on 17Oct2025 at 21:43:15 

     This program is part of the open-source Quantum ESPRESSO suite
     for quantum simulation of materials; please cite
         "P. Giannozzi et al., J. Phys.:Condens. Matter 21 395502 (2009);
         "P. Giannozzi et al., J. Phys.:Condens. Matter 29 465901 (2017);
         "P. Giannozzi et al., J. Chem. Phys. 152 154105 (2020);
          URL http://www.quantum-espresso.org", 
     in publications or presentations arising from this work. More details at
     http://www.quantum-espresso.org/quote

     Parallel version (MPI & OpenMP), running on      10 processor cores
     Number of MPI processes:                10
     Threads/MPI process:                     1

     MPI processes distributed on     1 nodes
     185511 MiB available memory on the printing compute node when the environment starts
 
     Waiting for input...
     Reading input from standard input

     Current dimensions of program PWSCF are:
     Max number of different atomic species (ntypx) = 10
     Max number of k-points (npk) =  40000
     Max angular momentum in pseudopotentials (lmaxx) =  4
 
     R & G space division:  proc/nbgrp/npool/nimage =      10
     Subspace diagonalization in iterative solution of the eigenvalue problem:
     a serial algorithm will be used

 
     Parallelization info
     --------------------
     sticks:   dense  smooth     PW     G-vecs:    dense   smooth      PW
     Min         162      43     12                 4273      595      96
     Max         163      44     13                 4274      598      99
     Sum        1627     433    127                42735     5961     965
 
     Using Slab Decomposition
 


     bravais-lattice index     =            2
     lattice parameter (alat)  =      10.2000  a.u.
     unit-cell volume          =     265.3020 (a.u.)^3
     number of atoms/cell      =            2
     number of atomic types    =            1
     number of electrons       =         8.00
     number of Kohn-Sham states=            8
     kinetic-energy cutoff     =      30.0000  Ry
     charge density cutoff     =     450.0000  Ry
     scf convergence threshold =      1.0E-08
     mixing beta               =       0.7000
     number of iterations used =            8  plain     mixing
     Exchange-correlation= SLA  PZ   NOGX NOGC
                           (   1   1   0   0   0   0   0)

     celldm(1)=  10.200000  celldm(2)=   0.000000  celldm(3)=   0.000000
     celldm(4)=   0.000000  celldm(5)=   0.000000  celldm(6)=   0.000000

     crystal axes: (cart. coord. in units of alat)
               a(1) = (  -0.500000   0.000000   0.500000 )  
               a(2) = (   0.000000   0.500000   0.500000 )  
               a(3) = (  -0.500000   0.500000   0.000000 )  

     reciprocal axes: (cart. coord. in units 2 pi/alat)
               b(1) = ( -1.000000 -1.000000  1.000000 )  
               b(2) = (  1.000000  1.000000  1.000000 )  
               b(3) = ( -1.000000  1.000000 -1.000000 )  


     PseudoPot. # 1 for Si read from file:
     /scratch/11018/zhc/Assisgnment2/Q1/1A/energy_cutoff_test/Si_LDA.UPF
     MD5 check sum: b5ade7b37ee992b02096e360e546dc2d
     Pseudo is Ultrasoft + core correction, Zval =  4.0
     Generated by new atomic code, or converted to UPF format
     Using radial grid of  899 points,  6 beta functions with: 
                l(1) =   0
                l(2) =   0
                l(3) =   1
                l(4) =   1
                l(5) =   2
                l(6) =   2
     Q(r) pseudized with  8 coefficients,  rinner =    0.900   0.900   0.900
                                                       0.900   0.900

     atomic species   valence    mass     pseudopotential
     Si                4.00    28.08550     Si( 1.00)

      2 Sym. Ops. (no inversion) found



   Cartesian axes

     site n.     atom                  positions (alat units)
         1        Si     tau(   1) = (   0.0000000   0.0000000   0.0000000  )
         2        Si     tau(   2) = (  -0.2400000   0.2400000   0.2500000  )

     number of k points=     6
                       cart. coord. in units 2pi/alat
        k(    1) = (   0.0000000   0.0000000   0.0000000), wk =   0.2500000
        k(    2) = (   0.5000000  -0.5000000   0.5000000), wk =   0.2500000
        k(    3) = (   0.0000000  -1.0000000   0.0000000), wk =   0.5000000
        k(    4) = (  -0.5000000  -0.5000000  -0.5000000), wk =   0.5000000
        k(    5) = (   0.5000000  -0.5000000  -0.5000000), wk =   0.2500000
        k(    6) = (   0.0000000   0.0000000  -1.0000000), wk =   0.2500000

     Dense  grid:    42735 G-vectors     FFT dimensions: (  50,  50,  50)

     Smooth grid:     5961 G-vectors     FFT dimensions: (  25,  25,  25)

     Estimated max dynamical RAM per process >      17.52 MB

     Estimated total dynamical RAM >     175.21 MB

     Initial potential from superposition of free atoms

     starting charge       7.9988, renormalised to       8.0000
     Starting wfcs are    8 randomized atomic wfcs

     total cpu time spent up to now is        0.3 secs

     Self-consistent Calculation

     iteration #  1     ecut=    30.00 Ry     beta= 0.70
     CG style diagonalization
     ethr =  1.00E-02,  avg # of iterations =  3.3

     total cpu time spent up to now is        0.3 secs

     total energy              =     -19.05311534 Ry
     estimated scf accuracy    <       0.11305023 Ry

     iteration #  2     ecut=    30.00 Ry     beta= 0.70
     CG style diagonalization
     ethr =  1.41E-03,  avg # of iterations =  3.0

     total cpu time spent up to now is        0.4 secs

     total energy              =     -19.06051006 Ry
     estimated scf accuracy    <       0.00353236 Ry

     iteration #  3     ecut=    30.00 Ry     beta= 0.70
     CG style diagonalization
     ethr =  4.42E-05,  avg # of iterations =  3.5

     total cpu time spent up to now is        0.5 secs

     total energy              =     -19.06108756 Ry
     estimated scf accuracy    <       0.00006813 Ry

     iteration #  4     ecut=    30.00 Ry     beta= 0.70
     CG style diagonalization
     ethr =  8.52E-07,  avg # of iterations =  4.8

     total cpu time spent up to now is        0.5 secs

     total energy              =     -19.06118641 Ry
     estimated scf accuracy    <       0.00000128 Ry

     iteration #  5     ecut=    30.00 Ry     beta= 0.70
     CG style diagonalization
     ethr =  1.60E-08,  avg # of iterations =  3.6

     total cpu time spent up to now is        0.6 secs

     total energy              =     -19.06118710 Ry
     estimated scf accuracy    <       0.00000007 Ry

     iteration #  6     ecut=    30.00 Ry     beta= 0.70
     CG style diagonalization
     ethr =  8.80E-10,  avg # of iterations =  3.6

     total cpu time spent up to now is        0.7 secs

     total energy              =     -19.06118714 Ry
     estimated scf accuracy    <       0.00000001 Ry

     iteration #  7     ecut=    30.00 Ry     beta= 0.70
     CG style diagonalization
     ethr =  1.52E-10,  avg # of iterations =  3.4

     total cpu time spent up to now is        0.7 secs

     End of self-consistent calculation

          k = 0.0000 0.0000 0.0000 (   725 PWs)   bands (ev):

    -5.6775   6.1304   6.5119   6.8881   8.6771   8.8716   9.1148   9.8801

          k = 0.5000-0.5000 0.5000 (   754 PWs)   bands (ev):

    -3.3826  -0.4303   5.0536   5.3466   7.8328   9.3457   9.6878  13.6715

          k = 0.0000-1.0000 0.0000 (   740 PWs)   bands (ev):

    -1.6088  -1.2549   3.4324   3.6126   6.7334   6.9998  16.5252  16.6046

          k =-0.5000-0.5000-0.5000 (   754 PWs)   bands (ev):

    -3.2648  -0.6845   5.0224   5.5125   7.8842   9.3296   9.9049  13.7581

          k = 0.5000-0.5000-0.5000 (   754 PWs)   bands (ev):

    -3.1227  -0.9603   5.1804   5.4527   7.9585   9.5636   9.8861  13.8634

          k = 0.0000 0.0000-1.0000 (   740 PWs)   bands (ev):

    -1.4555  -1.4211   3.5201   3.5452   6.8492   6.8761  16.5653  16.5872

     highest occupied, lowest unoccupied level (ev):     6.8881    6.7334

!    total energy              =     -19.06118714 Ry
     estimated scf accuracy    <          5.2E-10 Ry

     The total energy is the sum of the following terms:
     one-electron contribution =       5.28580388 Ry
     hartree contribution      =       1.26191822 Ry
     xc contribution           =      -8.71441030 Ry
     ewald contribution        =     -16.89449894 Ry

     convergence has been achieved in   7 iterations

     Forces acting on atoms (cartesian axes, Ry/au):

     atom    1 type  1   force =     0.03744922   -0.03744922   -0.00447291
     atom    2 type  1   force =    -0.03744922    0.03744922    0.00447291

     Total force =     0.075165     Total SCF correction =     0.000002


     Computing stress (Cartesian axis) and pressure

          total   stress  (Ry/bohr**3)                   (kbar)     P=       83.38
   0.00056142  -0.00001694  -0.00016881           82.59       -2.49      -24.83
  -0.00001694   0.00056142   0.00016881           -2.49       82.59       24.83
  -0.00016881   0.00016881   0.00057754          -24.83       24.83       84.96


     Writing all to output data dir ./Si_k2.save/ :
     XML data file, charge density, pseudopotentials, collected wavefunctions
 
     init_run     :      0.08s CPU      0.14s WALL (       1 calls)
     electrons    :      0.40s CPU      0.45s WALL (       1 calls)
     forces       :      0.02s CPU      0.02s WALL (       1 calls)
     stress       :      0.07s CPU      0.08s WALL (       1 calls)

     Called by init_run:
     wfcinit      :      0.01s CPU      0.03s WALL (       1 calls)
     potinit      :      0.00s CPU      0.01s WALL (       1 calls)
     hinit0       :      0.04s CPU      0.07s WALL (       1 calls)

     Called by electrons:
     c_bands      :      0.20s CPU      0.21s WALL (       7 calls)
     sum_band     :      0.12s CPU      0.12s WALL (       7 calls)
     v_of_rho     :      0.01s CPU      0.01s WALL (       8 calls)
     newd         :      0.08s CPU      0.09s WALL (       8 calls)
     mix_rho      :      0.00s CPU      0.01s WALL (       7 calls)

     Called by c_bands:
     init_us_2    :      0.00s CPU      0.00s WALL (     102 calls)
     init_us_2:cp :      0.00s CPU      0.00s WALL (     102 calls)
     ccgdiagg     :      0.17s CPU      0.18s WALL (      42 calls)
     wfcrot       :      0.03s CPU      0.05s WALL (      42 calls)

     Called by *cgdiagg:
     h_psi        :      0.12s CPU      0.13s WALL (     960 calls)
     s_psi        :      0.01s CPU      0.01s WALL (    1878 calls)

     Called by h_psi:
     h_psi:calbec :      0.02s CPU      0.02s WALL (     960 calls)
     vloc_psi     :      0.09s CPU      0.10s WALL (     960 calls)
     add_vuspsi   :      0.00s CPU      0.01s WALL (     960 calls)
     hs_1psi      :      0.10s CPU      0.11s WALL (     918 calls)
     s_1psi       :      0.02s CPU      0.02s WALL (     918 calls)

     General routines
     calbec       :      0.03s CPU      0.03s WALL (    1950 calls)
     fft          :      0.01s CPU      0.03s WALL (      54 calls)
     ffts         :      0.00s CPU      0.00s WALL (      15 calls)
     fftw         :      0.08s CPU      0.09s WALL (    2844 calls)
     interpolate  :      0.00s CPU      0.01s WALL (       8 calls)
 
     Parallel routines
 
     PWSCF        :      0.65s CPU      0.92s WALL

 
   This run was terminated on:  21:43:16  17Oct2025            

=------------------------------------------------------------------------------=
   JOB DONE.
=------------------------------------------------------------------------------=
TACC:  Shutdown complete. Exiting. 
