TACC:  Starting up job 2476508 
TACC:  Starting parallel tasks... 

     Program PWSCF v.7.3 starts on 18Oct2025 at 15:11:58 

     This program is part of the open-source Quantum ESPRESSO suite
     for quantum simulation of materials; please cite
         "P. Giannozzi et al., J. Phys.:Condens. Matter 21 395502 (2009);
         "P. Giannozzi et al., J. Phys.:Condens. Matter 29 465901 (2017);
         "P. Giannozzi et al., J. Chem. Phys. 152 154105 (2020);
          URL http://www.quantum-espresso.org", 
     in publications or presentations arising from this work. More details at
     http://www.quantum-espresso.org/quote

     Parallel version (MPI & OpenMP), running on      10 processor cores
     Number of MPI processes:                10
     Threads/MPI process:                     1

     MPI processes distributed on     1 nodes
     185419 MiB available memory on the printing compute node when the environment starts
 
     Waiting for input...
     Reading input from standard input
Warning: card &CELL ignored
Warning: card  CELL_DYNAMICS = 'BFGS', ignored
Warning: card  PRESS=0.D0, ignored
Warning: card / ignored

     Current dimensions of program PWSCF are:
     Max number of different atomic species (ntypx) = 10
     Max number of k-points (npk) =  40000
     Max angular momentum in pseudopotentials (lmaxx) =  4
 
     R & G space division:  proc/nbgrp/npool/nimage =      10
     Subspace diagonalization in iterative solution of the eigenvalue problem:
     a serial algorithm will be used

 
     Parallelization info
     --------------------
     sticks:   dense  smooth     PW     G-vecs:    dense   smooth      PW
     Min         140      37     12                 3960      543     104
     Max         141      38     14                 3963      546     105
     Sum        1405     373    129                39607     5449    1045
 
     Using Slab Decomposition
 


     bravais-lattice index     =            1
     lattice parameter (alat)  =       7.6794  a.u.
     unit-cell volume          =     452.8787 (a.u.)^3
     number of atoms/cell      =            5
     number of atomic types    =            3
     number of electrons       =        40.00
     number of Kohn-Sham states=           20
     kinetic-energy cutoff     =      20.0000  Ry
     charge density cutoff     =     300.0000  Ry
     scf convergence threshold =      1.0E-08
     mixing beta               =       0.7000
     number of iterations used =            8  plain     mixing
     Exchange-correlation= SLA  PZ   NOGX NOGC
                           (   1   1   0   0   0   0   0)

     celldm(1)=   7.679400  celldm(2)=   0.000000  celldm(3)=   0.000000
     celldm(4)=   0.000000  celldm(5)=   0.000000  celldm(6)=   0.000000

     crystal axes: (cart. coord. in units of alat)
               a(1) = (   1.000000   0.000000   0.000000 )  
               a(2) = (   0.000000   1.000000   0.000000 )  
               a(3) = (   0.000000   0.000000   1.000000 )  

     reciprocal axes: (cart. coord. in units 2 pi/alat)
               b(1) = (  1.000000  0.000000  0.000000 )  
               b(2) = (  0.000000  1.000000  0.000000 )  
               b(3) = (  0.000000  0.000000  1.000000 )  


     PseudoPot. # 1 for Ba read from file:
     /scratch/11018/zhc/Assisgnment2/Q1/1D/energy_off/Ba_LDA.UPF
     MD5 check sum: 0ec7675c796dc0a11c6269c68e51391e
     Pseudo is Ultrasoft + core correction, Zval = 10.0
     Generated by new atomic code, or converted to UPF format
     Using radial grid of  907 points,  7 beta functions with: 
                l(1) =   0
                l(2) =   0
                l(3) =   1
                l(4) =   1
                l(5) =   2
                l(6) =   2
                l(7) =   3
     Q(r) pseudized with  6 coefficients,  rinner =    1.700   1.700   1.700
                                                       1.700   1.700   1.700
                                                       1.700

     PseudoPot. # 2 for Ti read from file:
     /scratch/11018/zhc/Assisgnment2/Q1/1D/energy_off/Ti_LDA.UPF
     MD5 check sum: 0d9f225c038fe889ca2a701dcc8d72cb
     Pseudo is Ultrasoft + core correction, Zval = 12.0
     Generated by new atomic code, or converted to UPF format
     Using radial grid of  851 points,  6 beta functions with: 
                l(1) =   0
                l(2) =   0
                l(3) =   1
                l(4) =   1
                l(5) =   2
                l(6) =   2
     Q(r) pseudized with  6 coefficients,  rinner =    1.000   1.000   1.000
                                                       1.000   1.000

     PseudoPot. # 3 for O  read from file:
     /scratch/11018/zhc/Assisgnment2/Q1/1D/energy_off/O_LDA.UPF
     MD5 check sum: 194b818514d2a7dbb603bb78519a4f40
     Pseudo is Ultrasoft + core correction, Zval =  6.0
     Generated by new atomic code, or converted to UPF format
     Using radial grid of  737 points,  5 beta functions with: 
                l(1) =   0
                l(2) =   0
                l(3) =   1
                l(4) =   1
                l(5) =   2
     Q(r) pseudized with  8 coefficients,  rinner =    0.900   0.900   0.900
                                                       0.900   0.900

     atomic species   valence    mass     pseudopotential
     Ba               10.00   137.32700     Ba( 1.00)
     Ti               12.00    47.88000     Ti( 1.00)
     O                 6.00    16.00000     O ( 1.00)

     48 Sym. Ops., with inversion, found



   Cartesian axes

     site n.     atom                  positions (alat units)
         1        Ba     tau(   1) = (   0.0000000   0.0000000   0.0000000  )
         2        Ti     tau(   2) = (   0.5000000   0.5000000   0.5000000  )
         3        O      tau(   3) = (   0.5000000   0.5000000   0.0000000  )
         4        O      tau(   4) = (   0.5000000   0.0000000   0.5000000  )
         5        O      tau(   5) = (   0.0000000   0.5000000   0.5000000  )

     number of k points=     4
                       cart. coord. in units 2pi/alat
        k(    1) = (   0.0000000   0.0000000   0.0000000), wk =   0.2500000
        k(    2) = (   0.0000000   0.0000000  -0.5000000), wk =   0.7500000
        k(    3) = (   0.0000000  -0.5000000  -0.5000000), wk =   0.7500000
        k(    4) = (  -0.5000000  -0.5000000  -0.5000000), wk =   0.2500000

     Dense  grid:    39607 G-vectors     FFT dimensions: (  45,  45,  45)

     Smooth grid:     5449 G-vectors     FFT dimensions: (  24,  24,  24)

     Estimated max dynamical RAM per process >      33.45 MB

     Estimated total dynamical RAM >     334.54 MB

     Check: negative core charge=   -0.000005

     Initial potential from superposition of free atoms

     starting charge      38.9872, renormalised to      40.0000

     negative rho (up, down):  1.005E-01 0.000E+00
     Starting wfcs are   35 randomized atomic wfcs

     total cpu time spent up to now is        0.5 secs

     Self-consistent Calculation

     iteration #  1     ecut=    20.00 Ry     beta= 0.70
     CG style diagonalization
     ethr =  1.00E-02,  avg # of iterations =  2.2

     negative rho (up, down):  9.567E-02 0.000E+00

     total cpu time spent up to now is        0.6 secs

     total energy              =    -286.05059876 Ry
     estimated scf accuracy    <       0.58371284 Ry

     iteration #  2     ecut=    20.00 Ry     beta= 0.70
     CG style diagonalization
     ethr =  1.46E-03,  avg # of iterations =  4.3

     negative rho (up, down):  9.434E-02 0.000E+00

     total cpu time spent up to now is        0.8 secs

     total energy              =    -285.61822021 Ry
     estimated scf accuracy    <       4.00647065 Ry

     iteration #  3     ecut=    20.00 Ry     beta= 0.70
     CG style diagonalization
     ethr =  1.46E-03,  avg # of iterations =  4.0

     negative rho (up, down):  9.355E-02 0.000E+00

     total cpu time spent up to now is        0.9 secs

     total energy              =    -286.31478184 Ry
     estimated scf accuracy    <       0.10142060 Ry

     iteration #  4     ecut=    20.00 Ry     beta= 0.70
     CG style diagonalization
     ethr =  2.54E-04,  avg # of iterations =  3.3

     negative rho (up, down):  9.330E-02 0.000E+00

     total cpu time spent up to now is        1.0 secs

     total energy              =    -286.31722184 Ry
     estimated scf accuracy    <       0.03592267 Ry

     iteration #  5     ecut=    20.00 Ry     beta= 0.70
     CG style diagonalization
     ethr =  8.98E-05,  avg # of iterations =  3.4

     negative rho (up, down):  9.330E-02 0.000E+00

     total cpu time spent up to now is        1.1 secs

     total energy              =    -286.32268020 Ry
     estimated scf accuracy    <       0.00069781 Ry

     iteration #  6     ecut=    20.00 Ry     beta= 0.70
     CG style diagonalization
     ethr =  1.74E-06,  avg # of iterations =  4.0

     negative rho (up, down):  9.330E-02 0.000E+00

     total cpu time spent up to now is        1.3 secs

     total energy              =    -286.32308738 Ry
     estimated scf accuracy    <       0.00003951 Ry

     iteration #  7     ecut=    20.00 Ry     beta= 0.70
     CG style diagonalization
     ethr =  9.88E-08,  avg # of iterations =  3.7

     negative rho (up, down):  9.330E-02 0.000E+00

     total cpu time spent up to now is        1.4 secs

     total energy              =    -286.32309656 Ry
     estimated scf accuracy    <       0.00001089 Ry

     iteration #  8     ecut=    20.00 Ry     beta= 0.70
     CG style diagonalization
     ethr =  2.72E-08,  avg # of iterations =  3.5

     negative rho (up, down):  9.329E-02 0.000E+00

     total cpu time spent up to now is        1.5 secs

     total energy              =    -286.32309817 Ry
     estimated scf accuracy    <       0.00000048 Ry

     iteration #  9     ecut=    20.00 Ry     beta= 0.70
     CG style diagonalization
     ethr =  1.20E-09,  avg # of iterations =  4.5

     negative rho (up, down):  9.329E-02 0.000E+00

     total cpu time spent up to now is        1.7 secs

     total energy              =    -286.32309864 Ry
     estimated scf accuracy    <       0.00000012 Ry

     iteration # 10     ecut=    20.00 Ry     beta= 0.70
     CG style diagonalization
     ethr =  3.02E-10,  avg # of iterations =  3.5

     negative rho (up, down):  9.329E-02 0.000E+00

     total cpu time spent up to now is        1.8 secs

     total energy              =    -286.32309865 Ry
     estimated scf accuracy    <       0.00000002 Ry

     iteration # 11     ecut=    20.00 Ry     beta= 0.70
     CG style diagonalization
     ethr =  4.76E-11,  avg # of iterations =  4.3

     negative rho (up, down):  9.329E-02 0.000E+00

     total cpu time spent up to now is        1.9 secs

     total energy              =    -286.32309866 Ry
     estimated scf accuracy    <       0.00000002 Ry

     iteration # 12     ecut=    20.00 Ry     beta= 0.70
     CG style diagonalization
     ethr =  4.25E-11,  avg # of iterations =  3.2

     negative rho (up, down):  9.329E-02 0.000E+00

     total cpu time spent up to now is        2.1 secs

     End of self-consistent calculation

          k = 0.0000 0.0000 0.0000 (   691 PWs)   bands (ev):

   -47.6931 -24.0790 -24.0790 -24.0790 -15.2296  -7.4484  -6.7590  -6.7590
    -0.3801  -0.3801  -0.3801   7.0721   7.0721   7.0721   8.5656   8.5656
     8.5656   9.3690   9.3690   9.3690

          k = 0.0000 0.0000-0.5000 (   682 PWs)   bands (ev):

   -47.6921 -24.0982 -24.0809 -24.0809 -15.1302  -7.5962  -6.7296  -6.5408
    -0.2232  -0.2232  -0.0500   5.6902   6.7122   6.7122   7.7065   7.7065
     7.7148   7.7399   8.8588   8.8588

          k = 0.0000-0.5000-0.5000 (   680 PWs)   bands (ev):

   -47.6912 -24.1051 -24.1051 -24.0853 -15.0639  -7.0682  -6.7306  -6.7306
    -0.4438  -0.4438  -0.0386   5.2603   5.5580   5.9201   6.8788   6.8788
     7.6936   8.7129   8.7129   9.5781

          k =-0.5000-0.5000-0.5000 (   672 PWs)   bands (ev):

   -47.6897 -24.1094 -24.1094 -24.1094 -15.0072  -6.5870  -6.5870  -6.5870
    -1.0318  -1.0318  -1.0318   4.9332   5.9961   5.9961   7.0381   7.0381
     7.0381   9.6609   9.6609   9.6609

     highest occupied level (ev):     9.6609

!    total energy              =    -286.32309866 Ry
     estimated scf accuracy    <          1.5E-09 Ry

     The total energy is the sum of the following terms:
     one-electron contribution =     -74.67331374 Ry
     hartree contribution      =      59.46534218 Ry
     xc contribution           =     -66.91056639 Ry
     ewald contribution        =    -204.20456071 Ry

     convergence has been achieved in  12 iterations

     negative rho (up, down):  9.329E-02 0.000E+00

     Forces acting on atoms (cartesian axes, Ry/au):

     atom    1 type  1   force =     0.00000000    0.00000000    0.00000000
     atom    2 type  2   force =     0.00000000    0.00000000    0.00000000
     atom    3 type  3   force =     0.00000000    0.00000000    0.00000000
     atom    4 type  3   force =     0.00000000    0.00000000    0.00000000
     atom    5 type  3   force =     0.00000000    0.00000000    0.00000000

     Total force =     0.000000     Total SCF correction =     0.000000


     Computing stress (Cartesian axis) and pressure


     negative rho (up, down):  9.329E-02 0.000E+00
          total   stress  (Ry/bohr**3)                   (kbar)     P=    -1135.59
  -0.00771962   0.00000000   0.00000000        -1135.59        0.00        0.00
   0.00000000  -0.00771962   0.00000000            0.00    -1135.59        0.00
   0.00000000   0.00000000  -0.00771962            0.00        0.00    -1135.59


     Writing all to output data dir ./BTO_20.save/ :
     XML data file, charge density, pseudopotentials, collected wavefunctions
 
     init_run     :      0.17s CPU      0.24s WALL (       1 calls)
     electrons    :      1.36s CPU      1.61s WALL (       1 calls)
     forces       :      0.04s CPU      0.05s WALL (       1 calls)
     stress       :      0.21s CPU      0.23s WALL (       1 calls)

     Called by init_run:
     wfcinit      :      0.02s CPU      0.03s WALL (       1 calls)
     potinit      :      0.01s CPU      0.01s WALL (       1 calls)
     hinit0       :      0.09s CPU      0.13s WALL (       1 calls)

     Called by electrons:
     c_bands      :      0.54s CPU      0.58s WALL (      12 calls)
     sum_band     :      0.45s CPU      0.55s WALL (      12 calls)
     v_of_rho     :      0.01s CPU      0.01s WALL (      13 calls)
     newd         :      0.37s CPU      0.46s WALL (      13 calls)
     mix_rho      :      0.01s CPU      0.01s WALL (      12 calls)

     Called by c_bands:
     init_us_2    :      0.01s CPU      0.01s WALL (     108 calls)
     init_us_2:cp :      0.00s CPU      0.01s WALL (     108 calls)
     ccgdiagg     :      0.47s CPU      0.50s WALL (      48 calls)
     wfcrot       :      0.08s CPU      0.10s WALL (      48 calls)

     Called by *cgdiagg:
     h_psi        :      0.28s CPU      0.31s WALL (    2674 calls)
     s_psi        :      0.04s CPU      0.04s WALL (    5300 calls)

     Called by h_psi:
     h_psi:calbec :      0.05s CPU      0.06s WALL (    2674 calls)
     vloc_psi     :      0.19s CPU      0.20s WALL (    2674 calls)
     add_vuspsi   :      0.02s CPU      0.02s WALL (    2674 calls)
     hs_1psi      :      0.26s CPU      0.28s WALL (    2626 calls)
     s_1psi       :      0.07s CPU      0.08s WALL (    2626 calls)

     General routines
     calbec       :      0.09s CPU      0.10s WALL (    5368 calls)
     fft          :      0.02s CPU      0.03s WALL (      84 calls)
     ffts         :      0.00s CPU      0.00s WALL (      25 calls)
     fftw         :      0.16s CPU      0.17s WALL (    8252 calls)
     interpolate  :      0.00s CPU      0.01s WALL (      13 calls)
 
     Parallel routines
 
     PWSCF        :      1.97s CPU      2.47s WALL

 
   This run was terminated on:  15:12: 1  18Oct2025            

=------------------------------------------------------------------------------=
   JOB DONE.
=------------------------------------------------------------------------------=
TACC:  Shutdown complete. Exiting. 
