TACC:  Starting up job 2547143 
TACC:  Starting parallel tasks... 

     Program PWSCF v.7.3 starts on 13Nov2025 at  0:34:14 

     This program is part of the open-source Quantum ESPRESSO suite
     for quantum simulation of materials; please cite
         "P. Giannozzi et al., J. Phys.:Condens. Matter 21 395502 (2009);
         "P. Giannozzi et al., J. Phys.:Condens. Matter 29 465901 (2017);
         "P. Giannozzi et al., J. Chem. Phys. 152 154105 (2020);
          URL http://www.quantum-espresso.org", 
     in publications or presentations arising from this work. More details at
     http://www.quantum-espresso.org/quote

     Parallel version (MPI & OpenMP), running on      10 processor cores
     Number of MPI processes:                10
     Threads/MPI process:                     1

     MPI processes distributed on     1 nodes
     188679 MiB available memory on the printing compute node when the environment starts
 
     Waiting for input...
     Reading input from standard input
Warning: card &CELL ignored
Warning: card  CELL_DYNAMICS = 'BFGS', ignored
Warning: card  PRESS=0.D0, ignored
Warning: card / ignored

     Current dimensions of program PWSCF are:
     Max number of different atomic species (ntypx) = 10
     Max number of k-points (npk) =  40000
     Max angular momentum in pseudopotentials (lmaxx) =  4
     Message from routine setup:
     using ibrav=0 with symmetry is DISCOURAGED, use correct ibrav instead
 
     R & G space division:  proc/nbgrp/npool/nimage =      10
     Subspace diagonalization in iterative solution of the eigenvalue problem:
     a serial algorithm will be used

 
     Parallelization info
     --------------------
     sticks:   dense  smooth     PW     G-vecs:    dense   smooth      PW
     Min         389     156     43                19157     4852     751
     Max         390     157     44                19158     4855     756
     Sum        3893    1565    437               191573    48531    7549
 
     Using Slab Decomposition
 


     bravais-lattice index     =            0
     lattice parameter (alat)  =       7.3699  a.u.
     unit-cell volume          =     420.8329 (a.u.)^3
     number of atoms/cell      =            5
     number of atomic types    =            3
     number of electrons       =        44.00
     number of Kohn-Sham states=           22
     kinetic-energy cutoff     =      90.0000  Ry
     charge density cutoff     =     900.0000  Ry
     scf convergence threshold =      1.0E-08
     mixing beta               =       0.7000
     number of iterations used =            8  plain     mixing
     energy convergence thresh.=      1.0E-04
     force convergence thresh. =      1.0E-03
     Exchange-correlation= SLA  PZ   NOGX NOGC
                           (   1   1   0   0   0   0   0)
     nstep                     =           50


     celldm(1)=   7.369932  celldm(2)=   0.000000  celldm(3)=   0.000000
     celldm(4)=   0.000000  celldm(5)=   0.000000  celldm(6)=   0.000000

     crystal axes: (cart. coord. in units of alat)
               a(1) = (   1.000000   0.000000   0.000000 )  
               a(2) = (   0.000000   1.000000   0.000000 )  
               a(3) = (   0.000000   0.000000   1.051282 )  

     reciprocal axes: (cart. coord. in units 2 pi/alat)
               b(1) = (  1.000000  0.000000  0.000000 )  
               b(2) = (  0.000000  1.000000  0.000000 )  
               b(3) = (  0.000000  0.000000  0.951220 )  


     PseudoPot. # 1 for Pb read from file:
     /scratch/11018/zhc/assisgnment3/input_files/Pb_LDA.UPF
     MD5 check sum: 062a37469794d955244864f8fe2e5624
     Pseudo is Ultrasoft + core correction, Zval = 14.0
     Generated by new atomic code, or converted to UPF format
     Using radial grid of  899 points,  6 beta functions with: 
                l(1) =   0
                l(2) =   0
                l(3) =   1
                l(4) =   1
                l(5) =   2
                l(6) =   2
     Q(r) pseudized with  6 coefficients,  rinner =    1.000   1.000   1.000
                                                       1.000   1.000

     PseudoPot. # 2 for Ti read from file:
     /scratch/11018/zhc/assisgnment3/input_files/Ti_LDA.UPF
     MD5 check sum: 0d9f225c038fe889ca2a701dcc8d72cb
     Pseudo is Ultrasoft + core correction, Zval = 12.0
     Generated by new atomic code, or converted to UPF format
     Using radial grid of  851 points,  6 beta functions with: 
                l(1) =   0
                l(2) =   0
                l(3) =   1
                l(4) =   1
                l(5) =   2
                l(6) =   2
     Q(r) pseudized with  6 coefficients,  rinner =    1.000   1.000   1.000
                                                       1.000   1.000

     PseudoPot. # 3 for O  read from file:
     /scratch/11018/zhc/assisgnment3/input_files/O_LDA.UPF
     MD5 check sum: 194b818514d2a7dbb603bb78519a4f40
     Pseudo is Ultrasoft + core correction, Zval =  6.0
     Generated by new atomic code, or converted to UPF format
     Using radial grid of  737 points,  5 beta functions with: 
                l(1) =   0
                l(2) =   0
                l(3) =   1
                l(4) =   1
                l(5) =   2
     Q(r) pseudized with  8 coefficients,  rinner =    0.900   0.900   0.900
                                                       0.900   0.900

     atomic species   valence    mass     pseudopotential
     Pb               14.00   207.20000     Pb( 1.00)
     Ti               12.00    47.88000     Ti( 1.00)
     O                 6.00    16.00000     O ( 1.00)

      8 Sym. Ops. (no inversion) found



   Cartesian axes

     site n.     atom                  positions (alat units)
         1        Pb     tau(   1) = (   0.0000000   0.0000000   1.0580339  )
         2        Ti     tau(   2) = (   0.5000000   0.5000000   0.5681377  )
         3        O      tau(   3) = (   0.5000000   0.5000000   0.1036357  )
         4        O      tau(   4) = (   0.5000000   0.0000000   0.6422586  )
         5        O      tau(   5) = (   0.0000000   0.5000000   0.6422586  )

     number of k points=    30
                       cart. coord. in units 2pi/alat
        k(    1) = (   0.0000000   0.0000000   0.0000000), wk =   0.0138889
        k(    2) = (   0.0000000   0.0000000   0.2378049), wk =   0.0277778
        k(    3) = (   0.0000000   0.0000000  -0.4756098), wk =   0.0138889
        k(    4) = (   0.0000000   0.1666667   0.0000000), wk =   0.0555556
        k(    5) = (   0.0000000   0.1666667   0.2378049), wk =   0.1111111
        k(    6) = (   0.0000000   0.1666667  -0.4756098), wk =   0.0555556
        k(    7) = (   0.0000000   0.3333333   0.0000000), wk =   0.0555556
        k(    8) = (   0.0000000   0.3333333   0.2378049), wk =   0.1111111
        k(    9) = (   0.0000000   0.3333333  -0.4756098), wk =   0.0555556
        k(   10) = (   0.0000000  -0.5000000   0.0000000), wk =   0.0277778
        k(   11) = (   0.0000000  -0.5000000   0.2378049), wk =   0.0555556
        k(   12) = (   0.0000000  -0.5000000  -0.4756098), wk =   0.0277778
        k(   13) = (   0.1666667   0.1666667   0.0000000), wk =   0.0555556
        k(   14) = (   0.1666667   0.1666667   0.2378049), wk =   0.1111111
        k(   15) = (   0.1666667   0.1666667  -0.4756098), wk =   0.0555556
        k(   16) = (   0.1666667   0.3333333   0.0000000), wk =   0.1111111
        k(   17) = (   0.1666667   0.3333333   0.2378049), wk =   0.2222222
        k(   18) = (   0.1666667   0.3333333  -0.4756098), wk =   0.1111111
        k(   19) = (   0.1666667  -0.5000000   0.0000000), wk =   0.0555556
        k(   20) = (   0.1666667  -0.5000000   0.2378049), wk =   0.1111111
        k(   21) = (   0.1666667  -0.5000000  -0.4756098), wk =   0.0555556
        k(   22) = (   0.3333333   0.3333333   0.0000000), wk =   0.0555556
        k(   23) = (   0.3333333   0.3333333   0.2378049), wk =   0.1111111
        k(   24) = (   0.3333333   0.3333333  -0.4756098), wk =   0.0555556
        k(   25) = (   0.3333333  -0.5000000   0.0000000), wk =   0.0555556
        k(   26) = (   0.3333333  -0.5000000   0.2378049), wk =   0.1111111
        k(   27) = (   0.3333333  -0.5000000  -0.4756098), wk =   0.0555556
        k(   28) = (  -0.5000000  -0.5000000   0.0000000), wk =   0.0138889
        k(   29) = (  -0.5000000  -0.5000000   0.2378049), wk =   0.0277778
        k(   30) = (  -0.5000000  -0.5000000  -0.4756098), wk =   0.0138889

     Dense  grid:   191573 G-vectors     FFT dimensions: (  72,  72,  75)

     Smooth grid:    48531 G-vectors     FFT dimensions: (  45,  45,  48)

     Estimated max dynamical RAM per process >      84.85 MB

     Estimated total dynamical RAM >     848.47 MB

     Check: negative core charge=   -0.000001

     Initial potential from superposition of free atoms

     starting charge      42.9982, renormalised to      44.0000

     negative rho (up, down):  1.726E-02 0.000E+00
     Starting wfcs are   31 randomized atomic wfcs

     total cpu time spent up to now is        1.3 secs

     Self-consistent Calculation

     iteration #  1     ecut=    90.00 Ry     beta= 0.70
     CG style diagonalization
     ethr =  1.00E-02,  avg # of iterations =  2.1

     negative rho (up, down):  1.448E-02 0.000E+00

     total cpu time spent up to now is        2.4 secs

     total energy              =    -380.04498546 Ry
     estimated scf accuracy    <       1.03851372 Ry

     iteration #  2     ecut=    90.00 Ry     beta= 0.70
     CG style diagonalization
     ethr =  2.36E-03,  avg # of iterations =  4.9

     negative rho (up, down):  1.467E-02 0.000E+00

     total cpu time spent up to now is        4.4 secs

     total energy              =    -379.57762963 Ry
     estimated scf accuracy    <       5.02117572 Ry

     iteration #  3     ecut=    90.00 Ry     beta= 0.70
     CG style diagonalization
     ethr =  2.36E-03,  avg # of iterations =  4.5

     negative rho (up, down):  1.547E-02 0.000E+00

     total cpu time spent up to now is        6.2 secs

     total energy              =    -380.53820722 Ry
     estimated scf accuracy    <       0.30690559 Ry

     iteration #  4     ecut=    90.00 Ry     beta= 0.70
     CG style diagonalization
     ethr =  6.98E-04,  avg # of iterations =  3.5

     negative rho (up, down):  1.559E-02 0.000E+00

     total cpu time spent up to now is        7.6 secs

     total energy              =    -380.55400343 Ry
     estimated scf accuracy    <       0.07759269 Ry

     iteration #  5     ecut=    90.00 Ry     beta= 0.70
     CG style diagonalization
     ethr =  1.76E-04,  avg # of iterations =  3.7

     negative rho (up, down):  1.561E-02 0.000E+00

     total cpu time spent up to now is        9.0 secs

     total energy              =    -380.56986255 Ry
     estimated scf accuracy    <       0.00533338 Ry

     iteration #  6     ecut=    90.00 Ry     beta= 0.70
     CG style diagonalization
     ethr =  1.21E-05,  avg # of iterations =  4.3

     negative rho (up, down):  1.559E-02 0.000E+00

     total cpu time spent up to now is       10.8 secs

     total energy              =    -380.57402670 Ry
     estimated scf accuracy    <       0.00768255 Ry

     iteration #  7     ecut=    90.00 Ry     beta= 0.70
     CG style diagonalization
     ethr =  1.21E-05,  avg # of iterations =  3.2

     negative rho (up, down):  1.557E-02 0.000E+00

     total cpu time spent up to now is       12.1 secs

     total energy              =    -380.57310147 Ry
     estimated scf accuracy    <       0.00395689 Ry

     iteration #  8     ecut=    90.00 Ry     beta= 0.70
     CG style diagonalization
     ethr =  8.99E-06,  avg # of iterations =  3.6

     negative rho (up, down):  1.559E-02 0.000E+00

     total cpu time spent up to now is       13.5 secs

     total energy              =    -380.57376684 Ry
     estimated scf accuracy    <       0.00003951 Ry

     iteration #  9     ecut=    90.00 Ry     beta= 0.70
     CG style diagonalization
     ethr =  8.98E-08,  avg # of iterations =  5.8

     negative rho (up, down):  1.562E-02 0.000E+00

     total cpu time spent up to now is       15.8 secs

     total energy              =    -380.57383764 Ry
     estimated scf accuracy    <       0.00000350 Ry

     iteration # 10     ecut=    90.00 Ry     beta= 0.70
     CG style diagonalization
     ethr =  7.96E-09,  avg # of iterations =  6.8

     negative rho (up, down):  1.570E-02 0.000E+00

     total cpu time spent up to now is       18.4 secs

     total energy              =    -380.57384471 Ry
     estimated scf accuracy    <       0.00000224 Ry

     iteration # 11     ecut=    90.00 Ry     beta= 0.70
     CG style diagonalization
     ethr =  5.10E-09,  avg # of iterations =  4.3

     negative rho (up, down):  1.572E-02 0.000E+00

     total cpu time spent up to now is       20.1 secs

     total energy              =    -380.57384538 Ry
     estimated scf accuracy    <       0.00000034 Ry

     iteration # 12     ecut=    90.00 Ry     beta= 0.70
     CG style diagonalization
     ethr =  7.72E-10,  avg # of iterations =  7.1

     negative rho (up, down):  1.572E-02 0.000E+00

     total cpu time spent up to now is       22.8 secs

     total energy              =    -380.57384599 Ry
     estimated scf accuracy    <       0.00000009 Ry

     iteration # 13     ecut=    90.00 Ry     beta= 0.70
     CG style diagonalization
     ethr =  2.02E-10,  avg # of iterations =  6.2

     negative rho (up, down):  1.572E-02 0.000E+00

     total cpu time spent up to now is       25.2 secs

     End of self-consistent calculation

          k = 0.0000 0.0000 0.0000 (  6071 PWs)   bands (ev):

   -45.8573 -22.4928 -22.4307 -22.4307  -7.5127  -6.4334  -6.2000  -5.0272
    -5.0272  -4.9922  -4.8707  -4.7661   4.2241   6.3075   6.3075   6.6261
     8.2745   8.2745   8.4909   8.7789   8.9394   8.9394

          k = 0.0000 0.0000 0.2378 (  6055 PWs)   bands (ev):

   -45.8570 -22.5123 -22.4299 -22.4299  -7.3199  -6.3745  -6.1422  -5.0424
    -5.0424  -4.9909  -4.8629  -4.8373   3.4623   6.3769   6.3769   6.7882
     8.0079   8.0079   8.4068   8.8274   9.0455   9.0455

          k = 0.0000 0.0000-0.4756 (  6032 PWs)   bands (ev):

   -45.8567 -22.5317 -22.4291 -22.4291  -7.1093  -6.3097  -6.0923  -5.0575
    -5.0575  -4.9897  -4.9145  -4.8571   2.9645   6.1479   6.4333   6.4333
     7.8241   7.8241   8.3266   9.1156   9.1156   9.9982

          k = 0.0000 0.1667 0.0000 (  6066 PWs)   bands (ev):

   -45.8570 -22.4921 -22.4478 -22.4300  -7.3778  -6.4041  -6.1711  -5.0479
    -5.0258  -5.0050  -4.8757  -4.7569   3.7956   6.3509   6.4165   6.6729
     8.1861   8.2983   8.4912   8.5694   8.6706   9.0380

          k = 0.0000 0.1667 0.2378 (  6063 PWs)   bands (ev):

   -45.8567 -22.5115 -22.4470 -22.4292  -7.2007  -6.3609  -6.1080  -5.0459
    -5.0415  -5.0042  -4.8728  -4.7935   3.2508   6.1628   6.4931   6.8884
     7.6642   7.9988   8.2717   8.6924   8.7197   9.3661

          k = 0.0000 0.1667-0.4756 (  6058 PWs)   bands (ev):

   -45.8564 -22.5307 -22.4461 -22.4284  -7.0167  -6.3119  -6.0438  -5.0570
    -5.0414  -5.0034  -4.8806  -4.8266   2.8359   5.8586   6.5524   6.5785
     7.4665   7.8269   8.3377   8.7469   8.7941   9.9273

          k = 0.0000 0.3333 0.0000 (  6070 PWs)   bands (ev):

   -45.8563 -22.4910 -22.4816 -22.4285  -7.0842  -6.3411  -6.1272  -5.0809
    -5.0304  -5.0230  -4.8735  -4.7651   3.2188   5.9803   6.6725   6.7022
     7.8544   7.8757   8.3455   8.4081   8.7756   9.6133

          k = 0.0000 0.3333 0.2378 (  6061 PWs)   bands (ev):

   -45.8561 -22.5098 -22.4809 -22.4277  -6.9700  -6.3021  -6.0444  -5.0510
    -5.0397  -5.0304  -4.8698  -4.7392   2.8950   5.8682   6.5587   6.7995
     7.3090   7.7475   7.8607   8.4050   8.9366   9.6816

          k = 0.0000 0.3333-0.4756 (  6088 PWs)   bands (ev):

   -45.8558 -22.5287 -22.4800 -22.4269  -6.8852  -6.2397  -5.9341  -5.0561
    -5.0306  -5.0130  -4.9065  -4.6901   2.6069   5.5744   6.3161   6.8544
     7.2007   7.3656   7.6888   8.4117   9.3280   9.5158

          k = 0.0000-0.5000 0.0000 (  6054 PWs)   bands (ev):

   -45.8560 -22.4992 -22.4897 -22.4278  -6.9216  -6.2943  -6.1287  -5.0963
    -5.0430  -5.0217  -4.8472  -4.7992   3.0107   5.6180   6.9600   6.9704
     7.3496   7.4683   8.2686   8.4485   8.8116  10.3559

          k = 0.0000-0.5000 0.2378 (  6074 PWs)   bands (ev):

   -45.8557 -22.5087 -22.4980 -22.4270  -6.8698  -6.2231  -6.0362  -5.0638
    -5.0435  -5.0388  -4.8402  -4.7353   2.7516   5.5902   6.5914   6.8578
     7.1643   7.3161   7.9699   8.3934   8.9297   9.8617

          k = 0.0000-0.5000-0.4756 (  6076 PWs)   bands (ev):

   -45.8555 -22.5276 -22.4969 -22.4262  -6.8552  -6.1467  -5.8820  -5.0557
    -5.0441  -5.0239  -4.8931  -4.6341   2.5125   5.4244   6.0396   6.9190
     7.1684   7.3705   7.3743   8.3569   9.1471   9.6529

          k = 0.1667 0.1667 0.0000 (  6050 PWs)   bands (ev):

   -45.8566 -22.4915 -22.4472 -22.4469  -7.2455  -6.3739  -6.1637  -5.0534
    -5.0399  -5.0072  -4.8544  -4.7481   3.4994   6.2923   6.5220   6.7210
     7.7670   7.8510   8.5443   8.5673   8.8866   9.2657

          k = 0.1667 0.1667 0.2378 (  6064 PWs)   bands (ev):

   -45.8564 -22.5107 -22.4463 -22.4461  -7.0795  -6.3500  -6.1012  -5.0559
    -5.0354  -5.0004  -4.8458  -4.7624   3.1378   6.1078   6.1885   6.8515
     7.5503   7.5527   8.3748   8.7465   8.9713   9.3175

          k = 0.1667 0.1667-0.4756 (  6082 PWs)   bands (ev):

   -45.8561 -22.5298 -22.4454 -22.4453  -6.9135  -6.3259  -6.0285  -5.0669
    -5.0166  -4.9774  -4.8534  -4.7819   2.8090   5.9086   5.9189   6.5853
     7.4559   7.4705   8.2676   8.8167   9.0314   9.6353

          k = 0.1667 0.3333 0.0000 (  6060 PWs)   bands (ev):

   -45.8560 -22.4903 -22.4807 -22.4455  -6.9609  -6.3121  -6.1630  -5.0757
    -5.0302  -4.9905  -4.8316  -4.7557   3.0304   5.9849   6.5404   6.8249
     7.2112   7.8044   8.0607   8.7214   8.8992   9.6943

          k = 0.1667 0.3333 0.2378 (  6069 PWs)   bands (ev):

   -45.8557 -22.5090 -22.4801 -22.4447  -6.8442  -6.3053  -6.0937  -5.0538
    -5.0308  -4.9670  -4.8137  -4.7152   2.9028   5.8352   6.0046   6.4891
     6.9295   7.5760   8.4101   8.7015   9.0259   9.4110

          k = 0.1667 0.3333-0.4756 (  6068 PWs)   bands (ev):

   -45.8555 -22.5279 -22.4792 -22.4439  -6.7625  -6.2852  -5.9892  -5.0507
    -5.0080  -4.9281  -4.8260  -4.6643   2.7381   5.5161   5.9214   6.2222
     6.4315   7.4287   8.5143   8.7397   8.9210   9.4492

          k = 0.1667-0.5000 0.0000 (  6066 PWs)   bands (ev):

   -45.8557 -22.4982 -22.4890 -22.4447  -6.8048  -6.2673  -6.1859  -5.0788
    -5.0231  -4.9687  -4.8123  -4.7903   2.8441   5.6345   6.6962   6.8503
     7.1890   7.4650   7.9756   8.7808   8.8789   9.9761

          k = 0.1667-0.5000 0.2378 (  6056 PWs)   bands (ev):

   -45.8554 -22.5079 -22.4971 -22.4439  -6.7436  -6.2362  -6.1145  -5.0526
    -5.0186  -4.9444  -4.7951  -4.7086   2.7939   5.5960   5.9120   6.2776
     6.8764   7.7194   8.1787   8.7163   9.0172   9.3827

          k = 0.1667-0.5000-0.4756 (  6056 PWs)   bands (ev):

   -45.8552 -22.5268 -22.4961 -22.4431  -6.7320  -6.2065  -5.9745  -5.0460
    -4.9813  -4.9208  -4.8105  -4.6089   2.7035   5.3940   5.7822   5.8873
     6.3059   7.5401   8.3016   8.6575   8.6651   9.6609

          k = 0.3333 0.3333 0.0000 (  6100 PWs)   bands (ev):

   -45.8554 -22.4891 -22.4793 -22.4787  -6.7170  -6.2547  -6.2164  -5.0581
    -5.0124  -4.9223  -4.7590  -4.7525   2.6716   5.9489   6.0847   6.9497
     7.0870   7.2645   7.8799   8.5182   9.3845   9.4058

          k = 0.3333 0.3333 0.2378 (  6085 PWs)   bands (ev):

   -45.8551 -22.5074 -22.4784 -22.4784  -6.5944  -6.3033  -6.1821  -5.0219
    -5.0058  -4.8623  -4.7083  -4.6819   2.8538   5.5996   5.6628   5.9392
     6.6059   7.0670   8.3840   8.9906   9.0197   9.4007

          k = 0.3333 0.3333-0.4756 (  6060 PWs)   bands (ev):

   -45.8548 -22.5261 -22.4776 -22.4776  -6.5329  -6.3482  -6.0764  -4.9996
    -4.9856  -4.7975  -4.6635  -4.6075   3.0204   5.2160   5.2355   5.7013
     6.3519   6.5130   7.6502   9.3558   9.3696   9.5313

          k = 0.3333-0.5000 0.0000 (  6102 PWs)   bands (ev):

   -45.8551 -22.4963 -22.4877 -22.4781  -6.6067  -6.2328  -6.2181  -5.0509
    -4.9909  -4.8605  -4.7919  -4.7186   2.5045   5.6143   6.1200   6.7799
     7.3018   7.4044   7.4993   8.4936   9.0784   9.5723

          k = 0.3333-0.5000 0.2378 (  6072 PWs)   bands (ev):

   -45.8548 -22.5063 -22.4954 -22.4776  -6.4873  -6.2656  -6.2383  -5.0139
    -4.9805  -4.7724  -4.7111  -4.6493   2.7973   5.4972   5.5740   5.6825
     6.3892   7.1409   7.9042   8.9872   9.0181   9.5530

          k = 0.3333-0.5000-0.4756 (  6072 PWs)   bands (ev):

   -45.8545 -22.5251 -22.4944 -22.4768  -6.4816  -6.3094  -6.1144  -4.9857
    -4.9630  -4.7091  -4.6301  -4.5548   3.1662   4.9603   5.1463   5.4568
     6.1408   6.5282   6.8809   9.4556   9.5248   9.6827

          k =-0.5000-0.5000 0.0000 (  6096 PWs)   bands (ev):

   -45.8547 -22.4954 -22.4954 -22.4864  -6.5564  -6.1963  -6.1963  -5.0413
    -4.9491  -4.8094  -4.8094  -4.6715   2.3352   5.4593   5.9625   6.9991
     6.9991   7.5183   7.5183   8.2482   8.5811   9.8296

          k =-0.5000-0.5000 0.2378 (  6092 PWs)   bands (ev):

   -45.8545 -22.5053 -22.4945 -22.4945  -6.3664  -6.2814  -6.2814  -5.0031
    -4.9473  -4.6709  -4.6709  -4.6375   2.7451   5.4128   5.6165   5.6165
     5.9686   7.0817   7.2557   9.0190   9.0190   9.8142

          k =-0.5000-0.5000-0.4756 (  6072 PWs)   bands (ev):

   -45.8542 -22.5241 -22.4936 -22.4936  -6.3549  -6.3549  -6.1723  -4.9650
    -4.9455  -4.5925  -4.5421  -4.5421   3.4109   4.9825   4.9825   5.2900
     5.8876   5.9748   6.2464   9.6935   9.6935   9.7988

     highest occupied level (ev):    10.3559

!    total energy              =    -380.57384611 Ry
     estimated scf accuracy    <          5.0E-09 Ry

     The total energy is the sum of the following terms:
     one-electron contribution =     -84.08906506 Ry
     hartree contribution      =      71.17209983 Ry
     xc contribution           =    -102.54272144 Ry
     ewald contribution        =    -265.11415945 Ry

     convergence has been achieved in  13 iterations

     negative rho (up, down):  1.572E-02 0.000E+00

     Forces acting on atoms (cartesian axes, Ry/au):

     atom    1 type  1   force =     0.00000000    0.00000000   -0.00770955
     atom    2 type  2   force =     0.00000000    0.00000000   -0.01238951
     atom    3 type  3   force =     0.00000000    0.00000000    0.02041630
     atom    4 type  3   force =     0.00000000    0.00000000   -0.00015863
     atom    5 type  3   force =     0.00000000    0.00000000   -0.00015863

     Total force =     0.025096     Total SCF correction =     0.000308


     Computing stress (Cartesian axis) and pressure


     negative rho (up, down):  1.572E-02 0.000E+00
          total   stress  (Ry/bohr**3)                   (kbar)     P=      -64.29
  -0.00042572   0.00000000   0.00000000          -62.63        0.00        0.00
   0.00000000  -0.00042572   0.00000000            0.00      -62.63        0.00
   0.00000000   0.00000000  -0.00045973            0.00        0.00      -67.63


     BFGS Geometry Optimization
     Energy error            =      0.0E+00 Ry
     Gradient error          =      2.0E-02 Ry/Bohr

     number of scf cycles    =   1
     number of bfgs steps    =   0

     energy             new  =    -380.5738461143 Ry

     new trust radius        =       0.0204163043 bohr
     new conv_thr            =       0.0000000100 Ry


ATOMIC_POSITIONS (crystal)
Pb               0.0000000000        0.0000000000        1.0054274553
Ti               0.5000000000        0.5000000000        0.5388246129
O                0.5000000000        0.5000000000        0.1012153846
O                0.5000000000        0.0000000000        0.6109084176
O                0.0000000000        0.5000000000        0.6109084176



     Writing config-only to output data dir ./pto_90.save/ :
     XML data file
     NEW-OLD atomic charge density approx. for the potential

     Check: negative core charge=   -0.000001

     negative rho (up, down):  1.576E-02 0.000E+00

     total cpu time spent up to now is       27.9 secs

     Self-consistent Calculation

     iteration #  1     ecut=    90.00 Ry     beta= 0.70
     CG style diagonalization
     c_bands:  2 eigenvalues not converged
     c_bands:  1 eigenvalues not converged
     c_bands:  1 eigenvalues not converged
     c_bands:  1 eigenvalues not converged
     ethr =  1.00E-06,  avg # of iterations =  6.8

     negative rho (up, down):  1.573E-02 0.000E+00

     total cpu time spent up to now is       30.6 secs

     total energy              =    -380.57421436 Ry
     estimated scf accuracy    <       0.00023652 Ry

     iteration #  2     ecut=    90.00 Ry     beta= 0.70
     CG style diagonalization
     ethr =  5.38E-07,  avg # of iterations =  4.7

     negative rho (up, down):  1.574E-02 0.000E+00

     total cpu time spent up to now is       32.5 secs

     total energy              =    -380.57420269 Ry
     estimated scf accuracy    <       0.00062971 Ry

     iteration #  3     ecut=    90.00 Ry     beta= 0.70
     CG style diagonalization
     ethr =  5.38E-07,  avg # of iterations =  4.3

     negative rho (up, down):  1.574E-02 0.000E+00

     total cpu time spent up to now is       34.2 secs

     total energy              =    -380.57432916 Ry
     estimated scf accuracy    <       0.00004950 Ry

     iteration #  4     ecut=    90.00 Ry     beta= 0.70
     CG style diagonalization
     ethr =  1.13E-07,  avg # of iterations =  3.8

     negative rho (up, down):  1.573E-02 0.000E+00

     total cpu time spent up to now is       35.7 secs

     total energy              =    -380.57434036 Ry
     estimated scf accuracy    <       0.00000597 Ry

     iteration #  5     ecut=    90.00 Ry     beta= 0.70
     CG style diagonalization
     ethr =  1.36E-08,  avg # of iterations =  4.3

     negative rho (up, down):  1.573E-02 0.000E+00

     total cpu time spent up to now is       37.4 secs

     total energy              =    -380.57434357 Ry
     estimated scf accuracy    <       0.00000075 Ry

     iteration #  6     ecut=    90.00 Ry     beta= 0.70
     CG style diagonalization
     ethr =  1.71E-09,  avg # of iterations =  4.4

     negative rho (up, down):  1.573E-02 0.000E+00

     total cpu time spent up to now is       39.2 secs

     total energy              =    -380.57434394 Ry
     estimated scf accuracy    <       0.00000029 Ry

     iteration #  7     ecut=    90.00 Ry     beta= 0.70
     CG style diagonalization
     ethr =  6.54E-10,  avg # of iterations =  4.1

     negative rho (up, down):  1.573E-02 0.000E+00

     total cpu time spent up to now is       40.8 secs

     total energy              =    -380.57434403 Ry
     estimated scf accuracy    <       0.00000007 Ry

     iteration #  8     ecut=    90.00 Ry     beta= 0.70
     CG style diagonalization
     ethr =  1.62E-10,  avg # of iterations =  4.5

     negative rho (up, down):  1.573E-02 0.000E+00

     total cpu time spent up to now is       42.6 secs

     End of self-consistent calculation

          k = 0.0000 0.0000 0.0000 (  6071 PWs)   bands (ev):

   -45.8216 -22.4796 -22.3944 -22.3944  -7.5097  -6.4269  -6.2109  -5.0299
    -5.0299  -4.9967  -4.8782  -4.7641   4.2143   6.3113   6.3113   6.6559
     8.2062   8.2062   8.4924   8.7215   8.9484   8.9484

          k = 0.0000 0.0000 0.2378 (  6055 PWs)   bands (ev):

   -45.8213 -22.4992 -22.3936 -22.3936  -7.3139  -6.3679  -6.1555  -5.0450
    -5.0450  -4.9955  -4.8704  -4.8354   3.4480   6.3711   6.3711   6.8033
     7.9651   7.9651   8.4080   8.8090   9.0514   9.0514

          k = 0.0000 0.0000-0.4756 (  6032 PWs)   bands (ev):

   -45.8210 -22.5186 -22.3928 -22.3928  -7.0991  -6.3028  -6.1093  -5.0601
    -5.0601  -4.9942  -4.9128  -4.8646   2.9430   6.1611   6.4146   6.4146
     7.8037   7.8037   8.3273   9.1213   9.1213  10.0015

          k = 0.0000 0.1667 0.0000 (  6066 PWs)   bands (ev):

   -45.8213 -22.4789 -22.4116 -22.3937  -7.3752  -6.3982  -6.1830  -5.0511
    -5.0285  -5.0095  -4.8811  -4.7548   3.7906   6.3532   6.4211   6.6851
     8.1540   8.2313   8.4838   8.5765   8.6507   9.0149

          k = 0.0000 0.1667 0.2378 (  6063 PWs)   bands (ev):

   -45.8210 -22.4983 -22.4108 -22.3929  -7.1951  -6.3551  -6.1223  -5.0488
    -5.0441  -5.0087  -4.8787  -4.7914   3.2410   6.1548   6.4884   6.9007
     7.6417   7.9586   8.2701   8.6764   8.7224   9.3649

          k = 0.0000 0.1667-0.4756 (  6058 PWs)   bands (ev):

   -45.8207 -22.5177 -22.4099 -22.3921  -7.0072  -6.3061  -6.0616  -5.0596
    -5.0439  -5.0079  -4.8862  -4.8251   2.8201   5.8457   6.5347   6.5893
     7.4556   7.8068   8.3446   8.7304   8.7995   9.9347

          k = 0.0000 0.3333 0.0000 (  6070 PWs)   bands (ev):

   -45.8206 -22.4774 -22.4458 -22.3923  -7.0823  -6.3370  -6.1416  -5.0838
    -5.0348  -5.0256  -4.8749  -4.7637   3.2166   5.9888   6.6705   6.7093
     7.8509   7.8836   8.3361   8.3465   8.7401   9.6006

          k = 0.0000 0.3333 0.2378 (  6061 PWs)   bands (ev):

   -45.8204 -22.4966 -22.4448 -22.3914  -6.9645  -6.2991  -6.0612  -5.0538
    -5.0424  -5.0348  -4.8725  -4.7368   2.8911   5.8675   6.5588   6.7981
     7.3042   7.7342   7.8600   8.3757   8.9219   9.6751

          k = 0.0000 0.3333-0.4756 (  6088 PWs)   bands (ev):

   -45.8201 -22.5156 -22.4438 -22.3906  -6.8770  -6.2363  -5.9541  -5.0587
    -5.0351  -5.0154  -4.9094  -4.6877   2.6009   5.5569   6.3288   6.8384
     7.1968   7.3779   7.6798   8.4027   9.2930   9.5285

          k = 0.0000-0.5000 0.0000 (  6054 PWs)   bands (ev):

   -45.8203 -22.4764 -22.4630 -22.3915  -6.9195  -6.2907  -6.1457  -5.0984
    -5.0473  -5.0243  -4.8447  -4.8006   3.0084   5.6345   6.9431   6.9807
     7.3611   7.4752   8.2684   8.3726   8.7747  10.3432

          k = 0.0000-0.5000 0.2378 (  6074 PWs)   bands (ev):

   -45.8200 -22.4955 -22.4619 -22.3907  -6.8640  -6.2198  -6.0568  -5.0657
    -5.0479  -5.0413  -4.8415  -4.7329   2.7495   5.6020   6.5856   6.8490
     7.1751   7.3023   7.9697   8.3506   8.9235   9.8451

          k = 0.0000-0.5000-0.4756 (  6076 PWs)   bands (ev):

   -45.8198 -22.5145 -22.4607 -22.3899  -6.8475  -6.1438  -5.9046  -5.0582
    -5.0485  -5.0255  -4.8945  -4.6318   2.5107   5.4175   6.0409   6.9145
     7.1417   7.3858   7.3878   8.3364   9.1439   9.6269

          k = 0.1667 0.1667 0.0000 (  6050 PWs)   bands (ev):

   -45.8209 -22.4782 -22.4110 -22.4107  -7.2438  -6.3683  -6.1759  -5.0564
    -5.0430  -5.0110  -4.8594  -4.7459   3.4962   6.3010   6.5256   6.7212
     7.7170   7.8503   8.5069   8.5718   8.8931   9.2240

          k = 0.1667 0.1667 0.2378 (  6064 PWs)   bands (ev):

   -45.8207 -22.4975 -22.4101 -22.4099  -7.0746  -6.3444  -6.1163  -5.0591
    -5.0384  -5.0040  -4.8513  -4.7601   3.1301   6.1021   6.1831   6.8545
     7.5382   7.5504   8.3349   8.7436   8.9697   9.3150

          k = 0.1667 0.1667-0.4756 (  6082 PWs)   bands (ev):

   -45.8204 -22.5167 -22.4092 -22.4091  -6.9048  -6.3203  -6.0471  -5.0704
    -5.0205  -4.9796  -4.8596  -4.7794   2.7959   5.8989   5.9039   6.5974
     7.4496   7.4732   8.2388   8.8140   9.0269   9.6428

          k = 0.1667 0.3333 0.0000 (  6060 PWs)   bands (ev):

   -45.8203 -22.4767 -22.4449 -22.4093  -6.9609  -6.3082  -6.1753  -5.0781
    -5.0331  -4.9947  -4.8346  -4.7539   3.0288   5.9962   6.5371   6.8312
     7.2084   7.7552   8.0636   8.7071   8.8930   9.6721

          k = 0.1667 0.3333 0.2378 (  6069 PWs)   bands (ev):

   -45.8200 -22.4958 -22.4440 -22.4085  -6.8402  -6.3020  -6.1092  -5.0568
    -5.0335  -4.9718  -4.8169  -4.7130   2.8992   5.8336   6.0005   6.4936
     6.9243   7.5744   8.3977   8.6830   9.0153   9.4032

          k = 0.1667 0.3333-0.4756 (  6068 PWs)   bands (ev):

   -45.8198 -22.5148 -22.4430 -22.4076  -6.7553  -6.2814  -6.0079  -5.0542
    -5.0112  -4.9328  -4.8289  -4.6620   2.7319   5.4993   5.9191   6.2268
     6.4405   7.4368   8.4810   8.7432   8.9227   9.4319

          k = 0.1667-0.5000 0.0000 (  6066 PWs)   bands (ev):

   -45.8200 -22.4757 -22.4621 -22.4085  -6.8054  -6.2640  -6.1987  -5.0809
    -5.0259  -4.9739  -4.8115  -4.7908   2.8424   5.6511   6.6768   6.8629
     7.2002   7.4732   7.9088   8.7794   8.8600   9.9692

          k = 0.1667-0.5000 0.2378 (  6056 PWs)   bands (ev):

   -45.8197 -22.4947 -22.4610 -22.4077  -6.7394  -6.2332  -6.1317  -5.0553
    -5.0209  -4.9513  -4.7953  -4.7070   2.7917   5.6074   5.9094   6.2711
     6.8731   7.7142   8.1802   8.6857   9.0193   9.3637

          k = 0.1667-0.5000-0.4756 (  6056 PWs)   bands (ev):

   -45.8194 -22.5137 -22.4599 -22.4068  -6.7255  -6.2037  -5.9932  -5.0493
    -4.9833  -4.9292  -4.8102  -4.6070   2.7011   5.3832   5.7834   5.8905
     6.3079   7.5513   8.2966   8.6360   8.6656   9.6377

          k = 0.3333 0.3333 0.0000 (  6100 PWs)   bands (ev):

   -45.8197 -22.4751 -22.4432 -22.4431  -6.7228  -6.2514  -6.2234  -5.0600
    -5.0158  -4.9248  -4.7588  -4.7567   2.6702   5.9551   6.1064   6.9332
     7.0874   7.2157   7.9033   8.5053   9.3880   9.3955

          k = 0.3333 0.3333 0.2378 (  6085 PWs)   bands (ev):

   -45.8194 -22.4941 -22.4424 -22.4422  -6.5941  -6.3000  -6.1945  -5.0238
    -5.0097  -4.8672  -4.7134  -4.6793   2.8509   5.5933   5.6598   5.9461
     6.6175   7.0656   8.3806   8.9790   8.9951   9.4023

          k = 0.3333 0.3333-0.4756 (  6060 PWs)   bands (ev):

   -45.8191 -22.5130 -22.4414 -22.4413  -6.5280  -6.3448  -6.0923  -5.0037
    -4.9877  -4.8056  -4.6670  -4.6048   3.0144   5.2069   5.2338   5.7045
     6.3557   6.5352   7.6486   9.3287   9.3761   9.5106

          k = 0.3333-0.5000 0.0000 (  6102 PWs)   bands (ev):

   -45.8193 -22.4741 -22.4602 -22.4423  -6.6171  -6.2355  -6.2157  -5.0527
    -4.9944  -4.8613  -4.7905  -4.7258   2.5028   5.6275   6.1425   6.7529
     7.2617   7.4149   7.5021   8.4894   9.0786   9.5787

          k = 0.3333-0.5000 0.2378 (  6072 PWs)   bands (ev):

   -45.8191 -22.4931 -22.4592 -22.4415  -6.4890  -6.2632  -6.2486  -5.0159
    -4.9843  -4.7794  -4.7094  -4.6520   2.7947   5.4909   5.5838   5.6810
     6.4018   7.1372   7.9098   8.9701   8.9966   9.5577

          k = 0.3333-0.5000-0.4756 (  6072 PWs)   bands (ev):

   -45.8188 -22.5120 -22.4582 -22.4406  -6.4777  -6.3070  -6.1289  -4.9890
    -4.9658  -4.7215  -4.6283  -4.5545   3.1614   4.9597   5.1332   5.4695
     6.1512   6.5412   6.8834   9.4306   9.5319   9.6606

          k =-0.5000-0.5000 0.0000 (  6096 PWs)   bands (ev):

   -45.8190 -22.4731 -22.4592 -22.4592  -6.5718  -6.1944  -6.1944  -5.0430
    -4.9533  -4.8063  -4.8063  -4.6838   2.3331   5.4704   5.9920   6.9653
     6.9653   7.5255   7.5255   8.2426   8.5940   9.8368

          k =-0.5000-0.5000 0.2378 (  6092 PWs)   bands (ev):

   -45.8188 -22.4921 -22.4583 -22.4583  -6.3807  -6.2793  -6.2793  -5.0050
    -4.9515  -4.6683  -4.6683  -4.6517   2.7422   5.4250   5.6052   5.6052
     5.9982   7.0774   7.2664   9.0015   9.0015   9.8214

          k =-0.5000-0.5000-0.4756 (  6072 PWs)   bands (ev):

   -45.8185 -22.5110 -22.4574 -22.4574  -6.3526  -6.3526  -6.1851  -4.9669
    -4.9497  -4.6090  -4.5398  -4.5398   3.4048   4.9740   4.9740   5.3036
     5.9002   6.0045   6.2422   9.6723   9.6723   9.8060

     highest occupied level (ev):    10.3432

!    total energy              =    -380.57434407 Ry
     estimated scf accuracy    <          5.1E-09 Ry

     The total energy is the sum of the following terms:
     one-electron contribution =     -84.30442639 Ry
     hartree contribution      =      71.28895270 Ry
     xc contribution           =    -102.55250433 Ry
     ewald contribution        =    -265.00636605 Ry

     convergence has been achieved in   8 iterations

     negative rho (up, down):  1.573E-02 0.000E+00

     Forces acting on atoms (cartesian axes, Ry/au):

     atom    1 type  1   force =     0.00000000    0.00000000   -0.00861768
     atom    2 type  2   force =     0.00000000    0.00000000   -0.00503596
     atom    3 type  3   force =     0.00000000    0.00000000    0.01141569
     atom    4 type  3   force =     0.00000000    0.00000000    0.00111897
     atom    5 type  3   force =     0.00000000    0.00000000    0.00111897

     Total force =     0.015246     Total SCF correction =     0.000128


     Computing stress (Cartesian axis) and pressure


     negative rho (up, down):  1.573E-02 0.000E+00
          total   stress  (Ry/bohr**3)                   (kbar)     P=      -59.10
  -0.00041535   0.00000000   0.00000000          -61.10        0.00        0.00
   0.00000000  -0.00041535   0.00000000            0.00      -61.10        0.00
   0.00000000   0.00000000  -0.00037465            0.00        0.00      -55.11

     Energy error            =      5.0E-04 Ry
     Gradient error          =      1.1E-02 Ry/Bohr

     number of scf cycles    =   2
     number of bfgs steps    =   1

     energy             old  =    -380.5738461143 Ry
     energy             new  =    -380.5743440656 Ry

     CASE: energy            _new < energy            _old

     new trust radius        =       0.0224579347 bohr
     new conv_thr            =       0.0000000005 Ry


ATOMIC_POSITIONS (crystal)
Pb               0.0000000000        0.0000000000        1.0033950282
Ti               0.5000000000        0.5000000000        0.5374775298
O                0.5000000000        0.5000000000        0.1041139767
O                0.5000000000        0.0000000000        0.6111488767
O                0.0000000000        0.5000000000        0.6111488767



     Writing config-only to output data dir ./pto_90.save/ :
     XML data file
     NEW-OLD atomic charge density approx. for the potential

     Check: negative core charge=   -0.000001

     negative rho (up, down):  1.576E-02 0.000E+00

     total cpu time spent up to now is       45.3 secs

     Self-consistent Calculation

     iteration #  1     ecut=    90.00 Ry     beta= 0.70
     CG style diagonalization
     c_bands:  1 eigenvalues not converged
     c_bands:  1 eigenvalues not converged
     c_bands:  1 eigenvalues not converged
     ethr =  1.00E-06,  avg # of iterations =  7.0

     negative rho (up, down):  1.572E-02 0.000E+00

     total cpu time spent up to now is       48.2 secs

     total energy              =    -380.57451096 Ry
     estimated scf accuracy    <       0.00023975 Ry

     iteration #  2     ecut=    90.00 Ry     beta= 0.70
     CG style diagonalization
     ethr =  5.45E-07,  avg # of iterations =  4.7

     negative rho (up, down):  1.573E-02 0.000E+00

     total cpu time spent up to now is       50.0 secs

     total energy              =    -380.57450008 Ry
     estimated scf accuracy    <       0.00063044 Ry

     iteration #  3     ecut=    90.00 Ry     beta= 0.70
     CG style diagonalization
     ethr =  5.45E-07,  avg # of iterations =  4.3

     negative rho (up, down):  1.573E-02 0.000E+00

     total cpu time spent up to now is       51.8 secs

     total energy              =    -380.57462836 Ry
     estimated scf accuracy    <       0.00005169 Ry

     iteration #  4     ecut=    90.00 Ry     beta= 0.70
     CG style diagonalization
     ethr =  1.17E-07,  avg # of iterations =  3.7

     negative rho (up, down):  1.572E-02 0.000E+00

     total cpu time spent up to now is       53.3 secs

     total energy              =    -380.57463930 Ry
     estimated scf accuracy    <       0.00000630 Ry

     iteration #  5     ecut=    90.00 Ry     beta= 0.70
     CG style diagonalization
     ethr =  1.43E-08,  avg # of iterations =  4.3

     negative rho (up, down):  1.572E-02 0.000E+00

     total cpu time spent up to now is       55.0 secs

     total energy              =    -380.57464291 Ry
     estimated scf accuracy    <       0.00000082 Ry

     iteration #  6     ecut=    90.00 Ry     beta= 0.70
     CG style diagonalization
     ethr =  1.87E-09,  avg # of iterations =  4.5

     negative rho (up, down):  1.572E-02 0.000E+00

     total cpu time spent up to now is       56.7 secs

     total energy              =    -380.57464335 Ry
     estimated scf accuracy    <       0.00000029 Ry

     iteration #  7     ecut=    90.00 Ry     beta= 0.70
     CG style diagonalization
     ethr =  6.67E-10,  avg # of iterations =  4.2

     negative rho (up, down):  1.572E-02 0.000E+00

     total cpu time spent up to now is       58.4 secs

     total energy              =    -380.57464344 Ry
     estimated scf accuracy    <       0.00000007 Ry

     iteration #  8     ecut=    90.00 Ry     beta= 0.70
     CG style diagonalization
     ethr =  1.64E-10,  avg # of iterations =  4.7

     negative rho (up, down):  1.572E-02 0.000E+00

     total cpu time spent up to now is       60.3 secs

     total energy              =    -380.57464349 Ry
     estimated scf accuracy    <          3.2E-09 Ry

     iteration #  9     ecut=    90.00 Ry     beta= 0.70
     CG style diagonalization
     ethr =  7.26E-12,  avg # of iterations =  7.3

     negative rho (up, down):  1.572E-02 0.000E+00

     total cpu time spent up to now is       63.1 secs

     total energy              =    -380.57464351 Ry
     estimated scf accuracy    <          8.6E-10 Ry

     iteration # 10     ecut=    90.00 Ry     beta= 0.70
     CG style diagonalization
     ethr =  1.97E-12,  avg # of iterations =  5.5

     negative rho (up, down):  1.572E-02 0.000E+00

     total cpu time spent up to now is       65.2 secs

     End of self-consistent calculation

          k = 0.0000 0.0000 0.0000 (  6071 PWs)   bands (ev):

   -45.7863 -22.4687 -22.3587 -22.3587  -7.5127  -6.4293  -6.2194  -5.0290
    -5.0290  -4.9967  -4.8838  -4.7551   4.2049   6.3094   6.3094   6.6962
     8.1379   8.1379   8.4903   8.6621   8.9497   8.9497

          k = 0.0000 0.0000 0.2378 (  6055 PWs)   bands (ev):

   -45.7861 -22.4883 -22.3580 -22.3580  -7.3153  -6.3708  -6.1657  -5.0441
    -5.0441  -4.9955  -4.8755  -4.8259   3.4363   6.3587   6.3587   6.8236
     7.9220   7.9220   8.4054   8.7903   9.0495   9.0495

          k = 0.0000 0.0000-0.4756 (  6032 PWs)   bands (ev):

   -45.7858 -22.5078 -22.3572 -22.3572  -7.0983  -6.3065  -6.1217  -5.0590
    -5.0590  -4.9942  -4.9024  -4.8689   2.9247   6.1777   6.3888   6.3888
     7.7833   7.7833   8.3244   9.1186   9.1186  10.0031

          k = 0.0000 0.1667 0.0000 (  6066 PWs)   bands (ev):

   -45.7860 -22.4679 -22.3760 -22.3580  -7.3787  -6.4013  -6.1932  -5.0506
    -5.0276  -5.0094  -4.8838  -4.7457   3.7862   6.3515   6.4198   6.6995
     8.1215   8.1630   8.4748   8.5779   8.6218   8.9936

          k = 0.0000 0.1667 0.2378 (  6063 PWs)   bands (ev):

   -45.7857 -22.4875 -22.3752 -22.3572  -7.1969  -6.3588  -6.1341  -5.0476
    -5.0431  -5.0086  -4.8815  -4.7821   3.2335   6.1422   6.4769   6.9137
     7.6171   7.9168   8.2630   8.6584   8.7191   9.3623

          k = 0.0000 0.1667-0.4756 (  6058 PWs)   bands (ev):

   -45.7855 -22.5069 -22.3743 -22.3565  -7.0069  -6.3103  -6.0754  -5.0586
    -5.0419  -5.0079  -4.8882  -4.8164   2.8075   5.8306   6.5096   6.5983
     7.4428   7.7858   8.3421   8.7116   8.7976   9.9427

          k = 0.0000 0.3333 0.0000 (  6070 PWs)   bands (ev):

   -45.7854 -22.4664 -22.4104 -22.3566  -7.0864  -6.3420  -6.1559  -5.0827
    -5.0347  -5.0247  -4.8714  -4.7555   3.2154   5.9920   6.6666   6.7097
     7.8421   7.8854   8.2635   8.3432   8.7006   9.5930

          k = 0.0000 0.3333 0.2378 (  6061 PWs)   bands (ev):

   -45.7851 -22.4856 -22.4093 -22.3558  -6.9666  -6.3052  -6.0765  -5.0522
    -5.0414  -5.0346  -4.8707  -4.7275   2.8896   5.8612   6.5569   6.7894
     7.2922   7.7139   7.8578   8.3459   8.9029   9.6722

          k = 0.0000 0.3333-0.4756 (  6088 PWs)   bands (ev):

   -45.7848 -22.5048 -22.4083 -22.3550  -6.8773  -6.2428  -5.9711  -5.0576
    -5.0349  -5.0130  -4.9074  -4.6793   2.5982   5.5354   6.3393   6.8149
     7.1848   7.3860   7.6656   8.3904   9.2580   9.5429

          k = 0.0000-0.5000 0.0000 (  6054 PWs)   bands (ev):

   -45.7850 -22.4655 -22.4275 -22.3559  -6.9235  -6.2958  -6.1638  -5.0961
    -5.0471  -5.0233  -4.8341  -4.7973   3.0074   5.6456   6.9217   6.9827
     7.3689   7.4784   8.2633   8.2952   8.7338  10.3339

          k = 0.0000-0.5000 0.2378 (  6074 PWs)   bands (ev):

   -45.7848 -22.4846 -22.4264 -22.3551  -6.8659  -6.2261  -6.0758  -5.0632
    -5.0477  -5.0403  -4.8376  -4.7238   2.7500   5.6079   6.5775   6.8320
     7.1769   7.2833   7.9673   8.3071   8.9122   9.8347

          k = 0.0000-0.5000-0.4756 (  6076 PWs)   bands (ev):

   -45.7845 -22.5037 -22.4252 -22.3542  -6.8482  -6.1514  -5.9240  -5.0572
    -5.0484  -5.0224  -4.8899  -4.6238   2.5125   5.4047   6.0410   6.8981
     7.1105   7.3873   7.4037   8.3141   9.1439   9.6015

          k = 0.1667 0.1667 0.0000 (  6050 PWs)   bands (ev):

   -45.7857 -22.4672 -22.3754 -22.3751  -7.2479  -6.3720  -6.1872  -5.0558
    -5.0422  -5.0105  -4.8608  -4.7366   3.4928   6.3045   6.5256   6.7210
     7.6662   7.8429   8.4715   8.5723   8.8922   9.1830

          k = 0.1667 0.1667 0.2378 (  6064 PWs)   bands (ev):

   -45.7854 -22.4866 -22.3745 -22.3743  -7.0770  -6.3483  -6.1292  -5.0583
    -5.0372  -5.0034  -4.8533  -4.7507   3.1240   6.0915   6.1731   6.8561
     7.5220   7.5443   8.2944   8.7348   8.9626   9.3134

          k = 0.1667 0.1667-0.4756 (  6082 PWs)   bands (ev):

   -45.7851 -22.5059 -22.3736 -22.3734  -6.9053  -6.3243  -6.0617  -5.0697
    -5.0199  -4.9778  -4.8621  -4.7696   2.7855   5.8849   5.8875   6.6051
     7.4338   7.4738   8.2107   8.8046   9.0169   9.6520

          k = 0.1667 0.3333 0.0000 (  6060 PWs)   bands (ev):

   -45.7850 -22.4656 -22.4095 -22.3737  -6.9662  -6.3138  -6.1882  -5.0764
    -5.0322  -4.9945  -4.8327  -4.7450   3.0260   6.0022   6.5292   6.8346
     7.2008   7.7036   8.0652   8.6895   8.8803   9.6533

          k = 0.1667 0.3333 0.2378 (  6069 PWs)   bands (ev):

   -45.7848 -22.4848 -22.4085 -22.3729  -6.8434  -6.3078  -6.1232  -5.0556
    -5.0320  -4.9725  -4.8154  -4.7040   2.8959   5.8269   5.9907   6.4945
     6.9171   7.5703   8.3771   8.6633   8.9997   9.3996

          k = 0.1667 0.3333-0.4756 (  6068 PWs)   bands (ev):

   -45.7845 -22.5039 -22.4075 -22.3720  -6.7568  -6.2870  -6.0229  -5.0537
    -5.0101  -4.9337  -4.8268  -4.6537   2.7273   5.4792   5.9096   6.2293
     6.4441   7.4411   8.4462   8.7392   8.9261   9.4135

          k = 0.1667-0.5000 0.0000 (  6066 PWs)   bands (ev):

   -45.7847 -22.4647 -22.4266 -22.3729  -6.8113  -6.2699  -6.2135  -5.0788
    -5.0247  -4.9747  -4.8031  -4.7860   2.8393   5.6625   6.6523   6.8704
     7.2077   7.4785   7.8436   8.7715   8.8362   9.9657

          k = 0.1667-0.5000 0.2378 (  6056 PWs)   bands (ev):

   -45.7844 -22.4838 -22.4255 -22.3721  -6.7426  -6.2396  -6.1472  -5.0539
    -5.0191  -4.9542  -4.7902  -4.6989   2.7895   5.6130   5.9000   6.2616
     6.8684   7.7061   8.1748   8.6531   9.0147   9.3519

          k = 0.1667-0.5000-0.4756 (  6056 PWs)   bands (ev):

   -45.7842 -22.5028 -22.4244 -22.3712  -6.7272  -6.2106  -6.0083  -5.0487
    -4.9813  -4.9338  -4.8043  -4.5996   2.7001   5.3670   5.7739   5.8925
     6.3082   7.5582   8.2946   8.6054   8.6682   9.6125

          k = 0.3333 0.3333 0.0000 (  6100 PWs)   bands (ev):

   -45.7844 -22.4640 -22.4079 -22.4076  -6.7312  -6.2583  -6.2340  -5.0577
    -5.0148  -4.9224  -4.7600  -4.7470   2.6640   5.9559   6.1236   6.9099
     7.0899   7.1699   7.9206   8.4915   9.3828   9.3892

          k = 0.3333 0.3333 0.2378 (  6085 PWs)   bands (ev):

   -45.7841 -22.4831 -22.4069 -22.4067  -6.5998  -6.3058  -6.2061  -5.0215
    -5.0093  -4.8684  -4.7135  -4.6703   2.8435   5.5831   5.6540   5.9485
     6.6273   7.0638   8.3785   8.9636   8.9718   9.3959

          k = 0.3333 0.3333-0.4756 (  6060 PWs)   bands (ev):

   -45.7839 -22.5021 -22.4059 -22.4058  -6.5317  -6.3498  -6.1039  -5.0037
    -4.9856  -4.8110  -4.6655  -4.5965   3.0050   5.1968   5.2239   5.7054
     6.3582   6.5543   7.6550   9.2994   9.3733   9.4871

          k = 0.3333-0.5000 0.0000 (  6102 PWs)   bands (ev):

   -45.7841 -22.4631 -22.4247 -22.4068  -6.6271  -6.2451  -6.2233  -5.0503
    -4.9933  -4.8565  -4.7824  -4.7275   2.4947   5.6354   6.1606   6.7250
     7.2193   7.4216   7.5061   8.4835   9.0838   9.5762

          k = 0.3333-0.5000 0.2378 (  6072 PWs)   bands (ev):

   -45.7838 -22.4821 -22.4237 -22.4060  -6.4956  -6.2698  -6.2590  -5.0137
    -4.9838  -4.7835  -4.7019  -4.6485   2.7850   5.4827   5.5872   5.6784
     6.4123   7.1331   7.9211   8.9517   8.9726   9.5536

          k = 0.3333-0.5000-0.4756 (  6072 PWs)   bands (ev):

   -45.7835 -22.5011 -22.4227 -22.4051  -6.4819  -6.3129  -6.1388  -4.9881
    -4.9644  -4.7314  -4.6217  -4.5490   3.1488   4.9540   5.1194   5.4789
     6.1588   6.5516   6.8986   9.4032   9.5292   9.6364

          k =-0.5000-0.5000 0.0000 (  6096 PWs)   bands (ev):

   -45.7838 -22.4622 -22.4237 -22.4237  -6.5831  -6.2031  -6.2031  -5.0407
    -4.9531  -4.7955  -4.7955  -4.6933   2.3224   5.4763   6.0173   6.9322
     6.9322   7.5299   7.5299   8.2377   8.6111   9.8345

          k =-0.5000-0.5000 0.2378 (  6092 PWs)   bands (ev):

   -45.7835 -22.4812 -22.4228 -22.4228  -6.3906  -6.2862  -6.2862  -5.0027
    -4.9513  -4.6632  -4.6597  -4.6597   2.7281   5.4325   5.5942   5.5942
     6.0236   7.0730   7.2860   8.9819   8.9819   9.8191

          k =-0.5000-0.5000-0.4756 (  6072 PWs)   bands (ev):

   -45.7832 -22.5002 -22.4219 -22.4219  -6.3582  -6.3582  -6.1932  -4.9647
    -4.9494  -4.6233  -4.5329  -4.5329   3.3794   4.9664   4.9664   5.3140
     5.9311   6.0300   6.2364   9.6488   9.6488   9.8038

     highest occupied level (ev):    10.3339

!    total energy              =    -380.57464351 Ry
     estimated scf accuracy    <          7.2E-11 Ry

     The total energy is the sum of the following terms:
     one-electron contribution =     -84.64367725 Ry
     hartree contribution      =      71.46781262 Ry
     xc contribution           =    -102.56476150 Ry
     ewald contribution        =    -264.83401738 Ry

     convergence has been achieved in  10 iterations

     negative rho (up, down):  1.572E-02 0.000E+00

     Forces acting on atoms (cartesian axes, Ry/au):

     atom    1 type  1   force =     0.00000000    0.00000000   -0.00859603
     atom    2 type  2   force =     0.00000000    0.00000000    0.00277511
     atom    3 type  3   force =     0.00000000    0.00000000    0.00127035
     atom    4 type  3   force =     0.00000000    0.00000000    0.00227528
     atom    5 type  3   force =     0.00000000    0.00000000    0.00227528

     Total force =     0.009673     Total SCF correction =     0.000011


     Computing stress (Cartesian axis) and pressure


     negative rho (up, down):  1.572E-02 0.000E+00
          total   stress  (Ry/bohr**3)                   (kbar)     P=      -52.69
  -0.00039921   0.00000000   0.00000000          -58.73        0.00        0.00
   0.00000000  -0.00039921   0.00000000            0.00      -58.73        0.00
   0.00000000   0.00000000  -0.00027606            0.00        0.00      -40.61

     Energy error            =      3.0E-04 Ry
     Gradient error          =      8.6E-03 Ry/Bohr

     number of scf cycles    =   3
     number of bfgs steps    =   2

     energy             old  =    -380.5743440656 Ry
     energy             new  =    -380.5746435079 Ry

     CASE: energy            _new < energy            _old

     new trust radius        =       0.0190242534 bohr
     new conv_thr            =       0.0000000003 Ry


ATOMIC_POSITIONS (crystal)
Pb               0.0000000000        0.0000000000        1.0009396132
Ti               0.5000000000        0.5000000000        0.5372156288
O                0.5000000000        0.5000000000        0.1058440001
O                0.5000000000        0.0000000000        0.6116425230
O                0.0000000000        0.5000000000        0.6116425230



     Writing config-only to output data dir ./pto_90.save/ :
     XML data file
     NEW-OLD atomic charge density approx. for the potential

     Check: negative core charge=   -0.000001

     negative rho (up, down):  1.581E-02 0.000E+00

     total cpu time spent up to now is       67.9 secs

     Self-consistent Calculation

     iteration #  1     ecut=    90.00 Ry     beta= 0.70
     CG style diagonalization
     ethr =  1.00E-06,  avg # of iterations =  5.6

     negative rho (up, down):  1.577E-02 0.000E+00

     total cpu time spent up to now is       70.3 secs

     total energy              =    -380.57474344 Ry
     estimated scf accuracy    <       0.00005651 Ry

     iteration #  2     ecut=    90.00 Ry     beta= 0.70
     CG style diagonalization
     ethr =  1.28E-07,  avg # of iterations =  4.8

     negative rho (up, down):  1.577E-02 0.000E+00

     total cpu time spent up to now is       72.2 secs

     total energy              =    -380.57475607 Ry
     estimated scf accuracy    <       0.00012271 Ry

     iteration #  3     ecut=    90.00 Ry     beta= 0.70
     CG style diagonalization
     ethr =  1.28E-07,  avg # of iterations =  4.3

     negative rho (up, down):  1.577E-02 0.000E+00

     total cpu time spent up to now is       73.9 secs

     total energy              =    -380.57478321 Ry
     estimated scf accuracy    <       0.00001698 Ry

     iteration #  4     ecut=    90.00 Ry     beta= 0.70
     CG style diagonalization
     ethr =  3.86E-08,  avg # of iterations =  3.7

     negative rho (up, down):  1.576E-02 0.000E+00

     total cpu time spent up to now is       75.4 secs

     total energy              =    -380.57478675 Ry
     estimated scf accuracy    <       0.00000189 Ry

     iteration #  5     ecut=    90.00 Ry     beta= 0.70
     CG style diagonalization
     ethr =  4.30E-09,  avg # of iterations =  4.4

     negative rho (up, down):  1.576E-02 0.000E+00

     total cpu time spent up to now is       77.1 secs

     total energy              =    -380.57478790 Ry
     estimated scf accuracy    <       0.00000013 Ry

     iteration #  6     ecut=    90.00 Ry     beta= 0.70
     CG style diagonalization
     ethr =  3.02E-10,  avg # of iterations =  5.3

     negative rho (up, down):  1.576E-02 0.000E+00

     total cpu time spent up to now is       79.2 secs

     total energy              =    -380.57478803 Ry
     estimated scf accuracy    <       0.00000015 Ry

     iteration #  7     ecut=    90.00 Ry     beta= 0.70
     CG style diagonalization
     ethr =  3.02E-10,  avg # of iterations =  3.9

     negative rho (up, down):  1.576E-02 0.000E+00

     total cpu time spent up to now is       80.8 secs

     total energy              =    -380.57478805 Ry
     estimated scf accuracy    <       0.00000004 Ry

     iteration #  8     ecut=    90.00 Ry     beta= 0.70
     CG style diagonalization
     ethr =  8.71E-11,  avg # of iterations =  4.2

     negative rho (up, down):  1.576E-02 0.000E+00

     total cpu time spent up to now is       82.5 secs

     total energy              =    -380.57478807 Ry
     estimated scf accuracy    <          1.8E-09 Ry

     iteration #  9     ecut=    90.00 Ry     beta= 0.70
     CG style diagonalization
     ethr =  4.13E-12,  avg # of iterations =  7.0

     negative rho (up, down):  1.576E-02 0.000E+00

     total cpu time spent up to now is       85.2 secs

     total energy              =    -380.57478808 Ry
     estimated scf accuracy    <          6.1E-10 Ry

     iteration # 10     ecut=    90.00 Ry     beta= 0.70
     CG style diagonalization
     ethr =  1.39E-12,  avg # of iterations =  4.6

     negative rho (up, down):  1.576E-02 0.000E+00

     total cpu time spent up to now is       87.0 secs

     End of self-consistent calculation

          k = 0.0000 0.0000 0.0000 (  6071 PWs)   bands (ev):

   -45.7730 -22.4664 -22.3458 -22.3458  -7.5230  -6.4437  -6.2202  -5.0231
    -5.0231  -4.9898  -4.8836  -4.7408   4.2015   6.3001   6.3001   6.7299
     8.1086   8.1086   8.4838   8.6333   8.9385   8.9385

          k = 0.0000 0.0000 0.2378 (  6055 PWs)   bands (ev):

   -45.7727 -22.4861 -22.3450 -22.3450  -7.3270  -6.3865  -6.1660  -5.0381
    -5.0381  -4.9885  -4.8742  -4.8101   3.4353   6.3445   6.3445   6.8406
     7.9032   7.9032   8.3988   8.7817   9.0366   9.0366

          k = 0.0000 0.0000-0.4756 (  6032 PWs)   bands (ev):

   -45.7724 -22.5056 -22.3442 -22.3442  -7.1121  -6.3239  -6.1208  -5.0531
    -5.0531  -4.9872  -4.8849  -4.8661   2.9219   6.1905   6.3687   6.3687
     7.7743   7.7743   8.3177   9.1045   9.1045  10.0011

          k = 0.0000 0.1667 0.0000 (  6066 PWs)   bands (ev):

   -45.7727 -22.4657 -22.3631 -22.3451  -7.3891  -6.4163  -6.1959  -5.0449
    -5.0217  -5.0024  -4.8807  -4.7311   3.7854   6.3441   6.4103   6.7106
     8.1106   8.1333   8.4647   8.5677   8.6019   8.9814

          k = 0.0000 0.1667 0.2378 (  6063 PWs)   bands (ev):

   -45.7724 -22.4852 -22.3622 -22.3443  -7.2088  -6.3746  -6.1361  -5.0409
    -5.0372  -5.0016  -4.8782  -4.7670   3.2343   6.1302   6.4628   6.9214
     7.6050   7.8974   8.2522   8.6464   8.7072   9.3591

          k = 0.0000 0.1667-0.4756 (  6058 PWs)   bands (ev):

   -45.7721 -22.5046 -22.3614 -22.3435  -7.0208  -6.3272  -6.0760  -5.0526
    -5.0343  -5.0009  -4.8836  -4.8014   2.8072   5.8210   6.4898   6.6003
     7.4353   7.7753   8.3270   8.6997   8.7855   9.9475

          k = 0.0000 0.3333 0.0000 (  6070 PWs)   bands (ev):

   -45.7720 -22.4641 -22.3976 -22.3437  -7.0970  -6.3580  -6.1631  -5.0760
    -5.0276  -5.0187  -4.8625  -4.7414   3.2168   5.9855   6.6637   6.6997
     7.8313   7.8790   8.2290   8.3344   8.6786   9.5971

          k = 0.0000 0.3333 0.2378 (  6061 PWs)   bands (ev):

   -45.7717 -22.4834 -22.3965 -22.3428  -6.9787  -6.3214  -6.0821  -5.0448
    -5.0354  -5.0276  -4.8631  -4.7129   2.8929   5.8504   6.5533   6.7758
     7.2773   7.6983   7.8550   8.3283   8.8894   9.6759

          k = 0.0000 0.3333-0.4756 (  6088 PWs)   bands (ev):

   -45.7715 -22.5025 -22.3954 -22.3420  -6.8905  -6.2604  -5.9747  -5.0516
    -5.0279  -5.0047  -4.8989  -4.6661   2.6026   5.5205   6.3402   6.7961
     7.1676   7.3839   7.6519   8.3787   9.2438   9.5518

          k = 0.0000-0.5000 0.0000 (  6054 PWs)   bands (ev):

   -45.7717 -22.4632 -22.4147 -22.3429  -6.9345  -6.3113  -6.1743  -5.0885
    -5.0400  -5.0173  -4.8171  -4.7886   3.0093   5.6423   6.9083   6.9709
     7.3659   7.4747   8.2531   8.2586   8.7108  10.3357

          k = 0.0000-0.5000 0.2378 (  6074 PWs)   bands (ev):

   -45.7714 -22.4824 -22.4136 -22.3421  -6.8783  -6.2433  -6.0826  -5.0551
    -5.0406  -5.0343  -4.8279  -4.7095   2.7545   5.6022   6.5701   6.8136
     7.1639   7.2702   7.9629   8.2850   8.9013   9.8386

          k = 0.0000-0.5000-0.4756 (  6076 PWs)   bands (ev):

   -45.7711 -22.5014 -22.4124 -22.3413  -6.8609  -6.1706  -5.9286  -5.0511
    -5.0413  -5.0139  -4.8788  -4.6116   2.5192   5.3921   6.0366   6.8735
     7.0927   7.3729   7.4091   8.3006   9.1538   9.5874

          k = 0.1667 0.1667 0.0000 (  6050 PWs)   bands (ev):

   -45.7723 -22.4649 -22.3625 -22.3622  -7.2583  -6.3876  -6.1913  -5.0497
    -5.0361  -5.0035  -4.8562  -4.7217   3.4911   6.2985   6.5197   6.7219
     7.6444   7.8311   8.4572   8.5669   8.8800   9.1670

          k = 0.1667 0.1667 0.2378 (  6064 PWs)   bands (ev):

   -45.7721 -22.4844 -22.3616 -22.3613  -7.0890  -6.3643  -6.1320  -5.0519
    -5.0302  -4.9967  -4.8490  -4.7357   3.1241   6.0809   6.1618   6.8559
     7.5134   7.5334   8.2755   8.7233   8.9494   9.3145

          k = 0.1667 0.1667-0.4756 (  6082 PWs)   bands (ev):

   -45.7718 -22.5037 -22.3607 -22.3605  -6.9193  -6.3407  -6.0627  -5.0633
    -5.0128  -4.9712  -4.8576  -4.7543   2.7853   5.8719   5.8796   6.6019
     7.4149   7.4714   8.1986   8.7921   9.0026   9.6591

          k = 0.1667 0.3333 0.0000 (  6060 PWs)   bands (ev):

   -45.7717 -22.4633 -22.3967 -22.3608  -6.9765  -6.3305  -6.1957  -5.0694
    -5.0258  -4.9875  -4.8243  -4.7302   3.0232   5.9967   6.5206   6.8328
     7.1896   7.6826   8.0608   8.6771   8.8649   9.6503

          k = 0.1667 0.3333 0.2378 (  6069 PWs)   bands (ev):

   -45.7714 -22.4826 -22.3956 -22.3599  -6.8556  -6.3239  -6.1280  -5.0486
    -5.0251  -4.9665  -4.8078  -4.6897   2.8953   5.8169   5.9789   6.4904
     6.9107   7.5656   8.3606   8.6490   8.9862   9.4028

          k = 0.1667 0.3333-0.4756 (  6068 PWs)   bands (ev):

   -45.7711 -22.5017 -22.3946 -22.3591  -6.7705  -6.3035  -6.0246  -5.0474
    -5.0032  -4.9284  -4.8184  -4.6408   2.7284   5.4659   5.8953   6.2281
     6.4375   7.4378   8.4310   8.7252   8.9322   9.4025

          k = 0.1667-0.5000 0.0000 (  6066 PWs)   bands (ev):

   -45.7714 -22.4624 -22.4138 -22.3600  -6.8212  -6.2864  -6.2237  -5.0714
    -5.0182  -4.9683  -4.7879  -4.7757   2.8359   5.6595   6.6365   6.8656
     7.2048   7.4764   7.8175   8.7580   8.8202   9.9697

          k = 0.1667-0.5000 0.2378 (  6056 PWs)   bands (ev):

   -45.7711 -22.4816 -22.4127 -22.3592  -6.7550  -6.2566  -6.1520  -5.0469
    -5.0121  -4.9494  -4.7798  -4.6854   2.7888   5.6075   5.8864   6.2535
     6.8637   7.6997   8.1633   8.6349   9.0044   9.3556

          k = 0.1667-0.5000-0.4756 (  6056 PWs)   bands (ev):

   -45.7708 -22.5006 -22.4116 -22.3583  -6.7404  -6.2280  -6.0098  -5.0424
    -4.9741  -4.9301  -4.7932  -4.5880   2.7023   5.3541   5.7539   5.8894
     6.3069   7.5551   8.2996   8.5902   8.6622   9.5980

          k = 0.3333 0.3333 0.0000 (  6100 PWs)   bands (ev):

   -45.7710 -22.4617 -22.3950 -22.3947  -6.7386  -6.2766  -6.2447  -5.0503
    -5.0078  -4.9138  -4.7533  -4.7315   2.6539   5.9482   6.1241   6.8986
     7.0867   7.1559   7.9192   8.4849   9.3673   9.3929

          k = 0.3333 0.3333 0.2378 (  6085 PWs)   bands (ev):

   -45.7708 -22.4808 -22.3941 -22.3938  -6.6110  -6.3223  -6.2107  -5.0140
    -5.0028  -4.8631  -4.7065  -4.6565   2.8333   5.5737   5.6493   5.9425
     6.6287   7.0630   8.3821   8.9517   8.9622   9.3805

          k = 0.3333 0.3333-0.4756 (  6060 PWs)   bands (ev):

   -45.7705 -22.4998 -22.3931 -22.3930  -6.5461  -6.3648  -6.1029  -4.9974
    -4.9783  -4.8088  -4.6581  -4.5842   2.9958   5.1923   5.2080   5.7022
     6.3572   6.5579   7.6719   9.2836   9.3584   9.4730

          k = 0.3333-0.5000 0.0000 (  6102 PWs)   bands (ev):

   -45.7707 -22.4608 -22.4119 -22.3940  -6.6309  -6.2603  -6.2419  -5.0429
    -4.9861  -4.8459  -4.7686  -4.7201   2.4815   5.6309   6.1613   6.7157
     7.2067   7.4167   7.5017   8.4792   9.0935   9.5618

          k = 0.3333-0.5000 0.2378 (  6072 PWs)   bands (ev):

   -45.7705 -22.4799 -22.4109 -22.3931  -6.5055  -6.2866  -6.2643  -5.0063
    -4.9770  -4.7802  -4.6899  -4.6382   2.7698   5.4777   5.5817   5.6753
     6.4126   7.1316   7.9361   8.9416   8.9584   9.5385

          k = 0.3333-0.5000-0.4756 (  6072 PWs)   bands (ev):

   -45.7702 -22.4988 -22.4099 -22.3922  -6.4960  -6.3281  -6.1367  -4.9814
    -4.9573  -4.7318  -4.6114  -4.5390   3.1312   4.9448   5.1134   5.4780
     6.1582   6.5520   6.9254   9.3885   9.5137   9.6230

          k =-0.5000-0.5000 0.0000 (  6096 PWs)   bands (ev):

   -45.7704 -22.4599 -22.4109 -22.4109  -6.5821  -6.2228  -6.2228  -5.0332
    -4.9462  -4.7790  -4.7790  -4.6932   2.3047   5.4710   6.0217   6.9253
     6.9253   7.5228   7.5228   8.2373   8.6250   9.8193

          k =-0.5000-0.5000 0.2378 (  6092 PWs)   bands (ev):

   -45.7701 -22.4789 -22.4100 -22.4100  -6.3886  -6.3028  -6.3028  -4.9953
    -4.9444  -4.6645  -4.6468  -4.6468   2.7049   5.4285   5.5916   5.5916
     6.0280   7.0714   7.3086   8.9704   8.9704   9.8040

          k =-0.5000-0.5000-0.4756 (  6072 PWs)   bands (ev):

   -45.7699 -22.4979 -22.4091 -22.4091  -6.3727  -6.3727  -6.1897  -4.9573
    -4.9426  -4.6264  -4.5227  -4.5227   3.3395   4.9658   4.9658   5.3133
     5.9721   6.0344   6.2317   9.6363   9.6363   9.7888

     highest occupied level (ev):    10.3357

!    total energy              =    -380.57478808 Ry
     estimated scf accuracy    <          5.4E-11 Ry

     The total energy is the sum of the following terms:
     one-electron contribution =     -84.96022584 Ry
     hartree contribution      =      71.62956994 Ry
     xc contribution           =    -102.57316436 Ry
     ewald contribution        =    -264.67096782 Ry

     convergence has been achieved in  10 iterations

     negative rho (up, down):  1.576E-02 0.000E+00

     Forces acting on atoms (cartesian axes, Ry/au):

     atom    1 type  1   force =     0.00000000    0.00000000   -0.00718658
     atom    2 type  2   force =     0.00000000    0.00000000    0.00543504
     atom    3 type  3   force =     0.00000000    0.00000000   -0.00361568
     atom    4 type  3   force =     0.00000000    0.00000000    0.00268361
     atom    5 type  3   force =     0.00000000    0.00000000    0.00268361

     Total force =     0.010424     Total SCF correction =     0.000015


     Computing stress (Cartesian axis) and pressure


     negative rho (up, down):  1.576E-02 0.000E+00
          total   stress  (Ry/bohr**3)                   (kbar)     P=      -48.32
  -0.00038285   0.00000000   0.00000000          -56.32        0.00        0.00
   0.00000000  -0.00038285   0.00000000            0.00      -56.32        0.00
   0.00000000   0.00000000  -0.00021978            0.00        0.00      -32.33

     Energy error            =      1.4E-04 Ry
     Gradient error          =      7.2E-03 Ry/Bohr

     number of scf cycles    =   4
     number of bfgs steps    =   3

     energy             old  =    -380.5746435079 Ry
     energy             new  =    -380.5747880754 Ry

     CASE: energy            _new < energy            _old

     new trust radius        =       0.0209266788 bohr
     new conv_thr            =       0.0000000001 Ry


ATOMIC_POSITIONS (crystal)
Pb               0.0000000000        0.0000000000        0.9982386567
Ti               0.5000000000        0.5000000000        0.5374941153
O                0.5000000000        0.5000000000        0.1069096091
O                0.5000000000        0.0000000000        0.6123209534
O                0.0000000000        0.5000000000        0.6123209534



     Writing config-only to output data dir ./pto_90.save/ :
     XML data file
     NEW-OLD atomic charge density approx. for the potential

     Check: negative core charge=   -0.000001

     negative rho (up, down):  1.581E-02 0.000E+00

     total cpu time spent up to now is       89.7 secs

     Self-consistent Calculation

     iteration #  1     ecut=    90.00 Ry     beta= 0.70
     CG style diagonalization
     ethr =  1.00E-06,  avg # of iterations =  5.4

     Threshold (ethr) on eigenvalues was too large:
     Diagonalizing with lowered threshold

     CG style diagonalization
     c_bands:  1 eigenvalues not converged
     c_bands:  2 eigenvalues not converged
     c_bands:  1 eigenvalues not converged
     c_bands:  1 eigenvalues not converged
     c_bands:  2 eigenvalues not converged
     c_bands:  1 eigenvalues not converged
     c_bands:  1 eigenvalues not converged
     ethr =  4.29E-08,  avg # of iterations =  6.0

     negative rho (up, down):  1.578E-02 0.000E+00

     total cpu time spent up to now is       94.4 secs

     total energy              =    -380.57490909 Ry
     estimated scf accuracy    <       0.00002056 Ry

     iteration #  2     ecut=    90.00 Ry     beta= 0.70
     CG style diagonalization
     ethr =  4.67E-08,  avg # of iterations =  4.3

     negative rho (up, down):  1.577E-02 0.000E+00

     total cpu time spent up to now is       96.1 secs

     total energy              =    -380.57491257 Ry
     estimated scf accuracy    <       0.00001513 Ry

     iteration #  3     ecut=    90.00 Ry     beta= 0.70
     CG style diagonalization
     ethr =  3.44E-08,  avg # of iterations =  4.2

     negative rho (up, down):  1.577E-02 0.000E+00

     total cpu time spent up to now is       97.8 secs

     total energy              =    -380.57491686 Ry
     estimated scf accuracy    <       0.00001027 Ry

     iteration #  4     ecut=    90.00 Ry     beta= 0.70
     CG style diagonalization
     ethr =  2.33E-08,  avg # of iterations =  3.6

     negative rho (up, down):  1.576E-02 0.000E+00

     total cpu time spent up to now is       99.2 secs

     total energy              =    -380.57491848 Ry
     estimated scf accuracy    <       0.00000013 Ry

     iteration #  5     ecut=    90.00 Ry     beta= 0.70
     CG style diagonalization
     ethr =  2.91E-10,  avg # of iterations =  5.8

     negative rho (up, down):  1.576E-02 0.000E+00

     total cpu time spent up to now is      101.5 secs

     total energy              =    -380.57491874 Ry
     estimated scf accuracy    <       0.00000022 Ry

     iteration #  6     ecut=    90.00 Ry     beta= 0.70
     CG style diagonalization
     ethr =  2.91E-10,  avg # of iterations =  3.9

     negative rho (up, down):  1.576E-02 0.000E+00

     total cpu time spent up to now is      103.0 secs

     total energy              =    -380.57491877 Ry
     estimated scf accuracy    <       0.00000002 Ry

     iteration #  7     ecut=    90.00 Ry     beta= 0.70
     CG style diagonalization
     ethr =  5.25E-11,  avg # of iterations =  4.5

     negative rho (up, down):  1.577E-02 0.000E+00

     total cpu time spent up to now is      104.8 secs

     total energy              =    -380.57491878 Ry
     estimated scf accuracy    <          5.1E-09 Ry

     iteration #  8     ecut=    90.00 Ry     beta= 0.70
     CG style diagonalization
     ethr =  1.15E-11,  avg # of iterations =  5.0

     negative rho (up, down):  1.577E-02 0.000E+00

     total cpu time spent up to now is      106.8 secs

     total energy              =    -380.57491879 Ry
     estimated scf accuracy    <          4.1E-10 Ry

     iteration #  9     ecut=    90.00 Ry     beta= 0.70
     CG style diagonalization
     ethr =  9.41E-13,  avg # of iterations =  6.8

     negative rho (up, down):  1.577E-02 0.000E+00

     total cpu time spent up to now is      109.4 secs

     End of self-consistent calculation

          k = 0.0000 0.0000 0.0000 (  6071 PWs)   bands (ev):

   -45.7720 -22.4685 -22.3457 -22.3457  -7.5381  -6.4652  -6.2169  -5.0141
    -5.0141  -4.9786  -4.8800  -4.7227   4.2015   6.2861   6.2861   6.7603
     8.1006   8.1006   8.4743   8.6210   8.9197   8.9197

          k = 0.0000 0.0000 0.2378 (  6055 PWs)   bands (ev):

   -45.7717 -22.4881 -22.3449 -22.3449  -7.3450  -6.4098  -6.1609  -5.0292
    -5.0292  -4.9773  -4.8691  -4.7903   3.4408   6.3285   6.3285   6.8560
     7.8980   7.8980   8.3894   8.7786   9.0168   9.0168

          k = 0.0000 0.0000-0.4756 (  6032 PWs)   bands (ev):

   -45.7714 -22.5077 -22.3442 -22.3442  -7.1347  -6.3493  -6.1127  -5.0441
    -5.0441  -4.9761  -4.8628  -4.8593   2.9280   6.2010   6.3509   6.3509
     7.7719   7.7719   8.3083   9.0834   9.0834   9.9972

          k = 0.0000 0.1667 0.0000 (  6066 PWs)   bands (ev):

   -45.7717 -22.4677 -22.3631 -22.3450  -7.4041  -6.4383  -6.1945  -5.0360
    -5.0127  -4.9912  -4.8743  -4.7127   3.7867   6.3330   6.3958   6.7205
     8.1119   8.1251   8.4525   8.5501   8.5881   8.9732

          k = 0.0000 0.1667 0.2378 (  6063 PWs)   bands (ev):

   -45.7714 -22.4873 -22.3622 -22.3442  -7.2268  -6.3976  -6.1327  -5.0309
    -5.0282  -4.9904  -4.8713  -4.7481   3.2398   6.1176   6.4466   6.9265
     7.5998   7.8906   8.2391   8.6369   8.6900   9.3557

          k = 0.0000 0.1667-0.4756 (  6058 PWs)   bands (ev):

   -45.7711 -22.5066 -22.3613 -22.3434  -7.0430  -6.3517  -6.0694  -5.0436
    -5.0233  -4.9897  -4.8752  -4.7824   2.8140   5.8137   6.4719   6.5985
     7.4312   7.7708   8.3043   8.6911   8.7672   9.9509

          k = 0.0000 0.3333 0.0000 (  6070 PWs)   bands (ev):

   -45.7710 -22.4661 -22.3976 -22.3436  -7.1121  -6.3806  -6.1665  -5.0660
    -5.0164  -5.0097  -4.8502  -4.7233   3.2194   5.9733   6.6624   6.6835
     7.8198   7.8682   8.2145   8.3215   8.6663   9.6078

          k = 0.0000 0.3333 0.2378 (  6061 PWs)   bands (ev):

   -45.7707 -22.4854 -22.3965 -22.3428  -6.9971  -6.3439  -6.0823  -5.0340
    -5.0264  -5.0164  -4.8520  -4.6947   2.8991   5.8369   6.5491   6.7589
     7.2610   7.6858   7.8515   8.3164   8.8787   9.6833

          k = 0.0000 0.3333-0.4756 (  6088 PWs)   bands (ev):

   -45.7705 -22.5046 -22.3954 -22.3419  -6.9114  -6.2850  -5.9710  -5.0427
    -5.0167  -4.9929  -4.8865  -4.6498   2.6111   5.5085   6.3364   6.7793
     7.1468   7.3768   7.6385   8.3671   9.2407   9.5585

          k = 0.0000-0.5000 0.0000 (  6054 PWs)   bands (ev):

   -45.7707 -22.4653 -22.4148 -22.3429  -6.9501  -6.3335  -6.1807  -5.0776
    -5.0288  -5.0084  -4.7962  -4.7765   3.0126   5.6311   6.9008   6.9510
     7.3565   7.4666   8.2391   8.2440   8.6977  10.3440

          k = 0.0000-0.5000 0.2378 (  6074 PWs)   bands (ev):

   -45.7704 -22.4844 -22.4136 -22.3420  -6.8971  -6.2674  -6.0828  -5.0437
    -5.0294  -5.0253  -4.8146  -4.6918   2.7614   5.5902   6.5629   6.7949
     7.1423   7.2602   7.9572   8.2742   8.8911   9.8504

          k = 0.0000-0.5000-0.4756 (  6076 PWs)   bands (ev):

   -45.7701 -22.5034 -22.4124 -22.3412  -6.8808  -6.1971  -5.9255  -5.0422
    -5.0301  -5.0021  -4.8638  -4.5965   2.5288   5.3799   6.0295   6.8443
     7.0820   7.3491   7.4085   8.2921   9.1716   9.5781

          k = 0.1667 0.1667 0.0000 (  6050 PWs)   bands (ev):

   -45.7713 -22.4670 -22.3625 -22.3621  -7.2730  -6.4104  -6.1916  -5.0404
    -5.0268  -4.9926  -4.8479  -4.7031   3.4903   6.2866   6.5098   6.7242
     7.6388   7.8170   8.4539   8.5581   8.8611   9.1649

          k = 0.1667 0.1667 0.2378 (  6064 PWs)   bands (ev):

   -45.7711 -22.4864 -22.3616 -22.3613  -7.1070  -6.3875  -6.1294  -5.0421
    -5.0198  -4.9862  -4.8411  -4.7171   3.1277   6.0698   6.1493   6.8547
     7.5095   7.5199   8.2682   8.7098   8.9324   9.3175

          k = 0.1667 0.1667-0.4756 (  6082 PWs)   bands (ev):

   -45.7708 -22.5057 -22.3606 -22.3605  -6.9415  -6.3644  -6.0563  -5.0534
    -5.0017  -4.9614  -4.8492  -4.7354   2.7911   5.8617   5.8728   6.5930
     7.3941   7.4680   8.1954   8.7769   8.9856   9.6655

          k = 0.1667 0.3333 0.0000 (  6060 PWs)   bands (ev):

   -45.7707 -22.4654 -22.3967 -22.3607  -6.9903  -6.3539  -6.2003  -5.0591
    -5.0162  -4.9766  -4.8123  -4.7117   3.0200   5.9849   6.5115   6.8285
     7.1757   7.6795   8.0528   8.6670   8.8480   9.6562

          k = 0.1667 0.3333 0.2378 (  6069 PWs)   bands (ev):

   -45.7704 -22.4846 -22.3956 -22.3599  -6.8735  -6.3465  -6.1277  -5.0383
    -5.0149  -4.9565  -4.7966  -4.6719   2.8960   5.8051   5.9660   6.4831
     6.9049   7.5615   8.3474   8.6362   8.9738   9.4099

          k = 0.1667 0.3333-0.4756 (  6068 PWs)   bands (ev):

   -45.7701 -22.5037 -22.3946 -22.3590  -6.7915  -6.3267  -6.0192  -5.0376
    -4.9926  -4.9192  -4.8063  -4.6248   2.7327   5.4560   5.8776   6.2251
     6.4255   7.4306   8.4267   8.7049   8.9413   9.3949

          k = 0.1667-0.5000 0.0000 (  6066 PWs)   bands (ev):

   -45.7704 -22.4645 -22.4138 -22.3600  -6.8346  -6.3095  -6.2311  -5.0607
    -5.0085  -4.9577  -4.7685  -4.7620   2.8321   5.6487   6.6262   6.8534
     7.1964   7.4701   7.8129   8.7407   8.8089   9.9783

          k = 0.1667-0.5000 0.2378 (  6056 PWs)   bands (ev):

   -45.7701 -22.4836 -22.4127 -22.3591  -6.7733  -6.2803  -6.1511  -5.0365
    -5.0020  -4.9401  -4.7660  -4.6685   2.7887   5.5961   5.8709   6.2461
     6.8588   7.6950   8.1488   8.6238   8.9914   9.3674

          k = 0.1667-0.5000-0.4756 (  6056 PWs)   bands (ev):

   -45.7698 -22.5026 -22.4116 -22.3583  -6.7605  -6.2522  -6.0042  -5.0326
    -4.9638  -4.9217  -4.7788  -4.5734   2.7063   5.3432   5.7281   5.8829
     6.3049   7.5470   8.3075   8.5831   8.6533   9.5890

          k = 0.3333 0.3333 0.0000 (  6100 PWs)   bands (ev):

   -45.7700 -22.4637 -22.3950 -22.3947  -6.7466  -6.3018  -6.2551  -5.0398
    -4.9971  -4.9014  -4.7419  -4.7123   2.6412   5.9356   6.1154   6.8952
     7.0797   7.1600   7.9076   8.4827   9.3457   9.4025

          k = 0.3333 0.3333 0.2378 (  6085 PWs)   bands (ev):

   -45.7698 -22.4828 -22.3941 -22.3938  -6.6265  -6.3453  -6.2111  -5.0033
    -4.9925  -4.8538  -4.6952  -4.6395   2.8211   5.5652   5.6453   5.9314
     6.6260   7.0632   8.3901   8.9416   8.9598   9.3595

          k = 0.3333 0.3333-0.4756 (  6060 PWs)   bands (ev):

   -45.7695 -22.5018 -22.3931 -22.3929  -6.5672  -6.3859  -6.0952  -4.9874
    -4.9676  -4.8021  -4.6472  -4.5693   2.9861   5.1891   5.1911   5.6960
     6.3549   6.5535   7.6959   9.2747   9.3360   9.4641

          k = 0.3333-0.5000 0.0000 (  6102 PWs)   bands (ev):

   -45.7697 -22.4628 -22.4119 -22.3940  -6.6323  -6.2782  -6.2673  -5.0322
    -4.9753  -4.8319  -4.7512  -4.7074   2.4648   5.6197   6.1524   6.7176
     7.2118   7.4055   7.4918   8.4765   9.1059   9.5403

          k = 0.3333-0.5000 0.2378 (  6072 PWs)   bands (ev):

   -45.7695 -22.4819 -22.4109 -22.3931  -6.5191  -6.3097  -6.2659  -4.9957
    -4.9665  -4.7725  -4.6750  -4.6239   2.7509   5.4750   5.5717   5.6714
     6.4076   7.1321   7.9540   8.9360   8.9493   9.5166

          k = 0.3333-0.5000-0.4756 (  6072 PWs)   bands (ev):

   -45.7692 -22.5008 -22.4099 -22.3922  -6.5162  -6.3493  -6.1281  -4.9710
    -4.9468  -4.7268  -4.5987  -4.5262   3.1101   4.9345   5.1120   5.4711
     6.1535   6.5476   6.9594   9.3805   9.4906   9.6155

          k =-0.5000-0.5000 0.0000 (  6096 PWs)   bands (ev):

   -45.7694 -22.4619 -22.4109 -22.4109  -6.5746  -6.2493  -6.2493  -5.0225
    -4.9354  -4.7591  -4.7591  -4.6878   2.2822   5.4596   6.0149   6.9339
     6.9339   7.5088   7.5088   8.2398   8.6381   9.7963

          k =-0.5000-0.5000 0.2378 (  6092 PWs)   bands (ev):

   -45.7691 -22.4810 -22.4100 -22.4100  -6.3802  -6.3256  -6.3256  -4.9846
    -4.9336  -4.6601  -4.6311  -4.6311   2.6758   5.4179   5.5944   5.5944
     6.0212   7.0717   7.3336   8.9631   8.9631   9.7812

          k =-0.5000-0.5000-0.4756 (  6072 PWs)   bands (ev):

   -45.7689 -22.4999 -22.4091 -22.4091  -6.3929  -6.3929  -6.1801  -4.9467
    -4.9318  -4.6233  -4.5104  -4.5104   3.2908   4.9696   4.9696   5.3060
     6.0196   6.0276   6.2283   9.6297   9.6297   9.7661

     highest occupied level (ev):    10.3440

!    total energy              =    -380.57491879 Ry
     estimated scf accuracy    <          6.7E-11 Ry

     The total energy is the sum of the following terms:
     one-electron contribution =     -85.26444827 Ry
     hartree contribution      =      71.78181960 Ry
     xc contribution           =    -102.57936247 Ry
     ewald contribution        =    -264.51292764 Ry

     convergence has been achieved in   9 iterations

     negative rho (up, down):  1.577E-02 0.000E+00

     Forces acting on atoms (cartesian axes, Ry/au):

     atom    1 type  1   force =     0.00000000    0.00000000   -0.00493395
     atom    2 type  2   force =     0.00000000    0.00000000    0.00489477
     atom    3 type  3   force =     0.00000000    0.00000000   -0.00512384
     atom    4 type  3   force =     0.00000000    0.00000000    0.00258151
     atom    5 type  3   force =     0.00000000    0.00000000    0.00258151

     Total force =     0.009375     Total SCF correction =     0.000023


     Computing stress (Cartesian axis) and pressure


     negative rho (up, down):  1.577E-02 0.000E+00
          total   stress  (Ry/bohr**3)                   (kbar)     P=      -45.26
  -0.00036671   0.00000000   0.00000000          -53.94        0.00        0.00
   0.00000000  -0.00036671   0.00000000            0.00      -53.94        0.00
   0.00000000   0.00000000  -0.00018950            0.00        0.00      -27.88

     Energy error            =      1.3E-04 Ry
     Gradient error          =      5.1E-03 Ry/Bohr

     number of scf cycles    =   5
     number of bfgs steps    =   4

     energy             old  =    -380.5747880754 Ry
     energy             new  =    -380.5749187893 Ry

     CASE: energy            _new < energy            _old

     new trust radius        =       0.0313900181 bohr
     new conv_thr            =       0.0000000001 Ry


ATOMIC_POSITIONS (crystal)
Pb               0.0000000000        0.0000000000        0.9941872220
Ti               0.5000000000        0.5000000000        0.5382763258
O                0.5000000000        0.5000000000        0.1077129955
O                0.5000000000        0.0000000000        0.6135538723
O                0.0000000000        0.5000000000        0.6135538723



     Writing config-only to output data dir ./pto_90.save/ :
     XML data file
     NEW-OLD atomic charge density approx. for the potential

     Check: negative core charge=   -0.000001

     negative rho (up, down):  1.583E-02 0.000E+00

     total cpu time spent up to now is      112.1 secs

     Self-consistent Calculation

     iteration #  1     ecut=    90.00 Ry     beta= 0.70
     CG style diagonalization
     c_bands:  1 eigenvalues not converged
     c_bands:  1 eigenvalues not converged
     c_bands:  1 eigenvalues not converged
     ethr =  1.00E-06,  avg # of iterations =  6.8

     negative rho (up, down):  1.578E-02 0.000E+00

     total cpu time spent up to now is      114.9 secs

     total energy              =    -380.57499608 Ry
     estimated scf accuracy    <       0.00004487 Ry

     iteration #  2     ecut=    90.00 Ry     beta= 0.70
     CG style diagonalization
     ethr =  1.02E-07,  avg # of iterations =  4.7

     negative rho (up, down):  1.576E-02 0.000E+00

     total cpu time spent up to now is      116.7 secs

     total energy              =    -380.57502574 Ry
     estimated scf accuracy    <       0.00003257 Ry

     iteration #  3     ecut=    90.00 Ry     beta= 0.70
     CG style diagonalization
     ethr =  7.40E-08,  avg # of iterations =  4.2

     negative rho (up, down):  1.575E-02 0.000E+00

     total cpu time spent up to now is      118.4 secs

     total energy              =    -380.57503582 Ry
     estimated scf accuracy    <       0.00001699 Ry

     iteration #  4     ecut=    90.00 Ry     beta= 0.70
     CG style diagonalization
     ethr =  3.86E-08,  avg # of iterations =  3.7

     negative rho (up, down):  1.575E-02 0.000E+00

     total cpu time spent up to now is      119.9 secs

     total energy              =    -380.57503934 Ry
     estimated scf accuracy    <       0.00000122 Ry

     iteration #  5     ecut=    90.00 Ry     beta= 0.70
     CG style diagonalization
     ethr =  2.78E-09,  avg # of iterations =  4.6

     negative rho (up, down):  1.575E-02 0.000E+00

     total cpu time spent up to now is      121.7 secs

     total energy              =    -380.57504018 Ry
     estimated scf accuracy    <       0.00000023 Ry

     iteration #  6     ecut=    90.00 Ry     beta= 0.70
     CG style diagonalization
     ethr =  5.28E-10,  avg # of iterations =  4.9

     negative rho (up, down):  1.575E-02 0.000E+00

     total cpu time spent up to now is      123.6 secs

     total energy              =    -380.57504035 Ry
     estimated scf accuracy    <       0.00000005 Ry

     iteration #  7     ecut=    90.00 Ry     beta= 0.70
     CG style diagonalization
     ethr =  1.09E-10,  avg # of iterations =  5.0

     negative rho (up, down):  1.575E-02 0.000E+00

     total cpu time spent up to now is      125.6 secs

     total energy              =    -380.57504040 Ry
     estimated scf accuracy    <          6.9E-09 Ry

     iteration #  8     ecut=    90.00 Ry     beta= 0.70
     CG style diagonalization
     ethr =  1.57E-11,  avg # of iterations =  5.8

     negative rho (up, down):  1.575E-02 0.000E+00

     total cpu time spent up to now is      127.9 secs

     total energy              =    -380.57504041 Ry
     estimated scf accuracy    <          9.6E-10 Ry

     iteration #  9     ecut=    90.00 Ry     beta= 0.70
     CG style diagonalization
     ethr =  2.19E-12,  avg # of iterations =  6.1

     negative rho (up, down):  1.575E-02 0.000E+00

     total cpu time spent up to now is      130.3 secs

     End of self-consistent calculation

          k = 0.0000 0.0000 0.0000 (  6071 PWs)   bands (ev):

   -45.7826 -22.4756 -22.3581 -22.3581  -7.5651  -6.5032  -6.2080  -4.9983
    -4.9983  -4.9583  -4.8713  -4.6925   4.2057   6.2603   6.2603   6.8004
     8.1080   8.1080   8.4571   8.6186   8.8850   8.8850

          k = 0.0000 0.0000 0.2378 (  6055 PWs)   bands (ev):

   -45.7824 -22.4952 -22.3574 -22.3574  -7.3777  -6.4505  -6.1486  -5.0133
    -5.0133  -4.9571  -4.8580  -4.7572   3.4551   6.3021   6.3021   6.8760
     7.9035   7.9035   8.3725   8.7797   8.9819   8.9819

          k = 0.0000 0.0000-0.4756 (  6032 PWs)   bands (ev):

   -45.7821 -22.5147 -22.3566 -22.3566  -7.1754  -6.3934  -6.0947  -5.0282
    -5.0282  -4.9558  -4.8453  -4.8263   2.9457   6.2138   6.3245   6.3245
     7.7764   7.7764   8.2916   9.0465   9.0465   9.9902

          k = 0.0000 0.1667 0.0000 (  6066 PWs)   bands (ev):

   -45.7823 -22.4749 -22.3755 -22.3574  -7.4309  -6.4770  -6.1885  -5.0199
    -4.9969  -4.9710  -4.8617  -4.6821   3.7907   6.3126   6.3690   6.7343
     8.1241   8.1325   8.4322   8.5172   8.5734   8.9663

          k = 0.0000 0.1667 0.2378 (  6063 PWs)   bands (ev):

   -45.7820 -22.4943 -22.3746 -22.3566  -7.2595  -6.4380  -6.1227  -5.0132
    -5.0124  -4.9702  -4.8578  -4.7164   3.2526   6.0979   6.4194   6.9314
     7.5987   7.8926   8.2181   8.6250   8.6602   9.3519

          k = 0.0000 0.1667-0.4756 (  6058 PWs)   bands (ev):

   -45.7818 -22.5137 -22.3738 -22.3558  -7.0832  -6.3943  -6.0536  -5.0277
    -5.0042  -4.9694  -4.8593  -4.7504   2.8309   5.8037   6.4453   6.5918
     7.4294   7.7714   8.2647   8.6811   8.7353   9.9555

          k = 0.0000 0.3333 0.0000 (  6070 PWs)   bands (ev):

   -45.7817 -22.4733 -22.4100 -22.3560  -7.1391  -6.4198  -6.1674  -5.0480
    -4.9962  -4.9938  -4.8295  -4.6930   3.2240   5.9510   6.6536   6.6633
     7.8033   7.8472   8.2122   8.2978   8.6573   9.6295

          k = 0.0000 0.3333 0.2378 (  6061 PWs)   bands (ev):

   -45.7814 -22.4925 -22.4090 -22.3552  -7.0301  -6.3833  -6.0772  -5.0149
    -5.0105  -4.9962  -4.8324  -4.6647   2.9106   5.8151   6.5428   6.7301
     7.2371   7.6696   7.8457   8.3055   8.8660   9.6979

          k = 0.0000 0.3333-0.4756 (  6088 PWs)   bands (ev):

   -45.7811 -22.5116 -22.4079 -22.3543  -6.9487  -6.3277  -5.9592  -5.0268
    -4.9964  -4.9725  -4.8647  -4.6228   2.6273   5.4932   6.3279   6.7542
     7.1121   7.3633   7.6196   8.3521   9.2453   9.5681

          k = 0.0000-0.5000 0.0000 (  6054 PWs)   bands (ev):

   -45.7813 -22.4724 -22.4273 -22.3553  -6.9781  -6.3723  -6.1851  -5.0585
    -5.0085  -4.9925  -4.7622  -4.7555   3.0181   5.6089   6.8984   6.9149
     7.3370   7.4493   8.2139   8.2431   8.6876  10.3622

          k = 0.0000-0.5000 0.2378 (  6074 PWs)   bands (ev):

   -45.7811 -22.4915 -22.4261 -22.3544  -6.9307  -6.3092  -6.0771  -5.0238
    -5.0094  -5.0091  -4.7916  -4.6628   2.7732   5.5678   6.5530   6.7687
     7.1031   7.2466   7.9475   8.2700   8.8776   9.8747

          k = 0.0000-0.5000-0.4756 (  6076 PWs)   bands (ev):

   -45.7808 -22.5105 -22.4249 -22.3536  -6.9162  -6.2425  -5.9143  -5.0262
    -5.0098  -4.9817  -4.8381  -4.5715   2.5455   5.3622   6.0182   6.7987
     7.0705   7.3063   7.4019   8.2860   9.2060   9.5685

          k = 0.1667 0.1667 0.0000 (  6050 PWs)   bands (ev):

   -45.7820 -22.4741 -22.3749 -22.3745  -7.2993  -6.4500  -6.1880  -5.0237
    -5.0102  -4.9730  -4.8324  -4.6722   3.4898   6.2631   6.4914   6.7291
     7.6453   7.7946   8.4591   8.5423   8.8280   9.1747

          k = 0.1667 0.1667 0.2378 (  6064 PWs)   bands (ev):

   -45.7817 -22.4935 -22.3740 -22.3737  -7.1394  -6.4279  -6.1205  -5.0249
    -5.0014  -4.9674  -4.8259  -4.6861   3.1362   6.0520   6.1292   6.8517
     7.4983   7.5093   8.2684   8.6867   8.9056   9.3249

          k = 0.1667 0.1667-0.4756 (  6082 PWs)   bands (ev):

   -45.7814 -22.5127 -22.3731 -22.3729  -6.9814  -6.4057  -6.0407  -5.0358
    -4.9818  -4.9441  -4.8331  -4.7040   2.8052   5.8480   5.8626   6.5758
     7.3617   7.4637   8.1996   8.7508   8.9600   9.6754

          k = 0.1667 0.3333 0.0000 (  6060 PWs)   bands (ev):

   -45.7813 -22.4725 -22.4091 -22.3732  -7.0151  -6.3943  -6.2032  -5.0408
    -4.9991  -4.9567  -4.7913  -4.6808   3.0146   5.9623   6.4969   6.8211
     7.1535   7.6915   8.0383   8.6541   8.8227   9.6732

          k = 0.1667 0.3333 0.2378 (  6069 PWs)   bands (ev):

   -45.7811 -22.4917 -22.4081 -22.3723  -6.9057  -6.3859  -6.1221  -5.0200
    -4.9967  -4.9380  -4.7768  -4.6426   2.8980   5.7861   5.9462   6.4690
     6.8975   7.5572   8.3313   8.6189   8.9573   9.4244

          k = 0.1667 0.3333-0.4756 (  6068 PWs)   bands (ev):

   -45.7808 -22.5107 -22.4071 -22.3715  -6.8290  -6.3671  -6.0051  -5.0201
    -4.9736  -4.9021  -4.7853  -4.5982   2.7416   5.4438   5.8484   6.2192
     6.4049   7.4176   8.4296   8.6696   8.9595   9.3868

          k = 0.1667-0.5000 0.0000 (  6066 PWs)   bands (ev):

   -45.7810 -22.4716 -22.4263 -22.3724  -6.8588  -6.3498  -6.2377  -5.0420
    -4.9913  -4.9382  -4.7387  -4.7363   2.8253   5.6269   6.6169   6.8279
     7.1812   7.4574   7.8262   8.7111   8.7974   9.9955

          k = 0.1667-0.5000 0.2378 (  6056 PWs)   bands (ev):

   -45.7807 -22.4907 -22.4252 -22.3716  -6.8060  -6.3214  -6.1441  -5.0182
    -4.9840  -4.9222  -4.7426  -4.6404   2.7885   5.5749   5.8476   6.2353
     6.8510   7.6911   8.1255   8.6141   8.9710   9.3916

          k = 0.1667-0.5000-0.4756 (  6056 PWs)   bands (ev):

   -45.7805 -22.5096 -22.4241 -22.3707  -6.7959  -6.2940  -5.9900  -5.0152
    -4.9456  -4.9048  -4.7545  -4.5493   2.7134   5.3289   5.6866   5.8707
     6.3014   7.5319   8.3168   8.5799   8.6432   9.5808

          k = 0.3333 0.3333 0.0000 (  6100 PWs)   bands (ev):

   -45.7807 -22.4709 -22.4075 -22.4072  -6.7616  -6.3449  -6.2679  -5.0213
    -4.9782  -4.8799  -4.7209  -4.6808   2.6197   5.9132   6.0946   6.8961
     7.0690   7.1824   7.8829   8.4844   9.3086   9.4223

          k = 0.3333 0.3333 0.2378 (  6085 PWs)   bands (ev):

   -45.7804 -22.4899 -22.4065 -22.4063  -6.6550  -6.3850  -6.2065  -4.9847
    -4.9741  -4.8362  -4.6748  -4.6115   2.8008   5.5543   5.6398   5.9106
     6.6201   7.0653   8.4066   8.9283   8.9631   9.3246

          k = 0.3333 0.3333-0.4756 (  6060 PWs)   bands (ev):

   -45.7801 -22.5089 -22.4056 -22.4054  -6.6042  -6.4227  -6.0784  -4.9693
    -4.9490  -4.7877  -4.6279  -4.5446   2.9707   5.1605   5.1920   5.6829
     6.3517   6.5416   7.7383   9.2682   9.2962   9.4564

          k = 0.3333-0.5000 0.0000 (  6102 PWs)   bands (ev):

   -45.7804 -22.4699 -22.4244 -22.4065  -6.6357  -6.3105  -6.3039  -5.0137
    -4.9560  -4.8085  -4.7227  -4.6834   2.4366   5.5980   6.1312   6.7304
     7.2345   7.3852   7.4738   8.4751   9.1267   9.5030

          k = 0.3333-0.5000 0.2378 (  6072 PWs)   bands (ev):

   -45.7801 -22.4890 -22.4234 -22.4056  -6.5455  -6.3494  -6.2623  -4.9771
    -4.9478  -4.7567  -4.6502  -4.5993   2.7192   5.4742   5.5532   5.6655
     6.3966   7.1356   7.9834   8.9321   8.9412   9.4790

          k = 0.3333-0.5000-0.4756 (  6072 PWs)   bands (ev):

   -45.7798 -22.5079 -22.4225 -22.4047  -6.5514  -6.3860  -6.1103  -4.9526
    -4.9283  -4.7141  -4.5775  -4.5046   3.0748   4.9206   5.1142   5.4546
     6.1443   6.5387   7.0158   9.3749   9.4500   9.6100

          k =-0.5000-0.5000 0.0000 (  6096 PWs)   bands (ev):

   -45.7800 -22.4690 -22.4235 -22.4235  -6.5584  -6.2940  -6.2940  -5.0040
    -4.9160  -4.7269  -4.7269  -4.6746   2.2448   5.4379   5.9964   6.9595
     6.9595   7.4841   7.4841   8.2464   8.6576   9.7559

          k =-0.5000-0.5000 0.2378 (  6092 PWs)   bands (ev):

   -45.7798 -22.4880 -22.4225 -22.4225  -6.3647  -6.3647  -6.3627  -4.9661
    -4.9142  -4.6480  -4.6055  -4.6055   2.6277   5.3971   5.6034   5.6034
     6.0027   7.0745   7.3733   8.9571   8.9571   9.7410

          k =-0.5000-0.5000-0.4756 (  6072 PWs)   bands (ev):

   -45.7795 -22.5069 -22.4216 -22.4216  -6.4278  -6.4278  -6.1609  -4.9282
    -4.9124  -4.6127  -4.4899  -4.4899   3.2127   4.9798   4.9798   5.2887
     6.0090   6.0942   6.2260   9.6255   9.6255   9.7262

     highest occupied level (ev):    10.3622

!    total energy              =    -380.57504041 Ry
     estimated scf accuracy    <          1.3E-10 Ry

     The total energy is the sum of the following terms:
     one-electron contribution =     -85.69225863 Ry
     hartree contribution      =      71.99279437 Ry
     xc contribution           =    -102.58614682 Ry
     ewald contribution        =    -264.28942932 Ry

     convergence has been achieved in   9 iterations

     negative rho (up, down):  1.575E-02 0.000E+00

     Forces acting on atoms (cartesian axes, Ry/au):

     atom    1 type  1   force =     0.00000000    0.00000000   -0.00080071
     atom    2 type  2   force =     0.00000000    0.00000000    0.00115232
     atom    3 type  3   force =     0.00000000    0.00000000   -0.00376993
     atom    4 type  3   force =     0.00000000    0.00000000    0.00170916
     atom    5 type  3   force =     0.00000000    0.00000000    0.00170916

     Total force =     0.004693     Total SCF correction =     0.000065


     Computing stress (Cartesian axis) and pressure


     negative rho (up, down):  1.575E-02 0.000E+00
          total   stress  (Ry/bohr**3)                   (kbar)     P=      -42.05
  -0.00034327   0.00000000   0.00000000          -50.50        0.00        0.00
   0.00000000  -0.00034327   0.00000000            0.00      -50.50        0.00
   0.00000000   0.00000000  -0.00017100            0.00        0.00      -25.16

     Energy error            =      1.2E-04 Ry
     Gradient error          =      3.8E-03 Ry/Bohr

     number of scf cycles    =   6
     number of bfgs steps    =   5

     energy             old  =    -380.5749187893 Ry
     energy             new  =    -380.5750404072 Ry

     CASE: energy            _new < energy            _old

     new trust radius        =       0.0061546383 bohr
     new conv_thr            =       0.0000000001 Ry


ATOMIC_POSITIONS (crystal)
Pb               0.0000000000        0.0000000000        0.9933928576
Ti               0.5000000000        0.5000000000        0.5384961278
O                0.5000000000        0.5000000000        0.1073877597
O                0.5000000000        0.0000000000        0.6140037715
O                0.0000000000        0.5000000000        0.6140037715



     Writing config-only to output data dir ./pto_90.save/ :
     XML data file
     NEW-OLD atomic charge density approx. for the potential

     Check: negative core charge=   -0.000001

     negative rho (up, down):  1.578E-02 0.000E+00

     total cpu time spent up to now is      133.0 secs

     Self-consistent Calculation

     iteration #  1     ecut=    90.00 Ry     beta= 0.70
     CG style diagonalization
     ethr =  1.00E-06,  avg # of iterations =  3.9

     Threshold (ethr) on eigenvalues was too large:
     Diagonalizing with lowered threshold

     CG style diagonalization
     c_bands:  1 eigenvalues not converged
     c_bands:  1 eigenvalues not converged
     c_bands:  1 eigenvalues not converged
     c_bands:  3 eigenvalues not converged
     c_bands:  1 eigenvalues not converged
     c_bands:  1 eigenvalues not converged
     c_bands:  1 eigenvalues not converged
     c_bands:  2 eigenvalues not converged
     c_bands:  1 eigenvalues not converged
     ethr =  2.49E-08,  avg # of iterations =  6.3

     negative rho (up, down):  1.578E-02 0.000E+00

     total cpu time spent up to now is      137.2 secs

     total energy              =    -380.57505190 Ry
     estimated scf accuracy    <       0.00001182 Ry

     iteration #  2     ecut=    90.00 Ry     beta= 0.70
     CG style diagonalization
     ethr =  2.69E-08,  avg # of iterations =  4.6

     negative rho (up, down):  1.577E-02 0.000E+00

     total cpu time spent up to now is      139.0 secs

     total energy              =    -380.57505139 Ry
     estimated scf accuracy    <       0.00003238 Ry

     iteration #  3     ecut=    90.00 Ry     beta= 0.70
     CG style diagonalization
     ethr =  2.69E-08,  avg # of iterations =  4.2

     negative rho (up, down):  1.577E-02 0.000E+00

     total cpu time spent up to now is      140.7 secs

     total energy              =    -380.57505776 Ry
     estimated scf accuracy    <       0.00000241 Ry

     iteration #  4     ecut=    90.00 Ry     beta= 0.70
     CG style diagonalization
     ethr =  5.47E-09,  avg # of iterations =  3.6

     negative rho (up, down):  1.577E-02 0.000E+00

     total cpu time spent up to now is      142.2 secs

     total energy              =    -380.57505823 Ry
     estimated scf accuracy    <       0.00000027 Ry

     iteration #  5     ecut=    90.00 Ry     beta= 0.70
     CG style diagonalization
     ethr =  6.15E-10,  avg # of iterations =  4.3

     negative rho (up, down):  1.577E-02 0.000E+00

     total cpu time spent up to now is      143.9 secs

     total energy              =    -380.57505836 Ry
     estimated scf accuracy    <       0.00000005 Ry

     iteration #  6     ecut=    90.00 Ry     beta= 0.70
     CG style diagonalization
     ethr =  1.20E-10,  avg # of iterations =  4.3

     negative rho (up, down):  1.577E-02 0.000E+00

     total cpu time spent up to now is      145.6 secs

     total energy              =    -380.57505838 Ry
     estimated scf accuracy    <          8.4E-09 Ry

     iteration #  7     ecut=    90.00 Ry     beta= 0.70
     CG style diagonalization
     ethr =  1.91E-11,  avg # of iterations =  4.6

     negative rho (up, down):  1.577E-02 0.000E+00

     total cpu time spent up to now is      147.4 secs

     total energy              =    -380.57505839 Ry
     estimated scf accuracy    <          1.7E-09 Ry

     iteration #  8     ecut=    90.00 Ry     beta= 0.70
     CG style diagonalization
     ethr =  3.80E-12,  avg # of iterations =  5.0

     negative rho (up, down):  1.577E-02 0.000E+00

     total cpu time spent up to now is      149.4 secs

     total energy              =    -380.57505839 Ry
     estimated scf accuracy    <          4.9E-10 Ry

     iteration #  9     ecut=    90.00 Ry     beta= 0.70
     CG style diagonalization
     ethr =  1.12E-12,  avg # of iterations =  4.8

     negative rho (up, down):  1.577E-02 0.000E+00

     total cpu time spent up to now is      151.3 secs

     End of self-consistent calculation

          k = 0.0000 0.0000 0.0000 (  6071 PWs)   bands (ev):

   -45.7908 -22.4792 -22.3667 -22.3667  -7.5725  -6.5128  -6.2043  -4.9935
    -4.9935  -4.9520  -4.8675  -4.6843   4.2093   6.2524   6.2524   6.8050
     8.1174   8.1174   8.4516   8.6254   8.8750   8.8750

          k = 0.0000 0.0000 0.2378 (  6055 PWs)   bands (ev):

   -45.7905 -22.4988 -22.3659 -22.3659  -7.3867  -6.4607  -6.1440  -5.0085
    -5.0085  -4.9508  -4.8536  -4.7484   3.4613   6.2944   6.2944   6.8781
     7.9109   7.9109   8.3670   8.7826   8.9725   8.9725

          k = 0.0000 0.0000-0.4756 (  6032 PWs)   bands (ev):

   -45.7902 -22.5183 -22.3652 -22.3652  -7.1866  -6.4044  -6.0886  -5.0234
    -5.0234  -4.9495  -4.8403  -4.8166   2.9535   6.2147   6.3172   6.3172
     7.7826   7.7826   8.2862   9.0367   9.0367   9.9886

          k = 0.0000 0.1667 0.0000 (  6066 PWs)   bands (ev):

   -45.7905 -22.4785 -22.3841 -22.3660  -7.4383  -6.4868  -6.1854  -5.0149
    -4.9920  -4.9647  -4.8572  -4.6739   3.7929   6.3071   6.3609   6.7357
     8.1310   8.1423   8.4268   8.5073   8.5726   8.9678

          k = 0.0000 0.1667 0.2378 (  6063 PWs)   bands (ev):

   -45.7902 -22.4979 -22.3832 -22.3652  -7.2684  -6.4481  -6.1185  -5.0079
    -5.0075  -4.9639  -4.8530  -4.7080   3.2576   6.0928   6.4115   6.9308
     7.6018   7.8987   8.2138   8.6230   8.6526   9.3520

          k = 0.0000 0.1667-0.4756 (  6058 PWs)   bands (ev):

   -45.7899 -22.5173 -22.3823 -22.3644  -7.0941  -6.4050  -6.0479  -5.0229
    -4.9986  -4.9631  -4.8540  -4.7419   2.8377   5.8014   6.4380   6.5880
     7.4324   7.7763   8.2543   8.6798   8.7272   9.9571

          k = 0.0000 0.3333 0.0000 (  6070 PWs)   bands (ev):

   -45.7898 -22.4769 -22.4186 -22.3646  -7.1465  -6.4298  -6.1656  -5.0426
    -4.9901  -4.9888  -4.8236  -4.6849   3.2255   5.9453   6.6450   6.6656
     7.8016   7.8404   8.2198   8.2907   8.6594   9.6362

          k = 0.0000 0.3333 0.2378 (  6061 PWs)   bands (ev):

   -45.7895 -22.4961 -22.4175 -22.3638  -7.0389  -6.3934  -6.0739  -5.0092
    -5.0056  -4.9899  -4.8266  -4.6568   2.9141   5.8100   6.5421   6.7219
     7.2338   7.6670   7.8441   8.3072   8.8650   9.7025

          k = 0.0000 0.3333-0.4756 (  6088 PWs)   bands (ev):

   -45.7893 -22.5152 -22.4165 -22.3629  -6.9586  -6.3388  -5.9543  -5.0219
    -4.9902  -4.9665  -4.8583  -4.6155   2.6325   5.4907   6.3266   6.7473
     7.1048   7.3585   7.6168   8.3514   9.2503   9.5705

          k = 0.0000-0.5000 0.0000 (  6054 PWs)   bands (ev):

   -45.7895 -22.4760 -22.4358 -22.3639  -6.9856  -6.3826  -6.1837  -5.0529
    -5.0022  -4.9877  -4.7535  -4.7495   3.0196   5.6031   6.9038   6.9054
     7.3310   7.4425   8.2065   8.2517   8.6895  10.3685

          k = 0.0000-0.5000 0.2378 (  6074 PWs)   bands (ev):

   -45.7892 -22.4951 -22.4346 -22.3630  -6.9395  -6.3202  -6.0734  -5.0181
    -5.0046  -5.0029  -4.7851  -4.6552   2.7766   5.5622   6.5521   6.7653
     7.0928   7.2426   7.9450   8.2753   8.8759   9.8825

          k = 0.0000-0.5000-0.4756 (  6076 PWs)   bands (ev):

   -45.7889 -22.5140 -22.4335 -22.3622  -6.9253  -6.2544  -5.9094  -5.0214
    -5.0036  -4.9758  -4.8309  -4.5648   2.5503   5.3587   6.0174   6.7891
     7.0680   7.2951   7.3980   8.2894   9.2171   9.5684

          k = 0.1667 0.1667 0.0000 (  6050 PWs)   bands (ev):

   -45.7901 -22.4777 -22.3835 -22.3831  -7.3066  -6.4600  -6.1854  -5.0186
    -5.0051  -4.9670  -4.8273  -4.6639   3.4905   6.2553   6.4870   6.7296
     7.6531   7.7896   8.4648   8.5374   8.8200   9.1823

          k = 0.1667 0.1667 0.2378 (  6064 PWs)   bands (ev):

   -45.7899 -22.4971 -22.3826 -22.3823  -7.1483  -6.4382  -6.1165  -5.0196
    -4.9958  -4.9615  -4.8208  -4.6778   3.1397   6.0468   6.1245   6.8500
     7.4934   7.5128   8.2736   8.6804   8.8998   9.3283

          k = 0.1667 0.1667-0.4756 (  6082 PWs)   bands (ev):

   -45.7896 -22.5163 -22.3817 -22.3815  -6.9922  -6.4162  -6.0350  -5.0305
    -4.9758  -4.9389  -4.8277  -4.6956   2.8108   5.8446   5.8599   6.5709
     7.3538   7.4650   8.2053   8.7437   8.9547   9.6785

          k = 0.1667 0.3333 0.0000 (  6060 PWs)   bands (ev):

   -45.7895 -22.4761 -22.4177 -22.3818  -7.0219  -6.4047  -6.2020  -5.0354
    -4.9939  -4.9506  -4.7851  -4.6726   3.0135   5.9561   6.4931   6.8201
     7.1484   7.7017   8.0353   8.6521   8.8179   9.6801

          k = 0.1667 0.3333 0.2378 (  6069 PWs)   bands (ev):

   -45.7892 -22.4952 -22.4167 -22.3809  -6.9144  -6.3961  -6.1188  -5.0145
    -4.9913  -4.9321  -4.7709  -4.6348   2.8991   5.7817   5.9423   6.4645
     6.8972   7.5583   8.3301   8.6165   8.9548   9.4293

          k = 0.1667 0.3333-0.4756 (  6068 PWs)   bands (ev):

   -45.7889 -22.5143 -22.4157 -22.3800  -6.8389  -6.3776  -5.9998  -5.0147
    -4.9679  -4.8965  -4.7791  -4.5911   2.7449   5.4420   5.8415   6.2171
     6.4005   7.4149   8.4347   8.6608   8.9654   9.3864

          k = 0.1667-0.5000 0.0000 (  6066 PWs)   bands (ev):

   -45.7892 -22.4752 -22.4349 -22.3810  -6.8655  -6.3604  -6.2372  -5.0365
    -4.9861  -4.9320  -4.7321  -4.7279   2.8238   5.6212   6.6179   6.8189
     7.1788   7.4542   7.8378   8.7033   8.7975  10.0009

          k = 0.1667-0.5000 0.2378 (  6056 PWs)   bands (ev):

   -45.7889 -22.4942 -22.4338 -22.3801  -6.8147  -6.3322  -6.1404  -5.0127
    -4.9787  -4.9162  -4.7361  -4.6330   2.7888   5.5696   5.8435   6.2331
     6.8491   7.6931   8.1212   8.6149   8.9667   9.3989

          k = 0.1667-0.5000-0.4756 (  6056 PWs)   bands (ev):

   -45.7886 -22.5132 -22.4326 -22.3793  -6.8051  -6.3049  -5.9848  -5.0098
    -4.9403  -4.8989  -4.7478  -4.5428   2.7158   5.3268   5.6773   5.8681
     6.3003   7.5287   8.3194   8.5825   8.6419   9.5814

          k = 0.3333 0.3333 0.0000 (  6100 PWs)   bands (ev):

   -45.7888 -22.4745 -22.4160 -22.4158  -6.7660  -6.3559  -6.2695  -5.0159
    -4.9725  -4.8734  -4.7143  -4.6725   2.6147   5.9073   6.0876   6.8980
     7.0687   7.1942   7.8760   8.4878   9.2992   9.4288

          k = 0.3333 0.3333 0.2378 (  6085 PWs)   bands (ev):

   -45.7886 -22.4935 -22.4151 -22.4149  -6.6629  -6.3952  -6.2037  -4.9792
    -4.9684  -4.8304  -4.6686  -4.6042   2.7962   5.5532   5.6387   5.9046
     6.6199   7.0672   8.4133   8.9267   8.9663   9.3161

          k = 0.3333 0.3333-0.4756 (  6060 PWs)   bands (ev):

   -45.7883 -22.5124 -22.4141 -22.4140  -6.6141  -6.4322  -6.0729  -4.9637
    -4.9435  -4.7823  -4.6222  -4.5380   2.9678   5.1550   5.1933   5.6777
     6.3527   6.5387   7.7504   9.2697   9.2856   9.4571

          k = 0.3333-0.5000 0.0000 (  6102 PWs)   bands (ev):

   -45.7885 -22.4735 -22.4329 -22.4150  -6.6369  -6.3218  -6.3090  -5.0083
    -4.9501  -4.8016  -4.7151  -4.6761   2.4300   5.5924   6.1243   6.7368
     7.2448   7.3814   7.4707   8.4766   9.1323   9.4934

          k = 0.3333-0.5000 0.2378 (  6072 PWs)   bands (ev):

   -45.7882 -22.4925 -22.4320 -22.4141  -6.5530  -6.3597  -6.2597  -4.9716
    -4.9421  -4.7509  -4.6436  -4.5924   2.7118   5.4759   5.5482   5.6643
     6.3944   7.1384   7.9912   8.9335   8.9421   9.4693

          k = 0.3333-0.5000-0.4756 (  6072 PWs)   bands (ev):

   -45.7880 -22.5114 -22.4310 -22.4132  -6.5606  -6.3956  -6.1048  -4.9469
    -4.9227  -4.7086  -4.5718  -4.4986   3.0668   4.9186   5.1167   5.4483
     6.1427   6.5378   7.0300   9.3765   9.4395   9.6114

          k =-0.5000-0.5000 0.0000 (  6096 PWs)   bands (ev):

   -45.7882 -22.4726 -22.4320 -22.4320  -6.5532  -6.3055  -6.3055  -4.9985
    -4.9100  -4.7187  -4.7187  -4.6690   2.2360   5.4324   5.9908   6.9692
     6.9692   7.4795   7.4795   8.2496   8.6621   9.7453

          k =-0.5000-0.5000 0.2378 (  6092 PWs)   bands (ev):

   -45.7879 -22.4916 -22.4311 -22.4311  -6.3749  -6.3749  -6.3573  -4.9606
    -4.9082  -4.6425  -4.5988  -4.5988   2.6164   5.3911   5.6078   5.6078
     5.9971   7.0768   7.3826   8.9583   8.9583   9.7305

          k =-0.5000-0.5000-0.4756 (  6072 PWs)   bands (ev):

   -45.7877 -22.5105 -22.4302 -22.4302  -6.4369  -6.4369  -6.1553  -4.9227
    -4.9064  -4.6072  -4.4845  -4.4845   3.1947   4.9844   4.9844   5.2822
     6.0034   6.1114   6.2282   9.6272   9.6272   9.7157

     highest occupied level (ev):    10.3685

!    total energy              =    -380.57505839 Ry
     estimated scf accuracy    <          8.5E-12 Ry

     The total energy is the sum of the following terms:
     one-electron contribution =     -85.75464020 Ry
     hartree contribution      =      72.02206364 Ry
     xc contribution           =    -102.58614539 Ry
     ewald contribution        =    -264.25633643 Ry

     convergence has been achieved in   9 iterations

     negative rho (up, down):  1.577E-02 0.000E+00

     Forces acting on atoms (cartesian axes, Ry/au):

     atom    1 type  1   force =     0.00000000    0.00000000    0.00026152
     atom    2 type  2   force =     0.00000000    0.00000000   -0.00077090
     atom    3 type  3   force =     0.00000000    0.00000000   -0.00158536
     atom    4 type  3   force =     0.00000000    0.00000000    0.00104737
     atom    5 type  3   force =     0.00000000    0.00000000    0.00104737

     Total force =     0.002317     Total SCF correction =     0.000017


     Computing stress (Cartesian axis) and pressure


     negative rho (up, down):  1.577E-02 0.000E+00
          total   stress  (Ry/bohr**3)                   (kbar)     P=      -42.22
  -0.00034024   0.00000000   0.00000000          -50.05        0.00        0.00
   0.00000000  -0.00034024   0.00000000            0.00      -50.05        0.00
   0.00000000   0.00000000  -0.00018052            0.00        0.00      -26.56

     Energy error            =      1.8E-05 Ry
     Gradient error          =      1.6E-03 Ry/Bohr

     number of scf cycles    =   7
     number of bfgs steps    =   6

     energy             old  =    -380.5750404072 Ry
     energy             new  =    -380.5750583893 Ry

     CASE: energy            _new < energy            _old

     new trust radius        =       0.0032469050 bohr
     new conv_thr            =            1.0E-10 Ry


ATOMIC_POSITIONS (crystal)
Pb               0.0000000000        0.0000000000        0.9933935539
Ti               0.5000000000        0.5000000000        0.5384083084
O                0.5000000000        0.5000000000        0.1069686894
O                0.5000000000        0.0000000000        0.6142568681
O                0.0000000000        0.5000000000        0.6142568681



     Writing config-only to output data dir ./pto_90.save/ :
     XML data file
     NEW-OLD atomic charge density approx. for the potential

     Check: negative core charge=   -0.000001

     negative rho (up, down):  1.577E-02 0.000E+00

     total cpu time spent up to now is      154.0 secs

     Self-consistent Calculation

     iteration #  1     ecut=    90.00 Ry     beta= 0.70
     CG style diagonalization
     ethr =  1.00E-06,  avg # of iterations =  2.7

     Threshold (ethr) on eigenvalues was too large:
     Diagonalizing with lowered threshold

     CG style diagonalization
     c_bands:  1 eigenvalues not converged
     c_bands:  1 eigenvalues not converged
     c_bands:  1 eigenvalues not converged
     c_bands:  1 eigenvalues not converged
     c_bands:  1 eigenvalues not converged
     c_bands:  1 eigenvalues not converged
     c_bands:  1 eigenvalues not converged
     c_bands:  1 eigenvalues not converged
     ethr =  5.78E-09,  avg # of iterations =  5.9

     negative rho (up, down):  1.577E-02 0.000E+00

     total cpu time spent up to now is      157.6 secs

     total energy              =    -380.57506224 Ry
     estimated scf accuracy    <       0.00000455 Ry

     iteration #  2     ecut=    90.00 Ry     beta= 0.70
     CG style diagonalization
     ethr =  1.03E-08,  avg # of iterations =  4.7

     negative rho (up, down):  1.577E-02 0.000E+00

     total cpu time spent up to now is      159.4 secs

     total energy              =    -380.57506141 Ry
     estimated scf accuracy    <       0.00001701 Ry

     iteration #  3     ecut=    90.00 Ry     beta= 0.70
     CG style diagonalization
     ethr =  1.03E-08,  avg # of iterations =  4.3

     negative rho (up, down):  1.577E-02 0.000E+00

     total cpu time spent up to now is      161.2 secs

     total energy              =    -380.57506448 Ry
     estimated scf accuracy    <       0.00000061 Ry

     iteration #  4     ecut=    90.00 Ry     beta= 0.70
     CG style diagonalization
     ethr =  1.38E-09,  avg # of iterations =  3.6

     negative rho (up, down):  1.577E-02 0.000E+00

     total cpu time spent up to now is      162.6 secs

     total energy              =    -380.57506461 Ry
     estimated scf accuracy    <       0.00000009 Ry

     iteration #  5     ecut=    90.00 Ry     beta= 0.70
     CG style diagonalization
     ethr =  1.93E-10,  avg # of iterations =  4.0

     negative rho (up, down):  1.577E-02 0.000E+00

     total cpu time spent up to now is      164.2 secs

     total energy              =    -380.57506464 Ry
     estimated scf accuracy    <       0.00000001 Ry

     iteration #  6     ecut=    90.00 Ry     beta= 0.70
     CG style diagonalization
     ethr =  2.55E-11,  avg # of iterations =  4.0

     negative rho (up, down):  1.577E-02 0.000E+00

     total cpu time spent up to now is      165.8 secs

     total energy              =    -380.57506464 Ry
     estimated scf accuracy    <          1.5E-09 Ry

     iteration #  7     ecut=    90.00 Ry     beta= 0.70
     CG style diagonalization
     ethr =  3.47E-12,  avg # of iterations =  4.6

     negative rho (up, down):  1.577E-02 0.000E+00

     total cpu time spent up to now is      167.6 secs

     total energy              =    -380.57506464 Ry
     estimated scf accuracy    <          3.2E-10 Ry

     iteration #  8     ecut=    90.00 Ry     beta= 0.70
     CG style diagonalization
     ethr =  7.27E-13,  avg # of iterations =  4.8

     negative rho (up, down):  1.577E-02 0.000E+00

     total cpu time spent up to now is      169.5 secs

     End of self-consistent calculation

          k = 0.0000 0.0000 0.0000 (  6071 PWs)   bands (ev):

   -45.7949 -22.4809 -22.3708 -22.3708  -7.5741  -6.5138  -6.2030  -4.9917
    -4.9917  -4.9498  -4.8655  -4.6818   4.2120   6.2498   6.2498   6.8025
     8.1207   8.1207   8.4492   8.6294   8.8726   8.8726

          k = 0.0000 0.0000 0.2378 (  6055 PWs)   bands (ev):

   -45.7946 -22.5005 -22.3700 -22.3700  -7.3884  -6.4618  -6.1426  -5.0068
    -5.0068  -4.9485  -4.8515  -4.7458   3.4641   6.2911   6.2911   6.8766
     7.9147   7.9147   8.3647   8.7844   8.9707   8.9707

          k = 0.0000 0.0000-0.4756 (  6032 PWs)   bands (ev):

   -45.7943 -22.5200 -22.3692 -22.3692  -7.1886  -6.4057  -6.0872  -5.0217
    -5.0217  -4.9472  -4.8381  -4.8139   2.9567   6.2134   6.3132   6.3132
     7.7873   7.7873   8.2839   9.0350   9.0350   9.9888

          k = 0.0000 0.1667 0.0000 (  6066 PWs)   bands (ev):

   -45.7946 -22.4802 -22.3881 -22.3700  -7.4399  -6.4880  -6.1841  -5.0130
    -4.9903  -4.9624  -4.8554  -4.6715   3.7944   6.3063   6.3584   6.7341
     8.1337   8.1460   8.4251   8.5047   8.5732   8.9696

          k = 0.0000 0.1667 0.2378 (  6063 PWs)   bands (ev):

   -45.7943 -22.4996 -22.3872 -22.3692  -7.2702  -6.4494  -6.1172  -5.0060
    -5.0058  -4.9617  -4.8511  -4.7055   3.2596   6.0911   6.4083   6.9294
     7.6041   7.9020   8.2140   8.6222   8.6515   9.3528

          k = 0.0000 0.1667-0.4756 (  6058 PWs)   bands (ev):

   -45.7940 -22.5189 -22.3863 -22.3685  -7.0961  -6.4064  -6.0465  -5.0212
    -4.9967  -4.9609  -4.8519  -4.7394   2.8402   5.7998   6.4340   6.5860
     7.4356   7.7805   8.2526   8.6790   8.7262   9.9585

          k = 0.0000 0.3333 0.0000 (  6070 PWs)   bands (ev):

   -45.7939 -22.4786 -22.4225 -22.3686  -7.1480  -6.4314  -6.1644  -5.0407
    -4.9881  -4.9869  -4.8217  -4.6825   3.2260   5.9450   6.6429   6.6677
     7.8038   7.8385   8.2230   8.2883   8.6610   9.6376

          k = 0.0000 0.3333 0.2378 (  6061 PWs)   bands (ev):

   -45.7936 -22.4978 -22.4215 -22.3678  -7.0405  -6.3951  -6.0727  -5.0072
    -5.0039  -4.9877  -4.8246  -4.6545   2.9154   5.8096   6.5429   6.7191
     7.2356   7.6666   7.8436   8.3098   8.8656   9.7037

          k = 0.0000 0.3333-0.4756 (  6088 PWs)   bands (ev):

   -45.7934 -22.5169 -22.4204 -22.3670  -6.9601  -6.3408  -5.9531  -5.0202
    -4.9880  -4.9645  -4.8562  -4.6133   2.6342   5.4900   6.3286   6.7438
     7.1048   7.3569   7.6177   8.3538   9.2520   9.5721

          k = 0.0000-0.5000 0.0000 (  6054 PWs)   bands (ev):

   -45.7936 -22.4777 -22.4398 -22.3679  -6.9870  -6.3847  -6.1824  -5.0510
    -5.0000  -4.9859  -4.7512  -4.7475   3.0200   5.6037   6.9041   6.9092
     7.3301   7.4394   8.2042   8.2555   8.6910  10.3702

          k = 0.0000-0.5000 0.2378 (  6074 PWs)   bands (ev):

   -45.7933 -22.4968 -22.4386 -22.3671  -6.9408  -6.3225  -6.0721  -5.0162
    -5.0029  -5.0007  -4.7830  -4.6531   2.7776   5.5624   6.5534   6.7670
     7.0916   7.2395   7.9443   8.2794   8.8767   9.8844

          k = 0.0000-0.5000-0.4756 (  6076 PWs)   bands (ev):

   -45.7930 -22.5157 -22.4374 -22.3662  -6.9265  -6.2568  -5.9083  -5.0197
    -5.0014  -4.9739  -4.8287  -4.5628   2.5518   5.3583   6.0201   6.7888
     7.0649   7.2937   7.3964   8.2938   9.2209   9.5692

          k = 0.1667 0.1667 0.0000 (  6050 PWs)   bands (ev):

   -45.7942 -22.4794 -22.3875 -22.3871  -7.3082  -6.4614  -6.1842  -5.0168
    -5.0032  -4.9649  -4.8254  -4.6615   3.4914   6.2527   6.4869   6.7284
     7.6566   7.7891   8.4676   8.5356   8.8197   9.1853

          k = 0.1667 0.1667 0.2378 (  6064 PWs)   bands (ev):

   -45.7940 -22.4988 -22.3866 -22.3863  -7.1501  -6.4395  -6.1153  -5.0177
    -4.9939  -4.9595  -4.8188  -4.6754   3.1413   6.0444   6.1237   6.8485
     7.4930   7.5161   8.2766   8.6787   8.8993   9.3303

          k = 0.1667 0.1667-0.4756 (  6082 PWs)   bands (ev):

   -45.7937 -22.5180 -22.3857 -22.3855  -6.9942  -6.4175  -6.0337  -5.0286
    -4.9737  -4.9371  -4.8255  -4.6932   2.8129   5.8425   5.8585   6.5704
     7.3518   7.4682   8.2088   8.7421   8.9538   9.6804

          k = 0.1667 0.3333 0.0000 (  6060 PWs)   bands (ev):

   -45.7936 -22.4778 -22.4217 -22.3858  -7.0235  -6.4064  -6.2011  -5.0335
    -4.9920  -4.9483  -4.7831  -4.6703   3.0137   5.9556   6.4919   6.8213
     7.1476   7.7063   8.0362   8.6519   8.8180   9.6822

          k = 0.1667 0.3333 0.2378 (  6069 PWs)   bands (ev):

   -45.7933 -22.4970 -22.4206 -22.3849  -6.9161  -6.3978  -6.1176  -5.0126
    -4.9894  -4.9300  -4.7689  -4.6326   2.8999   5.7813   5.9423   6.4629
     6.8983   7.5605   8.3320   8.6166   8.9548   9.4307

          k = 0.1667 0.3333-0.4756 (  6068 PWs)   bands (ev):

   -45.7930 -22.5160 -22.4196 -22.3840  -6.8406  -6.3794  -5.9986  -5.0128
    -4.9659  -4.8945  -4.7770  -4.5889   2.7463   5.4416   5.8405   6.2162
     6.4015   7.4159   8.4376   8.6597   8.9674   9.3867

          k = 0.1667-0.5000 0.0000 (  6066 PWs)   bands (ev):

   -45.7933 -22.4769 -22.4388 -22.3850  -6.8669  -6.3625  -6.2363  -5.0346
    -4.9842  -4.9297  -4.7301  -4.7256   2.8238   5.6218   6.6196   6.8154
     7.1808   7.4546   7.8425   8.7016   8.7986  10.0024

          k = 0.1667-0.5000 0.2378 (  6056 PWs)   bands (ev):

   -45.7930 -22.4959 -22.4377 -22.3841  -6.8161  -6.3344  -6.1393  -5.0108
    -4.9768  -4.9139  -4.7341  -4.6309   2.7894   5.5698   5.8442   6.2325
     6.8487   7.6959   8.1224   8.6157   8.9666   9.4002

          k = 0.1667-0.5000-0.4756 (  6056 PWs)   bands (ev):

   -45.7927 -22.5149 -22.4366 -22.3833  -6.8065  -6.3071  -5.9838  -5.0079
    -4.9384  -4.8966  -4.7458  -4.5408   2.7170   5.3267   5.6768   5.8686
     6.3000   7.5299   8.3214   8.5839   8.6420   9.5823

          k = 0.3333 0.3333 0.0000 (  6100 PWs)   bands (ev):

   -45.7929 -22.4762 -22.4200 -22.4197  -6.7672  -6.3579  -6.2693  -5.0141
    -4.9705  -4.8712  -4.7121  -4.6702   2.6143   5.9066   6.0866   6.8986
     7.0709   7.1983   7.8762   8.4905   9.2978   9.4305

          k = 0.3333 0.3333 0.2378 (  6085 PWs)   bands (ev):

   -45.7927 -22.4952 -22.4191 -22.4188  -6.6647  -6.3970  -6.2029  -4.9774
    -4.9664  -4.8282  -4.6665  -4.6021   2.7960   5.5540   5.6386   5.9035
     6.6225   7.0689   8.4168   8.9272   8.9671   9.3148

          k = 0.3333 0.3333-0.4756 (  6060 PWs)   bands (ev):

   -45.7924 -22.5141 -22.4181 -22.4180  -6.6160  -6.4338  -6.0719  -4.9617
    -4.9416  -4.7800  -4.6202  -4.5361   2.9681   5.1552   5.1939   5.6750
     6.3551   6.5407   7.7541   9.2708   9.2839   9.4578

          k = 0.3333-0.5000 0.0000 (  6102 PWs)   bands (ev):

   -45.7926 -22.4752 -22.4369 -22.4190  -6.6375  -6.3240  -6.3095  -5.0064
    -4.9481  -4.7992  -4.7130  -4.6737   2.4294   5.5926   6.1237   6.7385
     7.2474   7.3832   7.4725   8.4783   9.1337   9.4918

          k = 0.3333-0.5000 0.2378 (  6072 PWs)   bands (ev):

   -45.7923 -22.4942 -22.4359 -22.4181  -6.5545  -6.3618  -6.2591  -4.9698
    -4.9400  -4.7485  -4.6417  -4.5903   2.7111   5.4774   5.5480   5.6644
     6.3961   7.1406   7.9936   8.9345   8.9434   9.4678

          k = 0.3333-0.5000-0.4756 (  6072 PWs)   bands (ev):

   -45.7921 -22.5131 -22.4350 -22.4172  -6.5623  -6.3975  -6.1038  -4.9449
    -4.9208  -4.7061  -4.5701  -4.4968   3.0662   4.9194   5.1181   5.4460
     6.1445   6.5406   7.0329   9.3774   9.4379   9.6124

          k =-0.5000-0.5000 0.0000 (  6096 PWs)   bands (ev):

   -45.7923 -22.4743 -22.4359 -22.4359  -6.5523  -6.3078  -6.3078  -4.9967
    -4.9079  -4.7164  -4.7164  -4.6664   2.2351   5.4325   5.9919   6.9708
     6.9708   7.4814   7.4814   8.2513   8.6637   9.7436

          k =-0.5000-0.5000 0.2378 (  6092 PWs)   bands (ev):

   -45.7920 -22.4933 -22.4350 -22.4350  -6.3769  -6.3769  -6.3564  -4.9588
    -4.9061  -4.6398  -4.5970  -4.5970   2.6151   5.3905   5.6099   5.6099
     5.9982   7.0786   7.3845   8.9597   8.9597   9.7288

          k =-0.5000-0.5000-0.4756 (  6072 PWs)   bands (ev):

   -45.7917 -22.5122 -22.4341 -22.4341  -6.4386  -6.4386  -6.1545  -4.9209
    -4.9043  -4.6044  -4.4830  -4.4830   3.1926   4.9866   4.9866   5.2800
     6.0045   6.1142   6.2313   9.6282   9.6282   9.7140

     highest occupied level (ev):    10.3702

!    total energy              =    -380.57506464 Ry
     estimated scf accuracy    <          2.0E-11 Ry

     The total energy is the sum of the following terms:
     one-electron contribution =     -85.73647356 Ry
     hartree contribution      =      72.01233858 Ry
     xc contribution           =    -102.58524774 Ry
     ewald contribution        =    -264.26568193 Ry

     convergence has been achieved in   8 iterations

     negative rho (up, down):  1.577E-02 0.000E+00

     Forces acting on atoms (cartesian axes, Ry/au):

     atom    1 type  1   force =     0.00000000    0.00000000    0.00033478
     atom    2 type  2   force =     0.00000000    0.00000000   -0.00126040
     atom    3 type  3   force =     0.00000000    0.00000000   -0.00016292
     atom    4 type  3   force =     0.00000000    0.00000000    0.00054427
     atom    5 type  3   force =     0.00000000    0.00000000    0.00054427

     Total force =     0.001523     Total SCF correction =     0.000009


     Computing stress (Cartesian axis) and pressure


     negative rho (up, down):  1.577E-02 0.000E+00
          total   stress  (Ry/bohr**3)                   (kbar)     P=      -42.79
  -0.00034208   0.00000000   0.00000000          -50.32        0.00        0.00
   0.00000000  -0.00034208   0.00000000            0.00      -50.32        0.00
   0.00000000   0.00000000  -0.00018850            0.00        0.00      -27.73

     Energy error            =      6.3E-06 Ry
     Gradient error          =      1.3E-03 Ry/Bohr

     number of scf cycles    =   8
     number of bfgs steps    =   7

     energy             old  =    -380.5750583893 Ry
     energy             new  =    -380.5750646439 Ry

     CASE: energy            _new < energy            _old

     new trust radius        =       0.0020244607 bohr
     new conv_thr            =            1.0E-10 Ry


ATOMIC_POSITIONS (crystal)
Pb               0.0000000000        0.0000000000        0.9934831840
Ti               0.5000000000        0.5000000000        0.5381707774
O                0.5000000000        0.5000000000        0.1067073971
O                0.5000000000        0.0000000000        0.6144614648
O                0.0000000000        0.5000000000        0.6144614648



     Writing config-only to output data dir ./pto_90.save/ :
     XML data file
     NEW-OLD atomic charge density approx. for the potential

     Check: negative core charge=   -0.000001

     negative rho (up, down):  1.576E-02 0.000E+00

     total cpu time spent up to now is      172.2 secs

     Self-consistent Calculation

     iteration #  1     ecut=    90.00 Ry     beta= 0.70
     CG style diagonalization
     ethr =  1.00E-06,  avg # of iterations =  3.1

     Threshold (ethr) on eigenvalues was too large:
     Diagonalizing with lowered threshold

     CG style diagonalization
     c_bands:  1 eigenvalues not converged
     c_bands:  1 eigenvalues not converged
     c_bands:  1 eigenvalues not converged
     c_bands:  1 eigenvalues not converged
     c_bands:  3 eigenvalues not converged
     c_bands:  3 eigenvalues not converged
     c_bands:  2 eigenvalues not converged
     c_bands:  1 eigenvalues not converged
     c_bands:  1 eigenvalues not converged
     ethr =  2.22E-09,  avg # of iterations =  7.5

     negative rho (up, down):  1.576E-02 0.000E+00

     total cpu time spent up to now is      176.6 secs

     total energy              =    -380.57506752 Ry
     estimated scf accuracy    <       0.00000111 Ry

     iteration #  2     ecut=    90.00 Ry     beta= 0.70
     CG style diagonalization
     ethr =  2.51E-09,  avg # of iterations =  4.5

     negative rho (up, down):  1.576E-02 0.000E+00

     total cpu time spent up to now is      178.4 secs

     total energy              =    -380.57506732 Ry
     estimated scf accuracy    <       0.00000371 Ry

     iteration #  3     ecut=    90.00 Ry     beta= 0.70
     CG style diagonalization
     ethr =  2.51E-09,  avg # of iterations =  4.2

     negative rho (up, down):  1.576E-02 0.000E+00

     total cpu time spent up to now is      180.1 secs

     total energy              =    -380.57506803 Ry
     estimated scf accuracy    <       0.00000013 Ry

     iteration #  4     ecut=    90.00 Ry     beta= 0.70
     CG style diagonalization
     ethr =  3.02E-10,  avg # of iterations =  3.7

     negative rho (up, down):  1.576E-02 0.000E+00

     total cpu time spent up to now is      181.6 secs

     total energy              =    -380.57506805 Ry
     estimated scf accuracy    <       0.00000002 Ry

     iteration #  5     ecut=    90.00 Ry     beta= 0.70
     CG style diagonalization
     ethr =  3.76E-11,  avg # of iterations =  4.6

     negative rho (up, down):  1.576E-02 0.000E+00

     total cpu time spent up to now is      183.4 secs

     total energy              =    -380.57506806 Ry
     estimated scf accuracy    <          4.1E-09 Ry

     iteration #  6     ecut=    90.00 Ry     beta= 0.70
     CG style diagonalization
     ethr =  9.21E-12,  avg # of iterations =  4.2

     negative rho (up, down):  1.576E-02 0.000E+00

     total cpu time spent up to now is      185.1 secs

     total energy              =    -380.57506806 Ry
     estimated scf accuracy    <          7.8E-10 Ry

     iteration #  7     ecut=    90.00 Ry     beta= 0.70
     CG style diagonalization
     ethr =  1.76E-12,  avg # of iterations =  4.7

     negative rho (up, down):  1.576E-02 0.000E+00

     total cpu time spent up to now is      187.0 secs

     total energy              =    -380.57506806 Ry
     estimated scf accuracy    <          2.9E-10 Ry

     iteration #  8     ecut=    90.00 Ry     beta= 0.70
     CG style diagonalization
     ethr =  6.64E-13,  avg # of iterations =  4.3

     negative rho (up, down):  1.576E-02 0.000E+00

     total cpu time spent up to now is      188.7 secs

     End of self-consistent calculation

          k = 0.0000 0.0000 0.0000 (  6071 PWs)   bands (ev):

   -45.7957 -22.4815 -22.3714 -22.3714  -7.5742  -6.5127  -6.2028  -4.9908
    -4.9908  -4.9487  -4.8644  -4.6803   4.2140   6.2485   6.2485   6.8006
     8.1183   8.1183   8.4477   8.6290   8.8723   8.8723

          k = 0.0000 0.0000 0.2378 (  6055 PWs)   bands (ev):

   -45.7954 -22.5011 -22.3706 -22.3706  -7.3883  -6.4607  -6.1427  -5.0058
    -5.0058  -4.9474  -4.8504  -4.7443   3.4652   6.2884   6.2884   6.8753
     7.9148   7.9148   8.3631   8.7849   8.9708   8.9708

          k = 0.0000 0.0000-0.4756 (  6032 PWs)   bands (ev):

   -45.7952 -22.5206 -22.3698 -22.3698  -7.1882  -6.4046  -6.0877  -5.0207
    -5.0207  -4.9461  -4.8370  -4.8124   2.9575   6.2126   6.3087   6.3087
     7.7902   7.7902   8.2824   9.0353   9.0353   9.9897

          k = 0.0000 0.1667 0.0000 (  6066 PWs)   bands (ev):

   -45.7954 -22.4808 -22.3887 -22.3707  -7.4402  -6.4871  -6.1839  -5.0120
    -4.9893  -4.9613  -4.8543  -4.6700   3.7954   6.3065   6.3574   6.7326
     8.1336   8.1440   8.4238   8.5042   8.5725   8.9700

          k = 0.0000 0.1667 0.2378 (  6063 PWs)   bands (ev):

   -45.7951 -22.5002 -22.3878 -22.3699  -7.2701  -6.4485  -6.1173  -5.0050
    -5.0049  -4.9605  -4.8500  -4.7041   3.2604   6.0896   6.4058   6.9285
     7.6046   7.9020   8.2150   8.6207   8.6518   9.3537

          k = 0.0000 0.1667-0.4756 (  6058 PWs)   bands (ev):

   -45.7948 -22.5196 -22.3869 -22.3691  -7.0957  -6.4056  -6.0470  -5.0202
    -4.9957  -4.9598  -4.8508  -4.7380   2.8409   5.7976   6.4298   6.5851
     7.4379   7.7830   8.2529   8.6773   8.7269   9.9604

          k = 0.0000 0.3333 0.0000 (  6070 PWs)   bands (ev):

   -45.7947 -22.4792 -22.4231 -22.3692  -7.1482  -6.4310  -6.1643  -5.0397
    -4.9870  -4.9859  -4.8208  -4.6812   3.2264   5.9463   6.6426   6.6693
     7.8062   7.8381   8.2206   8.2873   8.6601   9.6371

          k = 0.0000 0.3333 0.2378 (  6061 PWs)   bands (ev):

   -45.7945 -22.4984 -22.4220 -22.3684  -7.0403  -6.3949  -6.0730  -5.0062
    -5.0029  -4.9866  -4.8236  -4.6532   2.9159   5.8100   6.5438   6.7173
     7.2378   7.6657   7.8433   8.3108   8.8655   9.7039

          k = 0.0000 0.3333-0.4756 (  6088 PWs)   bands (ev):

   -45.7942 -22.5175 -22.4210 -22.3676  -6.9594  -6.3408  -5.9537  -5.0192
    -4.9869  -4.9634  -4.8551  -4.6121   2.6348   5.4887   6.3318   6.7401
     7.1056   7.3568   7.6185   8.3561   9.2507   9.5744

          k = 0.0000-0.5000 0.0000 (  6054 PWs)   bands (ev):

   -45.7944 -22.4783 -22.4403 -22.3685  -6.9870  -6.3850  -6.1823  -5.0500
    -4.9990  -4.9850  -4.7501  -4.7465   3.0200   5.6066   6.9052   6.9129
     7.3309   7.4376   8.2030   8.2534   8.6900  10.3702

          k = 0.0000-0.5000 0.2378 (  6074 PWs)   bands (ev):

   -45.7941 -22.4974 -22.4391 -22.3677  -6.9403  -6.3228  -6.0725  -5.0152
    -5.0019  -4.9996  -4.7819  -4.6519   2.7781   5.5643   6.5546   6.7689
     7.0927   7.2357   7.9440   8.2805   8.8772   9.8842

          k = 0.0000-0.5000-0.4756 (  6076 PWs)   bands (ev):

   -45.7939 -22.5163 -22.4380 -22.3668  -6.9256  -6.2572  -5.9091  -5.0187
    -5.0003  -4.9729  -4.8275  -4.5616   2.5526   5.3579   6.0236   6.7898
     7.0601   7.2950   7.3962   8.2968   9.2225   9.5688

          k = 0.1667 0.1667 0.0000 (  6050 PWs)   bands (ev):

   -45.7951 -22.4800 -22.3881 -22.3877  -7.3085  -6.4606  -6.1841  -5.0157
    -5.0023  -4.9638  -4.8244  -4.6601   3.4922   6.2518   6.4877   6.7268
     7.6559   7.7892   8.4676   8.5345   8.8213   9.1845

          k = 0.1667 0.1667 0.2378 (  6064 PWs)   bands (ev):

   -45.7948 -22.4994 -22.3872 -22.3869  -7.1502  -6.4388  -6.1154  -5.0168
    -4.9929  -4.9584  -4.8178  -4.6740   3.1420   6.0423   6.1233   6.8472
     7.4934   7.5182   8.2766   8.6778   8.8995   9.3318

          k = 0.1667 0.1667-0.4756 (  6082 PWs)   bands (ev):

   -45.7945 -22.5186 -22.3863 -22.3861  -6.9940  -6.4168  -6.0342  -5.0276
    -4.9726  -4.9361  -4.8245  -4.6918   2.8135   5.8398   5.8567   6.5715
     7.3505   7.4716   8.2098   8.7416   8.9534   9.6826

          k = 0.1667 0.3333 0.0000 (  6060 PWs)   bands (ev):

   -45.7944 -22.4784 -22.4222 -22.3864  -7.0239  -6.4061  -6.2010  -5.0325
    -4.9910  -4.9472  -4.7821  -4.6690   3.0141   5.9569   6.4909   6.8232
     7.1474   7.7062   8.0382   8.6512   8.8183   9.6819

          k = 0.1667 0.3333 0.2378 (  6069 PWs)   bands (ev):

   -45.7941 -22.4976 -22.4212 -22.3855  -6.9161  -6.3976  -6.1180  -5.0116
    -4.9884  -4.9289  -4.7679  -4.6313   2.9004   5.7814   5.9426   6.4622
     6.8994   7.5626   8.3334   8.6161   8.9545   9.4310

          k = 0.1667 0.3333-0.4756 (  6068 PWs)   bands (ev):

   -45.7939 -22.5166 -22.4202 -22.3846  -6.8402  -6.3793  -5.9993  -5.0118
    -4.9649  -4.8934  -4.7759  -4.5877   2.7469   5.4405   5.8405   6.2156
     6.4040   7.4180   8.4380   8.6601   8.9684   9.3862

          k = 0.1667-0.5000 0.0000 (  6066 PWs)   bands (ev):

   -45.7941 -22.4775 -22.4394 -22.3856  -6.8671  -6.3628  -6.2362  -5.0337
    -4.9832  -4.9285  -4.7290  -4.7245   2.8240   5.6246   6.6202   6.8140
     7.1841   7.4564   7.8416   8.7011   8.7984  10.0026

          k = 0.1667-0.5000 0.2378 (  6056 PWs)   bands (ev):

   -45.7938 -22.4966 -22.4382 -22.3847  -6.8159  -6.3346  -6.1397  -5.0098
    -4.9759  -4.9128  -4.7330  -4.6297   2.7898   5.5717   5.8455   6.2320
     6.8485   7.6983   8.1245   8.6146   8.9671   9.3994

          k = 0.1667-0.5000-0.4756 (  6056 PWs)   bands (ev):

   -45.7936 -22.5155 -22.4371 -22.3839  -6.8058  -6.3075  -5.9846  -5.0070
    -4.9374  -4.8955  -4.7448  -4.5396   2.7177   5.3264   5.6779   5.8701
     6.2999   7.5326   8.3229   8.5830   8.6427   9.5818

          k = 0.3333 0.3333 0.0000 (  6100 PWs)   bands (ev):

   -45.7938 -22.4768 -22.4206 -22.4203  -6.7680  -6.3578  -6.2693  -5.0131
    -4.9695  -4.8700  -4.7110  -4.6689   2.6148   5.9073   6.0883   6.8979
     7.0735   7.1977   7.8792   8.4921   9.2980   9.4307

          k = 0.3333 0.3333 0.2378 (  6085 PWs)   bands (ev):

   -45.7935 -22.4958 -22.4196 -22.4194  -6.6651  -6.3969  -6.2033  -4.9764
    -4.9654  -4.8270  -4.6654  -4.6009   2.7965   5.5546   5.6385   5.9038
     6.6263   7.0702   8.4192   8.9273   8.9661   9.3150

          k = 0.3333 0.3333-0.4756 (  6060 PWs)   bands (ev):

   -45.7932 -22.5147 -22.4186 -22.4185  -6.6160  -6.4337  -6.0726  -4.9607
    -4.9407  -4.7790  -4.6191  -4.5350   2.9686   5.1562   5.1938   5.6731
     6.3580   6.5449   7.7558   9.2701   9.2842   9.4569

          k = 0.3333-0.5000 0.0000 (  6102 PWs)   bands (ev):

   -45.7934 -22.4759 -22.4374 -22.4195  -6.6383  -6.3243  -6.3095  -5.0054
    -4.9470  -4.7980  -4.7118  -4.6725   2.4298   5.5947   6.1258   6.7375
     7.2458   7.3867   7.4754   8.4795   9.1343   9.4923

          k = 0.3333-0.5000 0.2378 (  6072 PWs)   bands (ev):

   -45.7932 -22.4949 -22.4365 -22.4187  -6.5548  -6.3620  -6.2596  -4.9688
    -4.9390  -4.7473  -4.6407  -4.5891   2.7116   5.4784   5.5492   5.6647
     6.3994   7.1422   7.9952   8.9343   8.9431   9.4681

          k = 0.3333-0.5000-0.4756 (  6072 PWs)   bands (ev):

   -45.7929 -22.5137 -22.4355 -22.4178  -6.5622  -6.3977  -6.1047  -4.9439
    -4.9198  -4.7050  -4.5692  -4.4957   3.0669   4.9205   5.1184   5.4454
     6.1474   6.5447   7.0339   9.3764   9.4384   9.6118

          k =-0.5000-0.5000 0.0000 (  6096 PWs)   bands (ev):

   -45.7931 -22.4749 -22.4365 -22.4365  -6.5532  -6.3081  -6.3081  -4.9957
    -4.9068  -4.7153  -4.7153  -4.6651   2.2356   5.4344   5.9961   6.9686
     6.9686   7.4849   7.4849   8.2522   8.6655   9.7441

          k =-0.5000-0.5000 0.2378 (  6092 PWs)   bands (ev):

   -45.7929 -22.4939 -22.4356 -22.4356  -6.3771  -6.3771  -6.3573  -4.9578
    -4.9050  -4.6385  -4.5959  -4.5959   2.6157   5.3918   5.6107   5.6107
     6.0024   7.0798   7.3856   8.9598   8.9598   9.7293

          k =-0.5000-0.5000-0.4756 (  6072 PWs)   bands (ev):

   -45.7926 -22.5128 -22.4347 -22.4347  -6.4388  -6.4388  -6.1554  -4.9199
    -4.9032  -4.6032  -4.4821  -4.4821   3.1931   4.9878   4.9878   5.2797
     6.0087   6.1150   6.2341   9.6276   9.6276   9.7145

     highest occupied level (ev):    10.3702

!    total energy              =    -380.57506806 Ry
     estimated scf accuracy    <          9.9E-12 Ry

     The total energy is the sum of the following terms:
     one-electron contribution =     -85.71912877 Ry
     hartree contribution      =      72.00392636 Ry
     xc contribution           =    -102.58490029 Ry
     ewald contribution        =    -264.27496536 Ry

     convergence has been achieved in   8 iterations

     negative rho (up, down):  1.576E-02 0.000E+00

     Forces acting on atoms (cartesian axes, Ry/au):

     atom    1 type  1   force =     0.00000000    0.00000000    0.00015531
     atom    2 type  2   force =     0.00000000    0.00000000   -0.00085843
     atom    3 type  3   force =     0.00000000    0.00000000    0.00037837
     atom    4 type  3   force =     0.00000000    0.00000000    0.00016238
     atom    5 type  3   force =     0.00000000    0.00000000    0.00016238

     Total force =     0.000978     Total SCF correction =     0.000009


     Computing stress (Cartesian axis) and pressure


     negative rho (up, down):  1.576E-02 0.000E+00
          total   stress  (Ry/bohr**3)                   (kbar)     P=      -43.03
  -0.00034400   0.00000000   0.00000000          -50.60        0.00        0.00
   0.00000000  -0.00034400   0.00000000            0.00      -50.60        0.00
   0.00000000   0.00000000  -0.00018958            0.00        0.00      -27.89

     Energy error            =      3.4E-06 Ry
     Gradient error          =      8.6E-04 Ry/Bohr

     bfgs converged in   9 scf cycles and   8 bfgs steps
     (criteria: energy <  1.0E-04 Ry, force <  1.0E-03 Ry/Bohr)

     End of BFGS Geometry Optimization

     Final energy             =    -380.5750680650 Ry

     File ./pto_90.bfgs deleted, as requested
Begin final coordinates

ATOMIC_POSITIONS (crystal)
Pb               0.0000000000        0.0000000000        0.9934831840
Ti               0.5000000000        0.5000000000        0.5381707774
O                0.5000000000        0.5000000000        0.1067073971
O                0.5000000000        0.0000000000        0.6144614648
O                0.0000000000        0.5000000000        0.6144614648
End final coordinates



     Writing all to output data dir ./pto_90.save/ :
     XML data file, charge density, pseudopotentials, collected wavefunctions
 
     init_run     :      0.97s CPU      1.07s WALL (       1 calls)
     electrons    :    158.53s CPU    165.88s WALL (       9 calls)
     update_pot   :      0.06s CPU      0.07s WALL (       8 calls)
     forces       :      2.11s CPU      2.28s WALL (       9 calls)
     stress       :     20.24s CPU     20.64s WALL (       9 calls)

     Called by init_run:
     wfcinit      :      0.33s CPU      0.35s WALL (       1 calls)
     potinit      :      0.01s CPU      0.02s WALL (       1 calls)
     hinit0       :      0.15s CPU      0.18s WALL (       1 calls)

     Called by electrons:
     c_bands      :    130.75s CPU    135.32s WALL (      88 calls)
     sum_band     :     19.26s CPU     20.27s WALL (      88 calls)
     v_of_rho     :      0.28s CPU      0.28s WALL (      93 calls)
     newd         :      8.77s CPU     10.41s WALL (      93 calls)
     mix_rho      :      0.18s CPU      0.18s WALL (      88 calls)

     Called by c_bands:
     init_us_2    :      1.37s CPU      1.41s WALL (    5850 calls)
     init_us_2:cp :      1.36s CPU      1.40s WALL (    5850 calls)
     ccgdiagg     :    115.89s CPU    120.09s WALL (    2640 calls)
     wfcrot       :     14.22s CPU     14.57s WALL (    2280 calls)

     Called by *cgdiagg:
     h_psi        :     85.28s CPU     88.23s WALL (  227146 calls)
     s_psi        :     10.37s CPU     10.75s WALL (  452012 calls)

     Called by h_psi:
     h_psi:calbec :     11.91s CPU     12.31s WALL (  227146 calls)
     vloc_psi     :     65.19s CPU     67.46s WALL (  227146 calls)
     add_vuspsi   :      6.11s CPU      6.33s WALL (  227146 calls)
     hs_1psi      :     79.44s CPU     82.31s WALL (  224866 calls)
     s_1psi       :     14.30s CPU     14.79s WALL (  224866 calls)

     General routines
     calbec       :     20.13s CPU     20.85s WALL (  456002 calls)
     fft          :      0.37s CPU      0.39s WALL (     624 calls)
     ffts         :      0.03s CPU      0.03s WALL (     181 calls)
     fftw         :     56.13s CPU     58.00s WALL (  608672 calls)
     interpolate  :      0.07s CPU      0.08s WALL (      93 calls)
 
     Parallel routines
 
     PWSCF        :   3m 2.98s CPU   3m11.71s WALL

 
   This run was terminated on:   0:37:26  13Nov2025            

=------------------------------------------------------------------------------=
   JOB DONE.
=------------------------------------------------------------------------------=
TACC:  Shutdown complete. Exiting. 
