TACC:  Starting up job 2474976 
TACC:  Starting parallel tasks... 

     Program PWSCF v.7.3 starts on 17Oct2025 at 19:41:36 

     This program is part of the open-source Quantum ESPRESSO suite
     for quantum simulation of materials; please cite
         "P. Giannozzi et al., J. Phys.:Condens. Matter 21 395502 (2009);
         "P. Giannozzi et al., J. Phys.:Condens. Matter 29 465901 (2017);
         "P. Giannozzi et al., J. Chem. Phys. 152 154105 (2020);
          URL http://www.quantum-espresso.org", 
     in publications or presentations arising from this work. More details at
     http://www.quantum-espresso.org/quote

     Parallel version (MPI & OpenMP), running on      10 processor cores
     Number of MPI processes:                10
     Threads/MPI process:                     1

     MPI processes distributed on     1 nodes
     185375 MiB available memory on the printing compute node when the environment starts
 
     Waiting for input...
     Reading input from standard input

     Current dimensions of program PWSCF are:
     Max number of different atomic species (ntypx) = 10
     Max number of k-points (npk) =  40000
     Max angular momentum in pseudopotentials (lmaxx) =  4
 
     R & G space division:  proc/nbgrp/npool/nimage =      10
     Subspace diagonalization in iterative solution of the eigenvalue problem:
     a serial algorithm will be used

 
     Parallelization info
     --------------------
     sticks:   dense  smooth     PW     G-vecs:    dense   smooth      PW
     Min         430     115     34                18622     2574     411
     Max         431     118     35                18623     2575     412
     Sum        4303    1159    349               186221    25749    4111
 
     Using Slab Decomposition
 


     bravais-lattice index     =            2
     lattice parameter (alat)  =      10.2000  a.u.
     unit-cell volume          =     265.3020 (a.u.)^3
     number of atoms/cell      =            2
     number of atomic types    =            1
     number of electrons       =         8.00
     number of Kohn-Sham states=            8
     kinetic-energy cutoff     =      80.0000  Ry
     charge density cutoff     =    1200.0000  Ry
     scf convergence threshold =      1.0E-08
     mixing beta               =       0.7000
     number of iterations used =            8  plain     mixing
     Exchange-correlation= SLA  PZ   NOGX NOGC
                           (   1   1   0   0   0   0   0)

     celldm(1)=  10.200000  celldm(2)=   0.000000  celldm(3)=   0.000000
     celldm(4)=   0.000000  celldm(5)=   0.000000  celldm(6)=   0.000000

     crystal axes: (cart. coord. in units of alat)
               a(1) = (  -0.500000   0.000000   0.500000 )  
               a(2) = (   0.000000   0.500000   0.500000 )  
               a(3) = (  -0.500000   0.500000   0.000000 )  

     reciprocal axes: (cart. coord. in units 2 pi/alat)
               b(1) = ( -1.000000 -1.000000  1.000000 )  
               b(2) = (  1.000000  1.000000  1.000000 )  
               b(3) = ( -1.000000  1.000000 -1.000000 )  


     PseudoPot. # 1 for Si read from file:
     /scratch/11018/zhc/Assisgnment2/Q1/1A/energy_cutoff_test/Si_LDA.UPF
     MD5 check sum: b5ade7b37ee992b02096e360e546dc2d
     Pseudo is Ultrasoft + core correction, Zval =  4.0
     Generated by new atomic code, or converted to UPF format
     Using radial grid of  899 points,  6 beta functions with: 
                l(1) =   0
                l(2) =   0
                l(3) =   1
                l(4) =   1
                l(5) =   2
                l(6) =   2
     Q(r) pseudized with  8 coefficients,  rinner =    0.900   0.900   0.900
                                                       0.900   0.900

     atomic species   valence    mass     pseudopotential
     Si                4.00    28.08550     Si( 1.00)

     48 Sym. Ops., with inversion, found (24 have fractional translation)



   Cartesian axes

     site n.     atom                  positions (alat units)
         1        Si     tau(   1) = (   0.0000000   0.0000000   0.0000000  )
         2        Si     tau(   2) = (  -0.2500000   0.2500000   0.2500000  )

     number of k points=    72
                       cart. coord. in units 2pi/alat
        k(    1) = (   0.0000000   0.0000000   0.0000000), wk =   0.0011574
        k(    2) = (  -0.0833333   0.0833333  -0.0833333), wk =   0.0092593
        k(    3) = (  -0.1666667   0.1666667  -0.1666667), wk =   0.0092593
        k(    4) = (  -0.2500000   0.2500000  -0.2500000), wk =   0.0092593
        k(    5) = (  -0.3333333   0.3333333  -0.3333333), wk =   0.0092593
        k(    6) = (  -0.4166667   0.4166667  -0.4166667), wk =   0.0092593
        k(    7) = (   0.5000000  -0.5000000   0.5000000), wk =   0.0046296
        k(    8) = (   0.0000000   0.1666667   0.0000000), wk =   0.0069444
        k(    9) = (  -0.0833333   0.2500000  -0.0833333), wk =   0.0277778
        k(   10) = (  -0.1666667   0.3333333  -0.1666667), wk =   0.0277778
        k(   11) = (  -0.2500000   0.4166667  -0.2500000), wk =   0.0277778
        k(   12) = (  -0.3333333   0.5000000  -0.3333333), wk =   0.0277778
        k(   13) = (   0.5833333  -0.4166667   0.5833333), wk =   0.0277778
        k(   14) = (   0.5000000  -0.3333333   0.5000000), wk =   0.0277778
        k(   15) = (   0.4166667  -0.2500000   0.4166667), wk =   0.0277778
        k(   16) = (   0.3333333  -0.1666667   0.3333333), wk =   0.0277778
        k(   17) = (   0.2500000  -0.0833333   0.2500000), wk =   0.0277778
        k(   18) = (   0.1666667  -0.0000000   0.1666667), wk =   0.0138889
        k(   19) = (   0.0000000   0.3333333   0.0000000), wk =   0.0069444
        k(   20) = (  -0.0833333   0.4166667  -0.0833333), wk =   0.0277778
        k(   21) = (  -0.1666667   0.5000000  -0.1666667), wk =   0.0277778
        k(   22) = (  -0.2500000   0.5833333  -0.2500000), wk =   0.0277778
        k(   23) = (   0.6666667  -0.3333333   0.6666667), wk =   0.0277778
        k(   24) = (   0.5833333  -0.2500000   0.5833333), wk =   0.0277778
        k(   25) = (   0.5000000  -0.1666667   0.5000000), wk =   0.0277778
        k(   26) = (   0.4166667  -0.0833333   0.4166667), wk =   0.0277778
        k(   27) = (   0.3333333   0.0000000   0.3333333), wk =   0.0138889
        k(   28) = (   0.0000000   0.5000000   0.0000000), wk =   0.0069444
        k(   29) = (  -0.0833333   0.5833333  -0.0833333), wk =   0.0277778
        k(   30) = (  -0.1666667   0.6666667  -0.1666667), wk =   0.0277778
        k(   31) = (   0.7500000  -0.2500000   0.7500000), wk =   0.0277778
        k(   32) = (   0.6666667  -0.1666667   0.6666667), wk =   0.0277778
        k(   33) = (   0.5833333  -0.0833333   0.5833333), wk =   0.0277778
        k(   34) = (   0.5000000   0.0000000   0.5000000), wk =   0.0138889
        k(   35) = (   0.0000000   0.6666667   0.0000000), wk =   0.0069444
        k(   36) = (  -0.0833333   0.7500000  -0.0833333), wk =   0.0277778
        k(   37) = (   0.8333333  -0.1666667   0.8333333), wk =   0.0277778
        k(   38) = (   0.7500000  -0.0833333   0.7500000), wk =   0.0277778
        k(   39) = (   0.6666667  -0.0000000   0.6666667), wk =   0.0138889
        k(   40) = (   0.0000000   0.8333333   0.0000000), wk =   0.0069444
        k(   41) = (   0.9166667  -0.0833333   0.9166667), wk =   0.0277778
        k(   42) = (   0.8333333   0.0000000   0.8333333), wk =   0.0138889
        k(   43) = (   0.0000000  -1.0000000   0.0000000), wk =   0.0034722
        k(   44) = (  -0.1666667   0.3333333   0.0000000), wk =   0.0277778
        k(   45) = (  -0.2500000   0.4166667  -0.0833333), wk =   0.0555556
        k(   46) = (  -0.3333333   0.5000000  -0.1666667), wk =   0.0555556
        k(   47) = (   0.5833333  -0.4166667   0.7500000), wk =   0.0555556
        k(   48) = (   0.5000000  -0.3333333   0.6666667), wk =   0.0277778
        k(   49) = (  -0.1666667   0.5000000   0.0000000), wk =   0.0277778
        k(   50) = (  -0.2500000   0.5833333  -0.0833333), wk =   0.0555556
        k(   51) = (   0.6666667  -0.3333333   0.8333333), wk =   0.0555556
        k(   52) = (   0.5833333  -0.2500000   0.7500000), wk =   0.0555556
        k(   53) = (   0.5000000  -0.1666667   0.6666667), wk =   0.0555556
        k(   54) = (   0.4166667  -0.0833333   0.5833333), wk =   0.0555556
        k(   55) = (   0.3333333   0.0000000   0.5000000), wk =   0.0277778
        k(   56) = (  -0.1666667   0.6666667  -0.0000000), wk =   0.0277778
        k(   57) = (   0.7500000  -0.2500000   0.9166667), wk =   0.0555556
        k(   58) = (   0.6666667  -0.1666667   0.8333333), wk =   0.0555556
        k(   59) = (   0.5833333  -0.0833333   0.7500000), wk =   0.0555556
        k(   60) = (   0.5000000   0.0000000   0.6666667), wk =   0.0277778
        k(   61) = (   0.8333333  -0.1666667   1.0000000), wk =   0.0277778
        k(   62) = (   0.7500000  -0.0833333   0.9166667), wk =   0.0555556
        k(   63) = (   0.6666667   0.0000000   0.8333333), wk =   0.0277778
        k(   64) = (  -0.1666667  -1.0000000  -0.0000000), wk =   0.0138889
        k(   65) = (   0.6666667  -0.3333333   1.0000000), wk =   0.0277778
        k(   66) = (   0.5833333  -0.2500000   0.9166667), wk =   0.0555556
        k(   67) = (   0.5000000  -0.1666667   0.8333333), wk =   0.0277778
        k(   68) = (   0.6666667  -0.1666667   1.0000000), wk =   0.0277778
        k(   69) = (   0.5833333  -0.0833333   0.9166667), wk =   0.0555556
        k(   70) = (   0.5000000   0.0000000   0.8333333), wk =   0.0277778
        k(   71) = (  -0.3333333  -1.0000000   0.0000000), wk =   0.0138889
        k(   72) = (  -0.5000000  -1.0000000   0.0000000), wk =   0.0069444

     Dense  grid:   186221 G-vectors     FFT dimensions: (  80,  80,  80)

     Smooth grid:    25749 G-vectors     FFT dimensions: (  45,  45,  45)

     Estimated max dynamical RAM per process >      74.06 MB

     Estimated total dynamical RAM >     740.59 MB

     Initial potential from superposition of free atoms

     starting charge       7.9988, renormalised to       8.0000
     Starting wfcs are    8 randomized atomic wfcs

     total cpu time spent up to now is        0.8 secs

     Self-consistent Calculation

     iteration #  1     ecut=    80.00 Ry     beta= 0.70
     CG style diagonalization
     ethr =  1.00E-02,  avg # of iterations =  3.7

     Threshold (ethr) on eigenvalues was too large:
     Diagonalizing with lowered threshold

     CG style diagonalization
     ethr =  7.37E-04,  avg # of iterations =  2.0

     total cpu time spent up to now is        2.6 secs

     total energy              =     -19.25706924 Ry
     estimated scf accuracy    <       0.05920248 Ry

     iteration #  2     ecut=    80.00 Ry     beta= 0.70
     CG style diagonalization
     ethr =  7.40E-04,  avg # of iterations =  3.0

     total cpu time spent up to now is        3.4 secs

     total energy              =     -19.26041904 Ry
     estimated scf accuracy    <       0.00171436 Ry

     iteration #  3     ecut=    80.00 Ry     beta= 0.70
     CG style diagonalization
     ethr =  2.14E-05,  avg # of iterations =  3.8

     total cpu time spent up to now is        4.4 secs

     total energy              =     -19.26063011 Ry
     estimated scf accuracy    <       0.00003792 Ry

     iteration #  4     ecut=    80.00 Ry     beta= 0.70
     CG style diagonalization
     ethr =  4.74E-07,  avg # of iterations =  4.4

     total cpu time spent up to now is        5.6 secs

     total energy              =     -19.26066511 Ry
     estimated scf accuracy    <       0.00000012 Ry

     iteration #  5     ecut=    80.00 Ry     beta= 0.70
     CG style diagonalization
     ethr =  1.54E-09,  avg # of iterations =  4.2

     total cpu time spent up to now is        6.8 secs

     End of self-consistent calculation

          k = 0.0000 0.0000 0.0000 (  3143 PWs)   bands (ev):

    -5.8903   6.1993   6.1993   6.1993   8.7355   8.7355   8.7356   9.5916

          k =-0.0833 0.0833-0.0833 (  3191 PWs)   bands (ev):

    -5.7979   5.3282   6.0523   6.0523   8.7806   8.9510   8.9510  10.2493

          k =-0.1667 0.1667-0.1667 (  3224 PWs)   bands (ev):

    -5.5234   3.7860   5.7406   5.7406   8.5158   9.3919   9.3919  11.6616

          k =-0.2500 0.2500-0.2500 (  3215 PWs)   bands (ev):

    -5.0775   2.2188   5.4280   5.4280   8.1856   9.6829   9.6829  13.1024

          k =-0.3333 0.3333-0.3333 (  3203 PWs)   bands (ev):

    -4.4893   0.7903   5.1857   5.1857   7.9154   9.6723   9.6723  13.9476

          k =-0.4167 0.4167-0.4167 (  3208 PWs)   bands (ev):

    -3.8533  -0.3612   5.0367   5.0367   7.7452   9.5507   9.5507  13.8360

          k = 0.5000-0.5000 0.5000 (  3214 PWs)   bands (ev):

    -3.5074  -0.8806   4.9868   4.9868   7.6875   9.4931   9.4931  13.7463

          k = 0.0000 0.1667 0.0000 (  3199 PWs)   bands (ev):

    -5.7670   5.5050   5.7576   5.7576   8.4433   9.3263   9.3263  10.2291

          k =-0.0833 0.2500-0.0833 (  3214 PWs)   bands (ev):

    -5.5527   4.2516   5.3871   5.5848   8.4601   9.4159   9.8710  11.0985

          k =-0.1667 0.3333-0.1667 (  3212 PWs)   bands (ev):

    -5.1624   2.7278   5.0703   5.2551   8.5894   9.4002  10.2552  11.5511

          k =-0.2500 0.4167-0.2500 (  3208 PWs)   bands (ev):

    -4.6166   1.2695   4.8594   4.8965   8.4485   9.4638  10.2678  12.1210

          k =-0.3333 0.5000-0.3333 (  3200 PWs)   bands (ev):

    -3.9771   0.0171   4.5958   4.7706   8.2836   9.4145  10.0611  13.1696

          k = 0.5833-0.4167 0.5833 (  3206 PWs)   bands (ev):

    -3.4707  -0.7720   4.3870   4.8042   8.2049   9.4086   9.8541  13.9971

          k = 0.5000-0.3333 0.5000 (  3204 PWs)   bands (ev):

    -3.5960  -0.5891   4.2885   4.9510   8.2344   9.5253   9.7414  14.0930

          k = 0.4167-0.2500 0.4167 (  3207 PWs)   bands (ev):

    -4.1941   0.4047   4.3137   5.1950   8.3706   9.7141   9.7426  13.6215

          k = 0.3333-0.1667 0.3333 (  3208 PWs)   bands (ev):

    -4.8145   1.7413   4.4730   5.5097   8.6009   9.6428   9.9099  12.6805

          k = 0.2500-0.0833 0.2500 (  3221 PWs)   bands (ev):

    -5.3119   3.2225   4.7788   5.8438   8.8902   9.3477   9.7068  11.9261

          k = 0.1667-0.0000 0.1667 (  3221 PWs)   bands (ev):

    -5.6446   4.5946   5.3098   6.0820   8.9873   9.1224   9.1317  11.0409

          k = 0.0000 0.3333 0.0000 (  3223 PWs)   bands (ev):

    -5.3987   4.1565   4.9803   4.9803   7.8288  10.4648  10.5429  10.5429

          k =-0.0833 0.4167-0.0833 (  3211 PWs)   bands (ev):

    -5.0663   3.0527   4.6274   4.6412   7.8467  10.0443  10.8610  11.1080

          k =-0.1667 0.5000-0.1667 (  3198 PWs)   bands (ev):

    -4.5697   1.7193   4.1650   4.4206   8.0867  10.2242  10.6838  11.2685

          k =-0.2500 0.5833-0.2500 (  3209 PWs)   bands (ev):

    -3.9496   0.4616   3.7176   4.3371   8.1267  10.4371  11.0776  11.1978

          k = 0.6667-0.3333 0.6667 (  3201 PWs)   bands (ev):

    -3.3502  -0.4946   3.3664   4.3936   8.1591  10.2814  10.7967  12.5862

          k = 0.5833-0.2500 0.5833 (  3196 PWs)   bands (ev):

    -3.2313  -0.6597   3.1469   4.5822   8.3121  10.2256  10.5666  14.1461

          k = 0.5000-0.1667 0.5000 (  3202 PWs)   bands (ev):

    -3.7457   0.1189   3.0857   4.8835   8.5919  10.2737  10.4027  13.4549

          k = 0.4167-0.0833 0.4167 (  3203 PWs)   bands (ev):

    -4.3837   1.2897   3.2267   5.2589   8.9434  10.1818  10.3284  12.2927

          k = 0.3333 0.0000 0.3333 (  3206 PWs)   bands (ev):

    -4.9254   2.4503   3.7221   5.6299   9.2213   9.7394  10.0023  11.8245

          k = 0.0000 0.5000 0.0000 (  3207 PWs)   bands (ev):

    -4.7915   2.6691   4.2728   4.2728   7.2299   9.2382  11.9633  11.9634

          k =-0.0833 0.5833-0.0833 (  3208 PWs)   bands (ev):

    -4.3478   1.7479   3.7926   4.0232   7.3146   8.8766  12.2495  12.4441

          k =-0.1667 0.6667-0.1667 (  3202 PWs)   bands (ev):

    -3.7619   0.7015   3.1415   3.9155   7.5273   9.3665  12.1103  12.3944

          k = 0.7500-0.2500 0.7500 (  3208 PWs)   bands (ev):

    -3.1233  -0.2452   2.5822   3.9560   7.6119  10.5804  11.9415  12.1098

          k = 0.6667-0.1667 0.6667 (  3197 PWs)   bands (ev):

    -2.7879  -0.6732   2.2102   4.1402   7.7964  11.6021  11.8091  12.3598

          k = 0.5833-0.0833 0.5833 (  3199 PWs)   bands (ev):

    -3.1745  -0.1652   2.0840   4.4512   8.1332  11.5113  11.5969  13.3528

          k = 0.5000 0.0000 0.5000 (  3190 PWs)   bands (ev):

    -3.8107   0.6736   2.3501   4.8516   8.5796  10.9808  11.2866  12.3164

          k = 0.0000 0.6667 0.0000 (  3210 PWs)   bands (ev):

    -3.9564   1.1615   3.7378   3.7378   6.8095   8.0704  13.4747  13.4748

          k =-0.0833 0.7500-0.0833 (  3210 PWs)   bands (ev):

    -3.4127   0.3666   3.2320   3.5936   6.9728   7.9456  13.7971  13.8429

          k = 0.8333-0.1667 0.8333 (  3217 PWs)   bands (ev):

    -2.7711  -0.4124   2.4759   3.6006   7.1407   8.8304  13.6561  13.6825

          k = 0.7500-0.0833 0.7500 (  3205 PWs)   bands (ev):

    -2.2874  -0.9155   1.8777   3.7575   7.3208  10.2975  13.3028  13.5081

          k = 0.6667-0.0000 0.6667 (  3210 PWs)   bands (ev):

    -2.5639  -0.6269   1.6694   4.0517   7.6583  11.9368  12.6815  13.6248

          k = 0.0000 0.8333 0.0000 (  3226 PWs)   bands (ev):

    -2.9108  -0.3075   3.4084   3.4084   6.6428   7.2429  15.0409  15.0409

          k = 0.9167-0.0833 0.9167 (  3226 PWs)   bands (ev):

    -2.2869  -1.0043   2.9555   3.3746   6.8427   7.4260  15.2886  15.3843

          k = 0.8333 0.0000 0.8333 (  3218 PWs)   bands (ev):

    -1.8170  -1.4169   2.2555   3.4939   7.0043   8.6562  14.7428  15.2672

          k = 0.0000-1.0000 0.0000 (  3250 PWs)   bands (ev):

    -1.6817  -1.6817   3.2975   3.2975   6.7753   6.7753  16.3290  16.3290

          k =-0.1667 0.3333 0.0000 (  3232 PWs)   bands (ev):

    -5.2796   3.4512   4.5218   5.4833   8.4819   9.7456  10.3432  11.0602

          k =-0.2500 0.4167-0.0833 (  3202 PWs)   bands (ev):

    -4.8358   2.1912   3.9815   5.2027   8.7651   9.7046  10.7459  11.0299

          k =-0.3333 0.5000-0.1667 (  3210 PWs)   bands (ev):

    -4.2496   0.8659   3.7121   4.8684   8.8100   9.5493  10.8023  11.6932

          k = 0.5833-0.4167 0.7500 (  3204 PWs)   bands (ev):

    -3.6127  -0.2467   3.5859   4.6164   8.7606   9.3343  10.7167  12.9241

          k = 0.5000-0.3333 0.6667 (  3220 PWs)   bands (ev):

    -3.2627  -0.7592   3.5511   4.5225   8.7437   9.2389  10.6700  14.2144

          k =-0.1667 0.5000 0.0000 (  3203 PWs)   bands (ev):

    -4.6789   2.2556   3.8135   4.5422   7.9118   9.6483  11.0071  11.8376

          k =-0.2500 0.5833-0.0833 (  3207 PWs)   bands (ev):

    -4.1368   1.1890   3.2653   4.2448   8.2449   9.8702  10.7441  12.2211

          k = 0.6667-0.3333 0.8333 (  3204 PWs)   bands (ev):

    -3.4979   0.1119   2.9049   4.0281   8.3611  10.3623  10.9721  12.1993

          k = 0.5833-0.2500 0.7500 (  3204 PWs)   bands (ev):

    -2.9860  -0.6143   2.6552   4.0096   8.4916  10.0886  12.0834  12.4523

          k = 0.5000-0.1667 0.6667 (  3204 PWs)   bands (ev):

    -3.1259  -0.4216   2.5319   4.1869   8.7506   9.8944  12.0040  12.8303

          k = 0.4167-0.0833 0.5833 (  3198 PWs)   bands (ev):

    -3.7315   0.4778   2.6015   4.5120   9.1263   9.7522  11.4532  11.9465

          k = 0.3333 0.0000 0.5000 (  3196 PWs)   bands (ev):

    -4.3462   1.4745   3.0209   4.9040   9.3641   9.5293  10.8060  11.5231

          k =-0.1667 0.6667-0.0000 (  3190 PWs)   bands (ev):

    -3.8554   0.9833   3.2953   3.7373   7.4976   8.5717  12.2612  13.4213

          k = 0.7500-0.2500 0.9167 (  3202 PWs)   bands (ev):

    -3.2381   0.1367   2.6881   3.5129   7.8294   9.1224  11.9513  13.7904

          k = 0.6667-0.1667 0.8333 (  3201 PWs)   bands (ev):

    -2.6338  -0.5938   2.1516   3.5213   7.9823  10.4335  11.6530  13.7229

          k = 0.5833-0.0833 0.7500 (  3202 PWs)   bands (ev):

    -2.5584  -0.6685   1.8534   3.7248   8.2458  11.2108  12.2201  12.9228

          k = 0.5000 0.0000 0.6667 (  3204 PWs)   bands (ev):

    -3.1092  -0.0669   1.9410   4.0785   8.6507  10.8059  11.6656  13.0221

          k = 0.8333-0.1667 1.0000 (  3209 PWs)   bands (ev):

    -2.8309  -0.3428   3.0071   3.2093   7.3153   7.8192  13.6423  15.0374

          k = 0.7500-0.0833 0.9167 (  3208 PWs)   bands (ev):

    -2.1888  -0.9938   2.3517   3.1637   7.6056   8.7546  13.3144  14.8099

          k = 0.6667 0.0000 0.8333 (  3202 PWs)   bands (ev):

    -2.0243  -1.1133   1.8352   3.3653   7.8485  10.3040  12.8531  13.2363

          k =-0.1667-1.0000-0.0000 (  3222 PWs)   bands (ev):

    -1.6412  -1.6412   2.9718   2.9718   7.4103   7.4103  15.1209  15.1209

          k = 0.6667-0.3333 1.0000 (  3201 PWs)   bands (ev):

    -3.5620   0.5167   2.5399   3.8508   8.9889   9.8238  10.4160  13.2678

          k = 0.5833-0.2500 0.9167 (  3202 PWs)   bands (ev):

    -2.9240  -0.2665   2.1859   3.5026   9.3554   9.9097  10.9160  13.6954

          k = 0.5000-0.1667 0.8333 (  3190 PWs)   bands (ev):

    -2.5528  -0.7080   2.0926   3.3691   9.4696   9.7167  12.2562  12.7083

          k = 0.6667-0.1667 1.0000 (  3217 PWs)   bands (ev):

    -2.6099  -0.4870   2.3359   2.9695   8.8069   9.1984  11.5635  14.5109

          k = 0.5833-0.0833 0.9167 (  3205 PWs)   bands (ev):

    -2.0737  -1.0015   2.0077   2.8106   9.1454  10.4137  11.2908  12.6772

          k = 0.5000 0.0000 0.8333 (  3205 PWs)   bands (ev):

    -2.3087  -0.7697   1.8790   3.0422   9.4505  10.6194  11.1646  12.4231

          k =-0.3333-1.0000 0.0000 (  3210 PWs)   bands (ev):

    -1.5538  -1.5538   2.4612   2.4612   8.8657   8.8657  12.9498  12.9498

          k =-0.5000-1.0000 0.0000 (  3188 PWs)   bands (ev):

    -1.5065  -1.5065   2.2438   2.2438  10.3881  10.3881  11.1893  11.1893

     highest occupied, lowest unoccupied level (ev):     6.1993    6.6428

!    total energy              =     -19.26066568 Ry
     estimated scf accuracy    <          1.5E-09 Ry

     The total energy is the sum of the following terms:
     one-electron contribution =       5.18346376 Ry
     hartree contribution      =       1.09839878 Ry
     xc contribution           =      -8.64276965 Ry
     ewald contribution        =     -16.89975857 Ry

     convergence has been achieved in   5 iterations

     Forces acting on atoms (cartesian axes, Ry/au):

     atom    1 type  1   force =    -0.00000000   -0.00000000   -0.00000000
     atom    2 type  1   force =     0.00000000    0.00000000    0.00000000

     Total force =     0.000000     Total SCF correction =     0.000000


     Computing stress (Cartesian axis) and pressure

          total   stress  (Ry/bohr**3)                   (kbar)     P=        1.48
   0.00001009   0.00000000  -0.00000000            1.48        0.00       -0.00
   0.00000000   0.00001009   0.00000000            0.00        1.48        0.00
  -0.00000000  -0.00000000   0.00001009           -0.00       -0.00        1.48


     Writing all to output data dir ./Si_80.save/ :
     XML data file, charge density, pseudopotentials, collected wavefunctions
 
     init_run     :      0.57s CPU      0.67s WALL (       1 calls)
     electrons    :      5.66s CPU      6.01s WALL (       1 calls)
     forces       :      0.11s CPU      0.13s WALL (       1 calls)
     stress       :      0.75s CPU      0.77s WALL (       1 calls)

     Called by init_run:
     wfcinit      :      0.17s CPU      0.21s WALL (       1 calls)
     potinit      :      0.01s CPU      0.02s WALL (       1 calls)
     hinit0       :      0.05s CPU      0.09s WALL (       1 calls)

     Called by electrons:
     c_bands      :      4.50s CPU      4.69s WALL (       6 calls)
     sum_band     :      0.91s CPU      1.00s WALL (       6 calls)
     v_of_rho     :      0.02s CPU      0.02s WALL (       6 calls)
     newd         :      0.24s CPU      0.31s WALL (       6 calls)
     mix_rho      :      0.01s CPU      0.01s WALL (       6 calls)

     Called by c_bands:
     init_us_2    :      0.09s CPU      0.10s WALL (    1080 calls)
     init_us_2:cp :      0.09s CPU      0.09s WALL (    1080 calls)
     ccgdiagg     :      3.83s CPU      3.99s WALL (     432 calls)
     wfcrot       :      0.76s CPU      0.82s WALL (     360 calls)

     Called by *cgdiagg:
     h_psi        :      3.49s CPU      3.65s WALL (   10235 calls)
     s_psi        :      0.18s CPU      0.19s WALL (   20110 calls)

     Called by h_psi:
     h_psi:calbec :      0.27s CPU      0.28s WALL (   10235 calls)
     vloc_psi     :      3.03s CPU      3.17s WALL (   10235 calls)
     add_vuspsi   :      0.10s CPU      0.11s WALL (   10235 calls)
     hs_1psi      :      2.95s CPU      3.07s WALL (    9875 calls)
     s_1psi       :      0.31s CPU      0.33s WALL (    9875 calls)

     General routines
     calbec       :      0.47s CPU      0.49s WALL (   20902 calls)
     fft          :      0.03s CPU      0.04s WALL (      43 calls)
     ffts         :      0.00s CPU      0.01s WALL (      12 calls)
     fftw         :      2.68s CPU      2.79s WALL (   28966 calls)
     interpolate  :      0.01s CPU      0.01s WALL (       6 calls)
 
     Parallel routines
 
     PWSCF        :      7.24s CPU      8.15s WALL

 
   This run was terminated on:  19:41:44  17Oct2025            

=------------------------------------------------------------------------------=
   JOB DONE.
=------------------------------------------------------------------------------=
TACC:  Shutdown complete. Exiting. 
