TACC:  Starting up job 2560848 
TACC:  Starting parallel tasks... 

     Program PWSCF v.7.3 starts on 18Nov2025 at  0:12:17 

     This program is part of the open-source Quantum ESPRESSO suite
     for quantum simulation of materials; please cite
         "P. Giannozzi et al., J. Phys.:Condens. Matter 21 395502 (2009);
         "P. Giannozzi et al., J. Phys.:Condens. Matter 29 465901 (2017);
         "P. Giannozzi et al., J. Chem. Phys. 152 154105 (2020);
          URL http://www.quantum-espresso.org", 
     in publications or presentations arising from this work. More details at
     http://www.quantum-espresso.org/quote

     Parallel version (MPI & OpenMP), running on      10 processor cores
     Number of MPI processes:                10
     Threads/MPI process:                     1

     MPI processes distributed on     1 nodes
     187589 MiB available memory on the printing compute node when the environment starts
 
     Waiting for input...
     Reading input from standard input
Warning: card &CELL ignored
Warning: card  CELL_DYNAMICS = 'BFGS', ignored
Warning: card  PRESS=0.D0, ignored
Warning: card / ignored

     Current dimensions of program PWSCF are:
     Max number of different atomic species (ntypx) = 10
     Max number of k-points (npk) =  40000
     Max angular momentum in pseudopotentials (lmaxx) =  4
     Message from routine setup:
     using ibrav=0 with symmetry is DISCOURAGED, use correct ibrav instead
 
     R & G space division:  proc/nbgrp/npool/nimage =      10
     Subspace diagonalization in iterative solution of the eigenvalue problem:
     a serial algorithm will be used

 
     Parallelization info
     --------------------
     sticks:   dense  smooth     PW     G-vecs:    dense   smooth      PW
     Min         209      84     25                 7671     1942     321
     Max         210      85     26                 7676     1947     324
     Sum        2093     845    253                76731    19447    3231
 
     Using Slab Decomposition
 


     bravais-lattice index     =            0
     lattice parameter (alat)  =       7.2859  a.u.
     unit-cell volume          =     406.4752 (a.u.)^3
     number of atoms/cell      =            5
     number of atomic types    =            3
     number of electrons       =        44.00
     number of Kohn-Sham states=           22
     kinetic-energy cutoff     =      50.0000  Ry
     charge density cutoff     =     500.0000  Ry
     scf convergence threshold =      1.0E-08
     mixing beta               =       0.7000
     number of iterations used =            8  plain     mixing
     energy convergence thresh.=      1.0E-04
     force convergence thresh. =      1.0E-03
     Exchange-correlation= SLA  PZ   NOGX NOGC
                           (   1   1   0   0   0   0   0)
     nstep                     =           50


     celldm(1)=   7.285877  celldm(2)=   0.000000  celldm(3)=   0.000000
     celldm(4)=   0.000000  celldm(5)=   0.000000  celldm(6)=   0.000000

     crystal axes: (cart. coord. in units of alat)
               a(1) = (   1.000000   0.000000   0.000000 )  
               a(2) = (   0.000000   1.000000   0.000000 )  
               a(3) = (   0.000000   0.000000   1.050966 )  

     reciprocal axes: (cart. coord. in units 2 pi/alat)
               b(1) = (  1.000000  0.000000  0.000000 )  
               b(2) = (  0.000000  1.000000  0.000000 )  
               b(3) = (  0.000000  0.000000  0.951506 )  


     PseudoPot. # 1 for Pb read from file:
     /scratch/11018/zhc/assisgnment3/input_files/Pb_LDA.UPF
     MD5 check sum: 062a37469794d955244864f8fe2e5624
     Pseudo is Ultrasoft + core correction, Zval = 14.0
     Generated by new atomic code, or converted to UPF format
     Using radial grid of  899 points,  6 beta functions with: 
                l(1) =   0
                l(2) =   0
                l(3) =   1
                l(4) =   1
                l(5) =   2
                l(6) =   2
     Q(r) pseudized with  6 coefficients,  rinner =    1.000   1.000   1.000
                                                       1.000   1.000

     PseudoPot. # 2 for Ti read from file:
     /scratch/11018/zhc/assisgnment3/input_files/Ti_LDA.UPF
     MD5 check sum: 0d9f225c038fe889ca2a701dcc8d72cb
     Pseudo is Ultrasoft + core correction, Zval = 12.0
     Generated by new atomic code, or converted to UPF format
     Using radial grid of  851 points,  6 beta functions with: 
                l(1) =   0
                l(2) =   0
                l(3) =   1
                l(4) =   1
                l(5) =   2
                l(6) =   2
     Q(r) pseudized with  6 coefficients,  rinner =    1.000   1.000   1.000
                                                       1.000   1.000

     PseudoPot. # 3 for O  read from file:
     /scratch/11018/zhc/assisgnment3/input_files/O_LDA.UPF
     MD5 check sum: 194b818514d2a7dbb603bb78519a4f40
     Pseudo is Ultrasoft + core correction, Zval =  6.0
     Generated by new atomic code, or converted to UPF format
     Using radial grid of  737 points,  5 beta functions with: 
                l(1) =   0
                l(2) =   0
                l(3) =   1
                l(4) =   1
                l(5) =   2
     Q(r) pseudized with  8 coefficients,  rinner =    0.900   0.900   0.900
                                                       0.900   0.900

     atomic species   valence    mass     pseudopotential
     Pb               14.00   207.20000     Pb( 1.00)
     Ti               12.00    47.88000     Ti( 1.00)
     O                 6.00    16.00000     O ( 1.00)

      8 Sym. Ops. (no inversion) found



   Cartesian axes

     site n.     atom                  positions (alat units)
         1        Pb     tau(   1) = (   0.0000000   0.0000000   1.0564034  )
         2        Ti     tau(   2) = (   0.5000000   0.5000000   0.5670323  )
         3        O      tau(   3) = (   0.5000000   0.5000000   0.1045794  )
         4        O      tau(   4) = (   0.5000000   0.0000000   0.6427014  )
         5        O      tau(   5) = (   0.0000000   0.5000000   0.6427014  )

     number of k points=    30
                       cart. coord. in units 2pi/alat
        k(    1) = (   0.0000000   0.0000000   0.0000000), wk =   0.0138889
        k(    2) = (   0.0000000   0.0000000   0.2378764), wk =   0.0277778
        k(    3) = (   0.0000000   0.0000000  -0.4757528), wk =   0.0138889
        k(    4) = (   0.0000000   0.1666667   0.0000000), wk =   0.0555556
        k(    5) = (   0.0000000   0.1666667   0.2378764), wk =   0.1111111
        k(    6) = (   0.0000000   0.1666667  -0.4757528), wk =   0.0555556
        k(    7) = (   0.0000000   0.3333333   0.0000000), wk =   0.0555556
        k(    8) = (   0.0000000   0.3333333   0.2378764), wk =   0.1111111
        k(    9) = (   0.0000000   0.3333333  -0.4757528), wk =   0.0555556
        k(   10) = (   0.0000000  -0.5000000   0.0000000), wk =   0.0277778
        k(   11) = (   0.0000000  -0.5000000   0.2378764), wk =   0.0555556
        k(   12) = (   0.0000000  -0.5000000  -0.4757528), wk =   0.0277778
        k(   13) = (   0.1666667   0.1666667   0.0000000), wk =   0.0555556
        k(   14) = (   0.1666667   0.1666667   0.2378764), wk =   0.1111111
        k(   15) = (   0.1666667   0.1666667  -0.4757528), wk =   0.0555556
        k(   16) = (   0.1666667   0.3333333   0.0000000), wk =   0.1111111
        k(   17) = (   0.1666667   0.3333333   0.2378764), wk =   0.2222222
        k(   18) = (   0.1666667   0.3333333  -0.4757528), wk =   0.1111111
        k(   19) = (   0.1666667  -0.5000000   0.0000000), wk =   0.0555556
        k(   20) = (   0.1666667  -0.5000000   0.2378764), wk =   0.1111111
        k(   21) = (   0.1666667  -0.5000000  -0.4757528), wk =   0.0555556
        k(   22) = (   0.3333333   0.3333333   0.0000000), wk =   0.0555556
        k(   23) = (   0.3333333   0.3333333   0.2378764), wk =   0.1111111
        k(   24) = (   0.3333333   0.3333333  -0.4757528), wk =   0.0555556
        k(   25) = (   0.3333333  -0.5000000   0.0000000), wk =   0.0555556
        k(   26) = (   0.3333333  -0.5000000   0.2378764), wk =   0.1111111
        k(   27) = (   0.3333333  -0.5000000  -0.4757528), wk =   0.0555556
        k(   28) = (  -0.5000000  -0.5000000   0.0000000), wk =   0.0138889
        k(   29) = (  -0.5000000  -0.5000000   0.2378764), wk =   0.0277778
        k(   30) = (  -0.5000000  -0.5000000  -0.4757528), wk =   0.0138889

     Dense  grid:    76731 G-vectors     FFT dimensions: (  54,  54,  60)

     Smooth grid:    19447 G-vectors     FFT dimensions: (  36,  36,  36)

     Estimated max dynamical RAM per process >      36.53 MB

     Estimated total dynamical RAM >     365.28 MB

     Check: negative core charge=   -0.000004

     Initial potential from superposition of free atoms

     starting charge      42.9982, renormalised to      44.0000

     negative rho (up, down):  1.669E-02 0.000E+00
     Starting wfcs are   31 randomized atomic wfcs

     total cpu time spent up to now is        0.7 secs

     Self-consistent Calculation

     iteration #  1     ecut=    50.00 Ry     beta= 0.70
     CG style diagonalization
     ethr =  1.00E-02,  avg # of iterations =  2.1

     negative rho (up, down):  1.400E-02 0.000E+00

     total cpu time spent up to now is        1.2 secs

     total energy              =    -380.06458091 Ry
     estimated scf accuracy    <       1.01905457 Ry

     iteration #  2     ecut=    50.00 Ry     beta= 0.70
     CG style diagonalization
     ethr =  2.32E-03,  avg # of iterations =  4.8

     negative rho (up, down):  1.451E-02 0.000E+00

     total cpu time spent up to now is        2.2 secs

     total energy              =    -379.76053138 Ry
     estimated scf accuracy    <       3.88693152 Ry

     iteration #  3     ecut=    50.00 Ry     beta= 0.70
     CG style diagonalization
     ethr =  2.32E-03,  avg # of iterations =  4.3

     negative rho (up, down):  1.512E-02 0.000E+00

     total cpu time spent up to now is        3.0 secs

     total energy              =    -380.53692459 Ry
     estimated scf accuracy    <       0.31195261 Ry

     iteration #  4     ecut=    50.00 Ry     beta= 0.70
     CG style diagonalization
     ethr =  7.09E-04,  avg # of iterations =  3.4

     negative rho (up, down):  1.511E-02 0.000E+00

     total cpu time spent up to now is        3.7 secs

     total energy              =    -380.56020828 Ry
     estimated scf accuracy    <       0.04148177 Ry

     iteration #  5     ecut=    50.00 Ry     beta= 0.70
     CG style diagonalization
     ethr =  9.43E-05,  avg # of iterations =  3.9

     negative rho (up, down):  1.512E-02 0.000E+00

     total cpu time spent up to now is        4.4 secs

     total energy              =    -380.57158459 Ry
     estimated scf accuracy    <       0.00798918 Ry

     iteration #  6     ecut=    50.00 Ry     beta= 0.70
     CG style diagonalization
     ethr =  1.82E-05,  avg # of iterations =  3.8

     negative rho (up, down):  1.512E-02 0.000E+00

     total cpu time spent up to now is        5.2 secs

     total energy              =    -380.57361328 Ry
     estimated scf accuracy    <       0.00607092 Ry

     iteration #  7     ecut=    50.00 Ry     beta= 0.70
     CG style diagonalization
     ethr =  1.38E-05,  avg # of iterations =  3.3

     negative rho (up, down):  1.514E-02 0.000E+00

     total cpu time spent up to now is        5.8 secs

     total energy              =    -380.57363632 Ry
     estimated scf accuracy    <       0.00157795 Ry

     iteration #  8     ecut=    50.00 Ry     beta= 0.70
     CG style diagonalization
     ethr =  3.59E-06,  avg # of iterations =  3.7

     negative rho (up, down):  1.516E-02 0.000E+00

     total cpu time spent up to now is        6.6 secs

     total energy              =    -380.57398792 Ry
     estimated scf accuracy    <       0.00000973 Ry

     iteration #  9     ecut=    50.00 Ry     beta= 0.70
     CG style diagonalization
     c_bands:  1 eigenvalues not converged
     ethr =  2.21E-08,  avg # of iterations =  7.7

     negative rho (up, down):  1.519E-02 0.000E+00

     total cpu time spent up to now is        8.0 secs

     total energy              =    -380.57404737 Ry
     estimated scf accuracy    <       0.00003390 Ry

     iteration # 10     ecut=    50.00 Ry     beta= 0.70
     CG style diagonalization
     ethr =  2.21E-08,  avg # of iterations =  3.4

     negative rho (up, down):  1.530E-02 0.000E+00

     total cpu time spent up to now is        8.7 secs

     total energy              =    -380.57403962 Ry
     estimated scf accuracy    <       0.00002057 Ry

     iteration # 11     ecut=    50.00 Ry     beta= 0.70
     CG style diagonalization
     ethr =  2.21E-08,  avg # of iterations =  4.2

     negative rho (up, down):  1.530E-02 0.000E+00

     total cpu time spent up to now is        9.5 secs

     total energy              =    -380.57404454 Ry
     estimated scf accuracy    <       0.00000237 Ry

     iteration # 12     ecut=    50.00 Ry     beta= 0.70
     CG style diagonalization
     ethr =  5.38E-09,  avg # of iterations =  4.3

     negative rho (up, down):  1.530E-02 0.000E+00

     total cpu time spent up to now is       10.4 secs

     total energy              =    -380.57404543 Ry
     estimated scf accuracy    <       0.00000005 Ry

     iteration # 13     ecut=    50.00 Ry     beta= 0.70
     CG style diagonalization
     c_bands:  1 eigenvalues not converged
     ethr =  1.16E-10,  avg # of iterations = 11.4

     negative rho (up, down):  1.530E-02 0.000E+00

     total cpu time spent up to now is       12.6 secs

     total energy              =    -380.57404619 Ry
     estimated scf accuracy    <       0.00000012 Ry

     iteration # 14     ecut=    50.00 Ry     beta= 0.70
     CG style diagonalization
     ethr =  1.16E-10,  avg # of iterations =  3.7

     negative rho (up, down):  1.531E-02 0.000E+00

     total cpu time spent up to now is       13.3 secs

     total energy              =    -380.57404617 Ry
     estimated scf accuracy    <       0.00000004 Ry

     iteration # 15     ecut=    50.00 Ry     beta= 0.70
     CG style diagonalization
     ethr =  1.02E-10,  avg # of iterations =  4.2

     negative rho (up, down):  1.531E-02 0.000E+00

     total cpu time spent up to now is       14.1 secs

     total energy              =    -380.57404618 Ry
     estimated scf accuracy    <       0.00000003 Ry

     iteration # 16     ecut=    50.00 Ry     beta= 0.70
     CG style diagonalization
     ethr =  6.49E-11,  avg # of iterations =  3.9

     negative rho (up, down):  1.531E-02 0.000E+00

     total cpu time spent up to now is       14.9 secs

     End of self-consistent calculation

          k = 0.0000 0.0000 0.0000 (  2421 PWs)   bands (ev):

   -45.1709 -21.8510 -21.7675 -21.7675  -7.1665  -6.0143  -5.7569  -4.4131
    -4.4131  -4.3732  -4.2558  -4.1425   4.8409   6.7360   6.7360   7.1096
     8.7130   8.7130   8.9512   9.2899   9.4421   9.4421

          k = 0.0000 0.0000 0.2379 (  2429 PWs)   bands (ev):

   -45.1706 -21.8744 -21.7665 -21.7665  -6.9590  -5.9526  -5.6871  -4.4308
    -4.4308  -4.3717  -4.2437  -4.2195   3.9792   6.7908   6.7908   7.3062
     8.4595   8.4595   8.8680   9.3772   9.5610   9.5610

          k = 0.0000 0.0000-0.4758 (  2410 PWs)   bands (ev):

   -45.1703 -21.8976 -21.7656 -21.7656  -6.7336  -5.8850  -5.6239  -4.4484
    -4.4484  -4.3702  -4.3023  -4.2332   3.4363   6.6102   6.8248   6.8248
     8.3021   8.3021   8.7888   9.6372   9.6372  10.6533

          k = 0.0000 0.1667 0.0000 (  2423 PWs)   bands (ev):

   -45.1705 -21.8502 -21.7879 -21.7666  -7.0215  -5.9802  -5.7262  -4.4375
    -4.4115  -4.3881  -4.2588  -4.1308   4.3522   6.8011   6.8462   7.1420
     8.6691   8.7345   8.9481   9.0654   9.1708   9.5629

          k = 0.0000 0.1667 0.2379 (  2428 PWs)   bands (ev):

   -45.1702 -21.8734 -21.7868 -21.7657  -6.8305  -5.9344  -5.6506  -4.4360
    -4.4299  -4.3872  -4.2530  -4.1704   3.7459   6.5830   6.9122   7.3909
     8.1266   8.4415   8.7662   9.1617   9.2319   9.9342

          k = 0.0000 0.1667-0.4758 (  2426 PWs)   bands (ev):

   -45.1699 -21.8964 -21.7858 -21.7647  -6.6330  -5.8826  -5.5722  -4.4480
    -4.4323  -4.3863  -4.2576  -4.2056   3.2922   6.2645   6.9520   7.0364
     7.9312   8.2932   8.8333   9.2197   9.3134  10.5746

          k = 0.0000 0.3333 0.0000 (  2422 PWs)   bands (ev):

   -45.1698 -21.8485 -21.8282 -21.7649  -6.7068  -5.9062  -5.6805  -4.4748
    -4.4177  -4.4082  -4.2533  -4.1362   3.7242   6.4313   7.0960   7.1280
     8.3295   8.3573   8.8027   8.8544   9.2900  10.2151

          k = 0.0000 0.3333 0.2379 (  2423 PWs)   bands (ev):

   -45.1694 -21.8712 -21.8271 -21.7639  -6.5819  -5.8639  -5.5837  -4.4415
    -4.4279  -4.4178  -4.2463  -4.1098   3.3597   6.3013   7.0013   7.2273
     7.7611   8.1848   8.3398   8.9073   9.4255  10.2937

          k = 0.0000 0.3333-0.4758 (  2430 PWs)   bands (ev):

   -45.1691 -21.8939 -21.8258 -21.7629  -6.4895  -5.7965  -5.4561  -4.4472
    -4.4182  -4.4003  -4.2823  -4.0564   3.0401   5.9773   6.7629   7.2709
     7.6463   7.8132   8.1265   8.9382   9.8608  10.1241

          k = 0.0000-0.5000 0.0000 (  2436 PWs)   bands (ev):

   -45.1694 -21.8487 -21.8472 -21.7641  -6.5331  -5.8496  -5.6856  -4.4908
    -4.4322  -4.4066  -4.2265  -4.1691   3.5048   6.0472   7.3623   7.3710
     7.8337   7.9751   8.7240   8.8923   9.3209  11.0182

          k = 0.0000-0.5000 0.2379 (  2430 PWs)   bands (ev):

   -45.1691 -21.8699 -21.8472 -21.7630  -6.4741  -5.7737  -5.5776  -4.4539
    -4.4331  -4.4268  -4.2121  -4.1055   3.2082   6.0190   7.0315   7.2727
     7.5787   7.7761   8.4498   8.8852   9.4268  10.4960

          k = 0.0000-0.5000-0.4758 (  2432 PWs)   bands (ev):

   -45.1687 -21.8925 -21.8458 -21.7620  -6.4559  -5.6924  -5.4022  -4.4468
    -4.4340  -4.4091  -4.2676  -3.9944   2.9395   5.8374   6.4515   7.3321
     7.5964   7.8037   7.8259   8.8805   9.7944  10.1607

          k = 0.1667 0.1667 0.0000 (  2425 PWs)   bands (ev):

   -45.1702 -21.8493 -21.7871 -21.7867  -6.8790  -5.9451  -5.7174  -4.4435
    -4.4277  -4.3917  -4.2348  -4.1200   4.0211   6.7219   6.9751   7.1979
     8.1942   8.3064   9.0422   9.0773   9.3823   9.7972

          k = 0.1667 0.1667 0.2379 (  2423 PWs)   bands (ev):

   -45.1698 -21.8724 -21.7860 -21.7857  -6.6990  -5.9191  -5.6423  -4.4463
    -4.4228  -4.3855  -4.2241  -4.1358   3.6221   6.4997   6.6088   7.3345
     8.0240   8.0408   8.8477   9.2238   9.4612   9.9039

          k = 0.1667 0.1667-0.4758 (  2444 PWs)   bands (ev):

   -45.1695 -21.8953 -21.7849 -21.7848  -6.5201  -5.8929  -5.5544  -4.4593
    -4.4012  -4.3626  -4.2293  -4.1577   3.2593   6.2840   6.3329   7.0262
     7.9310   7.9676   8.7502   9.2990   9.5194  10.2709

          k = 0.1667 0.3333 0.0000 (  2426 PWs)   bands (ev):

   -45.1694 -21.8476 -21.8271 -21.7850  -6.5726  -5.8728  -5.7149  -4.4679
    -4.4167  -4.3759  -4.2100  -4.1255   3.5082   6.4288   6.9734   7.2715
     7.6539   8.2411   8.5474   9.2207   9.4094  10.2950

          k = 0.1667 0.3333 0.2379 (  2428 PWs)   bands (ev):

   -45.1691 -21.8703 -21.8260 -21.7840  -6.4440  -5.8635  -5.6324  -4.4433
    -4.4175  -4.3525  -4.1889  -4.0839   3.3635   6.2500   6.3805   6.9366
     7.3886   8.0796   8.9012   9.1796   9.5162  10.0045

          k = 0.1667 0.3333-0.4758 (  2426 PWs)   bands (ev):

   -45.1687 -21.8929 -21.8248 -21.7830  -6.3540  -5.8400  -5.5100  -4.4409
    -4.3916  -4.3112  -4.2015  -4.0291   3.1742   5.8958   6.3122   6.6363
     6.8792   7.9383   9.0069   9.2249   9.5091   9.9528

          k = 0.1667-0.5000 0.0000 (  2420 PWs)   bands (ev):

   -45.1690 -21.8475 -21.8463 -21.7841  -6.4050  -5.8189  -5.7408  -4.4709
    -4.4088  -4.3542  -4.1909  -4.1595   3.3086   6.0660   7.0901   7.3177
     7.6177   7.9633   8.4096   9.2542   9.4070  10.6273

          k = 0.1667-0.5000 0.2379 (  2426 PWs)   bands (ev):

   -45.1687 -21.8690 -21.8461 -21.7831  -6.3348  -5.7840  -5.6551  -4.4415
    -4.4038  -4.3308  -4.1656  -4.0779   3.2454   6.0235   6.2752   6.6836
     7.3491   8.2225   8.6682   9.1901   9.5252   9.9673

          k = 0.1667-0.5000-0.4758 (  2416 PWs)   bands (ev):

   -45.1684 -21.8915 -21.8448 -21.7821  -6.3193  -5.7504  -5.4933  -4.4355
    -4.3596  -4.3082  -4.1843  -3.9680   3.1345   5.7898   6.1441   6.2956
     6.7316   8.0513   8.8757   9.1377   9.1668  10.1703

          k = 0.3333 0.3333 0.0000 (  2438 PWs)   bands (ev):

   -45.1686 -21.8459 -21.8250 -21.8249  -6.3074  -5.8057  -5.7658  -4.4477
    -4.3971  -4.3037  -4.1282  -4.1282   3.1021   6.4131   6.5085   7.3789
     7.5319   7.6777   8.3448   9.0676   9.8851  10.0263

          k = 0.3333 0.3333 0.2379 (  2424 PWs)   bands (ev):

   -45.1683 -21.8683 -21.8240 -21.8239  -6.1693  -5.8541  -5.7212  -4.4055
    -4.3901  -4.2431  -4.0803  -4.0473   3.2917   5.9586   6.0298   6.4093
     7.0527   7.5547   8.9666   9.4789   9.5219   9.9011

          k = 0.3333 0.3333-0.4758 (  2428 PWs)   bands (ev):

   -45.1680 -21.8907 -21.8229 -21.8229  -6.0989  -5.8991  -5.5965  -4.3830
    -4.3636  -4.1774  -4.0303  -3.9689   3.4576   5.5541   5.5747   6.1546
     6.8071   6.9689   8.2143   9.8555   9.8712  10.0348

          k = 0.3333-0.5000 0.0000 (  2454 PWs)   bands (ev):

   -45.1682 -21.8452 -21.8446 -21.8238  -6.1875  -5.7813  -5.7624  -4.4393
    -4.3731  -4.2384  -4.1626  -4.0930   2.9153   6.0591   6.5545   7.1903
     7.7213   7.8419   7.9643   9.0359   9.7083  10.0909

          k = 0.3333-0.5000 0.2379 (  2430 PWs)   bands (ev):

   -45.1679 -21.8670 -21.8440 -21.8230  -6.0510  -5.8090  -5.7799  -4.3962
    -4.3613  -4.1485  -4.0788  -4.0169   3.2177   5.8509   6.0029   6.0715
     6.8348   7.6255   8.4922   9.4776   9.5060  10.0604

          k = 0.3333-0.5000-0.4758 (  2420 PWs)   bands (ev):

   -45.1676 -21.8895 -21.8428 -21.8219  -6.0403  -5.8525  -5.6348  -4.3656
    -4.3388  -4.0856  -3.9939  -3.9121   3.5982   5.2858   5.4817   5.9112
     6.5674   6.9826   7.4283   9.9569  10.0326  10.1945

          k =-0.5000-0.5000 0.0000 (  2480 PWs)   bands (ev):

   -45.1679 -21.8440 -21.8440 -21.8432  -6.1316  -5.7370  -5.7370  -4.4283
    -4.3251  -4.1841  -4.1841  -4.0422   2.7222   5.9076   6.3862   7.4032
     7.4032   7.9598   7.9598   8.8030   9.2316  10.3515

          k =-0.5000-0.5000 0.2379 (  2432 PWs)   bands (ev):

   -45.1675 -21.8658 -21.8429 -21.8429  -5.9162  -5.8231  -5.8231  -4.3839
    -4.3229  -4.0374  -4.0374  -4.0077   3.1393   5.8644   5.9746   5.9746
     6.3929   7.5667   7.8366   9.5074   9.5074  10.3339

          k =-0.5000-0.5000-0.4758 (  2400 PWs)   bands (ev):

   -45.1672 -21.8883 -21.8418 -21.8418  -5.8982  -5.8982  -5.6942  -4.3394
    -4.3207  -3.9615  -3.8991  -3.8991   3.8153   5.3139   5.3139   5.7457
     6.3996   6.4178   6.6709  10.2062  10.2062  10.3164

     highest occupied level (ev):    11.0182

!    total energy              =    -380.57404619 Ry
     estimated scf accuracy    <          4.9E-10 Ry

     The total energy is the sum of the following terms:
     one-electron contribution =     -79.71015949 Ry
     hartree contribution      =      69.93294008 Ry
     xc contribution           =    -102.67706857 Ry
     ewald contribution        =    -268.11975822 Ry

     convergence has been achieved in  16 iterations

     negative rho (up, down):  1.531E-02 0.000E+00

     Forces acting on atoms (cartesian axes, Ry/au):

     atom    1 type  1   force =     0.00000000    0.00000000    0.00011328
     atom    2 type  2   force =     0.00000000    0.00000000   -0.00010664
     atom    3 type  3   force =     0.00000000    0.00000000    0.00011371
     atom    4 type  3   force =     0.00000000    0.00000000   -0.00006018
     atom    5 type  3   force =     0.00000000    0.00000000   -0.00006018

     Total force =     0.000211     Total SCF correction =     0.000065
     SCF correction compared to forces is large: reduce conv_thr to get better values


     Computing stress (Cartesian axis) and pressure


     negative rho (up, down):  1.531E-02 0.000E+00
          total   stress  (Ry/bohr**3)                   (kbar)     P=       -0.11
   0.00000105   0.00000000   0.00000000            0.15        0.00        0.00
   0.00000000   0.00000105   0.00000000            0.00        0.15        0.00
   0.00000000   0.00000000  -0.00000434            0.00        0.00       -0.64


     BFGS Geometry Optimization
     Energy error            =      0.0E+00 Ry
     Gradient error          =      1.1E-04 Ry/Bohr

     bfgs converged in   1 scf cycles and   0 bfgs steps
     (criteria: energy <  1.0E-04 Ry, force <  1.0E-03 Ry/Bohr)

     End of BFGS Geometry Optimization

     Final energy             =    -380.5740461901 Ry
Begin final coordinates

ATOMIC_POSITIONS (crystal)
Pb               0.0000000000        0.0000000000        1.0051738283
Ti               0.5000000000        0.5000000000        0.5395344294
O                0.5000000000        0.5000000000        0.0995079024
O                0.5000000000        0.0000000000        0.6115340639
O                0.0000000000        0.5000000000        0.6115340639
End final coordinates



     Writing all to output data dir ./pto_T2_eta0p0.save/ :
     XML data file, charge density, pseudopotentials, collected wavefunctions
 
     init_run     :      0.37s CPU      0.45s WALL (       1 calls)
     electrons    :     13.41s CPU     14.22s WALL (       1 calls)
     forces       :      0.10s CPU      0.11s WALL (       1 calls)
     stress       :      0.94s CPU      0.96s WALL (       1 calls)

     Called by init_run:
     wfcinit      :      0.16s CPU      0.18s WALL (       1 calls)
     potinit      :      0.01s CPU      0.01s WALL (       1 calls)
     hinit0       :      0.10s CPU      0.14s WALL (       1 calls)

     Called by electrons:
     c_bands      :     11.21s CPU     11.86s WALL (      16 calls)
     sum_band     :      1.48s CPU      1.55s WALL (      16 calls)
     v_of_rho     :      0.03s CPU      0.03s WALL (      17 calls)
     newd         :      0.68s CPU      0.78s WALL (      17 calls)
     mix_rho      :      0.02s CPU      0.03s WALL (      16 calls)

     Called by c_bands:
     init_us_2    :      0.10s CPU      0.11s WALL (    1050 calls)
     init_us_2:cp :      0.10s CPU      0.11s WALL (    1050 calls)
     ccgdiagg     :      9.92s CPU     10.49s WALL (     480 calls)
     wfcrot       :      1.35s CPU      1.44s WALL (     480 calls)

     Called by *cgdiagg:
     h_psi        :      6.46s CPU      6.83s WALL (   38100 calls)
     s_psi        :      0.99s CPU      1.05s WALL (   75720 calls)

     Called by h_psi:
     h_psi:calbec :      0.99s CPU      1.04s WALL (   38100 calls)
     vloc_psi     :      4.62s CPU      4.88s WALL (   38100 calls)
     add_vuspsi   :      0.55s CPU      0.59s WALL (   38100 calls)
     hs_1psi      :      6.08s CPU      6.43s WALL (   37620 calls)
     s_1psi       :      1.47s CPU      1.55s WALL (   37620 calls)

     General routines
     calbec       :      1.76s CPU      1.86s WALL (   76350 calls)
     fft          :      0.03s CPU      0.05s WALL (     108 calls)
     ffts         :      0.00s CPU      0.00s WALL (      33 calls)
     fftw         :      3.93s CPU      4.14s WALL (  107460 calls)
     interpolate  :      0.01s CPU      0.01s WALL (      17 calls)
 
     Parallel routines
 
     PWSCF        :     15.05s CPU     16.32s WALL

 
   This run was terminated on:   0:12:33  18Nov2025            

=------------------------------------------------------------------------------=
   JOB DONE.
=------------------------------------------------------------------------------=
TACC:  Shutdown complete. Exiting. 
