TACC:  Starting up job 2476656 
TACC:  Starting parallel tasks... 

     Program PWSCF v.7.3 starts on 18Oct2025 at 16:24: 0 

     This program is part of the open-source Quantum ESPRESSO suite
     for quantum simulation of materials; please cite
         "P. Giannozzi et al., J. Phys.:Condens. Matter 21 395502 (2009);
         "P. Giannozzi et al., J. Phys.:Condens. Matter 29 465901 (2017);
         "P. Giannozzi et al., J. Chem. Phys. 152 154105 (2020);
          URL http://www.quantum-espresso.org", 
     in publications or presentations arising from this work. More details at
     http://www.quantum-espresso.org/quote

     Parallel version (MPI & OpenMP), running on      10 processor cores
     Number of MPI processes:                10
     Threads/MPI process:                     1

     MPI processes distributed on     1 nodes
     186794 MiB available memory on the printing compute node when the environment starts
 
     Waiting for input...
     Reading input from standard input

     Current dimensions of program PWSCF are:
     Max number of different atomic species (ntypx) = 10
     Max number of k-points (npk) =  40000
     Max angular momentum in pseudopotentials (lmaxx) =  4
     Message from routine setup:
     using ibrav=0 with symmetry is DISCOURAGED, use correct ibrav instead
 
     R & G space division:  proc/nbgrp/npool/nimage =      10
     Subspace diagonalization in iterative solution of the eigenvalue problem:
     a serial algorithm will be used

 
     Parallelization info
     --------------------
     sticks:   dense  smooth     PW     G-vecs:    dense   smooth      PW
     Min         162      43     15                 4313      595     113
     Max         163      44     16                 4316      598     114
     Sum        1627     433    151                43143     5961    1139
 
     Using Slab Decomposition
 


     bravais-lattice index     =            0
     lattice parameter (alat)  =      10.2000  a.u.
     unit-cell volume          =     266.8970 (a.u.)^3
     number of atoms/cell      =            2
     number of atomic types    =            1
     number of electrons       =         8.00
     number of Kohn-Sham states=            8
     kinetic-energy cutoff     =      30.0000  Ry
     charge density cutoff     =     450.0000  Ry
     scf convergence threshold =      1.0E-08
     mixing beta               =       0.7000
     number of iterations used =            8  plain     mixing
     Exchange-correlation= SLA  PZ   NOGX NOGC
                           (   1   1   0   0   0   0   0)

     celldm(1)=  10.200000  celldm(2)=   0.000000  celldm(3)=   0.000000
     celldm(4)=   0.000000  celldm(5)=   0.000000  celldm(6)=   0.000000

     crystal axes: (cart. coord. in units of alat)
               a(1) = (  -0.501000   0.000000   0.501000 )  
               a(2) = (   0.000000   0.501000   0.501000 )  
               a(3) = (  -0.501000   0.501000   0.000000 )  

     reciprocal axes: (cart. coord. in units 2 pi/alat)
               b(1) = ( -0.998004 -0.998004  0.998004 )  
               b(2) = (  0.998004  0.998004  0.998004 )  
               b(3) = ( -0.998004  0.998004 -0.998004 )  


     PseudoPot. # 1 for Si read from file:
     /scratch/11018/zhc/Assisgnment2/Q1/1A/energy_cutoff_test/Si_LDA.UPF
     MD5 check sum: b5ade7b37ee992b02096e360e546dc2d
     Pseudo is Ultrasoft + core correction, Zval =  4.0
     Generated by new atomic code, or converted to UPF format
     Using radial grid of  899 points,  6 beta functions with: 
                l(1) =   0
                l(2) =   0
                l(3) =   1
                l(4) =   1
                l(5) =   2
                l(6) =   2
     Q(r) pseudized with  8 coefficients,  rinner =    0.900   0.900   0.900
                                                       0.900   0.900

     atomic species   valence    mass     pseudopotential
     Si                4.00    28.08550     Si( 1.00)

     48 Sym. Ops., with inversion, found (24 have fractional translation)



   Cartesian axes

     site n.     atom                  positions (alat units)
         1        Si     tau(   1) = (   0.0000000   0.0000000   0.0000000  )
         2        Si     tau(   2) = (  -0.2505000   0.2505000   0.2505000  )

     number of k points=    72
                       cart. coord. in units 2pi/alat
        k(    1) = (   0.0000000   0.0000000   0.0000000), wk =   0.0011574
        k(    2) = (  -0.0831670   0.0831670  -0.0831670), wk =   0.0092593
        k(    3) = (  -0.1663340   0.1663340  -0.1663340), wk =   0.0092593
        k(    4) = (  -0.2495010   0.2495010  -0.2495010), wk =   0.0092593
        k(    5) = (  -0.3326680   0.3326680  -0.3326680), wk =   0.0092593
        k(    6) = (  -0.4158350   0.4158350  -0.4158350), wk =   0.0092593
        k(    7) = (   0.4990020  -0.4990020   0.4990020), wk =   0.0046296
        k(    8) = (   0.0000000   0.1663340   0.0000000), wk =   0.0069444
        k(    9) = (  -0.0831670   0.2495010  -0.0831670), wk =   0.0277778
        k(   10) = (  -0.1663340   0.3326680  -0.1663340), wk =   0.0277778
        k(   11) = (  -0.2495010   0.4158350  -0.2495010), wk =   0.0277778
        k(   12) = (  -0.3326680   0.4990020  -0.3326680), wk =   0.0277778
        k(   13) = (   0.5821690  -0.4158350   0.5821690), wk =   0.0277778
        k(   14) = (   0.4990020  -0.3326680   0.4990020), wk =   0.0277778
        k(   15) = (   0.4158350  -0.2495010   0.4158350), wk =   0.0277778
        k(   16) = (   0.3326680  -0.1663340   0.3326680), wk =   0.0277778
        k(   17) = (   0.2495010  -0.0831670   0.2495010), wk =   0.0277778
        k(   18) = (   0.1663340  -0.0000000   0.1663340), wk =   0.0138889
        k(   19) = (   0.0000000   0.3326680   0.0000000), wk =   0.0069444
        k(   20) = (  -0.0831670   0.4158350  -0.0831670), wk =   0.0277778
        k(   21) = (  -0.1663340   0.4990020  -0.1663340), wk =   0.0277778
        k(   22) = (  -0.2495010   0.5821690  -0.2495010), wk =   0.0277778
        k(   23) = (   0.6653360  -0.3326680   0.6653360), wk =   0.0277778
        k(   24) = (   0.5821690  -0.2495010   0.5821690), wk =   0.0277778
        k(   25) = (   0.4990020  -0.1663340   0.4990020), wk =   0.0277778
        k(   26) = (   0.4158350  -0.0831670   0.4158350), wk =   0.0277778
        k(   27) = (   0.3326680   0.0000000   0.3326680), wk =   0.0138889
        k(   28) = (   0.0000000   0.4990020   0.0000000), wk =   0.0069444
        k(   29) = (  -0.0831670   0.5821690  -0.0831670), wk =   0.0277778
        k(   30) = (  -0.1663340   0.6653360  -0.1663340), wk =   0.0277778
        k(   31) = (   0.7485030  -0.2495010   0.7485030), wk =   0.0277778
        k(   32) = (   0.6653360  -0.1663340   0.6653360), wk =   0.0277778
        k(   33) = (   0.5821690  -0.0831670   0.5821690), wk =   0.0277778
        k(   34) = (   0.4990020   0.0000000   0.4990020), wk =   0.0138889
        k(   35) = (   0.0000000   0.6653360   0.0000000), wk =   0.0069444
        k(   36) = (  -0.0831670   0.7485030  -0.0831670), wk =   0.0277778
        k(   37) = (   0.8316700  -0.1663340   0.8316700), wk =   0.0277778
        k(   38) = (   0.7485030  -0.0831670   0.7485030), wk =   0.0277778
        k(   39) = (   0.6653360  -0.0000000   0.6653360), wk =   0.0138889
        k(   40) = (   0.0000000   0.8316700   0.0000000), wk =   0.0069444
        k(   41) = (   0.9148370  -0.0831670   0.9148370), wk =   0.0277778
        k(   42) = (   0.8316700   0.0000000   0.8316700), wk =   0.0138889
        k(   43) = (   0.0000000  -0.9980040   0.0000000), wk =   0.0034722
        k(   44) = (  -0.1663340   0.3326680   0.0000000), wk =   0.0277778
        k(   45) = (  -0.2495010   0.4158350  -0.0831670), wk =   0.0555556
        k(   46) = (  -0.3326680   0.4990020  -0.1663340), wk =   0.0555556
        k(   47) = (   0.5821690  -0.4158350   0.7485030), wk =   0.0555556
        k(   48) = (   0.4990020  -0.3326680   0.6653360), wk =   0.0277778
        k(   49) = (  -0.1663340   0.4990020   0.0000000), wk =   0.0277778
        k(   50) = (  -0.2495010   0.5821690  -0.0831670), wk =   0.0555556
        k(   51) = (   0.6653360  -0.3326680   0.8316700), wk =   0.0555556
        k(   52) = (   0.5821690  -0.2495010   0.7485030), wk =   0.0555556
        k(   53) = (   0.4990020  -0.1663340   0.6653360), wk =   0.0555556
        k(   54) = (   0.4158350  -0.0831670   0.5821690), wk =   0.0555556
        k(   55) = (   0.3326680   0.0000000   0.4990020), wk =   0.0277778
        k(   56) = (  -0.1663340   0.6653360  -0.0000000), wk =   0.0277778
        k(   57) = (   0.7485030  -0.2495010   0.9148370), wk =   0.0555556
        k(   58) = (   0.6653360  -0.1663340   0.8316700), wk =   0.0555556
        k(   59) = (   0.5821690  -0.0831670   0.7485030), wk =   0.0555556
        k(   60) = (   0.4990020   0.0000000   0.6653360), wk =   0.0277778
        k(   61) = (   0.8316700  -0.1663340   0.9980040), wk =   0.0277778
        k(   62) = (   0.7485030  -0.0831670   0.9148370), wk =   0.0555556
        k(   63) = (   0.6653360   0.0000000   0.8316700), wk =   0.0277778
        k(   64) = (  -0.1663340  -0.9980040  -0.0000000), wk =   0.0138889
        k(   65) = (   0.6653360  -0.3326680   0.9980040), wk =   0.0277778
        k(   66) = (   0.5821690  -0.2495010   0.9148370), wk =   0.0555556
        k(   67) = (   0.4990020  -0.1663340   0.8316700), wk =   0.0277778
        k(   68) = (   0.6653360  -0.1663340   0.9980040), wk =   0.0277778
        k(   69) = (   0.5821690  -0.0831670   0.9148370), wk =   0.0555556
        k(   70) = (   0.4990020   0.0000000   0.8316700), wk =   0.0277778
        k(   71) = (  -0.3326680  -0.9980040   0.0000000), wk =   0.0138889
        k(   72) = (  -0.4990020  -0.9980040   0.0000000), wk =   0.0069444

     Dense  grid:    43143 G-vectors     FFT dimensions: (  50,  50,  50)

     Smooth grid:     5961 G-vectors     FFT dimensions: (  25,  25,  25)

     Estimated max dynamical RAM per process >      18.26 MB

     Estimated total dynamical RAM >     182.61 MB

     Initial potential from superposition of free atoms

     starting charge       7.9988, renormalised to       8.0000
     Starting wfcs are    8 randomized atomic wfcs

     total cpu time spent up to now is        0.3 secs

     Self-consistent Calculation

     iteration #  1     ecut=    30.00 Ry     beta= 0.70
     CG style diagonalization
     ethr =  1.00E-02,  avg # of iterations =  3.7

     Threshold (ethr) on eigenvalues was too large:
     Diagonalizing with lowered threshold

     CG style diagonalization
     ethr =  7.24E-04,  avg # of iterations =  2.0

     total cpu time spent up to now is        1.1 secs

     total energy              =     -19.25694687 Ry
     estimated scf accuracy    <       0.05877937 Ry

     iteration #  2     ecut=    30.00 Ry     beta= 0.70
     CG style diagonalization
     ethr =  7.35E-04,  avg # of iterations =  3.0

     total cpu time spent up to now is        1.4 secs

     total energy              =     -19.26028186 Ry
     estimated scf accuracy    <       0.00170196 Ry

     iteration #  3     ecut=    30.00 Ry     beta= 0.70
     CG style diagonalization
     ethr =  2.13E-05,  avg # of iterations =  3.8

     total cpu time spent up to now is        1.9 secs

     total energy              =     -19.26048838 Ry
     estimated scf accuracy    <       0.00003830 Ry

     iteration #  4     ecut=    30.00 Ry     beta= 0.70
     CG style diagonalization
     ethr =  4.79E-07,  avg # of iterations =  4.3

     total cpu time spent up to now is        2.4 secs

     total energy              =     -19.26052125 Ry
     estimated scf accuracy    <       0.00000011 Ry

     iteration #  5     ecut=    30.00 Ry     beta= 0.70
     CG style diagonalization
     ethr =  1.39E-09,  avg # of iterations =  4.2

     total cpu time spent up to now is        2.8 secs

     End of self-consistent calculation

          k = 0.0000 0.0000 0.0000 (   725 PWs)   bands (ev):

    -5.9118   6.1365   6.1365   6.1365   8.6701   8.6701   8.6701   9.4600

          k =-0.0832 0.0832-0.0832 (   737 PWs)   bands (ev):

    -5.8198   5.2656   5.9905   5.9905   8.7054   8.8842   8.8842  10.1284

          k =-0.1663 0.1663-0.1663 (   730 PWs)   bands (ev):

    -5.5467   3.7279   5.6804   5.6804   8.4336   9.3231   9.3231  11.5464

          k =-0.2495 0.2495-0.2495 (   751 PWs)   bands (ev):

    -5.1032   2.1672   5.3690   5.3690   8.1018   9.6150   9.6150  12.9905

          k =-0.3327 0.3327-0.3327 (   751 PWs)   bands (ev):

    -4.5184   0.7455   5.1276   5.1276   7.8311   9.6081   9.6081  13.8626

          k =-0.4158 0.4158-0.4158 (   751 PWs)   bands (ev):

    -3.8869  -0.3995   4.9791   4.9791   7.6607   9.4892   9.4893  13.7627

          k = 0.4990-0.4990 0.4990 (   754 PWs)   bands (ev):

    -3.5441  -0.9150   4.9293   4.9293   7.6030   9.4326   9.4326  13.6745

          k = 0.0000 0.1663 0.0000 (   733 PWs)   bands (ev):

    -5.7890   5.4376   5.6980   5.6980   8.3793   9.2569   9.2570  10.1036

          k =-0.0832 0.2495-0.0832 (   739 PWs)   bands (ev):

    -5.5758   4.1898   5.3295   5.5235   8.3949   9.3342   9.7989  10.9960

          k =-0.1663 0.3327-0.1663 (   745 PWs)   bands (ev):

    -5.1876   2.6728   5.0141   5.1949   8.5167   9.3225  10.1830  11.4766

          k =-0.2495 0.4158-0.2495 (   748 PWs)   bands (ev):

    -4.6449   1.2214   4.8039   4.8377   8.3700   9.3947  10.1991  12.0476

          k =-0.3327 0.4990-0.3327 (   748 PWs)   bands (ev):

    -4.0095  -0.0241   4.5384   4.7151   8.2032   9.3505   9.9961  13.0907

          k = 0.5822-0.4158 0.5822 (   743 PWs)   bands (ev):

    -3.5074  -0.8077   4.3308   4.7481   8.1232   9.3466   9.7913  13.9184

          k = 0.4990-0.3327 0.4990 (   745 PWs)   bands (ev):

    -3.6315  -0.6262   4.2333   4.8939   8.1516   9.4633   9.6791  14.0142

          k = 0.4158-0.2495 0.4158 (   745 PWs)   bands (ev):

    -4.2250   0.3613   4.2591   5.1365   8.2871   9.6504   9.6786  13.5348

          k = 0.3327-0.1663 0.3327 (   744 PWs)   bands (ev):

    -4.8417   1.6909   4.4184   5.4496   8.5172   9.5761   9.8418  12.5907

          k = 0.2495-0.0832 0.2495 (   748 PWs)   bands (ev):

    -5.3363   3.1650   4.7239   5.7821   8.8074   9.2798   9.6345  11.8268

          k = 0.1663-0.0000 0.1663 (   739 PWs)   bands (ev):

    -5.6673   4.5316   5.2532   6.0192   8.9208   9.0398   9.0624  10.9284

          k = 0.0000 0.3327 0.0000 (   737 PWs)   bands (ev):

    -5.4226   4.0886   4.9252   4.9252   7.7678  10.3778  10.4671  10.4671

          k =-0.0832 0.4158-0.0832 (   740 PWs)   bands (ev):

    -5.0919   2.9912   4.5718   4.5877   7.7854   9.9682  10.7866  11.0303

          k =-0.1663 0.4990-0.1663 (   742 PWs)   bands (ev):

    -4.5981   1.6656   4.1106   4.3680   8.0244  10.1473  10.6102  11.1933

          k =-0.2495 0.5822-0.2495 (   740 PWs)   bands (ev):

    -3.9817   0.4152   3.6650   4.2846   8.0641  10.3555  11.0065  11.1249

          k = 0.6653-0.3327 0.6653 (   744 PWs)   bands (ev):

    -3.3868  -0.5345   3.3156   4.3404   8.0954  10.2021  10.7285  12.5059

          k = 0.5822-0.2495 0.5822 (   745 PWs)   bands (ev):

    -3.2691  -0.6981   3.0977   4.5277   8.2457  10.1481  10.4996  14.0588

          k = 0.4990-0.1663 0.4990 (   745 PWs)   bands (ev):

    -3.7793   0.0749   3.0378   4.8272   8.5214  10.1983  10.3350  13.3628

          k = 0.4158-0.0832 0.4158 (   744 PWs)   bands (ev):

    -4.4133   1.2383   3.1799   5.2004   8.8678  10.1118  10.2546  12.2032

          k = 0.3327 0.0000 0.3327 (   748 PWs)   bands (ev):

    -4.9519   2.3928   3.6744   5.5692   9.1402   9.6697   9.9286  11.7370

          k = 0.0000 0.4990 0.0000 (   729 PWs)   bands (ev):

    -4.8186   2.6052   4.2212   4.2212   7.1722   9.1763  11.8808  11.8809

          k =-0.0832 0.5822-0.0832 (   734 PWs)   bands (ev):

    -4.3772   1.6887   3.7434   3.9728   7.2567   8.8173  12.1620  12.3614

          k =-0.1663 0.6653-0.1663 (   744 PWs)   bands (ev):

    -3.7946   0.6486   3.0955   3.8654   7.4700   9.3034  12.0198  12.3158

          k = 0.7485-0.2495 0.7485 (   739 PWs)   bands (ev):

    -3.1603  -0.2916   2.5388   3.9055   7.5547  10.5128  11.8487  12.0346

          k = 0.6653-0.1663 0.6653 (   735 PWs)   bands (ev):

    -2.8281  -0.7158   2.1691   4.0885   7.7377  11.5260  11.7353  12.2700

          k = 0.5822-0.0832 0.5822 (   738 PWs)   bands (ev):

    -3.2116  -0.2118   2.0446   4.3977   8.0714  11.4365  11.5159  13.2592

          k = 0.4990 0.0000 0.4990 (   742 PWs)   bands (ev):

    -3.8436   0.6219   2.3103   4.7956   8.5130  10.9056  11.2094  12.2215

          k = 0.0000 0.6653 0.0000 (   733 PWs)   bands (ev):

    -3.9877   1.1038   3.6888   3.6888   6.7547   8.0157  13.3855  13.3855

          k =-0.0832 0.7485-0.0832 (   740 PWs)   bands (ev):

    -3.4470   0.3127   3.1866   3.5452   6.9179   7.8900  13.7029  13.7550

          k = 0.8317-0.1663 0.8317 (   737 PWs)   bands (ev):

    -2.8093  -0.4622   2.4360   3.5520   7.0866   8.7684  13.5722  13.5859

          k = 0.7485-0.0832 0.7485 (   735 PWs)   bands (ev):

    -2.3297  -0.9616   1.8420   3.7080   7.2657  10.2295  13.2199  13.4116

          k = 0.6653-0.0000 0.6653 (   730 PWs)   bands (ev):

    -2.6049  -0.6740   1.6350   4.0005   7.6007  11.8673  12.5981  13.5205

          k = 0.0000 0.8317 0.0000 (   749 PWs)   bands (ev):

    -2.9477  -0.3580   3.3609   3.3609   6.5900   7.1909  14.9440  14.9441

          k = 0.9148-0.0832 0.9148 (   740 PWs)   bands (ev):

    -2.3271  -1.0513   2.9117   3.3272   6.7902   7.3709  15.1923  15.2819

          k = 0.8317 0.0000 0.8317 (   738 PWs)   bands (ev):

    -1.8612  -1.4612   2.2174   3.4458   6.9512   8.5945  14.6470  15.1555

          k = 0.0000-0.9980 0.0000 (   740 PWs)   bands (ev):

    -1.7250  -1.7250   3.2505   3.2505   6.7237   6.7237  16.2149  16.2150

          k =-0.1663 0.3327 0.0000 (   738 PWs)   bands (ev):

    -5.3042   3.3897   4.4696   5.4229   8.4171   9.6592  10.2685  10.9867

          k =-0.2495 0.4158-0.0832 (   742 PWs)   bands (ev):

    -4.8628   2.1360   3.9306   5.1441   8.6972   9.6223  10.6710  10.9626

          k =-0.3327 0.4990-0.1663 (   744 PWs)   bands (ev):

    -4.2799   0.8182   3.6607   4.8120   8.7370   9.4790  10.7282  11.6208

          k = 0.5822-0.4158 0.7485 (   740 PWs)   bands (ev):

    -3.6474  -0.2876   3.5340   4.5619   8.6836   9.2720  10.6445  12.8444

          k = 0.4990-0.3327 0.6653 (   738 PWs)   bands (ev):

    -3.3005  -0.7961   3.4989   4.4688   8.6645   9.1800  10.5983  14.1268

          k =-0.1663 0.4990 0.0000 (   740 PWs)   bands (ev):

    -4.7066   2.1957   3.7650   4.4879   7.8502   9.5822  10.9276  11.7560

          k =-0.2495 0.5822-0.0832 (   741 PWs)   bands (ev):

    -4.1675   1.1349   3.2185   4.1929   8.1825   9.8048  10.6639  12.1389

          k = 0.6653-0.3327 0.8317 (   740 PWs)   bands (ev):

    -3.5326   0.0650   2.8584   3.9780   8.2989  10.2911  10.8949  12.1178

          k = 0.5822-0.2495 0.7485 (   738 PWs)   bands (ev):

    -3.0249  -0.6555   2.6095   3.9597   8.4283  10.0168  12.0046  12.3696

          k = 0.4990-0.1663 0.6653 (   737 PWs)   bands (ev):

    -3.1637  -0.4644   2.4876   4.1356   8.6848   9.8243  11.9224  12.7517

          k = 0.4158-0.0832 0.5822 (   743 PWs)   bands (ev):

    -3.7648   0.4284   2.5585   4.4585   9.0563   9.6835  11.3753  11.8690

          k = 0.3327 0.0000 0.4990 (   744 PWs)   bands (ev):

    -4.3758   1.4194   2.9770   4.8477   9.2957   9.4531  10.7365  11.4437

          k =-0.1663 0.6653-0.0000 (   747 PWs)   bands (ev):

    -3.8874   0.9269   3.2495   3.6890   7.4388   8.5138  12.1757  13.3327

          k = 0.7485-0.2495 0.9148 (   741 PWs)   bands (ev):

    -3.2738   0.0846   2.6460   3.4662   7.7706   9.0600  11.8678  13.7002

          k = 0.6653-0.1663 0.8317 (   735 PWs)   bands (ev):

    -2.6739  -0.6409   2.1127   3.4744   7.9232  10.3663  11.5702  13.6313

          k = 0.5822-0.0832 0.7485 (   734 PWs)   bands (ev):

    -2.5995  -0.7146   1.8168   3.6765   8.1850  11.1382  12.1410  12.8356

          k = 0.4990 0.0000 0.6653 (   743 PWs)   bands (ev):

    -3.1464  -0.1166   1.9041   4.0279   8.5868  10.7326  11.5874  12.9408

          k = 0.8317-0.1663 0.9980 (   741 PWs)   bands (ev):

    -2.8684  -0.3934   2.9629   3.1642   7.2585   7.7634  13.5524  14.9398

          k = 0.7485-0.0832 0.9148 (   738 PWs)   bands (ev):

    -2.2304  -1.0413   2.3129   3.1188   7.5488   8.6925  13.2269  14.7124

          k = 0.6653 0.0000 0.8317 (   735 PWs)   bands (ev):

    -2.0683  -1.1591   1.8003   3.3192   7.7903  10.2362  12.7671  13.1499

          k =-0.1663-0.9980-0.0000 (   738 PWs)   bands (ev):

    -1.6851  -1.6851   2.9279   2.9279   7.3546   7.3546  15.0237  15.0237

          k = 0.6653-0.3327 0.9980 (   748 PWs)   bands (ev):

    -3.5960   0.4635   2.4989   3.8021   8.9230   9.7629  10.3349  13.1810

          k = 0.5822-0.2495 0.9148 (   737 PWs)   bands (ev):

    -2.9622  -0.3152   2.1463   3.4566   9.2907   9.8403  10.8392  13.6086

          k = 0.4990-0.1663 0.8317 (   734 PWs)   bands (ev):

    -2.5940  -0.7531   2.0530   3.3242   9.4090   9.6418  12.1806  12.6211

          k = 0.6653-0.1663 0.9980 (   737 PWs)   bands (ev):

    -2.6493  -0.5373   2.2966   2.9273   8.7429   9.1362  11.4822  14.4179

          k = 0.5822-0.0832 0.9148 (   738 PWs)   bands (ev):

    -2.1170  -1.0489   1.9713   2.7693   9.0816  10.3479  11.2087  12.5931

          k = 0.4990 0.0000 0.8317 (   734 PWs)   bands (ev):

    -2.3508  -0.8180   1.8434   2.9993   9.3860  10.5496  11.0863  12.3398

          k =-0.3327-0.9980 0.0000 (   738 PWs)   bands (ev):

    -1.5991  -1.5991   2.4219   2.4219   8.8030   8.8030  12.8644  12.8644

          k =-0.4990-0.9980 0.0000 (   744 PWs)   bands (ev):

    -1.5526  -1.5526   2.2064   2.2064  10.3250  10.3250  11.1052  11.1052

     highest occupied, lowest unoccupied level (ev):     6.1365    6.5900

!    total energy              =     -19.26052178 Ry
     estimated scf accuracy    <          1.2E-09 Ry

     The total energy is the sum of the following terms:
     one-electron contribution =       5.13751553 Ry
     hartree contribution      =       1.10349922 Ry
     xc contribution           =      -8.63551002 Ry
     ewald contribution        =     -16.86602652 Ry

     convergence has been achieved in   5 iterations

     Forces acting on atoms (cartesian axes, Ry/au):

     atom    1 type  1   force =    -0.00000000   -0.00000000    0.00000000
     atom    2 type  1   force =     0.00000000    0.00000000   -0.00000000

     Total force =     0.000000     Total SCF correction =     0.000000


     Computing stress (Cartesian axis) and pressure

          total   stress  (Ry/bohr**3)                   (kbar)     P=       -4.29
  -0.00002916  -0.00000000   0.00000000           -4.29       -0.00        0.00
  -0.00000000  -0.00002916  -0.00000000           -0.00       -4.29       -0.00
   0.00000000  -0.00000000  -0.00002916            0.00       -0.00       -4.29


     Writing all to output data dir ./Si_isotropic_eta0p002.save/ :
     XML data file, charge density, pseudopotentials, collected wavefunctions
 
     init_run     :      0.13s CPU      0.20s WALL (       1 calls)
     electrons    :      2.29s CPU      2.52s WALL (       1 calls)
     forces       :      0.04s CPU      0.04s WALL (       1 calls)
     stress       :      0.19s CPU      0.20s WALL (       1 calls)

     Called by init_run:
     wfcinit      :      0.06s CPU      0.08s WALL (       1 calls)
     potinit      :      0.01s CPU      0.01s WALL (       1 calls)
     hinit0       :      0.03s CPU      0.06s WALL (       1 calls)

     Called by electrons:
     c_bands      :      1.97s CPU      2.14s WALL (       6 calls)
     sum_band     :      0.26s CPU      0.28s WALL (       6 calls)
     v_of_rho     :      0.01s CPU      0.01s WALL (       6 calls)
     newd         :      0.06s CPU      0.07s WALL (       6 calls)
     mix_rho      :      0.00s CPU      0.01s WALL (       6 calls)

     Called by c_bands:
     init_us_2    :      0.03s CPU      0.03s WALL (    1080 calls)
     init_us_2:cp :      0.02s CPU      0.03s WALL (    1080 calls)
     ccgdiagg     :      1.74s CPU      1.90s WALL (     432 calls)
     wfcrot       :      0.25s CPU      0.29s WALL (     360 calls)

     Called by *cgdiagg:
     h_psi        :      1.15s CPU      1.25s WALL (   10161 calls)
     s_psi        :      0.08s CPU      0.09s WALL (   19962 calls)

     Called by h_psi:
     h_psi:calbec :      0.16s CPU      0.18s WALL (   10161 calls)
     vloc_psi     :      0.87s CPU      0.95s WALL (   10161 calls)
     add_vuspsi   :      0.04s CPU      0.05s WALL (   10161 calls)
     hs_1psi      :      1.04s CPU      1.13s WALL (    9801 calls)
     s_1psi       :      0.22s CPU      0.24s WALL (    9801 calls)

     General routines
     calbec       :      0.29s CPU      0.32s WALL (   20754 calls)
     fft          :      0.01s CPU      0.03s WALL (      43 calls)
     ffts         :      0.00s CPU      0.00s WALL (      12 calls)
     fftw         :      0.79s CPU      0.85s WALL (   28818 calls)
     interpolate  :      0.00s CPU      0.01s WALL (       6 calls)
 
     Parallel routines
 
     PWSCF        :      2.78s CPU      3.45s WALL

 
   This run was terminated on:  16:24: 4  18Oct2025            

=------------------------------------------------------------------------------=
   JOB DONE.
=------------------------------------------------------------------------------=
TACC:  Shutdown complete. Exiting. 
