TACC:  Starting up job 2386202 
TACC:  Starting parallel tasks... 

     Program PWSCF v.7.3 starts on 19Sep2025 at  9:35:21 

     This program is part of the open-source Quantum ESPRESSO suite
     for quantum simulation of materials; please cite
         "P. Giannozzi et al., J. Phys.:Condens. Matter 21 395502 (2009);
         "P. Giannozzi et al., J. Phys.:Condens. Matter 29 465901 (2017);
         "P. Giannozzi et al., J. Chem. Phys. 152 154105 (2020);
          URL http://www.quantum-espresso.org", 
     in publications or presentations arising from this work. More details at
     http://www.quantum-espresso.org/quote

     Parallel version (MPI & OpenMP), running on      10 processor cores
     Number of MPI processes:                10
     Threads/MPI process:                     1

     MPI processes distributed on     1 nodes
     187699 MiB available memory on the printing compute node when the environment starts
 
     Waiting for input...
     Reading input from standard input
Warning: card &CELL ignored
Warning: card  CELL_DYNAMICS = 'BFGS', ignored
Warning: card  PRESS=0.D0, ignored
Warning: card / ignored
     Message from routine read_cards :
     DEPRECATED: no units specified in ATOMIC_POSITIONS card
     Message from routine read_cards :
     ATOMIC_POSITIONS: units set to alat

     Current dimensions of program PWSCF are:
     Max number of different atomic species (ntypx) = 10
     Max number of k-points (npk) =  40000
     Max angular momentum in pseudopotentials (lmaxx) =  4
 
     R & G space division:  proc/nbgrp/npool/nimage =      10
     Subspace diagonalization in iterative solution of the eigenvalue problem:
     a serial algorithm will be used

 
     Parallelization info
     --------------------
     sticks:   dense  smooth     PW     G-vecs:    dense   smooth      PW
     Min         130      51     16                 3502      882     157
     Max         131      53     18                 3505      883     159
     Sum        1305     517    169                35033     8829    1575
 
     Using Slab Decomposition
 


     bravais-lattice index     =            1
     lattice parameter (alat)  =       7.3573  a.u.
     unit-cell volume          =     398.2496 (a.u.)^3
     number of atoms/cell      =            5
     number of atomic types    =            3
     number of electrons       =        40.00
     number of Kohn-Sham states=           20
     kinetic-energy cutoff     =      30.0000  Ry
     charge density cutoff     =     300.0000  Ry
     scf convergence threshold =      1.0E-08
     mixing beta               =       0.7000
     number of iterations used =            8  plain     mixing
     Exchange-correlation= SLA  PZ   NOGX NOGC
                           (   1   1   0   0   0   0   0)

     celldm(1)=   7.357300  celldm(2)=   0.000000  celldm(3)=   0.000000
     celldm(4)=   0.000000  celldm(5)=   0.000000  celldm(6)=   0.000000

     crystal axes: (cart. coord. in units of alat)
               a(1) = (   1.000000   0.000000   0.000000 )  
               a(2) = (   0.000000   1.000000   0.000000 )  
               a(3) = (   0.000000   0.000000   1.000000 )  

     reciprocal axes: (cart. coord. in units 2 pi/alat)
               b(1) = (  1.000000  0.000000  0.000000 )  
               b(2) = (  0.000000  1.000000  0.000000 )  
               b(3) = (  0.000000  0.000000  1.000000 )  


     PseudoPot. # 1 for Ca read from file:
     /scratch/11018/zhc/assisgnment1/CaTiO3/Ca_LDA.UPF
     MD5 check sum: d2d4e7693e10d071152e9eeb7dd009f3
     Pseudo is Ultrasoft + core correction, Zval = 10.0
     Generated by new atomic code, or converted to UPF format
     Using radial grid of  845 points,  6 beta functions with: 
                l(1) =   0
                l(2) =   0
                l(3) =   1
                l(4) =   1
                l(5) =   2
                l(6) =   2
     Q(r) pseudized with  8 coefficients,  rinner =    1.500   1.500   1.500
                                                       1.500   1.500

     PseudoPot. # 2 for Ti read from file:
     /scratch/11018/zhc/assisgnment1/CaTiO3/Ti_LDA.UPF
     MD5 check sum: 0d9f225c038fe889ca2a701dcc8d72cb
     Pseudo is Ultrasoft + core correction, Zval = 12.0
     Generated by new atomic code, or converted to UPF format
     Using radial grid of  851 points,  6 beta functions with: 
                l(1) =   0
                l(2) =   0
                l(3) =   1
                l(4) =   1
                l(5) =   2
                l(6) =   2
     Q(r) pseudized with  6 coefficients,  rinner =    1.000   1.000   1.000
                                                       1.000   1.000

     PseudoPot. # 3 for O  read from file:
     /scratch/11018/zhc/assisgnment1/CaTiO3/O_LDA.UPF
     MD5 check sum: 194b818514d2a7dbb603bb78519a4f40
     Pseudo is Ultrasoft + core correction, Zval =  6.0
     Generated by new atomic code, or converted to UPF format
     Using radial grid of  737 points,  5 beta functions with: 
                l(1) =   0
                l(2) =   0
                l(3) =   1
                l(4) =   1
                l(5) =   2
     Q(r) pseudized with  8 coefficients,  rinner =    0.900   0.900   0.900
                                                       0.900   0.900

     atomic species   valence    mass     pseudopotential
     Ca               10.00    40.07800     Ca( 1.00)
     Ti               12.00    47.88000     Ti( 1.00)
     O                 6.00    16.00000     O ( 1.00)

     48 Sym. Ops., with inversion, found



   Cartesian axes

     site n.     atom                  positions (alat units)
         1        Ca     tau(   1) = (   0.0000000   0.0000000   0.0000000  )
         2        Ti     tau(   2) = (   0.5000000   0.5000000   0.5000000  )
         3        O      tau(   3) = (   0.5000000   0.5000000   0.0000000  )
         4        O      tau(   4) = (   0.5000000   0.0000000   0.5000000  )
         5        O      tau(   5) = (   0.0000000   0.5000000   0.5000000  )

     number of k points=     4
                       cart. coord. in units 2pi/alat
        k(    1) = (   0.0000000   0.0000000   0.0000000), wk =   0.2500000
        k(    2) = (   0.0000000   0.0000000  -0.5000000), wk =   0.7500000
        k(    3) = (   0.0000000  -0.5000000  -0.5000000), wk =   0.7500000
        k(    4) = (  -0.5000000  -0.5000000  -0.5000000), wk =   0.2500000

     Dense  grid:    35033 G-vectors     FFT dimensions: (  45,  45,  45)

     Smooth grid:     8829 G-vectors     FFT dimensions: (  25,  25,  25)

     Estimated max dynamical RAM per process >      17.56 MB

     Estimated total dynamical RAM >     175.62 MB

     Check: negative core charge=   -0.000007

     Initial potential from superposition of free atoms

     starting charge      38.9952, renormalised to      40.0000
     Starting wfcs are   32 randomized atomic wfcs

     total cpu time spent up to now is        0.4 secs

     Self-consistent Calculation

     iteration #  1     ecut=    30.00 Ry     beta= 0.70
     CG style diagonalization
     ethr =  1.00E-02,  avg # of iterations =  2.2

     negative rho (up, down):  1.213E-03 0.000E+00

     total cpu time spent up to now is        0.5 secs

     total energy              =    -291.21517464 Ry
     estimated scf accuracy    <       0.85726789 Ry

     iteration #  2     ecut=    30.00 Ry     beta= 0.70
     CG style diagonalization
     ethr =  2.14E-03,  avg # of iterations =  4.6

     total cpu time spent up to now is        0.7 secs

     total energy              =    -290.89420933 Ry
     estimated scf accuracy    <       3.99226312 Ry

     iteration #  3     ecut=    30.00 Ry     beta= 0.70
     CG style diagonalization
     ethr =  2.14E-03,  avg # of iterations =  3.9

     total cpu time spent up to now is        0.8 secs

     total energy              =    -291.65024800 Ry
     estimated scf accuracy    <       0.11272097 Ry

     iteration #  4     ecut=    30.00 Ry     beta= 0.70
     CG style diagonalization
     ethr =  2.82E-04,  avg # of iterations =  3.6

     total cpu time spent up to now is        0.9 secs

     total energy              =    -291.66138954 Ry
     estimated scf accuracy    <       0.02048794 Ry

     iteration #  5     ecut=    30.00 Ry     beta= 0.70
     CG style diagonalization
     ethr =  5.12E-05,  avg # of iterations =  3.5

     total cpu time spent up to now is        1.0 secs

     total energy              =    -291.66667210 Ry
     estimated scf accuracy    <       0.00104584 Ry

     iteration #  6     ecut=    30.00 Ry     beta= 0.70
     CG style diagonalization
     ethr =  2.61E-06,  avg # of iterations =  3.8

     total cpu time spent up to now is        1.1 secs

     total energy              =    -291.66700122 Ry
     estimated scf accuracy    <       0.00000954 Ry

     iteration #  7     ecut=    30.00 Ry     beta= 0.70
     CG style diagonalization
     ethr =  2.38E-08,  avg # of iterations =  4.6

     total cpu time spent up to now is        1.2 secs

     total energy              =    -291.66700980 Ry
     estimated scf accuracy    <       0.00000153 Ry

     iteration #  8     ecut=    30.00 Ry     beta= 0.70
     CG style diagonalization
     ethr =  3.83E-09,  avg # of iterations =  3.8

     total cpu time spent up to now is        1.3 secs

     total energy              =    -291.66701007 Ry
     estimated scf accuracy    <       0.00000017 Ry

     iteration #  9     ecut=    30.00 Ry     beta= 0.70
     CG style diagonalization
     ethr =  4.18E-10,  avg # of iterations =  3.9

     total cpu time spent up to now is        1.4 secs

     End of self-consistent calculation

          k = 0.0000 0.0000 0.0000 (  1141 PWs)   bands (ev):

   -47.5608 -30.1975 -24.1289 -24.1289 -24.1289 -11.3917 -11.3917 -11.3917
    -8.4946  -7.3748  -7.3748   5.6357   5.6357   5.6357   7.5930   7.5930
     7.5930   8.3023   8.3023   8.3023

          k = 0.0000 0.0000-0.5000 (  1108 PWs)   bands (ev):

   -47.5596 -30.1917 -24.1946 -24.1255 -24.1255 -11.6195 -11.3806 -11.3806
    -7.8526  -7.3335  -7.0587   4.2325   5.9040   5.9040   5.9845   6.1067
     6.1067   6.7967   8.0090   8.0090

          k = 0.0000-0.5000-0.5000 (  1092 PWs)   bands (ev):

   -47.5585 -30.1852 -24.1928 -24.1928 -24.1225 -11.5198 -11.5198 -11.3671
    -7.7237  -6.8907  -6.8907   3.8185   4.0957   4.3580   5.8225   5.8225
     6.8173   6.8173   6.9884   8.6859

          k =-0.5000-0.5000-0.5000 (  1088 PWs)   bands (ev):

   -47.5577 -30.1794 -24.1888 -24.1888 -24.1888 -11.4694 -11.4694 -11.4694
    -6.9799  -6.9799  -6.9799   4.0169   4.3254   4.3254   4.3254   4.3768
     4.3768   8.7834   8.7834   8.7834

     highest occupied level (ev):     8.7834

!    total energy              =    -291.66701012 Ry
     estimated scf accuracy    <          6.2E-10 Ry

     The total energy is the sum of the following terms:
     one-electron contribution =     -92.99627420 Ry
     hartree contribution      =      65.67727807 Ry
     xc contribution           =     -51.20344961 Ry
     ewald contribution        =    -213.14456438 Ry

     convergence has been achieved in   9 iterations

     Forces acting on atoms (cartesian axes, Ry/au):

     atom    1 type  1   force =     0.00000000    0.00000000    0.00000000
     atom    2 type  2   force =     0.00000000    0.00000000    0.00000000
     atom    3 type  3   force =     0.00000000    0.00000000    0.00000000
     atom    4 type  3   force =     0.00000000    0.00000000    0.00000000
     atom    5 type  3   force =     0.00000000    0.00000000    0.00000000

     Total force =     0.000000     Total SCF correction =     0.000000


     Computing stress (Cartesian axis) and pressure

          total   stress  (Ry/bohr**3)                   (kbar)     P=     -176.45
  -0.00119948   0.00000000   0.00000000         -176.45        0.00        0.00
   0.00000000  -0.00119948   0.00000000            0.00     -176.45        0.00
   0.00000000   0.00000000  -0.00119948            0.00        0.00     -176.45


     Writing all to output data dir ./CTO.save/ :
     XML data file, charge density, pseudopotentials, collected wavefunctions
 
     init_run     :      0.13s CPU      0.20s WALL (       1 calls)
     electrons    :      0.92s CPU      1.00s WALL (       1 calls)
     forces       :      0.03s CPU      0.03s WALL (       1 calls)
     stress       :      0.15s CPU      0.15s WALL (       1 calls)

     Called by init_run:
     wfcinit      :      0.02s CPU      0.04s WALL (       1 calls)
     potinit      :      0.01s CPU      0.01s WALL (       1 calls)
     hinit0       :      0.08s CPU      0.11s WALL (       1 calls)

     Called by electrons:
     c_bands      :      0.49s CPU      0.54s WALL (       9 calls)
     sum_band     :      0.25s CPU      0.26s WALL (       9 calls)
     v_of_rho     :      0.01s CPU      0.01s WALL (      10 calls)
     newd         :      0.18s CPU      0.19s WALL (      10 calls)
     mix_rho      :      0.01s CPU      0.01s WALL (       9 calls)

     Called by c_bands:
     init_us_2    :      0.00s CPU      0.01s WALL (      84 calls)
     init_us_2:cp :      0.00s CPU      0.01s WALL (      84 calls)
     ccgdiagg     :      0.42s CPU      0.46s WALL (      36 calls)
     wfcrot       :      0.07s CPU      0.10s WALL (      36 calls)

     Called by *cgdiagg:
     h_psi        :      0.28s CPU      0.30s WALL (    2101 calls)
     s_psi        :      0.03s CPU      0.04s WALL (    4166 calls)

     Called by h_psi:
     h_psi:calbec :      0.05s CPU      0.05s WALL (    2101 calls)
     vloc_psi     :      0.20s CPU      0.21s WALL (    2101 calls)
     add_vuspsi   :      0.02s CPU      0.02s WALL (    2101 calls)
     hs_1psi      :      0.25s CPU      0.27s WALL (    2065 calls)
     s_1psi       :      0.06s CPU      0.07s WALL (    2065 calls)

     General routines
     calbec       :      0.08s CPU      0.09s WALL (    4222 calls)
     fft          :      0.01s CPU      0.03s WALL (      66 calls)
     ffts         :      0.00s CPU      0.00s WALL (      19 calls)
     fftw         :      0.18s CPU      0.20s WALL (    6386 calls)
     interpolate  :      0.00s CPU      0.01s WALL (      10 calls)
 
     Parallel routines
 
     PWSCF        :      1.41s CPU      1.75s WALL

 
   This run was terminated on:   9:35:23  19Sep2025            

=------------------------------------------------------------------------------=
   JOB DONE.
=------------------------------------------------------------------------------=
TACC:  Shutdown complete. Exiting. 
