TACC:  Starting up job 2410734 
TACC:  Starting parallel tasks... 

     Program PWSCF v.7.3 starts on 24Sep2025 at 20:15:49 

     This program is part of the open-source Quantum ESPRESSO suite
     for quantum simulation of materials; please cite
         "P. Giannozzi et al., J. Phys.:Condens. Matter 21 395502 (2009);
         "P. Giannozzi et al., J. Phys.:Condens. Matter 29 465901 (2017);
         "P. Giannozzi et al., J. Chem. Phys. 152 154105 (2020);
          URL http://www.quantum-espresso.org", 
     in publications or presentations arising from this work. More details at
     http://www.quantum-espresso.org/quote

     Parallel version (MPI & OpenMP), running on      10 processor cores
     Number of MPI processes:                10
     Threads/MPI process:                     1

     MPI processes distributed on     1 nodes
     182387 MiB available memory on the printing compute node when the environment starts
 
     Waiting for input...
     Reading input from standard input
Warning: card &CELL ignored
Warning: card  CELL_DYNAMICS = 'BFGS', ignored
Warning: card  PRESS=0.D0, ignored
Warning: card / ignored
     Message from routine read_cards :
     DEPRECATED: no units specified in ATOMIC_POSITIONS card
     Message from routine read_cards :
     ATOMIC_POSITIONS: units set to alat

     Current dimensions of program PWSCF are:
     Max number of different atomic species (ntypx) = 10
     Max number of k-points (npk) =  40000
     Max angular momentum in pseudopotentials (lmaxx) =  4
 
     R & G space division:  proc/nbgrp/npool/nimage =      10
     Subspace diagonalization in iterative solution of the eigenvalue problem:
     a serial algorithm will be used

 
     Parallelization info
     --------------------
     sticks:   dense  smooth     PW     G-vecs:    dense   smooth      PW
     Min         431     174     49                21357     5432     837
     Max         432     175     50                21360     5435     840
     Sum        4317    1741    497               213583    54339    8385
 
     Using Slab Decomposition
 


     bravais-lattice index     =            1
     lattice parameter (alat)  =       7.3721  a.u.
     unit-cell volume          =     400.6516 (a.u.)^3
     number of atoms/cell      =            5
     number of atomic types    =            3
     number of electrons       =        40.00
     number of Kohn-Sham states=           20
     kinetic-energy cutoff     =     100.0000  Ry
     charge density cutoff     =    1000.0000  Ry
     scf convergence threshold =      1.0E-08
     mixing beta               =       0.7000
     number of iterations used =            8  plain     mixing
     Exchange-correlation= SLA  PZ   NOGX NOGC
                           (   1   1   0   0   0   0   0)

     celldm(1)=   7.372062  celldm(2)=   0.000000  celldm(3)=   0.000000
     celldm(4)=   0.000000  celldm(5)=   0.000000  celldm(6)=   0.000000

     crystal axes: (cart. coord. in units of alat)
               a(1) = (   1.000000   0.000000   0.000000 )  
               a(2) = (   0.000000   1.000000   0.000000 )  
               a(3) = (   0.000000   0.000000   1.000000 )  

     reciprocal axes: (cart. coord. in units 2 pi/alat)
               b(1) = (  1.000000  0.000000  0.000000 )  
               b(2) = (  0.000000  1.000000  0.000000 )  
               b(3) = (  0.000000  0.000000  1.000000 )  


     PseudoPot. # 1 for Ca read from file:
     /scratch/11018/zhc/assisgnment1/CaTiO3/Ca_LDA.UPF
     MD5 check sum: d2d4e7693e10d071152e9eeb7dd009f3
     Pseudo is Ultrasoft + core correction, Zval = 10.0
     Generated by new atomic code, or converted to UPF format
     Using radial grid of  845 points,  6 beta functions with: 
                l(1) =   0
                l(2) =   0
                l(3) =   1
                l(4) =   1
                l(5) =   2
                l(6) =   2
     Q(r) pseudized with  8 coefficients,  rinner =    1.500   1.500   1.500
                                                       1.500   1.500

     PseudoPot. # 2 for Ti read from file:
     /scratch/11018/zhc/assisgnment1/CaTiO3/Ti_LDA.UPF
     MD5 check sum: 0d9f225c038fe889ca2a701dcc8d72cb
     Pseudo is Ultrasoft + core correction, Zval = 12.0
     Generated by new atomic code, or converted to UPF format
     Using radial grid of  851 points,  6 beta functions with: 
                l(1) =   0
                l(2) =   0
                l(3) =   1
                l(4) =   1
                l(5) =   2
                l(6) =   2
     Q(r) pseudized with  6 coefficients,  rinner =    1.000   1.000   1.000
                                                       1.000   1.000

     PseudoPot. # 3 for O  read from file:
     /scratch/11018/zhc/assisgnment1/CaTiO3/O_LDA.UPF
     MD5 check sum: 194b818514d2a7dbb603bb78519a4f40
     Pseudo is Ultrasoft + core correction, Zval =  6.0
     Generated by new atomic code, or converted to UPF format
     Using radial grid of  737 points,  5 beta functions with: 
                l(1) =   0
                l(2) =   0
                l(3) =   1
                l(4) =   1
                l(5) =   2
     Q(r) pseudized with  8 coefficients,  rinner =    0.900   0.900   0.900
                                                       0.900   0.900

     atomic species   valence    mass     pseudopotential
     Ca               10.00    40.07800     Ca( 1.00)
     Ti               12.00    47.88000     Ti( 1.00)
     O                 6.00    16.00000     O ( 1.00)

     48 Sym. Ops., with inversion, found



   Cartesian axes

     site n.     atom                  positions (alat units)
         1        Ca     tau(   1) = (   0.0000000   0.0000000   0.0000000  )
         2        Ti     tau(   2) = (   0.5000000   0.5000000   0.5000000  )
         3        O      tau(   3) = (   0.5000000   0.5000000   0.0000000  )
         4        O      tau(   4) = (   0.5000000   0.0000000   0.5000000  )
         5        O      tau(   5) = (   0.0000000   0.5000000   0.5000000  )

     number of k points=    20
                       cart. coord. in units 2pi/alat
        k(    1) = (   0.0000000   0.0000000   0.0000000), wk =   0.0092593
        k(    2) = (   0.0000000   0.0000000   0.1666667), wk =   0.0555556
        k(    3) = (   0.0000000   0.0000000   0.3333333), wk =   0.0555556
        k(    4) = (   0.0000000   0.0000000  -0.5000000), wk =   0.0277778
        k(    5) = (   0.0000000   0.1666667   0.1666667), wk =   0.1111111
        k(    6) = (   0.0000000   0.1666667   0.3333333), wk =   0.2222222
        k(    7) = (   0.0000000   0.1666667  -0.5000000), wk =   0.1111111
        k(    8) = (   0.0000000   0.3333333   0.3333333), wk =   0.1111111
        k(    9) = (   0.0000000   0.3333333  -0.5000000), wk =   0.1111111
        k(   10) = (   0.0000000  -0.5000000  -0.5000000), wk =   0.0277778
        k(   11) = (   0.1666667   0.1666667   0.1666667), wk =   0.0740741
        k(   12) = (   0.1666667   0.1666667   0.3333333), wk =   0.2222222
        k(   13) = (   0.1666667   0.1666667  -0.5000000), wk =   0.1111111
        k(   14) = (   0.1666667   0.3333333   0.3333333), wk =   0.2222222
        k(   15) = (   0.1666667   0.3333333  -0.5000000), wk =   0.2222222
        k(   16) = (   0.1666667  -0.5000000  -0.5000000), wk =   0.0555556
        k(   17) = (   0.3333333   0.3333333   0.3333333), wk =   0.0740741
        k(   18) = (   0.3333333   0.3333333  -0.5000000), wk =   0.1111111
        k(   19) = (   0.3333333  -0.5000000  -0.5000000), wk =   0.0555556
        k(   20) = (  -0.5000000  -0.5000000  -0.5000000), wk =   0.0092593

     Dense  grid:   213583 G-vectors     FFT dimensions: (  75,  75,  75)

     Smooth grid:    54339 G-vectors     FFT dimensions: (  48,  48,  48)

     Estimated max dynamical RAM per process >      91.38 MB

     Estimated total dynamical RAM >     913.80 MB

     Check: negative core charge=   -0.000001

     Initial potential from superposition of free atoms

     starting charge      38.9952, renormalised to      40.0000

     negative rho (up, down):  8.582E-04 0.000E+00
     Starting wfcs are   32 randomized atomic wfcs

     total cpu time spent up to now is        0.9 secs

     Self-consistent Calculation

     iteration #  1     ecut=   100.00 Ry     beta= 0.70
     CG style diagonalization
     ethr =  1.00E-02,  avg # of iterations =  2.2

     negative rho (up, down):  1.125E-03 0.000E+00

     total cpu time spent up to now is        1.7 secs

     total energy              =    -291.28896960 Ry
     estimated scf accuracy    <       0.84043414 Ry

     iteration #  2     ecut=   100.00 Ry     beta= 0.70
     CG style diagonalization
     ethr =  2.10E-03,  avg # of iterations =  5.2

     negative rho (up, down):  6.373E-04 0.000E+00

     total cpu time spent up to now is        3.0 secs

     total energy              =    -290.48916463 Ry
     estimated scf accuracy    <       7.40747441 Ry

     iteration #  3     ecut=   100.00 Ry     beta= 0.70
     CG style diagonalization
     ethr =  2.10E-03,  avg # of iterations =  4.6

     negative rho (up, down):  7.400E-04 0.000E+00

     total cpu time spent up to now is        4.1 secs

     total energy              =    -291.72588489 Ry
     estimated scf accuracy    <       0.18656071 Ry

     iteration #  4     ecut=   100.00 Ry     beta= 0.70
     CG style diagonalization
     ethr =  4.66E-04,  avg # of iterations =  3.6

     negative rho (up, down):  8.135E-04 0.000E+00

     total cpu time spent up to now is        5.1 secs

     total energy              =    -291.74023946 Ry
     estimated scf accuracy    <       0.06105481 Ry

     iteration #  5     ecut=   100.00 Ry     beta= 0.70
     CG style diagonalization
     ethr =  1.53E-04,  avg # of iterations =  3.5

     negative rho (up, down):  8.562E-04 0.000E+00

     total cpu time spent up to now is        6.0 secs

     total energy              =    -291.74913024 Ry
     estimated scf accuracy    <       0.00245182 Ry

     iteration #  6     ecut=   100.00 Ry     beta= 0.70
     CG style diagonalization
     ethr =  6.13E-06,  avg # of iterations =  4.3

     negative rho (up, down):  8.597E-04 0.000E+00

     total cpu time spent up to now is        7.1 secs

     total energy              =    -291.75089925 Ry
     estimated scf accuracy    <       0.00036722 Ry

     iteration #  7     ecut=   100.00 Ry     beta= 0.70
     CG style diagonalization
     ethr =  9.18E-07,  avg # of iterations =  3.6

     negative rho (up, down):  8.552E-04 0.000E+00

     total cpu time spent up to now is        8.0 secs

     total energy              =    -291.75095544 Ry
     estimated scf accuracy    <       0.00023235 Ry

     iteration #  8     ecut=   100.00 Ry     beta= 0.70
     CG style diagonalization
     ethr =  5.81E-07,  avg # of iterations =  3.4

     negative rho (up, down):  8.539E-04 0.000E+00

     total cpu time spent up to now is        8.9 secs

     total energy              =    -291.75098347 Ry
     estimated scf accuracy    <       0.00001055 Ry

     iteration #  9     ecut=   100.00 Ry     beta= 0.70
     CG style diagonalization
     ethr =  2.64E-08,  avg # of iterations =  3.9

     negative rho (up, down):  8.536E-04 0.000E+00

     total cpu time spent up to now is        9.9 secs

     total energy              =    -291.75098785 Ry
     estimated scf accuracy    <       0.00000013 Ry

     iteration # 10     ecut=   100.00 Ry     beta= 0.70
     CG style diagonalization
     ethr =  3.22E-10,  avg # of iterations =  5.2

     negative rho (up, down):  8.537E-04 0.000E+00

     total cpu time spent up to now is       11.2 secs

     total energy              =    -291.75098837 Ry
     estimated scf accuracy    <       0.00000037 Ry

     iteration # 11     ecut=   100.00 Ry     beta= 0.70
     CG style diagonalization
     ethr =  3.22E-10,  avg # of iterations =  3.7

     negative rho (up, down):  8.538E-04 0.000E+00

     total cpu time spent up to now is       12.2 secs

     total energy              =    -291.75098839 Ry
     estimated scf accuracy    <       0.00000004 Ry

     iteration # 12     ecut=   100.00 Ry     beta= 0.70
     CG style diagonalization
     ethr =  9.18E-11,  avg # of iterations =  3.6

     negative rho (up, down):  8.538E-04 0.000E+00

     total cpu time spent up to now is       13.1 secs

     End of self-consistent calculation

          k = 0.0000 0.0000 0.0000 (  6763 PWs)   bands (ev):

   -47.2581 -30.3104 -23.8457 -23.8457 -23.8457 -11.5045 -11.5045 -11.5045
    -8.6138  -7.5069  -7.5069   5.5042   5.5042   5.5042   7.4331   7.4331
     7.4331   8.1217   8.1217   8.1217

          k = 0.0000 0.0000 0.1667 (  6775 PWs)   bands (ev):

   -47.2578 -30.3090 -23.8633 -23.8449 -23.8449 -11.5638 -11.5018 -11.5018
    -8.4577  -7.4969  -7.4331   5.2000   5.5210   5.5210   7.0719   7.0719
     7.2097   7.3230   7.9940   7.9940

          k = 0.0000 0.0000 0.3333 (  6764 PWs)   bands (ev):

   -47.2572 -30.3061 -23.8982 -23.8432 -23.8432 -11.6748 -11.4964 -11.4964
    -8.1419  -7.4769  -7.2784   4.5441   5.6071   5.6071   6.2387   6.4179
     6.4179   6.8205   7.8794   7.8794

          k = 0.0000 0.0000-0.5000 (  6816 PWs)   bands (ev):

   -47.2569 -30.3047 -23.9155 -23.8424 -23.8424 -11.7270 -11.4937 -11.4937
    -7.9831  -7.4668  -7.1944   4.1810   5.7638   5.7638   5.8479   6.0239
     6.0239   6.6472   7.8392   7.8392

          k = 0.0000 0.1667 0.1667 (  6777 PWs)   bands (ev):

   -47.2575 -30.3075 -23.8628 -23.8624 -23.8441 -11.5717 -11.5377 -11.4989
    -8.3170  -7.4583  -7.3914   5.0242   5.3740   5.5338   6.3535   6.8408
     7.2272   7.3459   7.6456   7.7626

          k = 0.0000 0.1667 0.3333 (  6761 PWs)   bands (ev):

   -47.2569 -30.3046 -23.8976 -23.8611 -23.8424 -11.6570 -11.5348 -11.4933
    -8.0407  -7.4255  -7.2441   4.4975   5.1182   5.6081   5.6156   6.3137
     6.5611   7.2977   7.5534   7.5571

          k = 0.0000 0.1667-0.5000 (  6760 PWs)   bands (ev):

   -47.2566 -30.3031 -23.9150 -23.8604 -23.8416 -11.7025 -11.5285 -11.4904
    -7.9105  -7.4093  -7.1532   4.1756   4.8617   5.4751   5.7610   5.9504
     6.3403   7.2895   7.4514   7.4986

          k = 0.0000 0.3333 0.3333 (  6782 PWs)   bands (ev):

   -47.2563 -30.3015 -23.8967 -23.8963 -23.8409 -11.6313 -11.6000 -11.4870
    -7.8941  -7.2691  -7.1541   4.1993   4.6712   4.7340   5.6403   6.0485
     6.6279   6.7992   7.1531   8.1162

          k = 0.0000 0.3333-0.5000 (  6754 PWs)   bands (ev):

   -47.2560 -30.3000 -23.9141 -23.8960 -23.8401 -11.6538 -11.5963 -11.4838
    -7.8521  -7.1855  -7.0717   4.0378   4.1402   4.6726   5.7503   5.8092
     6.5550   6.7772   7.0193   8.2542

          k = 0.0000-0.5000-0.5000 (  6784 PWs)   bands (ev):

   -47.2558 -30.2984 -23.9136 -23.9136 -23.8393 -11.6294 -11.6294 -11.4805
    -7.8522  -7.0313  -7.0313   3.7402   4.0088   4.3313   5.7413   5.7413
     6.6594   6.6594   6.8342   8.5012

          k = 0.1667 0.1667 0.1667 (  6772 PWs)   bands (ev):

   -47.2572 -30.3060 -23.8619 -23.8619 -23.8617 -11.5752 -11.5321 -11.5321
    -8.1823  -7.3898  -7.3898   4.8663   5.3617   5.3617   6.2616   6.2616
     6.7133   7.5792   7.5792   7.6998

          k = 0.1667 0.1667 0.3333 (  6766 PWs)   bands (ev):

   -47.2566 -30.3031 -23.8970 -23.8604 -23.8601 -11.6412 -11.5364 -11.5210
    -7.9211  -7.3866  -7.2281   4.4512   5.0334   5.2725   5.4946   5.7558
     6.5612   7.3354   7.5253   7.6972

          k = 0.1667 0.1667-0.5000 (  6792 PWs)   bands (ev):

   -47.2563 -30.3016 -23.9144 -23.8598 -23.8593 -11.6812 -11.5302 -11.5154
    -7.7999  -7.3851  -7.1276   4.1732   4.7502   5.1645   5.2883   5.6493
     6.6242   7.1851   7.5023   7.6110

          k = 0.1667 0.3333 0.3333 (  6768 PWs)   bands (ev):

   -47.2560 -30.3001 -23.8957 -23.8956 -23.8587 -11.6183 -11.5898 -11.5160
    -7.7392  -7.2597  -7.1681   4.2217   4.7105   4.7321   5.1561   5.4022
     6.1028   7.4195   7.4581   8.1434

          k = 0.1667 0.3333-0.5000 (  6762 PWs)   bands (ev):

   -47.2558 -30.2986 -23.9132 -23.8950 -23.8578 -11.6386 -11.5869 -11.5107
    -7.6883  -7.2049  -7.0774   4.1292   4.1452   4.6680   5.0822   5.2725
     6.1037   7.3759   7.4449   8.2761

          k = 0.1667-0.5000-0.5000 (  6760 PWs)   bands (ev):

   -47.2555 -30.2970 -23.9126 -23.9126 -23.8570 -11.6173 -11.6173 -11.5057
    -7.6813  -7.0527  -7.0527   3.8628   4.0194   4.3357   5.1029   5.1029
     6.0540   7.4117   7.4117   8.5244

          k = 0.3333 0.3333 0.3333 (  6755 PWs)   bands (ev):

   -47.2555 -30.2971 -23.8942 -23.8938 -23.8938 -11.5967 -11.5691 -11.5691
    -7.4517  -7.1965  -7.1965   4.1963   4.6427   4.6427   4.8139   4.8679
     4.8679   7.9583   7.9583   8.2790

          k = 0.3333 0.3333-0.5000 (  6774 PWs)   bands (ev):

   -47.2552 -30.2957 -23.9114 -23.8933 -23.8928 -11.6081 -11.5731 -11.5587
    -7.3704  -7.2109  -7.0895   4.1305   4.2546   4.4741   4.5456   4.8142
     4.8940   8.0474   8.1382   8.3832

          k = 0.3333-0.5000-0.5000 (  6784 PWs)   bands (ev):

   -47.2549 -30.2942 -23.9106 -23.9106 -23.8921 -11.5928 -11.5928 -11.5557
    -7.3154  -7.0960  -7.0960   4.0108   4.1155   4.3444   4.4717   4.4717
     4.7983   8.2643   8.2643   8.5719

          k =-0.5000-0.5000-0.5000 (  6776 PWs)   bands (ev):

   -47.2546 -30.2928 -23.9095 -23.9095 -23.9095 -11.5804 -11.5804 -11.5804
    -7.1178  -7.1178  -7.1178   3.9009   4.2460   4.2460   4.2460   4.3488
     4.3488   8.5961   8.5961   8.5961

     highest occupied level (ev):     8.5961

!    total energy              =    -291.75098839 Ry
     estimated scf accuracy    <          8.9E-10 Ry

     The total energy is the sum of the following terms:
     one-electron contribution =     -93.85617201 Ry
     hartree contribution      =      66.01328491 Ry
     xc contribution           =     -51.19033711 Ry
     ewald contribution        =    -212.71776418 Ry

     convergence has been achieved in  12 iterations

     negative rho (up, down):  8.538E-04 0.000E+00

     Forces acting on atoms (cartesian axes, Ry/au):

     atom    1 type  1   force =     0.00000000    0.00000000    0.00000000
     atom    2 type  2   force =     0.00000000    0.00000000    0.00000000
     atom    3 type  3   force =     0.00000000    0.00000000    0.00000000
     atom    4 type  3   force =     0.00000000    0.00000000    0.00000000
     atom    5 type  3   force =     0.00000000    0.00000000    0.00000000

     Total force =     0.000000     Total SCF correction =     0.000000


     Computing stress (Cartesian axis) and pressure


     negative rho (up, down):  8.538E-04 0.000E+00
          total   stress  (Ry/bohr**3)                   (kbar)     P=     -128.39
  -0.00087280   0.00000000   0.00000000         -128.39        0.00        0.00
   0.00000000  -0.00087280   0.00000000            0.00     -128.39        0.00
   0.00000000   0.00000000  -0.00087280            0.00        0.00     -128.39


     Writing all to output data dir ./CTO_module_15.save/ :
     XML data file, charge density, pseudopotentials, collected wavefunctions
 
     init_run     :      0.51s CPU      0.62s WALL (       1 calls)
     electrons    :     11.66s CPU     12.27s WALL (       1 calls)
     forces       :      0.23s CPU      0.23s WALL (       1 calls)
     stress       :      1.77s CPU      1.82s WALL (       1 calls)

     Called by init_run:
     wfcinit      :      0.20s CPU      0.23s WALL (       1 calls)
     potinit      :      0.02s CPU      0.02s WALL (       1 calls)
     hinit0       :      0.15s CPU      0.18s WALL (       1 calls)

     Called by electrons:
     c_bands      :      8.05s CPU      8.34s WALL (      12 calls)
     sum_band     :      2.20s CPU      2.32s WALL (      12 calls)
     v_of_rho     :      0.05s CPU      0.05s WALL (      13 calls)
     newd         :      1.41s CPU      1.61s WALL (      13 calls)
     mix_rho      :      0.03s CPU      0.04s WALL (      12 calls)

     Called by c_bands:
     init_us_2    :      0.14s CPU      0.15s WALL (     540 calls)
     init_us_2:cp :      0.14s CPU      0.15s WALL (     540 calls)
     ccgdiagg     :      6.94s CPU      7.19s WALL (     240 calls)
     wfcrot       :      1.19s CPU      1.25s WALL (     240 calls)

     Called by *cgdiagg:
     h_psi        :      5.07s CPU      5.26s WALL (   14566 calls)
     s_psi        :      0.91s CPU      0.95s WALL (   28892 calls)

     Called by h_psi:
     h_psi:calbec :      0.86s CPU      0.90s WALL (   14566 calls)
     vloc_psi     :      3.55s CPU      3.68s WALL (   14566 calls)
     add_vuspsi   :      0.52s CPU      0.54s WALL (   14566 calls)
     hs_1psi      :      4.61s CPU      4.77s WALL (   14326 calls)
     s_1psi       :      1.10s CPU      1.14s WALL (   14326 calls)

     General routines
     calbec       :      1.49s CPU      1.54s WALL (   29232 calls)
     fft          :      0.06s CPU      0.08s WALL (      84 calls)
     ffts         :      0.00s CPU      0.01s WALL (      25 calls)
     fftw         :      2.77s CPU      2.87s WALL (   43532 calls)
     interpolate  :      0.01s CPU      0.02s WALL (      13 calls)
 
     Parallel routines
 
     PWSCF        :     14.38s CPU     15.63s WALL

 
   This run was terminated on:  20:16: 4  24Sep2025            

=------------------------------------------------------------------------------=
   JOB DONE.
=------------------------------------------------------------------------------=
TACC:  Shutdown complete. Exiting. 
