TACC:  Starting up job 2477579 
TACC:  Starting parallel tasks... 

     Program PWSCF v.7.3 starts on 19Oct2025 at  0:47:20 

     This program is part of the open-source Quantum ESPRESSO suite
     for quantum simulation of materials; please cite
         "P. Giannozzi et al., J. Phys.:Condens. Matter 21 395502 (2009);
         "P. Giannozzi et al., J. Phys.:Condens. Matter 29 465901 (2017);
         "P. Giannozzi et al., J. Chem. Phys. 152 154105 (2020);
          URL http://www.quantum-espresso.org", 
     in publications or presentations arising from this work. More details at
     http://www.quantum-espresso.org/quote

     Parallel version (MPI & OpenMP), running on      10 processor cores
     Number of MPI processes:                10
     Threads/MPI process:                     1

     MPI processes distributed on     1 nodes
     183594 MiB available memory on the printing compute node when the environment starts
 
     Waiting for input...
     Reading input from standard input
Warning: card &CELL ignored
Warning: card  CELL_DYNAMICS = 'BFGS', ignored
Warning: card  PRESS=0.D0, ignored
Warning: card / ignored
     Message from routine read_cards :
     DEPRECATED: no units specified in ATOMIC_POSITIONS card
     Message from routine read_cards :
     ATOMIC_POSITIONS: units set to alat

     Current dimensions of program PWSCF are:
     Max number of different atomic species (ntypx) = 10
     Max number of k-points (npk) =  40000
     Max angular momentum in pseudopotentials (lmaxx) =  4
     Message from routine setup:
     using ibrav=0 with symmetry is DISCOURAGED, use correct ibrav instead
 
     R & G space division:  proc/nbgrp/npool/nimage =      10
     Subspace diagonalization in iterative solution of the eigenvalue problem:
     a serial algorithm will be used

 
     Parallelization info
     --------------------
     sticks:   dense  smooth     PW     G-vecs:    dense   smooth      PW
     Min         125      49     18                 2846      710     159
     Max         126      50     19                 2849      712     161
     Sum        1259     499    181                28483     7107    1601
 
     Using Slab Decomposition
 


     bravais-lattice index     =            0
     lattice parameter (alat)  =       6.6720  a.u.
     unit-cell volume          =     150.2932 (a.u.)^3
     number of atoms/cell      =            2
     number of atomic types    =            1
     number of electrons       =         8.00
     number of Kohn-Sham states=            4
     kinetic-energy cutoff     =      50.0000  Ry
     charge density cutoff     =     500.0000  Ry
     scf convergence threshold =      1.0E-08
     mixing beta               =       0.7000
     number of iterations used =            8  plain     mixing
     Exchange-correlation= SLA  PZ   NOGX NOGC
                           (   1   1   0   0   0   0   0)

     celldm(1)=   6.672000  celldm(2)=   0.000000  celldm(3)=   0.000000
     celldm(4)=   0.000000  celldm(5)=   0.000000  celldm(6)=   0.000000

     crystal axes: (cart. coord. in units of alat)
               a(1) = (  -0.502000   0.502000   0.502000 )  
               a(2) = (   0.502000  -0.502000   0.502000 )  
               a(3) = (   0.502000   0.502000  -0.502000 )  

     reciprocal axes: (cart. coord. in units 2 pi/alat)
               b(1) = (  0.000000  0.996016  0.996016 )  
               b(2) = (  0.996016  0.000000  0.996016 )  
               b(3) = (  0.996016  0.996016  0.000000 )  


     PseudoPot. # 1 for C  read from file:
     /scratch/11018/zhc/Assisgnment2/Q2/Diamond/Diamond/C_LDA.UPF
     MD5 check sum: 407c1fe918d93b14b177d5600f28733c
     Pseudo is Ultrasoft + core correction, Zval =  4.0
     Generated by new atomic code, or converted to UPF format
     Using radial grid of  721 points,  4 beta functions with: 
                l(1) =   0
                l(2) =   0
                l(3) =   1
                l(4) =   1
     Q(r) pseudized with  8 coefficients,  rinner =    1.100   1.100   1.100


     atomic species   valence    mass     pseudopotential
     C                 4.00    12.01100     C ( 1.00)

      6 Sym. Ops. (no inversion) found



   Cartesian axes

     site n.     atom                  positions (alat units)
         1        C      tau(   1) = (   0.0000000   0.0000000   0.0000000  )
         2        C      tau(   2) = (   0.2211023   0.2211023   0.2211023  )

     number of k points=    13
                       cart. coord. in units 2pi/alat
        k(    1) = (   0.0000000   0.0000000   0.0000000), wk =   0.0312500
        k(    2) = (   0.2490040   0.2490040   0.0000000), wk =   0.1875000
        k(    3) = (  -0.4980080  -0.4980080   0.0000000), wk =   0.0937500
        k(    4) = (   0.4980080   0.2490040   0.2490040), wk =   0.1875000
        k(    5) = (   0.4980080   0.4980080   0.4980080), wk =   0.0625000
        k(    6) = (   0.0000000   0.0000000   0.4980080), wk =   0.1875000
        k(    7) = (  -0.9960159  -0.2490040  -0.2490040), wk =   0.1875000
        k(    8) = (  -0.9960159  -0.9960159  -0.9960159), wk =   0.0312500
        k(    9) = (   0.2490040  -0.2490040   0.0000000), wk =   0.1875000
        k(   10) = (  -0.4980080   0.4980080   0.0000000), wk =   0.0937500
        k(   11) = (   0.2490040  -0.4980080   0.2490040), wk =   0.1875000
        k(   12) = (  -0.2490040   0.4980080   0.2490040), wk =   0.3750000
        k(   13) = (   0.2490040  -0.9960159  -0.2490040), wk =   0.1875000

     Dense  grid:    28483 G-vectors     FFT dimensions: (  45,  45,  45)

     Smooth grid:     7107 G-vectors     FFT dimensions: (  27,  27,  27)

     Estimated max dynamical RAM per process >       4.65 MB

     Estimated total dynamical RAM >      46.48 MB

     Initial potential from superposition of free atoms

     starting charge       7.9999, renormalised to       8.0000
     Starting wfcs are    8 randomized atomic wfcs

     total cpu time spent up to now is        0.2 secs

     Self-consistent Calculation

     iteration #  1     ecut=    50.00 Ry     beta= 0.70
     CG style diagonalization
     ethr =  1.00E-02,  avg # of iterations =  3.0

     total cpu time spent up to now is        0.3 secs

     total energy              =     -22.63179210 Ry
     estimated scf accuracy    <       0.11833064 Ry

     iteration #  2     ecut=    50.00 Ry     beta= 0.70
     CG style diagonalization
     ethr =  1.48E-03,  avg # of iterations =  3.9

     total cpu time spent up to now is        0.3 secs

     total energy              =     -22.65529056 Ry
     estimated scf accuracy    <       0.00346975 Ry

     iteration #  3     ecut=    50.00 Ry     beta= 0.70
     CG style diagonalization
     ethr =  4.34E-05,  avg # of iterations =  4.1

     total cpu time spent up to now is        0.4 secs

     total energy              =     -22.65640358 Ry
     estimated scf accuracy    <       0.00011159 Ry

     iteration #  4     ecut=    50.00 Ry     beta= 0.70
     CG style diagonalization
     ethr =  1.39E-06,  avg # of iterations =  4.2

     total cpu time spent up to now is        0.4 secs

     total energy              =     -22.65645603 Ry
     estimated scf accuracy    <       0.00000771 Ry

     iteration #  5     ecut=    50.00 Ry     beta= 0.70
     CG style diagonalization
     ethr =  9.64E-08,  avg # of iterations =  4.2

     total cpu time spent up to now is        0.4 secs

     total energy              =     -22.65645863 Ry
     estimated scf accuracy    <       0.00000008 Ry

     iteration #  6     ecut=    50.00 Ry     beta= 0.70
     CG style diagonalization
     ethr =  9.93E-10,  avg # of iterations =  5.5

     total cpu time spent up to now is        0.5 secs

     total energy              =     -22.65645878 Ry
     estimated scf accuracy    <       0.00000022 Ry

     iteration #  7     ecut=    50.00 Ry     beta= 0.70
     CG style diagonalization
     ethr =  9.93E-10,  avg # of iterations =  4.4

     total cpu time spent up to now is        0.6 secs

     End of self-consistent calculation

          k = 0.0000 0.0000 0.0000 (   935 PWs)   bands (ev):

   -11.5521  -2.8924   2.9454   2.9454

          k = 0.2490 0.2490 0.0000 (   901 PWs)   bands (ev):

   -10.6609  -4.4709   2.5602   3.3801

          k =-0.4980-0.4980 0.0000 (   886 PWs)   bands (ev):

    -9.0498  -6.6073   2.3835   4.0381

          k = 0.4980 0.2490 0.2490 (   892 PWs)   bands (ev):

    -9.1686  -6.3288   1.5886   3.5054

          k = 0.4980 0.4980 0.4980 (   928 PWs)   bands (ev):

    -9.1380  -5.1861   0.0162   0.0162

          k = 0.0000 0.0000 0.4980 (   900 PWs)   bands (ev):

   -10.0073  -4.4091   0.7864   2.4628

          k =-0.9960-0.2490-0.2490 (   898 PWs)   bands (ev):

    -9.1843  -4.2883  -0.9338   1.5437

          k =-0.9960-0.9960-0.9960 (   856 PWs)   bands (ev):

    -8.2854  -5.5904   1.7039   1.7039

          k = 0.2490-0.2490 0.0000 (   901 PWs)   bands (ev):

   -10.8028  -3.0161   0.3454   2.3759

          k =-0.4980 0.4980 0.0000 (   886 PWs)   bands (ev):

    -9.7923  -3.0008  -2.1510   1.8761

          k = 0.2490-0.4980 0.2490 (   892 PWs)   bands (ev):

    -9.8294  -3.0512  -1.1958   0.4948

          k =-0.2490 0.4980 0.2490 (   892 PWs)   bands (ev):

    -9.5781  -4.8684  -0.4935   2.4995

          k = 0.2490-0.9960-0.2490 (   898 PWs)   bands (ev):

    -8.6824  -6.1185   1.6218   2.1014

     highest occupied level (ev):     4.0381

!    total energy              =     -22.65645880 Ry
     estimated scf accuracy    <          1.1E-09 Ry

     The total energy is the sum of the following terms:
     one-electron contribution =      -0.78749308 Ry
     hartree contribution      =       3.73731836 Ry
     xc contribution           =      -6.63378516 Ry
     ewald contribution        =     -18.97249892 Ry

     convergence has been achieved in   7 iterations

     Forces acting on atoms (cartesian axes, Ry/au):

     atom    1 type  1   force =     0.03981835    0.03981835    0.03981835
     atom    2 type  1   force =    -0.03981835   -0.03981835   -0.03981835

     Total force =     0.097535     Total SCF correction =     0.000015


     Computing stress (Cartesian axis) and pressure

          total   stress  (Ry/bohr**3)                   (kbar)     P=     -536.29
  -0.00364565  -0.00455941  -0.00455941         -536.29     -670.71     -670.71
  -0.00455941  -0.00364565  -0.00455941         -670.71     -536.29     -670.71
  -0.00455941  -0.00455941  -0.00364565         -670.71     -670.71     -536.29


     Writing all to output data dir ./diamond_isotropic_eta0p0.save/ :
     XML data file, charge density, pseudopotentials, collected wavefunctions
 
     init_run     :      0.06s CPU      0.12s WALL (       1 calls)
     electrons    :      0.31s CPU      0.36s WALL (       1 calls)
     forces       :      0.01s CPU      0.01s WALL (       1 calls)
     stress       :      0.02s CPU      0.02s WALL (       1 calls)

     Called by init_run:
     wfcinit      :      0.01s CPU      0.04s WALL (       1 calls)
     potinit      :      0.00s CPU      0.01s WALL (       1 calls)
     hinit0       :      0.02s CPU      0.05s WALL (       1 calls)

     Called by electrons:
     c_bands      :      0.25s CPU      0.28s WALL (       7 calls)
     sum_band     :      0.04s CPU      0.04s WALL (       7 calls)
     v_of_rho     :      0.01s CPU      0.01s WALL (       8 calls)
     newd         :      0.01s CPU      0.02s WALL (       8 calls)
     mix_rho      :      0.00s CPU      0.01s WALL (       7 calls)

     Called by c_bands:
     init_us_2    :      0.00s CPU      0.01s WALL (     221 calls)
     init_us_2:cp :      0.00s CPU      0.00s WALL (     221 calls)
     ccgdiagg     :      0.22s CPU      0.24s WALL (      91 calls)
     wfcrot       :      0.04s CPU      0.07s WALL (      91 calls)

     Called by *cgdiagg:
     h_psi        :      0.15s CPU      0.17s WALL (    1303 calls)
     s_psi        :      0.01s CPU      0.01s WALL (    2515 calls)

     Called by h_psi:
     h_psi:calbec :      0.02s CPU      0.03s WALL (    1303 calls)
     vloc_psi     :      0.12s CPU      0.13s WALL (    1303 calls)
     add_vuspsi   :      0.00s CPU      0.01s WALL (    1303 calls)
     hs_1psi      :      0.13s CPU      0.14s WALL (    1212 calls)
     s_1psi       :      0.02s CPU      0.03s WALL (    1212 calls)

     General routines
     calbec       :      0.03s CPU      0.04s WALL (    2671 calls)
     fft          :      0.01s CPU      0.03s WALL (      54 calls)
     ffts         :      0.00s CPU      0.00s WALL (      15 calls)
     fftw         :      0.11s CPU      0.12s WALL (    3620 calls)
     interpolate  :      0.00s CPU      0.00s WALL (       8 calls)
 
     Parallel routines
 
     PWSCF        :      0.45s CPU      0.72s WALL

 
   This run was terminated on:   0:47:21  19Oct2025            

=------------------------------------------------------------------------------=
   JOB DONE.
=------------------------------------------------------------------------------=
TACC:  Shutdown complete. Exiting. 
