TACC:  Starting up job 2476560 
TACC:  Starting parallel tasks... 

     Program PWSCF v.7.3 starts on 18Oct2025 at 15:28:41 

     This program is part of the open-source Quantum ESPRESSO suite
     for quantum simulation of materials; please cite
         "P. Giannozzi et al., J. Phys.:Condens. Matter 21 395502 (2009);
         "P. Giannozzi et al., J. Phys.:Condens. Matter 29 465901 (2017);
         "P. Giannozzi et al., J. Chem. Phys. 152 154105 (2020);
          URL http://www.quantum-espresso.org", 
     in publications or presentations arising from this work. More details at
     http://www.quantum-espresso.org/quote

     Parallel version (MPI & OpenMP), running on      10 processor cores
     Number of MPI processes:                10
     Threads/MPI process:                     1

     MPI processes distributed on     1 nodes
     186316 MiB available memory on the printing compute node when the environment starts
 
     Waiting for input...
     Reading input from standard input
Warning: card &CELL ignored
Warning: card  CELL_DYNAMICS = 'BFGS', ignored
Warning: card  PRESS=0.D0, ignored
Warning: card / ignored

     Current dimensions of program PWSCF are:
     Max number of different atomic species (ntypx) = 10
     Max number of k-points (npk) =  40000
     Max angular momentum in pseudopotentials (lmaxx) =  4
 
     R & G space division:  proc/nbgrp/npool/nimage =      10
     Subspace diagonalization in iterative solution of the eigenvalue problem:
     a serial algorithm will be used

 
     Parallelization info
     --------------------
     sticks:   dense  smooth     PW     G-vecs:    dense   smooth      PW
     Min          94      37     12                 2162      543     102
     Max          95      38     13                 2165      546     103
     Sum         949     373    121                21631     5449    1021
 
     Using Slab Decomposition
 


     bravais-lattice index     =            1
     lattice parameter (alat)  =       7.6794  a.u.
     unit-cell volume          =     452.8787 (a.u.)^3
     number of atoms/cell      =            5
     number of atomic types    =            3
     number of electrons       =        40.00
     number of Kohn-Sham states=           20
     kinetic-energy cutoff     =      20.0000  Ry
     charge density cutoff     =     200.0000  Ry
     scf convergence threshold =      1.0E-08
     mixing beta               =       0.7000
     number of iterations used =            8  plain     mixing
     Exchange-correlation= SLA  PZ   NOGX NOGC
                           (   1   1   0   0   0   0   0)

     celldm(1)=   7.679400  celldm(2)=   0.000000  celldm(3)=   0.000000
     celldm(4)=   0.000000  celldm(5)=   0.000000  celldm(6)=   0.000000

     crystal axes: (cart. coord. in units of alat)
               a(1) = (   1.000000   0.000000   0.000000 )  
               a(2) = (   0.000000   1.000000   0.000000 )  
               a(3) = (   0.000000   0.000000   1.000000 )  

     reciprocal axes: (cart. coord. in units 2 pi/alat)
               b(1) = (  1.000000  0.000000  0.000000 )  
               b(2) = (  0.000000  1.000000  0.000000 )  
               b(3) = (  0.000000  0.000000  1.000000 )  


     PseudoPot. # 1 for Ba read from file:
     /scratch/11018/zhc/Assisgnment2/Q1/1D/Kpoints/Ba_LDA.UPF
     MD5 check sum: 0ec7675c796dc0a11c6269c68e51391e
     Pseudo is Ultrasoft + core correction, Zval = 10.0
     Generated by new atomic code, or converted to UPF format
     Using radial grid of  907 points,  7 beta functions with: 
                l(1) =   0
                l(2) =   0
                l(3) =   1
                l(4) =   1
                l(5) =   2
                l(6) =   2
                l(7) =   3
     Q(r) pseudized with  6 coefficients,  rinner =    1.700   1.700   1.700
                                                       1.700   1.700   1.700
                                                       1.700

     PseudoPot. # 2 for Ti read from file:
     /scratch/11018/zhc/Assisgnment2/Q1/1D/Kpoints/Ti_LDA.UPF
     MD5 check sum: 0d9f225c038fe889ca2a701dcc8d72cb
     Pseudo is Ultrasoft + core correction, Zval = 12.0
     Generated by new atomic code, or converted to UPF format
     Using radial grid of  851 points,  6 beta functions with: 
                l(1) =   0
                l(2) =   0
                l(3) =   1
                l(4) =   1
                l(5) =   2
                l(6) =   2
     Q(r) pseudized with  6 coefficients,  rinner =    1.000   1.000   1.000
                                                       1.000   1.000

     PseudoPot. # 3 for O  read from file:
     /scratch/11018/zhc/Assisgnment2/Q1/1D/Kpoints/O_LDA.UPF
     MD5 check sum: 194b818514d2a7dbb603bb78519a4f40
     Pseudo is Ultrasoft + core correction, Zval =  6.0
     Generated by new atomic code, or converted to UPF format
     Using radial grid of  737 points,  5 beta functions with: 
                l(1) =   0
                l(2) =   0
                l(3) =   1
                l(4) =   1
                l(5) =   2
     Q(r) pseudized with  8 coefficients,  rinner =    0.900   0.900   0.900
                                                       0.900   0.900

     atomic species   valence    mass     pseudopotential
     Ba               10.00   137.32700     Ba( 1.00)
     Ti               12.00    47.88000     Ti( 1.00)
     O                 6.00    16.00000     O ( 1.00)

      8 Sym. Ops. (no inversion) found



   Cartesian axes

     site n.     atom                  positions (alat units)
         1        Ba     tau(   1) = (   0.0000000   0.0000000   0.0000000  )
         2        Ti     tau(   2) = (   0.5000000   0.5000000   0.4900000  )
         3        O      tau(   3) = (   0.5000000   0.5000000   0.0000000  )
         4        O      tau(   4) = (   0.5000000   0.0000000   0.5000000  )
         5        O      tau(   5) = (   0.0000000   0.5000000   0.5000000  )

     number of k points=   126

     Number of k-points >= 100: set verbosity='high' to print them.

     Dense  grid:    21631 G-vectors     FFT dimensions: (  36,  36,  36)

     Smooth grid:     5449 G-vectors     FFT dimensions: (  24,  24,  24)

     Estimated max dynamical RAM per process >      22.98 MB

     Estimated total dynamical RAM >     229.78 MB

     Check: negative core charge=   -0.000005

     Initial potential from superposition of free atoms

     starting charge      38.9872, renormalised to      40.0000

     negative rho (up, down):  1.016E-01 0.000E+00
     Starting wfcs are   35 randomized atomic wfcs

     total cpu time spent up to now is        0.8 secs

     Self-consistent Calculation

     iteration #  1     ecut=    20.00 Ry     beta= 0.70
     CG style diagonalization
     ethr =  1.00E-02,  avg # of iterations =  2.2

     negative rho (up, down):  9.645E-02 0.000E+00

     total cpu time spent up to now is        2.0 secs

     total energy              =    -286.15819203 Ry
     estimated scf accuracy    <       0.51181613 Ry

     iteration #  2     ecut=    20.00 Ry     beta= 0.70
     CG style diagonalization
     c_bands:  1 eigenvalues not converged
     ethr =  1.28E-03,  avg # of iterations =  5.3

     negative rho (up, down):  9.514E-02 0.000E+00

     total cpu time spent up to now is        4.5 secs

     total energy              =    -285.36800253 Ry
     estimated scf accuracy    <       6.96249501 Ry

     iteration #  3     ecut=    20.00 Ry     beta= 0.70
     CG style diagonalization
     ethr =  1.28E-03,  avg # of iterations =  5.0

     negative rho (up, down):  9.476E-02 0.000E+00

     total cpu time spent up to now is        6.8 secs

     total energy              =    -286.38875590 Ry
     estimated scf accuracy    <       0.14868904 Ry

     iteration #  4     ecut=    20.00 Ry     beta= 0.70
     CG style diagonalization
     ethr =  3.72E-04,  avg # of iterations =  3.4

     negative rho (up, down):  9.446E-02 0.000E+00

     total cpu time spent up to now is        8.2 secs

     total energy              =    -286.39059398 Ry
     estimated scf accuracy    <       0.06762685 Ry

     iteration #  5     ecut=    20.00 Ry     beta= 0.70
     CG style diagonalization
     ethr =  1.69E-04,  avg # of iterations =  3.4

     negative rho (up, down):  9.442E-02 0.000E+00

     total cpu time spent up to now is        9.7 secs

     total energy              =    -286.39471074 Ry
     estimated scf accuracy    <       0.01037497 Ry

     iteration #  6     ecut=    20.00 Ry     beta= 0.70
     CG style diagonalization
     ethr =  2.59E-05,  avg # of iterations =  3.8

     negative rho (up, down):  9.441E-02 0.000E+00

     total cpu time spent up to now is       11.3 secs

     total energy              =    -286.39704243 Ry
     estimated scf accuracy    <       0.00049818 Ry

     iteration #  7     ecut=    20.00 Ry     beta= 0.70
     CG style diagonalization
     ethr =  1.25E-06,  avg # of iterations =  4.2

     negative rho (up, down):  9.441E-02 0.000E+00

     total cpu time spent up to now is       13.2 secs

     total energy              =    -286.39743867 Ry
     estimated scf accuracy    <       0.00007377 Ry

     iteration #  8     ecut=    20.00 Ry     beta= 0.70
     CG style diagonalization
     ethr =  1.84E-07,  avg # of iterations =  3.7

     negative rho (up, down):  9.440E-02 0.000E+00

     total cpu time spent up to now is       14.8 secs

     total energy              =    -286.39744413 Ry
     estimated scf accuracy    <       0.00004634 Ry

     iteration #  9     ecut=    20.00 Ry     beta= 0.70
     CG style diagonalization
     ethr =  1.16E-07,  avg # of iterations =  3.4

     negative rho (up, down):  9.440E-02 0.000E+00

     total cpu time spent up to now is       16.2 secs

     total energy              =    -286.39744480 Ry
     estimated scf accuracy    <       0.00001634 Ry

     iteration # 10     ecut=    20.00 Ry     beta= 0.70
     CG style diagonalization
     ethr =  4.09E-08,  avg # of iterations =  3.3

     negative rho (up, down):  9.440E-02 0.000E+00

     total cpu time spent up to now is       17.6 secs

     total energy              =    -286.39744568 Ry
     estimated scf accuracy    <       0.00000289 Ry

     iteration # 11     ecut=    20.00 Ry     beta= 0.70
     CG style diagonalization
     ethr =  7.23E-09,  avg # of iterations =  3.5

     negative rho (up, down):  9.440E-02 0.000E+00

     total cpu time spent up to now is       19.1 secs

     total energy              =    -286.39744573 Ry
     estimated scf accuracy    <       0.00000077 Ry

     iteration # 12     ecut=    20.00 Ry     beta= 0.70
     CG style diagonalization
     ethr =  1.93E-09,  avg # of iterations =  4.1

     negative rho (up, down):  9.440E-02 0.000E+00

     total cpu time spent up to now is       20.9 secs

     total energy              =    -286.39744610 Ry
     estimated scf accuracy    <       0.00000043 Ry

     iteration # 13     ecut=    20.00 Ry     beta= 0.70
     CG style diagonalization
     ethr =  1.06E-09,  avg # of iterations =  3.3

     negative rho (up, down):  9.440E-02 0.000E+00

     total cpu time spent up to now is       22.3 secs

     total energy              =    -286.39744612 Ry
     estimated scf accuracy    <       0.00000007 Ry

     iteration # 14     ecut=    20.00 Ry     beta= 0.70
     CG style diagonalization
     ethr =  1.67E-10,  avg # of iterations =  3.9

     negative rho (up, down):  9.440E-02 0.000E+00

     total cpu time spent up to now is       24.1 secs

     End of self-consistent calculation

     Number of k-points >= 100: set verbosity='high' to print the bands.

     highest occupied level (ev):     9.5319

!    total energy              =    -286.39744614 Ry
     estimated scf accuracy    <          1.9E-09 Ry

     The total energy is the sum of the following terms:
     one-electron contribution =     -74.90996434 Ry
     hartree contribution      =      59.60832038 Ry
     xc contribution           =     -66.90958815 Ry
     ewald contribution        =    -204.18621404 Ry

     convergence has been achieved in  14 iterations

     negative rho (up, down):  9.440E-02 0.000E+00

     Forces acting on atoms (cartesian axes, Ry/au):

     atom    1 type  1   force =     0.00000000    0.00000000   -0.00451012
     atom    2 type  2   force =     0.00000000    0.00000000   -0.01961433
     atom    3 type  3   force =     0.00000000    0.00000000    0.02800442
     atom    4 type  3   force =     0.00000000    0.00000000   -0.00193998
     atom    5 type  3   force =     0.00000000    0.00000000   -0.00193998

     Total force =     0.034595     Total SCF correction =     0.000005


     Computing stress (Cartesian axis) and pressure


     negative rho (up, down):  9.440E-02 0.000E+00
          total   stress  (Ry/bohr**3)                   (kbar)     P=    -1135.87
  -0.00772735   0.00000000   0.00000000        -1136.73        0.00        0.00
   0.00000000  -0.00772735   0.00000000            0.00    -1136.73        0.00
   0.00000000   0.00000000  -0.00770974            0.00        0.00    -1134.14


     Writing all to output data dir ./BTO_k11.save/ :
     XML data file, charge density, pseudopotentials, collected wavefunctions
 
     init_run     :      0.49s CPU      0.58s WALL (       1 calls)
     electrons    :     21.26s CPU     23.25s WALL (       1 calls)
     forces       :      0.12s CPU      0.13s WALL (       1 calls)
     stress       :      1.09s CPU      1.11s WALL (       1 calls)

     Called by init_run:
     wfcinit      :      0.38s CPU      0.42s WALL (       1 calls)
     potinit      :      0.01s CPU      0.01s WALL (       1 calls)
     hinit0       :      0.08s CPU      0.11s WALL (       1 calls)

     Called by electrons:
     c_bands      :     19.48s CPU     21.25s WALL (      14 calls)
     sum_band     :      1.54s CPU      1.68s WALL (      14 calls)
     v_of_rho     :      0.01s CPU      0.01s WALL (      15 calls)
     newd         :      0.23s CPU      0.30s WALL (      15 calls)
     mix_rho      :      0.01s CPU      0.01s WALL (      14 calls)

     Called by c_bands:
     init_us_2    :      0.16s CPU      0.17s WALL (    3906 calls)
     init_us_2:cp :      0.15s CPU      0.17s WALL (    3906 calls)
     ccgdiagg     :     17.21s CPU     18.77s WALL (    1764 calls)
     wfcrot       :      2.47s CPU      2.70s WALL (    1764 calls)

     Called by *cgdiagg:
     h_psi        :      9.91s CPU     10.82s WALL (  101011 calls)
     s_psi        :      1.53s CPU      1.67s WALL (  200258 calls)

     Called by h_psi:
     h_psi:calbec :      1.90s CPU      2.07s WALL (  101011 calls)
     vloc_psi     :      6.46s CPU      7.05s WALL (  101011 calls)
     add_vuspsi   :      0.82s CPU      0.90s WALL (  101011 calls)
     hs_1psi      :      9.41s CPU     10.26s WALL (   99247 calls)
     s_1psi       :      2.77s CPU      3.02s WALL (   99247 calls)

     General routines
     calbec       :      3.40s CPU      3.71s WALL (  202652 calls)
     fft          :      0.01s CPU      0.02s WALL (      96 calls)
     ffts         :      0.00s CPU      0.00s WALL (      29 calls)
     fftw         :      5.85s CPU      6.36s WALL (  308114 calls)
     interpolate  :      0.00s CPU      0.00s WALL (      15 calls)
 
     Parallel routines
 
     PWSCF        :     23.36s CPU     26.18s WALL

 
   This run was terminated on:  15:29: 7  18Oct2025            

=------------------------------------------------------------------------------=
   JOB DONE.
=------------------------------------------------------------------------------=
TACC:  Shutdown complete. Exiting. 
