TACC:  Starting up job 2406207 
TACC:  Starting parallel tasks... 

     Program PWSCF v.7.3 starts on 23Sep2025 at 23:57: 0 

     This program is part of the open-source Quantum ESPRESSO suite
     for quantum simulation of materials; please cite
         "P. Giannozzi et al., J. Phys.:Condens. Matter 21 395502 (2009);
         "P. Giannozzi et al., J. Phys.:Condens. Matter 29 465901 (2017);
         "P. Giannozzi et al., J. Chem. Phys. 152 154105 (2020);
          URL http://www.quantum-espresso.org", 
     in publications or presentations arising from this work. More details at
     http://www.quantum-espresso.org/quote

     Parallel version (MPI & OpenMP), running on      10 processor cores
     Number of MPI processes:                10
     Threads/MPI process:                     1

     MPI processes distributed on     1 nodes
     183849 MiB available memory on the printing compute node when the environment starts
 
     Waiting for input...
     Reading input from standard input
Warning: card &CELL ignored
Warning: card  CELL_DYNAMICS = 'BFGS', ignored
Warning: card  PRESS=0.D0, ignored
Warning: card / ignored
     Message from routine read_cards :
     DEPRECATED: no units specified in ATOMIC_POSITIONS card
     Message from routine read_cards :
     ATOMIC_POSITIONS: units set to alat

     Current dimensions of program PWSCF are:
     Max number of different atomic species (ntypx) = 10
     Max number of k-points (npk) =  40000
     Max angular momentum in pseudopotentials (lmaxx) =  4
 
     R & G space division:  proc/nbgrp/npool/nimage =      10
     Subspace diagonalization in iterative solution of the eigenvalue problem:
     a serial algorithm will be used

 
     Parallelization info
     --------------------
     sticks:   dense  smooth     PW     G-vecs:    dense   smooth      PW
     Min         294     118     34                11950     3021     492
     Max         295     119     35                11953     3022     495
     Sum        2941    1185    349               119513    30215    4945
 
     Using Slab Decomposition
 


     bravais-lattice index     =            1
     lattice parameter (alat)  =       7.2570  a.u.
     unit-cell volume          =     382.1788 (a.u.)^3
     number of atoms/cell      =            5
     number of atomic types    =            3
     number of electrons       =        40.00
     number of Kohn-Sham states=           20
     kinetic-energy cutoff     =      70.0000  Ry
     charge density cutoff     =     700.0000  Ry
     scf convergence threshold =      1.0E-08
     mixing beta               =       0.7000
     number of iterations used =            8  plain     mixing
     Exchange-correlation= SLA  PZ   NOGX NOGC
                           (   1   1   0   0   0   0   0)

     celldm(1)=   7.256973  celldm(2)=   0.000000  celldm(3)=   0.000000
     celldm(4)=   0.000000  celldm(5)=   0.000000  celldm(6)=   0.000000

     crystal axes: (cart. coord. in units of alat)
               a(1) = (   1.000000   0.000000   0.000000 )  
               a(2) = (   0.000000   1.000000   0.000000 )  
               a(3) = (   0.000000   0.000000   1.000000 )  

     reciprocal axes: (cart. coord. in units 2 pi/alat)
               b(1) = (  1.000000  0.000000  0.000000 )  
               b(2) = (  0.000000  1.000000  0.000000 )  
               b(3) = (  0.000000  0.000000  1.000000 )  


     PseudoPot. # 1 for Ca read from file:
     /scratch/11018/zhc/assisgnment1/CaTiO3/Ca_LDA.UPF
     MD5 check sum: d2d4e7693e10d071152e9eeb7dd009f3
     Pseudo is Ultrasoft + core correction, Zval = 10.0
     Generated by new atomic code, or converted to UPF format
     Using radial grid of  845 points,  6 beta functions with: 
                l(1) =   0
                l(2) =   0
                l(3) =   1
                l(4) =   1
                l(5) =   2
                l(6) =   2
     Q(r) pseudized with  8 coefficients,  rinner =    1.500   1.500   1.500
                                                       1.500   1.500

     PseudoPot. # 2 for Ti read from file:
     /scratch/11018/zhc/assisgnment1/CaTiO3/Ti_LDA.UPF
     MD5 check sum: 0d9f225c038fe889ca2a701dcc8d72cb
     Pseudo is Ultrasoft + core correction, Zval = 12.0
     Generated by new atomic code, or converted to UPF format
     Using radial grid of  851 points,  6 beta functions with: 
                l(1) =   0
                l(2) =   0
                l(3) =   1
                l(4) =   1
                l(5) =   2
                l(6) =   2
     Q(r) pseudized with  6 coefficients,  rinner =    1.000   1.000   1.000
                                                       1.000   1.000

     PseudoPot. # 3 for O  read from file:
     /scratch/11018/zhc/assisgnment1/CaTiO3/O_LDA.UPF
     MD5 check sum: 194b818514d2a7dbb603bb78519a4f40
     Pseudo is Ultrasoft + core correction, Zval =  6.0
     Generated by new atomic code, or converted to UPF format
     Using radial grid of  737 points,  5 beta functions with: 
                l(1) =   0
                l(2) =   0
                l(3) =   1
                l(4) =   1
                l(5) =   2
     Q(r) pseudized with  8 coefficients,  rinner =    0.900   0.900   0.900
                                                       0.900   0.900

     atomic species   valence    mass     pseudopotential
     Ca               10.00    40.07800     Ca( 1.00)
     Ti               12.00    47.88000     Ti( 1.00)
     O                 6.00    16.00000     O ( 1.00)

     48 Sym. Ops., with inversion, found



   Cartesian axes

     site n.     atom                  positions (alat units)
         1        Ca     tau(   1) = (   0.0000000   0.0000000   0.0000000  )
         2        Ti     tau(   2) = (   0.5000000   0.5000000   0.5000000  )
         3        O      tau(   3) = (   0.5000000   0.5000000   0.0000000  )
         4        O      tau(   4) = (   0.5000000   0.0000000   0.5000000  )
         5        O      tau(   5) = (   0.0000000   0.5000000   0.5000000  )

     number of k points=    20
                       cart. coord. in units 2pi/alat
        k(    1) = (   0.0000000   0.0000000   0.0000000), wk =   0.0092593
        k(    2) = (   0.0000000   0.0000000   0.1666667), wk =   0.0555556
        k(    3) = (   0.0000000   0.0000000   0.3333333), wk =   0.0555556
        k(    4) = (   0.0000000   0.0000000  -0.5000000), wk =   0.0277778
        k(    5) = (   0.0000000   0.1666667   0.1666667), wk =   0.1111111
        k(    6) = (   0.0000000   0.1666667   0.3333333), wk =   0.2222222
        k(    7) = (   0.0000000   0.1666667  -0.5000000), wk =   0.1111111
        k(    8) = (   0.0000000   0.3333333   0.3333333), wk =   0.1111111
        k(    9) = (   0.0000000   0.3333333  -0.5000000), wk =   0.1111111
        k(   10) = (   0.0000000  -0.5000000  -0.5000000), wk =   0.0277778
        k(   11) = (   0.1666667   0.1666667   0.1666667), wk =   0.0740741
        k(   12) = (   0.1666667   0.1666667   0.3333333), wk =   0.2222222
        k(   13) = (   0.1666667   0.1666667  -0.5000000), wk =   0.1111111
        k(   14) = (   0.1666667   0.3333333   0.3333333), wk =   0.2222222
        k(   15) = (   0.1666667   0.3333333  -0.5000000), wk =   0.2222222
        k(   16) = (   0.1666667  -0.5000000  -0.5000000), wk =   0.0555556
        k(   17) = (   0.3333333   0.3333333   0.3333333), wk =   0.0740741
        k(   18) = (   0.3333333   0.3333333  -0.5000000), wk =   0.1111111
        k(   19) = (   0.3333333  -0.5000000  -0.5000000), wk =   0.0555556
        k(   20) = (  -0.5000000  -0.5000000  -0.5000000), wk =   0.0092593

     Dense  grid:   119513 G-vectors     FFT dimensions: (  64,  64,  64)

     Smooth grid:    30215 G-vectors     FFT dimensions: (  40,  40,  40)

     Estimated max dynamical RAM per process >      53.48 MB

     Estimated total dynamical RAM >     534.78 MB

     Check: negative core charge=   -0.000003

     Initial potential from superposition of free atoms

     starting charge      38.9952, renormalised to      40.0000

     negative rho (up, down):  7.827E-04 0.000E+00
     Starting wfcs are   32 randomized atomic wfcs

     total cpu time spent up to now is        1.0 secs

     Self-consistent Calculation

     iteration #  1     ecut=    70.00 Ry     beta= 0.70
     CG style diagonalization
     ethr =  1.00E-02,  avg # of iterations =  2.2

     negative rho (up, down):  1.154E-03 0.000E+00

     total cpu time spent up to now is        1.5 secs

     total energy              =    -291.31357462 Ry
     estimated scf accuracy    <       0.82791576 Ry

     iteration #  2     ecut=    70.00 Ry     beta= 0.70
     CG style diagonalization
     ethr =  2.07E-03,  avg # of iterations =  5.1

     negative rho (up, down):  5.405E-04 0.000E+00

     total cpu time spent up to now is        2.3 secs

     total energy              =    -290.73046310 Ry
     estimated scf accuracy    <       5.62691827 Ry

     iteration #  3     ecut=    70.00 Ry     beta= 0.70
     CG style diagonalization
     ethr =  2.07E-03,  avg # of iterations =  4.4

     negative rho (up, down):  6.887E-04 0.000E+00

     total cpu time spent up to now is        3.1 secs

     total energy              =    -291.74185595 Ry
     estimated scf accuracy    <       0.16568154 Ry

     iteration #  4     ecut=    70.00 Ry     beta= 0.70
     CG style diagonalization
     ethr =  4.14E-04,  avg # of iterations =  3.5

     negative rho (up, down):  7.833E-04 0.000E+00

     total cpu time spent up to now is        3.7 secs

     total energy              =    -291.75051849 Ry
     estimated scf accuracy    <       0.04450070 Ry

     iteration #  5     ecut=    70.00 Ry     beta= 0.70
     CG style diagonalization
     ethr =  1.11E-04,  avg # of iterations =  3.6

     negative rho (up, down):  8.301E-04 0.000E+00

     total cpu time spent up to now is        4.3 secs

     total energy              =    -291.75995369 Ry
     estimated scf accuracy    <       0.00040370 Ry

     iteration #  6     ecut=    70.00 Ry     beta= 0.70
     CG style diagonalization
     ethr =  1.01E-06,  avg # of iterations =  4.9

     negative rho (up, down):  8.193E-04 0.000E+00

     total cpu time spent up to now is        5.1 secs

     total energy              =    -291.76078608 Ry
     estimated scf accuracy    <       0.00101985 Ry

     iteration #  7     ecut=    70.00 Ry     beta= 0.70
     CG style diagonalization
     ethr =  1.01E-06,  avg # of iterations =  3.7

     negative rho (up, down):  8.111E-04 0.000E+00

     total cpu time spent up to now is        5.8 secs

     total energy              =    -291.76081437 Ry
     estimated scf accuracy    <       0.00014934 Ry

     iteration #  8     ecut=    70.00 Ry     beta= 0.70
     CG style diagonalization
     ethr =  3.73E-07,  avg # of iterations =  3.6

     negative rho (up, down):  8.093E-04 0.000E+00

     total cpu time spent up to now is        6.4 secs

     total energy              =    -291.76083806 Ry
     estimated scf accuracy    <       0.00000346 Ry

     iteration #  9     ecut=    70.00 Ry     beta= 0.70
     CG style diagonalization
     ethr =  8.64E-09,  avg # of iterations =  4.4

     negative rho (up, down):  8.093E-04 0.000E+00

     total cpu time spent up to now is        7.1 secs

     total energy              =    -291.76084223 Ry
     estimated scf accuracy    <       0.00000095 Ry

     iteration # 10     ecut=    70.00 Ry     beta= 0.70
     CG style diagonalization
     ethr =  2.37E-09,  avg # of iterations =  3.6

     negative rho (up, down):  8.094E-04 0.000E+00

     total cpu time spent up to now is        7.8 secs

     total energy              =    -291.76084242 Ry
     estimated scf accuracy    <       0.00000011 Ry

     iteration # 11     ecut=    70.00 Ry     beta= 0.70
     CG style diagonalization
     ethr =  2.85E-10,  avg # of iterations =  3.7

     negative rho (up, down):  8.095E-04 0.000E+00

     total cpu time spent up to now is        8.4 secs

     total energy              =    -291.76084244 Ry
     estimated scf accuracy    <       0.00000001 Ry

     iteration # 12     ecut=    70.00 Ry     beta= 0.70
     CG style diagonalization
     ethr =  2.62E-11,  avg # of iterations =  4.2

     negative rho (up, down):  8.094E-04 0.000E+00

     total cpu time spent up to now is        9.1 secs

     End of self-consistent calculation

          k = 0.0000 0.0000 0.0000 (  3791 PWs)   bands (ev):

   -46.4289 -29.5144 -23.0547 -23.0547 -23.0547 -10.7186 -10.7186 -10.7186
    -8.1665  -7.0071  -7.0071   6.0772   6.0772   6.0772   7.9938   7.9938
     7.9938   8.7867   8.7867   8.7867

          k = 0.0000 0.0000 0.1667 (  3811 PWs)   bands (ev):

   -46.4285 -29.5126 -23.0768 -23.0537 -23.0537 -10.7989 -10.7153 -10.7153
    -7.9838  -6.9956  -6.9132   5.7579   6.0858   6.0858   7.6134   7.6134
     7.7504   7.9433   8.6517   8.6517

          k = 0.0000 0.0000 0.3333 (  3783 PWs)   bands (ev):

   -46.4278 -29.5090 -23.1203 -23.0515 -23.0515 -10.9445 -10.7088 -10.7088
    -7.6196  -6.9725  -6.7153   5.0597   6.1556   6.1556   6.7920   6.9354
     6.9354   7.3293   8.5294   8.5294

          k = 0.0000 0.0000-0.5000 (  3804 PWs)   bands (ev):

   -46.4274 -29.5072 -23.1419 -23.0504 -23.0504 -11.0115 -10.7055 -10.7055
    -7.4393  -6.9609  -6.6062   4.6662   6.3172   6.3172   6.3785   6.5191
     6.5191   7.1425   8.4870   8.4870

          k = 0.0000 0.1667 0.1667 (  3783 PWs)   bands (ev):

   -46.4282 -29.5107 -23.0761 -23.0755 -23.0526 -10.8105 -10.7609 -10.7119
    -7.8234  -6.9471  -6.8611   5.5545   5.9403   6.0892   6.8798   7.3634
     7.8327   7.9244   8.2421   8.4161

          k = 0.0000 0.1667 0.3333 (  3769 PWs)   bands (ev):

   -46.4274 -29.5070 -23.1197 -23.0740 -23.0505 -10.9196 -10.7576 -10.7049
    -7.5142  -6.9064  -6.6732   5.0012   5.6116   6.1434   6.1615   6.8161
     7.1008   7.8896   8.1292   8.2045

          k = 0.0000 0.1667-0.5000 (  3784 PWs)   bands (ev):

   -46.4270 -29.5052 -23.1414 -23.0730 -23.0494 -10.9773 -10.7491 -10.7014
    -7.3732  -6.8852  -6.5556   4.6618   5.3062   6.0346   6.2960   6.4363
     6.8658   7.8857   8.0151   8.1436

          k = 0.0000 0.3333 0.3333 (  3764 PWs)   bands (ev):

   -46.4267 -29.5031 -23.1187 -23.1181 -23.0484 -10.8830 -10.8387 -10.6970
    -7.3807  -6.7003  -6.5618   4.6339   5.1911   5.2362   6.1456   6.5255
     7.1697   7.3565   7.8101   8.7242

          k = 0.0000 0.3333-0.5000 (  3778 PWs)   bands (ev):

   -46.4263 -29.5011 -23.1404 -23.1178 -23.0474 -10.9089 -10.8336 -10.6931
    -7.3504  -6.5964  -6.4560   4.4330   4.6374   5.1832   6.2391   6.2778
     7.0979   7.3315   7.6821   8.8707

          k = 0.0000-0.5000-0.5000 (  3724 PWs)   bands (ev):

   -46.4259 -29.4991 -23.1398 -23.1398 -23.0464 -10.8747 -10.8747 -10.6889
    -7.3674  -6.4068  -6.4068   4.1176   4.5210   4.7894   6.2017   6.2017
     7.2117   7.2117   7.5144   9.1336

          k = 0.1667 0.1667 0.1667 (  3761 PWs)   bands (ev):

   -46.4278 -29.5089 -23.0750 -23.0750 -23.0746 -10.8154 -10.7537 -10.7537
    -7.6722  -6.8604  -6.8604   5.3739   5.9134   5.9134   6.7734   6.7734
     7.3458   8.1815   8.1815   8.2778

          k = 0.1667 0.1667 0.3333 (  3779 PWs)   bands (ev):

   -46.4270 -29.5051 -23.1189 -23.0731 -23.0727 -10.8977 -10.7598 -10.7393
    -7.3829  -6.8592  -6.6541   4.9427   5.5313   5.7583   6.0074   6.3013
     7.1591   7.9195   8.1165   8.2719

          k = 0.1667 0.1667-0.5000 (  3768 PWs)   bands (ev):

   -46.4267 -29.5032 -23.1407 -23.0723 -23.0716 -10.9477 -10.7516 -10.7320
    -7.2519  -6.8586  -6.5247   4.6606   5.1904   5.6138   5.8070   6.2198
     7.2296   7.7576   8.0897   8.1777

          k = 0.1667 0.3333 0.3333 (  3782 PWs)   bands (ev):

   -46.4263 -29.5012 -23.1174 -23.1172 -23.0708 -10.8655 -10.8255 -10.7331
    -7.2032  -6.6920  -6.5810   4.6657   5.2188   5.2316   5.6416   5.8671
     6.7121   7.9956   8.0366   8.7522

          k = 0.1667 0.3333-0.5000 (  3772 PWs)   bands (ev):

   -46.4259 -29.4993 -23.1392 -23.1165 -23.0698 -10.8887 -10.8217 -10.7262
    -7.1630  -6.6235  -6.4645   4.5326   4.6442   5.1739   5.5323   5.7505
     6.7201   7.9486   8.0201   8.8937

          k = 0.1667-0.5000-0.5000 (  3780 PWs)   bands (ev):

   -46.4255 -29.4973 -23.1385 -23.1385 -23.0687 -10.8592 -10.8592 -10.7199
    -7.1721  -6.4351  -6.4351   4.2522   4.5353   4.7941   5.5537   5.5537
     6.6827   7.9860   7.9860   9.1589

          k = 0.3333 0.3333 0.3333 (  3764 PWs)   bands (ev):

   -46.4255 -29.4974 -23.1155 -23.1149 -23.1149 -10.8360 -10.7986 -10.7986
    -6.8763  -6.6198  -6.6198   4.6519   5.0953   5.0953   5.3575   5.3575
     5.3721   8.5599   8.5599   8.8967

          k = 0.3333 0.3333-0.5000 (  3770 PWs)   bands (ev):

   -46.4252 -29.4956 -23.1369 -23.1143 -23.1136 -10.8481 -10.8040 -10.7850
    -6.7969  -6.6395  -6.4827   4.6429   4.6710   4.9041   5.0112   5.3187
     5.4096   8.6522   8.7522   9.0077

          k = 0.3333-0.5000-0.5000 (  3776 PWs)   bands (ev):

   -46.4248 -29.4937 -23.1358 -23.1358 -23.1127 -10.8276 -10.8276 -10.7812
    -6.7509  -6.4925  -6.4925   4.5293   4.5449   4.8035   4.9045   4.9045
     5.3202   8.8837   8.8837   9.2106

          k =-0.5000-0.5000-0.5000 (  3840 PWs)   bands (ev):

   -46.4244 -29.4919 -23.1345 -23.1345 -23.1345 -10.8115 -10.8115 -10.8115
    -6.5216  -6.5216  -6.5216   4.4528   4.6724   4.6724   4.6724   4.8083
     4.8083   9.2370   9.2370   9.2370

     highest occupied level (ev):     9.2370

!    total energy              =    -291.76084245 Ry
     estimated scf accuracy    <          3.8E-09 Ry

     The total energy is the sum of the following terms:
     one-electron contribution =     -88.89639559 Ry
     hartree contribution      =      64.57951641 Ry
     xc contribution           =     -51.35270038 Ry
     ewald contribution        =    -216.09126288 Ry

     convergence has been achieved in  12 iterations

     negative rho (up, down):  8.094E-04 0.000E+00

     Forces acting on atoms (cartesian axes, Ry/au):

     atom    1 type  1   force =     0.00000000    0.00000000    0.00000000
     atom    2 type  2   force =     0.00000000    0.00000000    0.00000000
     atom    3 type  3   force =     0.00000000    0.00000000    0.00000000
     atom    4 type  3   force =     0.00000000    0.00000000    0.00000000
     atom    5 type  3   force =     0.00000000    0.00000000    0.00000000

     Total force =     0.000000     Total SCF correction =     0.000000


     Computing stress (Cartesian axis) and pressure


     negative rho (up, down):  8.094E-04 0.000E+00
          total   stress  (Ry/bohr**3)                   (kbar)     P=      -50.10
  -0.00034058   0.00000000   0.00000000          -50.10        0.00        0.00
   0.00000000  -0.00034058   0.00000000            0.00      -50.10        0.00
   0.00000000   0.00000000  -0.00034058            0.00        0.00      -50.10


     Writing all to output data dir ./CTO_CELLDM_5.save/ :
     XML data file, charge density, pseudopotentials, collected wavefunctions
 
     init_run     :      0.46s CPU      0.56s WALL (       1 calls)
     electrons    :      7.58s CPU      8.22s WALL (       1 calls)
     forces       :      0.12s CPU      0.14s WALL (       1 calls)
     stress       :      1.02s CPU      1.05s WALL (       1 calls)

     Called by init_run:
     wfcinit      :      0.14s CPU      0.17s WALL (       1 calls)
     potinit      :      0.01s CPU      0.02s WALL (       1 calls)
     hinit0       :      0.13s CPU      0.15s WALL (       1 calls)

     Called by electrons:
     c_bands      :      5.57s CPU      5.84s WALL (      12 calls)
     sum_band     :      1.29s CPU      1.39s WALL (      12 calls)
     v_of_rho     :      0.03s CPU      0.03s WALL (      13 calls)
     newd         :      0.71s CPU      0.94s WALL (      13 calls)
     mix_rho      :      0.02s CPU      0.02s WALL (      12 calls)

     Called by c_bands:
     init_us_2    :      0.08s CPU      0.08s WALL (     540 calls)
     init_us_2:cp :      0.08s CPU      0.08s WALL (     540 calls)
     ccgdiagg     :      4.80s CPU      5.03s WALL (     240 calls)
     wfcrot       :      0.83s CPU      0.90s WALL (     240 calls)

     Called by *cgdiagg:
     h_psi        :      3.48s CPU      3.65s WALL (   14569 calls)
     s_psi        :      0.44s CPU      0.46s WALL (   28898 calls)

     Called by h_psi:
     h_psi:calbec :      0.54s CPU      0.57s WALL (   14569 calls)
     vloc_psi     :      2.55s CPU      2.68s WALL (   14569 calls)
     add_vuspsi   :      0.26s CPU      0.27s WALL (   14569 calls)
     hs_1psi      :      3.08s CPU      3.23s WALL (   14329 calls)
     s_1psi       :      0.65s CPU      0.68s WALL (   14329 calls)

     General routines
     calbec       :      0.93s CPU      0.97s WALL (   29238 calls)
     fft          :      0.03s CPU      0.04s WALL (      84 calls)
     ffts         :      0.00s CPU      0.00s WALL (      25 calls)
     fftw         :      2.13s CPU      2.23s WALL (   43538 calls)
     interpolate  :      0.01s CPU      0.01s WALL (      13 calls)
 
     Parallel routines
 
     PWSCF        :      9.40s CPU     11.90s WALL

 
   This run was terminated on:  23:57:12  23Sep2025            

=------------------------------------------------------------------------------=
   JOB DONE.
=------------------------------------------------------------------------------=
TACC:  Shutdown complete. Exiting. 
