TACC:  Starting up job 2410640 
TACC:  Starting parallel tasks... 

     Program PWSCF v.7.3 starts on 24Sep2025 at 20: 5:48 

     This program is part of the open-source Quantum ESPRESSO suite
     for quantum simulation of materials; please cite
         "P. Giannozzi et al., J. Phys.:Condens. Matter 21 395502 (2009);
         "P. Giannozzi et al., J. Phys.:Condens. Matter 29 465901 (2017);
         "P. Giannozzi et al., J. Chem. Phys. 152 154105 (2020);
          URL http://www.quantum-espresso.org", 
     in publications or presentations arising from this work. More details at
     http://www.quantum-espresso.org/quote

     Parallel version (MPI & OpenMP), running on      10 processor cores
     Number of MPI processes:                10
     Threads/MPI process:                     1

     MPI processes distributed on     1 nodes
     188365 MiB available memory on the printing compute node when the environment starts
 
     Waiting for input...
     Reading input from standard input
Warning: card &CELL ignored
Warning: card  CELL_DYNAMICS = 'BFGS', ignored
Warning: card  PRESS=0.D0, ignored
Warning: card / ignored
     Message from routine read_cards :
     DEPRECATED: no units specified in ATOMIC_POSITIONS card
     Message from routine read_cards :
     ATOMIC_POSITIONS: units set to alat

     Current dimensions of program PWSCF are:
     Max number of different atomic species (ntypx) = 10
     Max number of k-points (npk) =  40000
     Max angular momentum in pseudopotentials (lmaxx) =  4
 
     R & G space division:  proc/nbgrp/npool/nimage =      10
     Subspace diagonalization in iterative solution of the eigenvalue problem:
     a serial algorithm will be used

 
     Parallelization info
     --------------------
     sticks:   dense  smooth     PW     G-vecs:    dense   smooth      PW
     Min         389     156     43                18275     4628     709
     Max         390     157     44                18278     4631     714
     Sum        3893    1565    437               182771    46297    7123
 
     Using Slab Decomposition
 


     bravais-lattice index     =            1
     lattice parameter (alat)  =       6.9930  a.u.
     unit-cell volume          =     341.9772 (a.u.)^3
     number of atoms/cell      =            5
     number of atomic types    =            3
     number of electrons       =        40.00
     number of Kohn-Sham states=           20
     kinetic-energy cutoff     =     100.0000  Ry
     charge density cutoff     =    1000.0000  Ry
     scf convergence threshold =      1.0E-08
     mixing beta               =       0.7000
     number of iterations used =            8  plain     mixing
     Exchange-correlation= SLA  PZ   NOGX NOGC
                           (   1   1   0   0   0   0   0)

     celldm(1)=   6.993036  celldm(2)=   0.000000  celldm(3)=   0.000000
     celldm(4)=   0.000000  celldm(5)=   0.000000  celldm(6)=   0.000000

     crystal axes: (cart. coord. in units of alat)
               a(1) = (   1.000000   0.000000   0.000000 )  
               a(2) = (   0.000000   1.000000   0.000000 )  
               a(3) = (   0.000000   0.000000   1.000000 )  

     reciprocal axes: (cart. coord. in units 2 pi/alat)
               b(1) = (  1.000000  0.000000  0.000000 )  
               b(2) = (  0.000000  1.000000  0.000000 )  
               b(3) = (  0.000000  0.000000  1.000000 )  


     PseudoPot. # 1 for Ca read from file:
     /scratch/11018/zhc/assisgnment1/CaTiO3/Ca_LDA.UPF
     MD5 check sum: d2d4e7693e10d071152e9eeb7dd009f3
     Pseudo is Ultrasoft + core correction, Zval = 10.0
     Generated by new atomic code, or converted to UPF format
     Using radial grid of  845 points,  6 beta functions with: 
                l(1) =   0
                l(2) =   0
                l(3) =   1
                l(4) =   1
                l(5) =   2
                l(6) =   2
     Q(r) pseudized with  8 coefficients,  rinner =    1.500   1.500   1.500
                                                       1.500   1.500

     PseudoPot. # 2 for Ti read from file:
     /scratch/11018/zhc/assisgnment1/CaTiO3/Ti_LDA.UPF
     MD5 check sum: 0d9f225c038fe889ca2a701dcc8d72cb
     Pseudo is Ultrasoft + core correction, Zval = 12.0
     Generated by new atomic code, or converted to UPF format
     Using radial grid of  851 points,  6 beta functions with: 
                l(1) =   0
                l(2) =   0
                l(3) =   1
                l(4) =   1
                l(5) =   2
                l(6) =   2
     Q(r) pseudized with  6 coefficients,  rinner =    1.000   1.000   1.000
                                                       1.000   1.000

     PseudoPot. # 3 for O  read from file:
     /scratch/11018/zhc/assisgnment1/CaTiO3/O_LDA.UPF
     MD5 check sum: 194b818514d2a7dbb603bb78519a4f40
     Pseudo is Ultrasoft + core correction, Zval =  6.0
     Generated by new atomic code, or converted to UPF format
     Using radial grid of  737 points,  5 beta functions with: 
                l(1) =   0
                l(2) =   0
                l(3) =   1
                l(4) =   1
                l(5) =   2
     Q(r) pseudized with  8 coefficients,  rinner =    0.900   0.900   0.900
                                                       0.900   0.900

     atomic species   valence    mass     pseudopotential
     Ca               10.00    40.07800     Ca( 1.00)
     Ti               12.00    47.88000     Ti( 1.00)
     O                 6.00    16.00000     O ( 1.00)

     48 Sym. Ops., with inversion, found



   Cartesian axes

     site n.     atom                  positions (alat units)
         1        Ca     tau(   1) = (   0.0000000   0.0000000   0.0000000  )
         2        Ti     tau(   2) = (   0.5000000   0.5000000   0.5000000  )
         3        O      tau(   3) = (   0.5000000   0.5000000   0.0000000  )
         4        O      tau(   4) = (   0.5000000   0.0000000   0.5000000  )
         5        O      tau(   5) = (   0.0000000   0.5000000   0.5000000  )

     number of k points=    20
                       cart. coord. in units 2pi/alat
        k(    1) = (   0.0000000   0.0000000   0.0000000), wk =   0.0092593
        k(    2) = (   0.0000000   0.0000000   0.1666667), wk =   0.0555556
        k(    3) = (   0.0000000   0.0000000   0.3333333), wk =   0.0555556
        k(    4) = (   0.0000000   0.0000000  -0.5000000), wk =   0.0277778
        k(    5) = (   0.0000000   0.1666667   0.1666667), wk =   0.1111111
        k(    6) = (   0.0000000   0.1666667   0.3333333), wk =   0.2222222
        k(    7) = (   0.0000000   0.1666667  -0.5000000), wk =   0.1111111
        k(    8) = (   0.0000000   0.3333333   0.3333333), wk =   0.1111111
        k(    9) = (   0.0000000   0.3333333  -0.5000000), wk =   0.1111111
        k(   10) = (   0.0000000  -0.5000000  -0.5000000), wk =   0.0277778
        k(   11) = (   0.1666667   0.1666667   0.1666667), wk =   0.0740741
        k(   12) = (   0.1666667   0.1666667   0.3333333), wk =   0.2222222
        k(   13) = (   0.1666667   0.1666667  -0.5000000), wk =   0.1111111
        k(   14) = (   0.1666667   0.3333333   0.3333333), wk =   0.2222222
        k(   15) = (   0.1666667   0.3333333  -0.5000000), wk =   0.2222222
        k(   16) = (   0.1666667  -0.5000000  -0.5000000), wk =   0.0555556
        k(   17) = (   0.3333333   0.3333333   0.3333333), wk =   0.0740741
        k(   18) = (   0.3333333   0.3333333  -0.5000000), wk =   0.1111111
        k(   19) = (   0.3333333  -0.5000000  -0.5000000), wk =   0.0555556
        k(   20) = (  -0.5000000  -0.5000000  -0.5000000), wk =   0.0092593

     Dense  grid:   182771 G-vectors     FFT dimensions: (  72,  72,  72)

     Smooth grid:    46297 G-vectors     FFT dimensions: (  45,  45,  45)

     Estimated max dynamical RAM per process >      79.48 MB

     Estimated total dynamical RAM >     794.81 MB

     Check: negative core charge=   -0.000001

     Initial potential from superposition of free atoms

     starting charge      38.9952, renormalised to      40.0000

     negative rho (up, down):  6.847E-04 0.000E+00
     Starting wfcs are   32 randomized atomic wfcs

     total cpu time spent up to now is        1.3 secs

     Self-consistent Calculation

     iteration #  1     ecut=   100.00 Ry     beta= 0.70
     CG style diagonalization
     ethr =  1.00E-02,  avg # of iterations =  2.2

     negative rho (up, down):  1.326E-03 0.000E+00

     total cpu time spent up to now is        2.1 secs

     total energy              =    -291.30919598 Ry
     estimated scf accuracy    <       0.82956839 Ry

     iteration #  2     ecut=   100.00 Ry     beta= 0.70
     CG style diagonalization
     ethr =  2.07E-03,  avg # of iterations =  4.8

     negative rho (up, down):  5.606E-04 0.000E+00

     total cpu time spent up to now is        3.3 secs

     total energy              =    -291.07088654 Ry
     estimated scf accuracy    <       3.27883090 Ry

     iteration #  3     ecut=   100.00 Ry     beta= 0.70
     CG style diagonalization
     ethr =  2.07E-03,  avg # of iterations =  4.3

     negative rho (up, down):  6.762E-04 0.000E+00

     total cpu time spent up to now is        4.5 secs

     total energy              =    -291.72640254 Ry
     estimated scf accuracy    <       0.10223946 Ry

     iteration #  4     ecut=   100.00 Ry     beta= 0.70
     CG style diagonalization
     ethr =  2.56E-04,  avg # of iterations =  3.7

     negative rho (up, down):  8.040E-04 0.000E+00

     total cpu time spent up to now is        5.5 secs

     total energy              =    -291.73881282 Ry
     estimated scf accuracy    <       0.01474851 Ry

     iteration #  5     ecut=   100.00 Ry     beta= 0.70
     CG style diagonalization
     ethr =  3.69E-05,  avg # of iterations =  3.7

     negative rho (up, down):  8.324E-04 0.000E+00

     total cpu time spent up to now is        6.5 secs

     total energy              =    -291.74335500 Ry
     estimated scf accuracy    <       0.00030683 Ry

     iteration #  6     ecut=   100.00 Ry     beta= 0.70
     CG style diagonalization
     ethr =  7.67E-07,  avg # of iterations =  4.3

     negative rho (up, down):  8.173E-04 0.000E+00

     total cpu time spent up to now is        7.6 secs

     total energy              =    -291.74358378 Ry
     estimated scf accuracy    <       0.00032093 Ry

     iteration #  7     ecut=   100.00 Ry     beta= 0.70
     CG style diagonalization
     ethr =  7.67E-07,  avg # of iterations =  3.3

     negative rho (up, down):  8.108E-04 0.000E+00

     total cpu time spent up to now is        8.5 secs

     total energy              =    -291.74359046 Ry
     estimated scf accuracy    <       0.00006428 Ry

     iteration #  8     ecut=   100.00 Ry     beta= 0.70
     CG style diagonalization
     ethr =  1.61E-07,  avg # of iterations =  3.6

     negative rho (up, down):  8.085E-04 0.000E+00

     total cpu time spent up to now is        9.5 secs

     total energy              =    -291.74360271 Ry
     estimated scf accuracy    <       0.00000165 Ry

     iteration #  9     ecut=   100.00 Ry     beta= 0.70
     CG style diagonalization
     ethr =  4.14E-09,  avg # of iterations =  4.4

     negative rho (up, down):  8.082E-04 0.000E+00

     total cpu time spent up to now is       10.6 secs

     total energy              =    -291.74360429 Ry
     estimated scf accuracy    <       0.00000016 Ry

     iteration # 10     ecut=   100.00 Ry     beta= 0.70
     CG style diagonalization
     ethr =  4.01E-10,  avg # of iterations =  4.1

     negative rho (up, down):  8.082E-04 0.000E+00

     total cpu time spent up to now is       11.7 secs

     total energy              =    -291.74360438 Ry
     estimated scf accuracy    <       0.00000002 Ry

     iteration # 11     ecut=   100.00 Ry     beta= 0.70
     CG style diagonalization
     ethr =  5.30E-11,  avg # of iterations =  3.8

     negative rho (up, down):  8.081E-04 0.000E+00

     total cpu time spent up to now is       12.8 secs

     End of self-consistent calculation

          k = 0.0000 0.0000 0.0000 (  5743 PWs)   bands (ev):

   -44.3485 -27.5501 -21.0874 -21.0874 -21.0874  -8.7804  -8.7804  -8.7804
    -7.0016  -5.7421  -5.7421   7.5712   7.5712   7.5712   9.4129   9.4129
     9.4129  10.5091  10.5091  10.5091

          k = 0.0000 0.0000 0.1667 (  5766 PWs)   bands (ev):

   -44.3478 -27.5471 -21.1242 -21.0854 -21.0854  -8.9465  -8.7754  -8.7754
    -6.7221  -5.7263  -5.5838   7.2141   7.5516   7.5516   8.9821   8.9821
     9.1157   9.5440  10.3596  10.3596

          k = 0.0000 0.0000 0.3333 (  5774 PWs)   bands (ev):

   -44.3463 -27.5410 -21.1964 -21.0816 -21.0816  -9.2131  -8.7652  -8.7652
    -6.2039  -5.6943  -5.2499   6.3999   7.5606   7.5606   8.2141   8.2502
     8.2502   8.6098  10.2239  10.2239

          k = 0.0000 0.0000-0.5000 (  5750 PWs)   bands (ev):

   -44.3456 -27.5380 -21.2319 -21.0796 -21.0796  -9.3269  -8.7601  -8.7601
    -5.9605  -5.6781  -5.0603   5.9158   7.7288   7.7288   7.7438   7.7788
     7.7788   8.3878  10.1785  10.1785

          k = 0.0000 0.1667 0.1667 (  5768 PWs)   bands (ev):

   -44.3471 -27.5439 -21.1235 -21.1218 -21.0835  -8.9733  -8.8553  -8.7698
    -6.5003  -5.6466  -5.4982   6.9204   7.4201   7.5232   8.2112   8.6821
     9.3827   9.4119   9.7809  10.1176

          k = 0.0000 0.1667 0.3333 (  5780 PWs)   bands (ev):

   -44.3456 -27.5375 -21.1956 -21.1195 -21.0797  -9.1598  -8.8495  -8.7587
    -6.1018  -5.5761  -5.1824   6.2918   6.8755   7.5072   7.5762   8.0866
     8.4843   9.4026   9.6080   9.9010

          k = 0.0000 0.1667-0.5000 (  5770 PWs)   bands (ev):

   -44.3449 -27.5343 -21.2314 -21.1180 -21.0778  -9.2556  -8.8329  -8.7531
    -5.9452  -5.5273  -4.9793   5.9124   6.4390   7.4771   7.6482   7.6693
     8.2060   9.4295   9.4464   9.8390

          k = 0.0000 0.3333 0.3333 (  5768 PWs)   bands (ev):

   -44.3442 -27.5304 -21.1948 -21.1932 -21.0761  -9.0789  -8.9817  -8.7456
    -6.0455  -5.1990  -5.0038   5.7178   6.5342   6.5701   7.4198   7.7277
     8.5568   8.7817   9.5419  10.2676

          k = 0.0000 0.3333-0.5000 (  5778 PWs)   bands (ev):

   -44.3435 -27.5268 -21.2306 -21.1932 -21.0742  -9.1108  -8.9708  -8.7390
    -6.0576  -5.0368  -4.8226   5.4406   5.9056   6.5217   7.4611   7.4633
     8.4875   8.7505   9.4320  10.4353

          k = 0.0000-0.5000-0.5000 (  5824 PWs)   bands (ev):

   -44.3428 -27.5231 -21.2301 -21.2301 -21.0724  -9.0364  -9.0364  -8.7319
    -6.1298  -4.7463  -4.7463   5.0796   5.8529   5.9579   7.3619   7.3619
     8.6282   8.6282   9.3002  10.7381

          k = 0.1667 0.1667 0.1667 (  5773 PWs)   bands (ev):

   -44.3463 -27.5406 -21.1214 -21.1214 -21.1201  -8.9813  -8.8422  -8.8422
    -6.3021  -5.5017  -5.5017   6.6733   7.3336   7.3336   8.0881   8.0881
     9.0058   9.7266   9.7266   9.7415

          k = 0.1667 0.1667 0.3333 (  5782 PWs)   bands (ev):

   -44.3449 -27.5340 -21.1944 -21.1181 -21.1171  -9.1135  -8.8539  -8.8158
    -5.9381  -5.5092  -5.1533   6.1900   6.8235   6.9746   7.3047   7.7365
     8.7381   9.4174   9.6323   9.7256

          k = 0.1667 0.1667-0.5000 (  5770 PWs)   bands (ev):

   -44.3442 -27.5307 -21.2305 -21.1168 -21.1150  -9.1948  -8.8380  -8.8024
    -5.7824  -5.5132  -4.9315   5.9124   6.3118   6.7604   7.1195   7.6942
     8.8317   9.2195   9.5960   9.6092

          k = 0.1667 0.3333 0.3333 (  5767 PWs)   bands (ev):

   -44.3435 -27.5270 -21.1924 -21.1916 -21.1138  -9.0434  -8.9587  -8.8050
    -5.8029  -5.1977  -5.0405   5.7711   6.5197   6.5333   6.9122   7.0521
     8.3158   9.4662   9.5088  10.2965

          k = 0.1667 0.3333-0.5000 (  5782 PWs)   bands (ev):

   -44.3428 -27.5235 -21.2285 -21.1908 -21.1119  -9.0726  -8.9506  -8.7929
    -5.8029  -5.0907  -4.8409   5.5639   5.9138   6.4865   6.6813   6.9764
     8.3442   9.4057   9.4854  10.4605

          k = 0.1667-0.5000-0.5000 (  5812 PWs)   bands (ev):

   -44.3421 -27.5200 -21.2275 -21.2275 -21.1099  -9.0105  -9.0105  -8.7821
    -5.8641  -4.7979  -4.7979   5.2496   5.8736   5.9635   6.7038   6.7038
     8.3350   9.4479   9.4479  10.7690

          k = 0.3333 0.3333 0.3333 (  5794 PWs)   bands (ev):

   -44.3421 -27.5204 -21.1888 -21.1875 -21.1875  -8.9832  -8.9113  -8.9113
    -5.3510  -5.1156  -5.1156   5.7809   6.2424   6.2424   6.6367   6.6367
     6.8840  10.0876  10.0876  10.4636

          k = 0.3333 0.3333-0.5000 (  5782 PWs)   bands (ev):

   -44.3414 -27.5170 -21.2244 -21.1868 -21.1851  -8.9958  -8.9205  -8.8868
    -5.2883  -5.1541  -4.8812   5.7402   5.9295   6.0134   6.1849   6.6196
     6.8236  10.1868  10.3120  10.5920

          k = 0.3333-0.5000-0.5000 (  5776 PWs)   bands (ev):

   -44.3407 -27.5137 -21.2223 -21.2223 -21.1835  -8.9568  -8.9568  -8.8806
    -5.2814  -4.9030  -4.9030   5.5984   5.9148   5.9749   6.0216   6.0216
     6.7018  10.4562  10.4562  10.8323

          k =-0.5000-0.5000-0.5000 (  5832 PWs)   bands (ev):

   -44.3400 -27.5106 -21.2197 -21.2197 -21.2197  -8.9290  -8.9290  -8.9290
    -4.9566  -4.9566  -4.9566   5.7778   5.7778   5.7778   5.9079   5.9806
     5.9806  10.8648  10.8648  10.8648

     highest occupied level (ev):    10.8648

!    total energy              =    -291.74360438 Ry
     estimated scf accuracy    <          3.2E-09 Ry

     The total energy is the sum of the following terms:
     one-electron contribution =     -77.00624152 Ry
     hartree contribution      =      61.28207896 Ry
     xc contribution           =     -51.77225996 Ry
     ewald contribution        =    -224.24718186 Ry

     convergence has been achieved in  11 iterations

     negative rho (up, down):  8.081E-04 0.000E+00

     Forces acting on atoms (cartesian axes, Ry/au):

     atom    1 type  1   force =     0.00000000    0.00000000    0.00000000
     atom    2 type  2   force =     0.00000000    0.00000000    0.00000000
     atom    3 type  3   force =     0.00000000    0.00000000    0.00000000
     atom    4 type  3   force =     0.00000000    0.00000000    0.00000000
     atom    5 type  3   force =     0.00000000    0.00000000    0.00000000

     Total force =     0.000000     Total SCF correction =     0.000000


     Computing stress (Cartesian axis) and pressure


     negative rho (up, down):  8.081E-04 0.000E+00
          total   stress  (Ry/bohr**3)                   (kbar)     P=      210.64
   0.00143189   0.00000000   0.00000000          210.64        0.00        0.00
   0.00000000   0.00143189   0.00000000            0.00      210.64        0.00
   0.00000000   0.00000000   0.00143189            0.00        0.00      210.64


     Writing all to output data dir ./CTO_module_5.save/ :
     XML data file, charge density, pseudopotentials, collected wavefunctions
 
     init_run     :      0.76s CPU      0.87s WALL (       1 calls)
     electrons    :     10.80s CPU     11.63s WALL (       1 calls)
     forces       :      0.18s CPU      0.21s WALL (       1 calls)
     stress       :      1.51s CPU      1.56s WALL (       1 calls)

     Called by init_run:
     wfcinit      :      0.23s CPU      0.27s WALL (       1 calls)
     potinit      :      0.01s CPU      0.02s WALL (       1 calls)
     hinit0       :      0.15s CPU      0.17s WALL (       1 calls)

     Called by electrons:
     c_bands      :      7.87s CPU      8.14s WALL (      11 calls)
     sum_band     :      1.90s CPU      2.06s WALL (      11 calls)
     v_of_rho     :      0.03s CPU      0.04s WALL (      12 calls)
     newd         :      1.03s CPU      1.32s WALL (      12 calls)
     mix_rho      :      0.02s CPU      0.03s WALL (      11 calls)

     Called by c_bands:
     init_us_2    :      0.11s CPU      0.12s WALL (     500 calls)
     init_us_2:cp :      0.11s CPU      0.12s WALL (     500 calls)
     ccgdiagg     :      6.64s CPU      6.87s WALL (     220 calls)
     wfcrot       :      1.36s CPU      1.41s WALL (     220 calls)

     Called by *cgdiagg:
     h_psi        :      5.45s CPU      5.64s WALL (   13018 calls)
     s_psi        :      0.59s CPU      0.62s WALL (   25816 calls)

     Called by h_psi:
     h_psi:calbec :      0.70s CPU      0.72s WALL (   13018 calls)
     vloc_psi     :      4.28s CPU      4.42s WALL (   13018 calls)
     add_vuspsi   :      0.36s CPU      0.37s WALL (   13018 calls)
     hs_1psi      :      4.62s CPU      4.78s WALL (   12798 calls)
     s_1psi       :      0.81s CPU      0.84s WALL (   12798 calls)

     General routines
     calbec       :      1.19s CPU      1.23s WALL (   26136 calls)
     fft          :      0.04s CPU      0.06s WALL (      78 calls)
     ffts         :      0.00s CPU      0.01s WALL (      23 calls)
     fftw         :      3.82s CPU      3.94s WALL (   39276 calls)
     interpolate  :      0.01s CPU      0.02s WALL (      12 calls)
 
     Parallel routines
 
     PWSCF        :     13.47s CPU     15.86s WALL

 
   This run was terminated on:  20: 6: 3  24Sep2025            

=------------------------------------------------------------------------------=
   JOB DONE.
=------------------------------------------------------------------------------=
TACC:  Shutdown complete. Exiting. 
