TACC:  Starting up job 2560884 
TACC:  Starting parallel tasks... 

     Program PWSCF v.7.3 starts on 18Nov2025 at  0:32:17 

     This program is part of the open-source Quantum ESPRESSO suite
     for quantum simulation of materials; please cite
         "P. Giannozzi et al., J. Phys.:Condens. Matter 21 395502 (2009);
         "P. Giannozzi et al., J. Phys.:Condens. Matter 29 465901 (2017);
         "P. Giannozzi et al., J. Chem. Phys. 152 154105 (2020);
          URL http://www.quantum-espresso.org", 
     in publications or presentations arising from this work. More details at
     http://www.quantum-espresso.org/quote

     Parallel version (MPI & OpenMP), running on      10 processor cores
     Number of MPI processes:                10
     Threads/MPI process:                     1

     MPI processes distributed on     1 nodes
     189458 MiB available memory on the printing compute node when the environment starts
 
     Waiting for input...
     Reading input from standard input
Warning: card &CELL ignored
Warning: card  CELL_DYNAMICS = 'BFGS', ignored
Warning: card  PRESS=0.D0, ignored
Warning: card / ignored

     Current dimensions of program PWSCF are:
     Max number of different atomic species (ntypx) = 10
     Max number of k-points (npk) =  40000
     Max angular momentum in pseudopotentials (lmaxx) =  4
     Message from routine setup:
     using ibrav=0 with symmetry is DISCOURAGED, use correct ibrav instead
 
     R & G space division:  proc/nbgrp/npool/nimage =      10
     Subspace diagonalization in iterative solution of the eigenvalue problem:
     a serial algorithm will be used

 
     Parallelization info
     --------------------
     sticks:   dense  smooth     PW     G-vecs:    dense   smooth      PW
     Min         209      84     25                 7671     1943     321
     Max         210      85     26                 7676     1947     324
     Sum        2093     845    253                76727    19451    3227
 
     Using Slab Decomposition
 


     bravais-lattice index     =            0
     lattice parameter (alat)  =       7.2859  a.u.
     unit-cell volume          =     406.3698 (a.u.)^3
     number of atoms/cell      =            5
     number of atomic types    =            3
     number of electrons       =        44.00
     number of Kohn-Sham states=           22
     kinetic-energy cutoff     =      50.0000  Ry
     charge density cutoff     =     500.0000  Ry
     scf convergence threshold =      1.0E-08
     mixing beta               =       0.7000
     number of iterations used =            8  plain     mixing
     energy convergence thresh.=      1.0E-04
     force convergence thresh. =      1.0E-03
     Exchange-correlation= SLA  PZ   NOGX NOGC
                           (   1   1   0   0   0   0   0)
     nstep                     =           50


     celldm(1)=   7.285877  celldm(2)=   0.000000  celldm(3)=   0.000000
     celldm(4)=   0.000000  celldm(5)=   0.000000  celldm(6)=   0.000000

     crystal axes: (cart. coord. in units of alat)
               a(1) = (   1.000000   0.000000  -0.000259 )  
               a(2) = (   0.000000   0.999741   0.000000 )  
               a(3) = (  -0.000259   0.000000   1.050966 )  

     reciprocal axes: (cart. coord. in units 2 pi/alat)
               b(1) = (  1.000000  0.000000  0.000247 )  
               b(2) = (  0.000000  1.000259  0.000000 )  
               b(3) = (  0.000247  0.000000  0.951506 )  


     PseudoPot. # 1 for Pb read from file:
     /scratch/11018/zhc/assisgnment3/input_files/Pb_LDA.UPF
     MD5 check sum: 062a37469794d955244864f8fe2e5624
     Pseudo is Ultrasoft + core correction, Zval = 14.0
     Generated by new atomic code, or converted to UPF format
     Using radial grid of  899 points,  6 beta functions with: 
                l(1) =   0
                l(2) =   0
                l(3) =   1
                l(4) =   1
                l(5) =   2
                l(6) =   2
     Q(r) pseudized with  6 coefficients,  rinner =    1.000   1.000   1.000
                                                       1.000   1.000

     PseudoPot. # 2 for Ti read from file:
     /scratch/11018/zhc/assisgnment3/input_files/Ti_LDA.UPF
     MD5 check sum: 0d9f225c038fe889ca2a701dcc8d72cb
     Pseudo is Ultrasoft + core correction, Zval = 12.0
     Generated by new atomic code, or converted to UPF format
     Using radial grid of  851 points,  6 beta functions with: 
                l(1) =   0
                l(2) =   0
                l(3) =   1
                l(4) =   1
                l(5) =   2
                l(6) =   2
     Q(r) pseudized with  6 coefficients,  rinner =    1.000   1.000   1.000
                                                       1.000   1.000

     PseudoPot. # 3 for O  read from file:
     /scratch/11018/zhc/assisgnment3/input_files/O_LDA.UPF
     MD5 check sum: 194b818514d2a7dbb603bb78519a4f40
     Pseudo is Ultrasoft + core correction, Zval =  6.0
     Generated by new atomic code, or converted to UPF format
     Using radial grid of  737 points,  5 beta functions with: 
                l(1) =   0
                l(2) =   0
                l(3) =   1
                l(4) =   1
                l(5) =   2
     Q(r) pseudized with  8 coefficients,  rinner =    0.900   0.900   0.900
                                                       0.900   0.900

     atomic species   valence    mass     pseudopotential
     Pb               14.00   207.20000     Pb( 1.00)
     Ti               12.00    47.88000     Ti( 1.00)
     O                 6.00    16.00000     O ( 1.00)

      2 Sym. Ops. (no inversion) found



   Cartesian axes

     site n.     atom                  positions (alat units)
         1        Pb     tau(   1) = (  -0.0002607   0.0000000   1.0564034  )
         2        Ti     tau(   2) = (   0.4998600   0.4998703   0.5669026  )
         3        O      tau(   3) = (   0.4999742   0.4998703   0.1044497  )
         4        O      tau(   4) = (   0.4998414   0.0000000   0.6425717  )
         5        O      tau(   5) = (  -0.0001586   0.4998703   0.6427014  )

     number of k points=    56
                       cart. coord. in units 2pi/alat
        k(    1) = (   0.0000000   0.0000000   0.0000000), wk =   0.0138889
        k(    2) = (   0.0000617   0.0000000   0.2378764), wk =   0.0277778
        k(    3) = (  -0.0001234   0.0000000  -0.4757529), wk =   0.0138889
        k(    4) = (   0.0000000   0.1667099   0.0000000), wk =   0.0277778
        k(    5) = (   0.0000617   0.1667099   0.2378764), wk =   0.0555556
        k(    6) = (  -0.0001234   0.1667099  -0.4757529), wk =   0.0277778
        k(    7) = (   0.0000000   0.3334198   0.0000000), wk =   0.0277778
        k(    8) = (   0.0000617   0.3334198   0.2378764), wk =   0.0555556
        k(    9) = (  -0.0001234   0.3334198  -0.4757529), wk =   0.0277778
        k(   10) = (   0.0000000  -0.5001297   0.0000000), wk =   0.0138889
        k(   11) = (   0.0000617  -0.5001297   0.2378764), wk =   0.0277778
        k(   12) = (  -0.0001234  -0.5001297  -0.4757529), wk =   0.0138889
        k(   13) = (   0.1666667   0.0000000   0.0000411), wk =   0.0277778
        k(   14) = (   0.1667284   0.0000000   0.2379176), wk =   0.0277778
        k(   15) = (   0.1665433   0.0000000  -0.4757117), wk =   0.0277778
        k(   16) = (   0.1666050   0.0000000  -0.2378353), wk =   0.0277778
        k(   17) = (   0.1666667   0.1667099   0.0000411), wk =   0.0555556
        k(   18) = (   0.1667284   0.1667099   0.2379176), wk =   0.0555556
        k(   19) = (   0.1665433   0.1667099  -0.4757117), wk =   0.0555556
        k(   20) = (   0.1666050   0.1667099  -0.2378353), wk =   0.0555556
        k(   21) = (   0.1666667   0.3334198   0.0000411), wk =   0.0555556
        k(   22) = (   0.1667284   0.3334198   0.2379176), wk =   0.0555556
        k(   23) = (   0.1665433   0.3334198  -0.4757117), wk =   0.0555556
        k(   24) = (   0.1666050   0.3334198  -0.2378353), wk =   0.0555556
        k(   25) = (   0.1666667  -0.5001297   0.0000411), wk =   0.0277778
        k(   26) = (   0.1667284  -0.5001297   0.2379176), wk =   0.0277778
        k(   27) = (   0.1665433  -0.5001297  -0.4757117), wk =   0.0277778
        k(   28) = (   0.1666050  -0.5001297  -0.2378353), wk =   0.0277778
        k(   29) = (   0.3333334   0.0000000   0.0000823), wk =   0.0277778
        k(   30) = (   0.3333951   0.0000000   0.2379587), wk =   0.0277778
        k(   31) = (   0.3332100   0.0000000  -0.4756706), wk =   0.0277778
        k(   32) = (   0.3332717   0.0000000  -0.2377942), wk =   0.0277778
        k(   33) = (   0.3333334   0.1667099   0.0000823), wk =   0.0555556
        k(   34) = (   0.3333951   0.1667099   0.2379587), wk =   0.0555556
        k(   35) = (   0.3332100   0.1667099  -0.4756706), wk =   0.0555556
        k(   36) = (   0.3332717   0.1667099  -0.2377942), wk =   0.0555556
        k(   37) = (   0.3333334   0.3334198   0.0000823), wk =   0.0555556
        k(   38) = (   0.3333951   0.3334198   0.2379587), wk =   0.0555556
        k(   39) = (   0.3332100   0.3334198  -0.4756706), wk =   0.0555556
        k(   40) = (   0.3332717   0.3334198  -0.2377942), wk =   0.0555556
        k(   41) = (   0.3333334  -0.5001297   0.0000823), wk =   0.0277778
        k(   42) = (   0.3333951  -0.5001297   0.2379587), wk =   0.0277778
        k(   43) = (   0.3332100  -0.5001297  -0.4756706), wk =   0.0277778
        k(   44) = (   0.3332717  -0.5001297  -0.2377942), wk =   0.0277778
        k(   45) = (  -0.5000000   0.0000000  -0.0001234), wk =   0.0138889
        k(   46) = (  -0.4999384   0.0000000   0.2377530), wk =   0.0277778
        k(   47) = (  -0.5001234   0.0000000  -0.4758763), wk =   0.0138889
        k(   48) = (  -0.5000000   0.1667099  -0.0001234), wk =   0.0277778
        k(   49) = (  -0.4999384   0.1667099   0.2377530), wk =   0.0555556
        k(   50) = (  -0.5001234   0.1667099  -0.4758763), wk =   0.0277778
        k(   51) = (  -0.5000000   0.3334198  -0.0001234), wk =   0.0277778
        k(   52) = (  -0.4999384   0.3334198   0.2377530), wk =   0.0555556
        k(   53) = (  -0.5001234   0.3334198  -0.4758763), wk =   0.0277778
        k(   54) = (  -0.5000000  -0.5001297  -0.0001234), wk =   0.0138889
        k(   55) = (  -0.4999384  -0.5001297   0.2377530), wk =   0.0277778
        k(   56) = (  -0.5001234  -0.5001297  -0.4758763), wk =   0.0138889

     Dense  grid:    76727 G-vectors     FFT dimensions: (  54,  54,  60)

     Smooth grid:    19451 G-vectors     FFT dimensions: (  36,  36,  36)

     Estimated max dynamical RAM per process >      38.64 MB

     Estimated total dynamical RAM >     386.37 MB

     Check: negative core charge=   -0.000004

     Initial potential from superposition of free atoms

     starting charge      42.9982, renormalised to      44.0000

     negative rho (up, down):  1.669E-02 0.000E+00
     Starting wfcs are   31 randomized atomic wfcs

     total cpu time spent up to now is        0.8 secs

     Self-consistent Calculation

     iteration #  1     ecut=    50.00 Ry     beta= 0.70
     CG style diagonalization
     ethr =  1.00E-02,  avg # of iterations =  2.1

     negative rho (up, down):  1.400E-02 0.000E+00

     total cpu time spent up to now is        1.7 secs

     total energy              =    -380.06315322 Ry
     estimated scf accuracy    <       1.02062190 Ry

     iteration #  2     ecut=    50.00 Ry     beta= 0.70
     CG style diagonalization
     ethr =  2.32E-03,  avg # of iterations =  4.8

     negative rho (up, down):  1.451E-02 0.000E+00

     total cpu time spent up to now is        3.4 secs

     total energy              =    -379.75535907 Ry
     estimated scf accuracy    <       3.91432537 Ry

     iteration #  3     ecut=    50.00 Ry     beta= 0.70
     CG style diagonalization
     ethr =  2.32E-03,  avg # of iterations =  4.3

     negative rho (up, down):  1.512E-02 0.000E+00

     total cpu time spent up to now is        4.9 secs

     total energy              =    -380.53687937 Ry
     estimated scf accuracy    <       0.31215588 Ry

     iteration #  4     ecut=    50.00 Ry     beta= 0.70
     CG style diagonalization
     ethr =  7.09E-04,  avg # of iterations =  3.5

     negative rho (up, down):  1.511E-02 0.000E+00

     total cpu time spent up to now is        6.1 secs

     total energy              =    -380.56035167 Ry
     estimated scf accuracy    <       0.04173988 Ry

     iteration #  5     ecut=    50.00 Ry     beta= 0.70
     CG style diagonalization
     ethr =  9.49E-05,  avg # of iterations =  3.9

     negative rho (up, down):  1.512E-02 0.000E+00

     total cpu time spent up to now is        7.5 secs

     total energy              =    -380.57147035 Ry
     estimated scf accuracy    <       0.00809264 Ry

     iteration #  6     ecut=    50.00 Ry     beta= 0.70
     CG style diagonalization
     ethr =  1.84E-05,  avg # of iterations =  3.9

     negative rho (up, down):  1.512E-02 0.000E+00

     total cpu time spent up to now is        8.8 secs

     total energy              =    -380.57363059 Ry
     estimated scf accuracy    <       0.00594427 Ry

     iteration #  7     ecut=    50.00 Ry     beta= 0.70
     CG style diagonalization
     ethr =  1.35E-05,  avg # of iterations =  3.3

     negative rho (up, down):  1.514E-02 0.000E+00

     total cpu time spent up to now is        9.9 secs

     total energy              =    -380.57363223 Ry
     estimated scf accuracy    <       0.00159865 Ry

     iteration #  8     ecut=    50.00 Ry     beta= 0.70
     CG style diagonalization
     ethr =  3.63E-06,  avg # of iterations =  3.7

     negative rho (up, down):  1.516E-02 0.000E+00

     total cpu time spent up to now is       11.2 secs

     total energy              =    -380.57397945 Ry
     estimated scf accuracy    <       0.00000863 Ry

     iteration #  9     ecut=    50.00 Ry     beta= 0.70
     CG style diagonalization
     c_bands:  1 eigenvalues not converged
     c_bands:  1 eigenvalues not converged
     c_bands:  1 eigenvalues not converged
     c_bands:  1 eigenvalues not converged
     c_bands:  1 eigenvalues not converged
     ethr =  1.96E-08,  avg # of iterations =  8.1

     negative rho (up, down):  1.519E-02 0.000E+00

     total cpu time spent up to now is       14.1 secs

     total energy              =    -380.57404518 Ry
     estimated scf accuracy    <       0.00003681 Ry

     iteration # 10     ecut=    50.00 Ry     beta= 0.70
     CG style diagonalization
     ethr =  1.96E-08,  avg # of iterations =  3.5

     negative rho (up, down):  1.524E-02 0.000E+00

     total cpu time spent up to now is       15.3 secs

     total energy              =    -380.57404095 Ry
     estimated scf accuracy    <       0.00002196 Ry

     iteration # 11     ecut=    50.00 Ry     beta= 0.70
     CG style diagonalization
     ethr =  1.96E-08,  avg # of iterations =  3.7

     negative rho (up, down):  1.531E-02 0.000E+00

     total cpu time spent up to now is       16.6 secs

     total energy              =    -380.57404137 Ry
     estimated scf accuracy    <       0.00000327 Ry

     iteration # 12     ecut=    50.00 Ry     beta= 0.70
     CG style diagonalization
     ethr =  7.43E-09,  avg # of iterations =  4.3

     negative rho (up, down):  1.530E-02 0.000E+00

     total cpu time spent up to now is       18.1 secs

     total energy              =    -380.57404240 Ry
     estimated scf accuracy    <       0.00000088 Ry

     iteration # 13     ecut=    50.00 Ry     beta= 0.70
     CG style diagonalization
     ethr =  2.00E-09,  avg # of iterations =  5.5

     negative rho (up, down):  1.530E-02 0.000E+00

     total cpu time spent up to now is       20.0 secs

     total energy              =    -380.57404313 Ry
     estimated scf accuracy    <       0.00000004 Ry

     iteration # 14     ecut=    50.00 Ry     beta= 0.70
     CG style diagonalization
     c_bands:  1 eigenvalues not converged
     c_bands:  1 eigenvalues not converged
     ethr =  1.01E-10,  avg # of iterations =  9.2

     negative rho (up, down):  1.531E-02 0.000E+00

     total cpu time spent up to now is       23.3 secs

     End of self-consistent calculation

          k = 0.0000 0.0000 0.0000 (  2421 PWs)   bands (ev):

   -45.1660 -21.8462 -21.7629 -21.7627  -7.1639  -6.0112  -5.7534  -4.4085
    -4.4084  -4.3685  -4.2510  -4.1380   4.8453   6.7385   6.7406   7.1128
     8.7163   8.7169   8.9545   9.2940   9.4459   9.4463

          k = 0.0001 0.0000 0.2379 (  2431 PWs)   bands (ev):

   -45.1657 -21.8696 -21.7620 -21.7618  -6.9565  -5.9495  -5.6836  -4.4263
    -4.4262  -4.3670  -4.2389  -4.2150   3.9830   6.7934   6.7951   7.3103
     8.4628   8.4637   8.8713   9.3812   9.5650   9.5652

          k =-0.0001 0.0000-0.4758 (  2414 PWs)   bands (ev):

   -45.1654 -21.8928 -21.7611 -21.7608  -6.7310  -5.8819  -5.6204  -4.4439
    -4.4438  -4.3655  -4.2978  -4.2284   3.4398   6.6144   6.8275   6.8287
     8.3052   8.3069   8.7922   9.6412   9.6413  10.6577

          k = 0.0000 0.1667 0.0000 (  2423 PWs)   bands (ev):

   -45.1656 -21.8454 -21.7834 -21.7618  -7.0187  -5.9770  -5.7226  -4.4329
    -4.4069  -4.3834  -4.2540  -4.1262   4.3564   6.8047   6.8487   7.1450
     8.6733   8.7379   8.9517   9.0693   9.1745   9.5670

          k = 0.0001 0.1667 0.2379 (  2426 PWs)   bands (ev):

   -45.1653 -21.8686 -21.7823 -21.7609  -6.8277  -5.9313  -5.6470  -4.4314
    -4.4253  -4.3825  -4.2483  -4.1657   3.7496   6.5868   6.9149   7.3945
     8.1303   8.4448   8.7700   9.1657   9.2357   9.9385

          k =-0.0001 0.1667-0.4758 (  2426 PWs)   bands (ev):

   -45.1650 -21.8916 -21.7813 -21.7599  -6.6302  -5.8794  -5.5686  -4.4435
    -4.4277  -4.3816  -4.2530  -4.2008   3.2957   6.2684   6.9549   7.0400
     7.9352   8.2962   8.8369   9.2240   9.3171  10.5788

          k = 0.0000 0.3334 0.0000 (  2422 PWs)   bands (ev):

   -45.1649 -21.8437 -21.8238 -21.7601  -6.7035  -5.9026  -5.6768  -4.4702
    -4.4130  -4.4036  -4.2485  -4.1315   3.7280   6.4338   7.0986   7.1305
     8.3332   8.3607   8.8061   8.8581   9.2939  10.2202

          k = 0.0001 0.3334 0.2379 (  2421 PWs)   bands (ev):

   -45.1645 -21.8665 -21.8227 -21.7591  -6.5788  -5.8604  -5.5799  -4.4369
    -4.4233  -4.4132  -4.2416  -4.1049   3.3633   6.3042   7.0043   7.2299
     7.7644   8.1880   8.3432   8.9110   9.4292  10.2988

          k =-0.0001 0.3334-0.4758 (  2428 PWs)   bands (ev):

   -45.1642 -21.8891 -21.8214 -21.7581  -6.4864  -5.7930  -5.4523  -4.4426
    -4.4136  -4.3957  -4.2776  -4.0514   3.0437   5.9809   6.7657   7.2740
     7.6494   7.8163   8.1293   8.9418   9.8662  10.1275

          k = 0.0000-0.5001 0.0000 (  2436 PWs)   bands (ev):

   -45.1645 -21.8444 -21.8424 -21.7593  -6.5297  -5.8458  -5.6819  -4.4863
    -4.4276  -4.4020  -4.2216  -4.1643   3.5085   6.0492   7.3644   7.3733
     7.8372   7.9790   8.7274   8.8960   9.3247  11.0242

          k = 0.0001-0.5001 0.2379 (  2428 PWs)   bands (ev):

   -45.1642 -21.8652 -21.8429 -21.7582  -6.4709  -5.7699  -5.5738  -4.4493
    -4.4285  -4.4222  -4.2073  -4.1005   3.2118   6.0211   7.0349   7.2753
     7.5806   7.7800   8.4532   8.8890   9.4301  10.5015

          k =-0.0001-0.5001-0.4758 (  2432 PWs)   bands (ev):

   -45.1638 -21.8877 -21.8415 -21.7572  -6.4528  -5.6886  -5.3983  -4.4422
    -4.4294  -4.4045  -4.2628  -3.9892   2.9431   5.8405   6.4540   7.3350
     7.6003   7.8055   7.8290   8.8842   9.7986  10.1652

          k = 0.1667 0.0000 0.0000 (  2423 PWs)   bands (ev):

   -45.1656 -21.8454 -21.7831 -21.7621  -7.0190  -5.9771  -5.7227  -4.4330
    -4.4068  -4.3834  -4.2540  -4.1263   4.3563   6.8037   6.8507   7.1452
     8.6726   8.7386   8.9516   9.0692   9.1749   9.5670

          k = 0.1667 0.0000 0.2379 (  2428 PWs)   bands (ev):

   -45.1653 -21.8686 -21.7820 -21.7611  -6.8278  -5.9312  -5.6472  -4.4315
    -4.4252  -4.3825  -4.2482  -4.1662   3.7490   6.5861   6.9166   7.3954
     8.1310   8.4455   8.7705   9.1637   9.2359   9.9388

          k = 0.1665 0.0000-0.4757 (  2426 PWs)   bands (ev):

   -45.1650 -21.8916 -21.7810 -21.7602  -6.6305  -5.8794  -5.5686  -4.4434
    -4.4277  -4.3816  -4.2528  -4.2012   3.2955   6.2678   6.9560   7.0403
     7.9348   8.2979   8.8374   9.2229   9.3176  10.5792

          k = 0.1666 0.0000-0.2378 (  2428 PWs)   bands (ev):

   -45.1653 -21.8686 -21.7820 -21.7611  -6.8281  -5.9314  -5.6470  -4.4314
    -4.4252  -4.3825  -4.2481  -4.1657   3.7498   6.5857   6.9164   7.3940
     8.1303   8.4459   8.7697   9.1662   9.2361   9.9378

          k = 0.1667 0.1667 0.0000 (  2421 PWs)   bands (ev):

   -45.1653 -21.8445 -21.7825 -21.7820  -6.8762  -5.9418  -5.7138  -4.4388
    -4.4231  -4.3870  -4.2299  -4.1154   4.0250   6.7252   6.9781   7.2013
     8.1975   8.3100   9.0456   9.0818   9.3863   9.8015

          k = 0.1667 0.1667 0.2379 (  2422 PWs)   bands (ev):

   -45.1649 -21.8676 -21.7815 -21.7810  -6.6961  -5.9158  -5.6388  -4.4417
    -4.4182  -4.3809  -4.2193  -4.1314   3.6252   6.5033   6.6123   7.3386
     8.0280   8.0451   8.8508   9.2268   9.4649   9.9090

          k = 0.1665 0.1667-0.4757 (  2444 PWs)   bands (ev):

   -45.1646 -21.8905 -21.7804 -21.7800  -6.5174  -5.8897  -5.5508  -4.4547
    -4.3965  -4.3580  -4.2245  -4.1531   3.2626   6.2870   6.3368   7.0295
     7.9349   7.9714   8.7544   9.3026   9.5233  10.2754

          k = 0.1666 0.1667-0.2378 (  2421 PWs)   bands (ev):

   -45.1649 -21.8676 -21.7815 -21.7810  -6.6964  -5.9160  -5.6386  -4.4417
    -4.4182  -4.3808  -4.2192  -4.1310   3.6262   6.5023   6.6119   7.3376
     8.0272   8.0445   8.8526   9.2281   9.4652   9.9075

          k = 0.1667 0.3334 0.0000 (  2426 PWs)   bands (ev):

   -45.1645 -21.8429 -21.8228 -21.7803  -6.5694  -5.8693  -5.7112  -4.4633
    -4.4121  -4.3713  -4.2051  -4.1208   3.5119   6.4313   6.9763   7.2742
     7.6573   8.2446   8.5509   9.2241   9.4133  10.3002

          k = 0.1667 0.3334 0.2379 (  2427 PWs)   bands (ev):

   -45.1642 -21.8655 -21.8217 -21.7792  -6.4407  -5.8599  -5.6288  -4.4386
    -4.4128  -4.3478  -4.1843  -4.0791   3.3665   6.2531   6.3836   6.9404
     7.3921   8.0840   8.9039   9.1817   9.5204  10.0101

          k = 0.1665 0.3334-0.4757 (  2426 PWs)   bands (ev):

   -45.1638 -21.8881 -21.8205 -21.7782  -6.3509  -5.8365  -5.5062  -4.4363
    -4.3869  -4.3065  -4.1969  -4.0241   3.1777   5.8990   6.3150   6.6397
     6.8820   7.9418   9.0106   9.2280   9.5137   9.9569

          k = 0.1666 0.3334-0.2378 (  2428 PWs)   bands (ev):

   -45.1642 -21.8655 -21.8217 -21.7792  -6.4410  -5.8602  -5.6286  -4.4387
    -4.4128  -4.3478  -4.1841  -4.0789   3.3677   6.2524   6.3825   6.9396
     7.3922   8.0822   8.9046   9.1845   9.5197  10.0088

          k = 0.1667-0.5001 0.0000 (  2424 PWs)   bands (ev):

   -45.1641 -21.8432 -21.8415 -21.7793  -6.4016  -5.8150  -5.7372  -4.4663
    -4.4041  -4.3495  -4.1860  -4.1548   3.3122   6.0679   7.0926   7.3214
     7.6199   7.9669   8.4133   9.2575   9.4108  10.6329

          k = 0.1667-0.5001 0.2379 (  2428 PWs)   bands (ev):

   -45.1638 -21.8642 -21.8419 -21.7783  -6.3315  -5.7799  -5.6516  -4.4368
    -4.3992  -4.3260  -4.1612  -4.0729   3.2483   6.0258   6.2780   6.6876
     7.3527   8.2271   8.6709   9.1918   9.5293   9.9729

          k = 0.1665-0.5001-0.4757 (  2416 PWs)   bands (ev):

   -45.1635 -21.8868 -21.8405 -21.7773  -6.3162  -5.7466  -5.4895  -4.4309
    -4.3549  -4.3035  -4.1797  -3.9629   3.1380   5.7929   6.1464   6.2980
     6.7351   8.0550   8.8788   9.1412   9.1705  10.1746

          k = 0.1666-0.5001-0.2378 (  2426 PWs)   bands (ev):

   -45.1638 -21.8642 -21.8419 -21.7783  -6.3317  -5.7804  -5.6513  -4.4369
    -4.3991  -4.3260  -4.1606  -4.0729   3.2496   6.0255   6.2770   6.6861
     7.3532   8.2254   8.6702   9.1955   9.5282   9.9718

          k = 0.3333 0.0000 0.0001 (  2422 PWs)   bands (ev):

   -45.1649 -21.8437 -21.8234 -21.7604  -6.7042  -5.9031  -5.6769  -4.4702
    -4.4129  -4.4035  -4.2486  -4.1316   3.7280   6.4348   7.0987   7.1324
     8.3327   8.3616   8.8061   8.8582   9.2941  10.2199

          k = 0.3334 0.0000 0.2380 (  2419 PWs)   bands (ev):

   -45.1646 -21.8665 -21.8223 -21.7594  -6.5792  -5.8606  -5.5803  -4.4370
    -4.4232  -4.4131  -4.2415  -4.1057   3.3625   6.3047   7.0056   7.2317
     7.7651   8.1885   8.3441   8.9117   9.4278  10.2991

          k = 0.3332 0.0000-0.4757 (  2428 PWs)   bands (ev):

   -45.1642 -21.8891 -21.8210 -21.7584  -6.4869  -5.7933  -5.4524  -4.4426
    -4.4135  -4.3958  -4.2776  -4.0521   3.0429   5.9806   6.7666   7.2749
     7.6507   7.8171   8.1308   8.9429   9.8646  10.1292

          k = 0.3333 0.0000-0.2378 (  2419 PWs)   bands (ev):

   -45.1646 -21.8665 -21.8223 -21.7594  -6.5796  -5.8608  -5.5799  -4.4370
    -4.4233  -4.4131  -4.2415  -4.1052   3.3632   6.3047   7.0039   7.2313
     7.7650   8.1892   8.3438   8.9118   9.4295  10.2977

          k = 0.3333 0.1667 0.0001 (  2426 PWs)   bands (ev):

   -45.1645 -21.8429 -21.8223 -21.7806  -6.5697  -5.8696  -5.7114  -4.4633
    -4.4121  -4.3713  -4.2052  -4.1209   3.5119   6.4324   6.9767   7.2747
     7.6570   8.2446   8.5509   9.2251   9.4135  10.2997

          k = 0.3334 0.1667 0.2380 (  2427 PWs)   bands (ev):

   -45.1642 -21.8655 -21.8212 -21.7796  -6.4410  -5.8602  -5.6290  -4.4387
    -4.4128  -4.3478  -4.1841  -4.0797   3.3664   6.2533   6.3841   6.9406
     7.3926   8.0838   8.9054   9.1836   9.5192  10.0098

          k = 0.3332 0.1667-0.4757 (  2426 PWs)   bands (ev):

   -45.1638 -21.8881 -21.8200 -21.7785  -6.3512  -5.8368  -5.5063  -4.4363
    -4.3870  -4.3065  -4.1966  -4.0248   3.1771   5.8988   6.3155   6.6400
     6.8831   7.9424   9.0120   9.2294   9.5138   9.9562

          k = 0.3333 0.1667-0.2378 (  2429 PWs)   bands (ev):

   -45.1642 -21.8655 -21.8213 -21.7796  -6.4414  -5.8604  -5.6286  -4.4387
    -4.4128  -4.3478  -4.1841  -4.0792   3.3673   6.2532   6.3832   6.9398
     7.3919   8.0838   8.9059   9.1838   9.5201  10.0083

          k = 0.3333 0.3334 0.0001 (  2437 PWs)   bands (ev):

   -45.1637 -21.8411 -21.8206 -21.8201  -6.3041  -5.8023  -5.7622  -4.4431
    -4.3924  -4.2990  -4.1235  -4.1232   3.1056   6.4165   6.5113   7.3819
     7.5348   7.6810   8.3479   9.0717   9.8892  10.0310

          k = 0.3334 0.3334 0.2380 (  2425 PWs)   bands (ev):

   -45.1634 -21.8635 -21.8196 -21.8192  -6.1657  -5.8506  -5.7178  -4.4009
    -4.3854  -4.2384  -4.0755  -4.0428   3.2946   5.9615   6.0330   6.4127
     7.0560   7.5590   8.9720   9.4817   9.5254   9.9053

          k = 0.3332 0.3334-0.4757 (  2425 PWs)   bands (ev):

   -45.1631 -21.8859 -21.8186 -21.8181  -6.0956  -5.8957  -5.5928  -4.3783
    -4.3589  -4.1726  -4.0255  -3.9641   3.4609   5.5568   5.5773   6.1584
     6.8107   6.9720   8.2188   9.8596   9.8752  10.0387

          k = 0.3333 0.3334-0.2378 (  2424 PWs)   bands (ev):

   -45.1634 -21.8635 -21.8196 -21.8192  -6.1662  -5.8508  -5.7174  -4.4009
    -4.3854  -4.2383  -4.0754  -4.0424   3.2957   5.9610   6.0321   6.4129
     7.0557   7.5581   8.9694   9.4831   9.5265   9.9050

          k = 0.3333-0.5001 0.0001 (  2454 PWs)   bands (ev):

   -45.1633 -21.8409 -21.8398 -21.8191  -6.1840  -5.7780  -5.7585  -4.4346
    -4.3684  -4.2336  -4.1580  -4.0880   2.9187   6.0613   6.5579   7.1933
     7.7244   7.8441   7.9679   9.0398   9.7122  10.0954

          k = 0.3334-0.5001 0.2380 (  2430 PWs)   bands (ev):

   -45.1630 -21.8623 -21.8397 -21.8182  -6.0474  -5.8049  -5.7768  -4.3916
    -4.3566  -4.1435  -4.0746  -4.0119   3.2205   5.8534   6.0060   6.0745
     6.8380   7.6300   8.4978   9.4809   9.5082  10.0645

          k = 0.3332-0.5001-0.4757 (  2420 PWs)   bands (ev):

   -45.1627 -21.8847 -21.8385 -21.8171  -6.0372  -5.8486  -5.6312  -4.3610
    -4.3340  -4.0806  -3.9895  -3.9069   3.6016   5.2881   5.4847   5.9142
     6.5702   6.9865   7.4320   9.9604  10.0363  10.1988

          k = 0.3333-0.5001-0.2378 (  2428 PWs)   bands (ev):

   -45.1630 -21.8623 -21.8397 -21.8182  -6.0480  -5.8053  -5.7761  -4.3916
    -4.3566  -4.1435  -4.0740  -4.0119   3.2217   5.8534   6.0051   6.0743
     6.8381   7.6291   8.4938   9.4817   9.5107  10.0641

          k =-0.5000 0.0000-0.0001 (  2436 PWs)   bands (ev):

   -45.1645 -21.8439 -21.8424 -21.7595  -6.5305  -5.8466  -5.6819  -4.4863
    -4.4275  -4.4019  -4.2221  -4.1643   3.5085   6.0509   7.3652   7.3752
     7.8366   7.9796   8.7275   8.8961   9.3249  11.0232

          k =-0.4999 0.0000 0.2378 (  2427 PWs)   bands (ev):

   -45.1642 -21.8652 -21.8424 -21.7585  -6.4716  -5.7706  -5.5739  -4.4494
    -4.4284  -4.4221  -4.2074  -4.1012   3.2112   6.0226   7.0348   7.2765
     7.5828   7.7802   8.4538   8.8897   9.4300  10.5015

          k =-0.5001 0.0000-0.4759 (  2432 PWs)   bands (ev):

   -45.1638 -21.8877 -21.8410 -21.7575  -6.4533  -5.6892  -5.3985  -4.4422
    -4.4293  -4.4046  -4.2629  -3.9901   2.9421   5.8408   6.4553   7.3361
     7.6002   7.8079   7.8300   8.8854   9.8007  10.1641

          k =-0.5000 0.1667-0.0001 (  2420 PWs)   bands (ev):

   -45.1641 -21.8427 -21.8415 -21.7796  -6.4021  -5.8158  -5.7372  -4.4663
    -4.4041  -4.3495  -4.1864  -4.1547   3.3123   6.0697   7.0933   7.3208
     7.6209   7.9666   8.4134   9.2585   9.4112  10.6319

          k =-0.4999 0.1667 0.2378 (  2428 PWs)   bands (ev):

   -45.1638 -21.8642 -21.8414 -21.7786  -6.3320  -5.7809  -5.6514  -4.4369
    -4.3992  -4.3260  -4.1607  -4.0736   3.2486   6.0270   6.2783   6.6866
     7.3530   8.2267   8.6729   9.1943   9.5287   9.9722

          k =-0.5001 0.1667-0.4759 (  2416 PWs)   bands (ev):

   -45.1635 -21.8868 -21.8400 -21.7776  -6.3164  -5.7473  -5.4896  -4.4309
    -4.3550  -4.3034  -4.1794  -3.9637   3.1372   5.7930   6.1473   6.2991
     6.7354   8.0553   8.8816   9.1423   9.1714  10.1737

          k =-0.5000 0.3334-0.0001 (  2454 PWs)   bands (ev):

   -45.1633 -21.8404 -21.8398 -21.8195  -6.1841  -5.7776  -5.7592  -4.4346
    -4.3684  -4.2339  -4.1577  -4.0881   2.9188   6.0629   6.5566   7.1933
     7.7247   7.8453   7.9669   9.0399   9.7133  10.0946

          k =-0.4999 0.3334 0.2378 (  2429 PWs)   bands (ev):

   -45.1630 -21.8623 -21.8392 -21.8186  -6.0475  -5.8058  -5.7762  -4.3915
    -4.3566  -4.1437  -4.0739  -4.0123   3.2210   5.8537   6.0061   6.0744
     6.8378   7.6295   8.4967   9.4811   9.5098  10.0648

          k =-0.5001 0.3334-0.4759 (  2420 PWs)   bands (ev):

   -45.1627 -21.8847 -21.8380 -21.8176  -6.0368  -5.8493  -5.6312  -4.3609
    -4.3342  -4.0807  -3.9889  -3.9076   3.6012   5.2883   5.4841   5.9150
     6.5712   6.9855   7.4330   9.9615  10.0370  10.1979

          k =-0.5000-0.5001-0.0001 (  2480 PWs)   bands (ev):

   -45.1630 -21.8397 -21.8392 -21.8384  -6.1280  -5.7338  -5.7332  -4.4237
    -4.3203  -4.1797  -4.1793  -4.0371   2.7255   5.9108   6.3888   7.4063
     7.4064   7.9620   7.9634   8.8071   9.2356  10.3557

          k =-0.4999-0.5001 0.2378 (  2426 PWs)   bands (ev):

   -45.1626 -21.8611 -21.8386 -21.8381  -5.9126  -5.8200  -5.8192  -4.3792
    -4.3181  -4.0330  -4.0324  -4.0026   3.1426   5.8675   5.9771   5.9776
     6.3955   7.5707   7.8403   9.5108   9.5109  10.3381

          k =-0.5001-0.5001-0.4759 (  2400 PWs)   bands (ev):

   -45.1623 -21.8835 -21.8375 -21.8370  -5.8951  -5.8943  -5.6906  -4.3347
    -4.3159  -3.9564  -3.8947  -3.8939   3.8183   5.3164   5.3168   5.7491
     6.4022   6.4216   6.6746  10.2096  10.2105  10.3207

     highest occupied level (ev):    11.0242

!    total energy              =    -380.57404340 Ry
     estimated scf accuracy    <          8.4E-09 Ry

     The total energy is the sum of the following terms:
     one-electron contribution =     -79.67735717 Ry
     hartree contribution      =      69.92382157 Ry
     xc contribution           =    -102.67807465 Ry
     ewald contribution        =    -268.14243314 Ry

     convergence has been achieved in  14 iterations

     negative rho (up, down):  1.531E-02 0.000E+00

     Forces acting on atoms (cartesian axes, Ry/au):

     atom    1 type  1   force =     0.00006425    0.00000000    0.00010825
     atom    2 type  2   force =     0.00000346    0.00000000   -0.00012855
     atom    3 type  3   force =    -0.00000127    0.00000000    0.00009242
     atom    4 type  3   force =    -0.00005065    0.00000000   -0.00000857
     atom    5 type  3   force =    -0.00001579    0.00000000   -0.00006355

     Total force =     0.000219     Total SCF correction =     0.000222
     SCF correction compared to forces is large: reduce conv_thr to get better values


     Computing stress (Cartesian axis) and pressure


     negative rho (up, down):  1.531E-02 0.000E+00
          total   stress  (Ry/bohr**3)                   (kbar)     P=        0.50
   0.00000404   0.00000000   0.00000325            0.59        0.00        0.48
   0.00000000   0.00000760   0.00000000            0.00        1.12        0.00
   0.00000325   0.00000000  -0.00000139            0.48        0.00       -0.20


     BFGS Geometry Optimization
     Energy error            =      0.0E+00 Ry
     Gradient error          =      1.3E-04 Ry/Bohr

     bfgs converged in   1 scf cycles and   0 bfgs steps
     (criteria: energy <  1.0E-04 Ry, force <  1.0E-03 Ry/Bohr)

     End of BFGS Geometry Optimization

     Final energy             =    -380.5740433962 Ry
Begin final coordinates

ATOMIC_POSITIONS (crystal)
Pb               0.0000000000        0.0000000000        1.0051738283
Ti               0.5000000000        0.5000000000        0.5395344294
O                0.5000000000        0.5000000000        0.0995079024
O                0.5000000000        0.0000000000        0.6115340639
O                0.0000000000        0.5000000000        0.6115340639
End final coordinates



     Writing all to output data dir ./pto_T5_etam0p002.save/ :
     XML data file, charge density, pseudopotentials, collected wavefunctions
 
     init_run     :      0.49s CPU      0.58s WALL (       1 calls)
     electrons    :     21.32s CPU     22.55s WALL (       1 calls)
     forces       :      0.14s CPU      0.15s WALL (       1 calls)
     stress       :      1.56s CPU      1.57s WALL (       1 calls)

     Called by init_run:
     wfcinit      :      0.28s CPU      0.32s WALL (       1 calls)
     potinit      :      0.01s CPU      0.01s WALL (       1 calls)
     hinit0       :      0.11s CPU      0.14s WALL (       1 calls)

     Called by electrons:
     c_bands      :     18.84s CPU     19.90s WALL (      14 calls)
     sum_band     :      1.86s CPU      1.94s WALL (      14 calls)
     v_of_rho     :      0.02s CPU      0.02s WALL (      15 calls)
     newd         :      0.60s CPU      0.68s WALL (      15 calls)
     mix_rho      :      0.02s CPU      0.02s WALL (      14 calls)

     Called by c_bands:
     init_us_2    :      0.17s CPU      0.18s WALL (    1736 calls)
     init_us_2:cp :      0.17s CPU      0.17s WALL (    1736 calls)
     ccgdiagg     :     16.73s CPU     17.69s WALL (     784 calls)
     wfcrot       :      2.23s CPU      2.35s WALL (     784 calls)

     Called by *cgdiagg:
     h_psi        :     10.75s CPU     11.35s WALL (   63449 calls)
     s_psi        :      1.66s CPU      1.76s WALL (  126114 calls)

     Called by h_psi:
     h_psi:calbec :      1.67s CPU      1.76s WALL (   63449 calls)
     vloc_psi     :      7.68s CPU      8.10s WALL (   63449 calls)
     add_vuspsi   :      0.91s CPU      0.97s WALL (   63449 calls)
     hs_1psi      :     10.15s CPU     10.73s WALL (   62665 calls)
     s_1psi       :      2.47s CPU      2.61s WALL (   62665 calls)

     General routines
     calbec       :      2.98s CPU      3.15s WALL (  127178 calls)
     fft          :      0.03s CPU      0.04s WALL (      96 calls)
     ffts         :      0.00s CPU      0.00s WALL (      29 calls)
     fftw         :      6.56s CPU      6.90s WALL (  178082 calls)
     interpolate  :      0.01s CPU      0.01s WALL (      15 calls)
 
     Parallel routines
 
     PWSCF        :     23.78s CPU     25.63s WALL

 
   This run was terminated on:   0:32:43  18Nov2025            

=------------------------------------------------------------------------------=
   JOB DONE.
=------------------------------------------------------------------------------=
TACC:  Shutdown complete. Exiting. 
