TACC:  Starting up job 2386185 
TACC:  Starting parallel tasks... 

     Program PWSCF v.7.3 starts on 19Sep2025 at  9:34:11 

     This program is part of the open-source Quantum ESPRESSO suite
     for quantum simulation of materials; please cite
         "P. Giannozzi et al., J. Phys.:Condens. Matter 21 395502 (2009);
         "P. Giannozzi et al., J. Phys.:Condens. Matter 29 465901 (2017);
         "P. Giannozzi et al., J. Chem. Phys. 152 154105 (2020);
          URL http://www.quantum-espresso.org", 
     in publications or presentations arising from this work. More details at
     http://www.quantum-espresso.org/quote

     Parallel version (MPI & OpenMP), running on      10 processor cores
     Number of MPI processes:                10
     Threads/MPI process:                     1

     MPI processes distributed on     1 nodes
     185100 MiB available memory on the printing compute node when the environment starts
 
     Waiting for input...
     Reading input from standard input
Warning: card &CELL ignored
Warning: card  CELL_DYNAMICS = 'BFGS', ignored
Warning: card  PRESS=0.D0, ignored
Warning: card / ignored
     Message from routine read_cards :
     DEPRECATED: no units specified in ATOMIC_POSITIONS card
     Message from routine read_cards :
     ATOMIC_POSITIONS: units set to alat

     Current dimensions of program PWSCF are:
     Max number of different atomic species (ntypx) = 10
     Max number of k-points (npk) =  40000
     Max angular momentum in pseudopotentials (lmaxx) =  4
 
     R & G space division:  proc/nbgrp/npool/nimage =      10
     Subspace diagonalization in iterative solution of the eigenvalue problem:
     a serial algorithm will be used

 
     Parallelization info
     --------------------
     sticks:   dense  smooth     PW     G-vecs:    dense   smooth      PW
     Min         215      86     25                 7503     1909     318
     Max         217      87     27                 7505     1911     321
     Sum        2161     869    261                75037    19093    3191
 
     Using Slab Decomposition
 


     bravais-lattice index     =            1
     lattice parameter (alat)  =       7.3573  a.u.
     unit-cell volume          =     398.2496 (a.u.)^3
     number of atoms/cell      =            5
     number of atomic types    =            3
     number of electrons       =        40.00
     number of Kohn-Sham states=           20
     kinetic-energy cutoff     =      50.0000  Ry
     charge density cutoff     =     500.0000  Ry
     scf convergence threshold =      1.0E-08
     mixing beta               =       0.7000
     number of iterations used =            8  plain     mixing
     Exchange-correlation= SLA  PZ   NOGX NOGC
                           (   1   1   0   0   0   0   0)

     celldm(1)=   7.357300  celldm(2)=   0.000000  celldm(3)=   0.000000
     celldm(4)=   0.000000  celldm(5)=   0.000000  celldm(6)=   0.000000

     crystal axes: (cart. coord. in units of alat)
               a(1) = (   1.000000   0.000000   0.000000 )  
               a(2) = (   0.000000   1.000000   0.000000 )  
               a(3) = (   0.000000   0.000000   1.000000 )  

     reciprocal axes: (cart. coord. in units 2 pi/alat)
               b(1) = (  1.000000  0.000000  0.000000 )  
               b(2) = (  0.000000  1.000000  0.000000 )  
               b(3) = (  0.000000  0.000000  1.000000 )  


     PseudoPot. # 1 for Ca read from file:
     /scratch/11018/zhc/assisgnment1/CaTiO3/Ca_LDA.UPF
     MD5 check sum: d2d4e7693e10d071152e9eeb7dd009f3
     Pseudo is Ultrasoft + core correction, Zval = 10.0
     Generated by new atomic code, or converted to UPF format
     Using radial grid of  845 points,  6 beta functions with: 
                l(1) =   0
                l(2) =   0
                l(3) =   1
                l(4) =   1
                l(5) =   2
                l(6) =   2
     Q(r) pseudized with  8 coefficients,  rinner =    1.500   1.500   1.500
                                                       1.500   1.500

     PseudoPot. # 2 for Ti read from file:
     /scratch/11018/zhc/assisgnment1/CaTiO3/Ti_LDA.UPF
     MD5 check sum: 0d9f225c038fe889ca2a701dcc8d72cb
     Pseudo is Ultrasoft + core correction, Zval = 12.0
     Generated by new atomic code, or converted to UPF format
     Using radial grid of  851 points,  6 beta functions with: 
                l(1) =   0
                l(2) =   0
                l(3) =   1
                l(4) =   1
                l(5) =   2
                l(6) =   2
     Q(r) pseudized with  6 coefficients,  rinner =    1.000   1.000   1.000
                                                       1.000   1.000

     PseudoPot. # 3 for O  read from file:
     /scratch/11018/zhc/assisgnment1/CaTiO3/O_LDA.UPF
     MD5 check sum: 194b818514d2a7dbb603bb78519a4f40
     Pseudo is Ultrasoft + core correction, Zval =  6.0
     Generated by new atomic code, or converted to UPF format
     Using radial grid of  737 points,  5 beta functions with: 
                l(1) =   0
                l(2) =   0
                l(3) =   1
                l(4) =   1
                l(5) =   2
     Q(r) pseudized with  8 coefficients,  rinner =    0.900   0.900   0.900
                                                       0.900   0.900

     atomic species   valence    mass     pseudopotential
     Ca               10.00    40.07800     Ca( 1.00)
     Ti               12.00    47.88000     Ti( 1.00)
     O                 6.00    16.00000     O ( 1.00)

     48 Sym. Ops., with inversion, found



   Cartesian axes

     site n.     atom                  positions (alat units)
         1        Ca     tau(   1) = (   0.0000000   0.0000000   0.0000000  )
         2        Ti     tau(   2) = (   0.5000000   0.5000000   0.5000000  )
         3        O      tau(   3) = (   0.5000000   0.5000000   0.0000000  )
         4        O      tau(   4) = (   0.5000000   0.0000000   0.5000000  )
         5        O      tau(   5) = (   0.0000000   0.5000000   0.5000000  )

     number of k points=     4
                       cart. coord. in units 2pi/alat
        k(    1) = (   0.0000000   0.0000000   0.0000000), wk =   0.2500000
        k(    2) = (   0.0000000   0.0000000  -0.5000000), wk =   0.7500000
        k(    3) = (   0.0000000  -0.5000000  -0.5000000), wk =   0.7500000
        k(    4) = (  -0.5000000  -0.5000000  -0.5000000), wk =   0.2500000

     Dense  grid:    75037 G-vectors     FFT dimensions: (  54,  54,  54)

     Smooth grid:    19093 G-vectors     FFT dimensions: (  36,  36,  36)

     Estimated max dynamical RAM per process >      33.77 MB

     Estimated total dynamical RAM >     337.71 MB

     Check: negative core charge=   -0.000005

     Initial potential from superposition of free atoms

     starting charge      38.9952, renormalised to      40.0000

     negative rho (up, down):  5.762E-04 0.000E+00
     Starting wfcs are   32 randomized atomic wfcs

     total cpu time spent up to now is        0.5 secs

     Self-consistent Calculation

     iteration #  1     ecut=    50.00 Ry     beta= 0.70
     CG style diagonalization
     ethr =  1.00E-02,  avg # of iterations =  2.2

     negative rho (up, down):  1.305E-03 0.000E+00

     total cpu time spent up to now is        0.7 secs

     total energy              =    -291.23011309 Ry
     estimated scf accuracy    <       0.87725517 Ry

     iteration #  2     ecut=    50.00 Ry     beta= 0.70
     CG style diagonalization
     ethr =  2.19E-03,  avg # of iterations =  4.6

     negative rho (up, down):  4.157E-04 0.000E+00

     total cpu time spent up to now is        0.9 secs

     total energy              =    -290.89432617 Ry
     estimated scf accuracy    <       4.14302544 Ry

     iteration #  3     ecut=    50.00 Ry     beta= 0.70
     CG style diagonalization
     ethr =  2.19E-03,  avg # of iterations =  3.9

     negative rho (up, down):  5.271E-04 0.000E+00

     total cpu time spent up to now is        1.1 secs

     total energy              =    -291.67737614 Ry
     estimated scf accuracy    <       0.11839452 Ry

     iteration #  4     ecut=    50.00 Ry     beta= 0.70
     CG style diagonalization
     ethr =  2.96E-04,  avg # of iterations =  3.6

     negative rho (up, down):  6.963E-04 0.000E+00

     total cpu time spent up to now is        1.3 secs

     total energy              =    -291.68885918 Ry
     estimated scf accuracy    <       0.02252953 Ry

     iteration #  5     ecut=    50.00 Ry     beta= 0.70
     CG style diagonalization
     ethr =  5.63E-05,  avg # of iterations =  3.5

     negative rho (up, down):  6.776E-04 0.000E+00

     total cpu time spent up to now is        1.4 secs

     total energy              =    -291.69484758 Ry
     estimated scf accuracy    <       0.00137469 Ry

     iteration #  6     ecut=    50.00 Ry     beta= 0.70
     CG style diagonalization
     ethr =  3.44E-06,  avg # of iterations =  3.7

     negative rho (up, down):  6.867E-04 0.000E+00

     total cpu time spent up to now is        1.6 secs

     total energy              =    -291.69521516 Ry
     estimated scf accuracy    <       0.00000985 Ry

     iteration #  7     ecut=    50.00 Ry     beta= 0.70
     CG style diagonalization
     ethr =  2.46E-08,  avg # of iterations =  4.5

     negative rho (up, down):  6.872E-04 0.000E+00

     total cpu time spent up to now is        1.8 secs

     total energy              =    -291.69522380 Ry
     estimated scf accuracy    <       0.00000041 Ry

     iteration #  8     ecut=    50.00 Ry     beta= 0.70
     CG style diagonalization
     ethr =  1.02E-09,  avg # of iterations =  4.7

     negative rho (up, down):  6.876E-04 0.000E+00

     total cpu time spent up to now is        2.0 secs

     total energy              =    -291.69522416 Ry
     estimated scf accuracy    <       0.00000005 Ry

     iteration #  9     ecut=    50.00 Ry     beta= 0.70
     CG style diagonalization
     ethr =  1.16E-10,  avg # of iterations =  4.1

     negative rho (up, down):  6.876E-04 0.000E+00

     total cpu time spent up to now is        2.2 secs

     End of self-consistent calculation

          k = 0.0000 0.0000 0.0000 (  2373 PWs)   bands (ev):

   -47.5573 -30.1997 -24.1241 -24.1241 -24.1241 -11.3938 -11.3938 -11.3938
    -8.4765  -7.3538  -7.3538   5.6361   5.6361   5.6361   7.6009   7.6009
     7.6009   8.3083   8.3083   8.3083

          k = 0.0000 0.0000-0.5000 (  2392 PWs)   bands (ev):

   -47.5562 -30.1939 -24.1906 -24.1208 -24.1208 -11.6208 -11.3828 -11.3828
    -7.8343  -7.3126  -7.0381   4.2356   5.8965   5.8965   5.9906   6.1062
     6.1062   6.7928   8.0182   8.0182

          k = 0.0000-0.5000-0.5000 (  2408 PWs)   bands (ev):

   -47.5551 -30.1874 -24.1889 -24.1889 -24.1177 -11.5216 -11.5216 -11.3692
    -7.7038  -6.8699  -6.8699   3.8131   4.0891   4.3619   5.8213   5.8213
     6.8137   6.8137   6.9913   8.6867

          k =-0.5000-0.5000-0.5000 (  2320 PWs)   bands (ev):

   -47.5540 -30.1816 -24.1849 -24.1849 -24.1849 -11.4715 -11.4715 -11.4715
    -6.9588  -6.9588  -6.9588   4.0121   4.3227   4.3227   4.3227   4.3795
     4.3795   8.7852   8.7852   8.7852

     highest occupied level (ev):     8.7852

!    total energy              =    -291.69522418 Ry
     estimated scf accuracy    <          1.1E-09 Ry

     The total energy is the sum of the following terms:
     one-electron contribution =     -93.05559067 Ry
     hartree contribution      =      65.71775976 Ry
     xc contribution           =     -51.21282890 Ry
     ewald contribution        =    -213.14456438 Ry

     convergence has been achieved in   9 iterations

     negative rho (up, down):  6.876E-04 0.000E+00

     Forces acting on atoms (cartesian axes, Ry/au):

     atom    1 type  1   force =     0.00000000    0.00000000    0.00000000
     atom    2 type  2   force =     0.00000000    0.00000000    0.00000000
     atom    3 type  3   force =     0.00000000    0.00000000    0.00000000
     atom    4 type  3   force =     0.00000000    0.00000000    0.00000000
     atom    5 type  3   force =     0.00000000    0.00000000    0.00000000

     Total force =     0.000000     Total SCF correction =     0.000000


     Computing stress (Cartesian axis) and pressure


     negative rho (up, down):  6.876E-04 0.000E+00
          total   stress  (Ry/bohr**3)                   (kbar)     P=      -99.81
  -0.00067848   0.00000000   0.00000000          -99.81        0.00        0.00
   0.00000000  -0.00067848   0.00000000            0.00      -99.81        0.00
   0.00000000   0.00000000  -0.00067848            0.00        0.00      -99.81


     Writing all to output data dir ./CTO.save/ :
     XML data file, charge density, pseudopotentials, collected wavefunctions
 
     init_run     :      0.22s CPU      0.30s WALL (       1 calls)
     electrons    :      1.48s CPU      1.69s WALL (       1 calls)
     forces       :      0.06s CPU      0.06s WALL (       1 calls)
     stress       :      0.31s CPU      0.32s WALL (       1 calls)

     Called by init_run:
     wfcinit      :      0.02s CPU      0.04s WALL (       1 calls)
     potinit      :      0.01s CPU      0.01s WALL (       1 calls)
     hinit0       :      0.10s CPU      0.13s WALL (       1 calls)

     Called by electrons:
     c_bands      :      0.67s CPU      0.71s WALL (       9 calls)
     sum_band     :      0.47s CPU      0.50s WALL (       9 calls)
     v_of_rho     :      0.02s CPU      0.02s WALL (      10 calls)
     newd         :      0.33s CPU      0.46s WALL (      10 calls)
     mix_rho      :      0.01s CPU      0.01s WALL (       9 calls)

     Called by c_bands:
     init_us_2    :      0.01s CPU      0.01s WALL (      84 calls)
     init_us_2:cp :      0.01s CPU      0.01s WALL (      84 calls)
     ccgdiagg     :      0.58s CPU      0.61s WALL (      36 calls)
     wfcrot       :      0.11s CPU      0.13s WALL (      36 calls)

     Called by *cgdiagg:
     h_psi        :      0.40s CPU      0.42s WALL (    2181 calls)
     s_psi        :      0.05s CPU      0.05s WALL (    4326 calls)

     Called by h_psi:
     h_psi:calbec :      0.07s CPU      0.07s WALL (    2181 calls)
     vloc_psi     :      0.29s CPU      0.30s WALL (    2181 calls)
     add_vuspsi   :      0.03s CPU      0.03s WALL (    2181 calls)
     hs_1psi      :      0.35s CPU      0.37s WALL (    2145 calls)
     s_1psi       :      0.08s CPU      0.09s WALL (    2145 calls)

     General routines
     calbec       :      0.12s CPU      0.13s WALL (    4382 calls)
     fft          :      0.02s CPU      0.04s WALL (      66 calls)
     ffts         :      0.00s CPU      0.00s WALL (      19 calls)
     fftw         :      0.25s CPU      0.26s WALL (    6546 calls)
     interpolate  :      0.00s CPU      0.01s WALL (      10 calls)
 
     Parallel routines
 
     PWSCF        :      2.25s CPU      2.78s WALL

 
   This run was terminated on:   9:34:14  19Sep2025            

=------------------------------------------------------------------------------=
   JOB DONE.
=------------------------------------------------------------------------------=
TACC:  Shutdown complete. Exiting. 
