TACC:  Starting up job 2387918 
TACC:  Starting parallel tasks... 

     Program PWSCF v.7.3 starts on 19Sep2025 at 16:48:41 

     This program is part of the open-source Quantum ESPRESSO suite
     for quantum simulation of materials; please cite
         "P. Giannozzi et al., J. Phys.:Condens. Matter 21 395502 (2009);
         "P. Giannozzi et al., J. Phys.:Condens. Matter 29 465901 (2017);
         "P. Giannozzi et al., J. Chem. Phys. 152 154105 (2020);
          URL http://www.quantum-espresso.org", 
     in publications or presentations arising from this work. More details at
     http://www.quantum-espresso.org/quote

     Parallel version (MPI & OpenMP), running on      10 processor cores
     Number of MPI processes:                10
     Threads/MPI process:                     1

     MPI processes distributed on     1 nodes
     183843 MiB available memory on the printing compute node when the environment starts
 
     Waiting for input...
     Reading input from standard input
Warning: card &CELL ignored
Warning: card  CELL_DYNAMICS = 'BFGS', ignored
Warning: card  PRESS=0.D0, ignored
Warning: card / ignored
     Message from routine read_cards :
     DEPRECATED: no units specified in ATOMIC_POSITIONS card
     Message from routine read_cards :
     ATOMIC_POSITIONS: units set to alat
Warning: card   2 2 2 0 0 0 ignored

     Current dimensions of program PWSCF are:
     Max number of different atomic species (ntypx) = 10
     Max number of k-points (npk) =  40000
     Max angular momentum in pseudopotentials (lmaxx) =  4
 
     R & G space division:  proc/nbgrp/npool/nimage =      10
     Subspace diagonalization in iterative solution of the eigenvalue problem:
     a serial algorithm will be used

 
     Parallelization info
     --------------------
     sticks:   dense  smooth     PW     G-vecs:    dense   smooth      PW
     Min         215      86     25                 7503     1909     318
     Max         217      87     27                 7505     1911     321
     Sum        2161     869    261                75037    19093    3191
 
     Using Slab Decomposition
 


     bravais-lattice index     =            1
     lattice parameter (alat)  =       7.3573  a.u.
     unit-cell volume          =     398.2496 (a.u.)^3
     number of atoms/cell      =            5
     number of atomic types    =            3
     number of electrons       =        40.00
     number of Kohn-Sham states=           20
     kinetic-energy cutoff     =      50.0000  Ry
     charge density cutoff     =     500.0000  Ry
     scf convergence threshold =      1.0E-08
     mixing beta               =       0.7000
     number of iterations used =            8  plain     mixing
     Exchange-correlation= SLA  PZ   NOGX NOGC
                           (   1   1   0   0   0   0   0)

     celldm(1)=   7.357300  celldm(2)=   0.000000  celldm(3)=   0.000000
     celldm(4)=   0.000000  celldm(5)=   0.000000  celldm(6)=   0.000000

     crystal axes: (cart. coord. in units of alat)
               a(1) = (   1.000000   0.000000   0.000000 )  
               a(2) = (   0.000000   1.000000   0.000000 )  
               a(3) = (   0.000000   0.000000   1.000000 )  

     reciprocal axes: (cart. coord. in units 2 pi/alat)
               b(1) = (  1.000000  0.000000  0.000000 )  
               b(2) = (  0.000000  1.000000  0.000000 )  
               b(3) = (  0.000000  0.000000  1.000000 )  


     PseudoPot. # 1 for Ca read from file:
     /scratch/11018/zhc/assisgnment1/CaTiO3/Ca_LDA.UPF
     MD5 check sum: d2d4e7693e10d071152e9eeb7dd009f3
     Pseudo is Ultrasoft + core correction, Zval = 10.0
     Generated by new atomic code, or converted to UPF format
     Using radial grid of  845 points,  6 beta functions with: 
                l(1) =   0
                l(2) =   0
                l(3) =   1
                l(4) =   1
                l(5) =   2
                l(6) =   2
     Q(r) pseudized with  8 coefficients,  rinner =    1.500   1.500   1.500
                                                       1.500   1.500

     PseudoPot. # 2 for Ti read from file:
     /scratch/11018/zhc/assisgnment1/CaTiO3/Ti_LDA.UPF
     MD5 check sum: 0d9f225c038fe889ca2a701dcc8d72cb
     Pseudo is Ultrasoft + core correction, Zval = 12.0
     Generated by new atomic code, or converted to UPF format
     Using radial grid of  851 points,  6 beta functions with: 
                l(1) =   0
                l(2) =   0
                l(3) =   1
                l(4) =   1
                l(5) =   2
                l(6) =   2
     Q(r) pseudized with  6 coefficients,  rinner =    1.000   1.000   1.000
                                                       1.000   1.000

     PseudoPot. # 3 for O  read from file:
     /scratch/11018/zhc/assisgnment1/CaTiO3/O_LDA.UPF
     MD5 check sum: 194b818514d2a7dbb603bb78519a4f40
     Pseudo is Ultrasoft + core correction, Zval =  6.0
     Generated by new atomic code, or converted to UPF format
     Using radial grid of  737 points,  5 beta functions with: 
                l(1) =   0
                l(2) =   0
                l(3) =   1
                l(4) =   1
                l(5) =   2
     Q(r) pseudized with  8 coefficients,  rinner =    0.900   0.900   0.900
                                                       0.900   0.900

     atomic species   valence    mass     pseudopotential
     Ca               10.00    40.07800     Ca( 1.00)
     Ti               12.00    47.88000     Ti( 1.00)
     O                 6.00    16.00000     O ( 1.00)

     48 Sym. Ops., with inversion, found



   Cartesian axes

     site n.     atom                  positions (alat units)
         1        Ca     tau(   1) = (   0.0000000   0.0000000   0.0000000  )
         2        Ti     tau(   2) = (   0.5000000   0.5000000   0.5000000  )
         3        O      tau(   3) = (   0.5000000   0.5000000   0.0000000  )
         4        O      tau(   4) = (   0.5000000   0.0000000   0.5000000  )
         5        O      tau(   5) = (   0.0000000   0.5000000   0.5000000  )

     number of k points=    10
                       cart. coord. in units 2pi/alat
        k(    1) = (   0.0000000   0.0000000   0.0000000), wk =   0.0312500
        k(    2) = (   0.0000000   0.0000000   0.2500000), wk =   0.1875000
        k(    3) = (   0.0000000   0.0000000  -0.5000000), wk =   0.0937500
        k(    4) = (   0.0000000   0.2500000   0.2500000), wk =   0.3750000
        k(    5) = (   0.0000000   0.2500000  -0.5000000), wk =   0.3750000
        k(    6) = (   0.0000000  -0.5000000  -0.5000000), wk =   0.0937500
        k(    7) = (   0.2500000   0.2500000   0.2500000), wk =   0.2500000
        k(    8) = (   0.2500000   0.2500000  -0.5000000), wk =   0.3750000
        k(    9) = (   0.2500000  -0.5000000  -0.5000000), wk =   0.1875000
        k(   10) = (  -0.5000000  -0.5000000  -0.5000000), wk =   0.0312500

     Dense  grid:    75037 G-vectors     FFT dimensions: (  54,  54,  54)

     Smooth grid:    19093 G-vectors     FFT dimensions: (  36,  36,  36)

     Estimated max dynamical RAM per process >      34.21 MB

     Estimated total dynamical RAM >     342.05 MB

     Check: negative core charge=   -0.000005

     Initial potential from superposition of free atoms

     starting charge      38.9952, renormalised to      40.0000

     negative rho (up, down):  5.762E-04 0.000E+00
     Starting wfcs are   32 randomized atomic wfcs

     total cpu time spent up to now is        0.6 secs

     Self-consistent Calculation

     iteration #  1     ecut=    50.00 Ry     beta= 0.70
     CG style diagonalization
     ethr =  1.00E-02,  avg # of iterations =  2.2

     negative rho (up, down):  1.241E-03 0.000E+00

     total cpu time spent up to now is        0.8 secs

     total energy              =    -291.29329032 Ry
     estimated scf accuracy    <       0.83507637 Ry

     iteration #  2     ecut=    50.00 Ry     beta= 0.70
     CG style diagonalization
     ethr =  2.09E-03,  avg # of iterations =  5.0

     negative rho (up, down):  3.932E-04 0.000E+00

     total cpu time spent up to now is        1.2 secs

     total energy              =    -290.65653165 Ry
     estimated scf accuracy    <       6.20894565 Ry

     iteration #  3     ecut=    50.00 Ry     beta= 0.70
     CG style diagonalization
     ethr =  2.09E-03,  avg # of iterations =  4.4

     negative rho (up, down):  4.266E-04 0.000E+00

     total cpu time spent up to now is        1.5 secs

     total energy              =    -291.72894994 Ry
     estimated scf accuracy    <       0.17447251 Ry

     iteration #  4     ecut=    50.00 Ry     beta= 0.70
     CG style diagonalization
     ethr =  4.36E-04,  avg # of iterations =  3.5

     negative rho (up, down):  5.599E-04 0.000E+00

     total cpu time spent up to now is        1.8 secs

     total energy              =    -291.73893671 Ry
     estimated scf accuracy    <       0.04384688 Ry

     iteration #  5     ecut=    50.00 Ry     beta= 0.70
     CG style diagonalization
     ethr =  1.10E-04,  avg # of iterations =  3.5

     negative rho (up, down):  6.351E-04 0.000E+00

     total cpu time spent up to now is        2.1 secs

     total energy              =    -291.74785584 Ry
     estimated scf accuracy    <       0.00024274 Ry

     iteration #  6     ecut=    50.00 Ry     beta= 0.70
     CG style diagonalization
     ethr =  6.07E-07,  avg # of iterations =  4.8

     negative rho (up, down):  6.168E-04 0.000E+00

     total cpu time spent up to now is        2.4 secs

     total energy              =    -291.74860895 Ry
     estimated scf accuracy    <       0.00054662 Ry

     iteration #  7     ecut=    50.00 Ry     beta= 0.70
     CG style diagonalization
     ethr =  6.07E-07,  avg # of iterations =  3.8

     negative rho (up, down):  6.088E-04 0.000E+00

     total cpu time spent up to now is        2.7 secs

     total energy              =    -291.74865848 Ry
     estimated scf accuracy    <       0.00003232 Ry

     iteration #  8     ecut=    50.00 Ry     beta= 0.70
     CG style diagonalization
     ethr =  8.08E-08,  avg # of iterations =  3.7

     negative rho (up, down):  6.055E-04 0.000E+00

     total cpu time spent up to now is        3.0 secs

     total energy              =    -291.74866457 Ry
     estimated scf accuracy    <       0.00000161 Ry

     iteration #  9     ecut=    50.00 Ry     beta= 0.70
     CG style diagonalization
     ethr =  4.03E-09,  avg # of iterations =  4.4

     negative rho (up, down):  6.059E-04 0.000E+00

     total cpu time spent up to now is        3.4 secs

     total energy              =    -291.74866614 Ry
     estimated scf accuracy    <       0.00000075 Ry

     iteration # 10     ecut=    50.00 Ry     beta= 0.70
     CG style diagonalization
     ethr =  1.87E-09,  avg # of iterations =  3.4

     negative rho (up, down):  6.063E-04 0.000E+00

     total cpu time spent up to now is        3.6 secs

     total energy              =    -291.74866623 Ry
     estimated scf accuracy    <       0.00000005 Ry

     iteration # 11     ecut=    50.00 Ry     beta= 0.70
     CG style diagonalization
     ethr =  1.36E-10,  avg # of iterations =  4.2

     negative rho (up, down):  6.062E-04 0.000E+00

     total cpu time spent up to now is        3.9 secs

     total energy              =    -291.74866628 Ry
     estimated scf accuracy    <       0.00000005 Ry

     iteration # 12     ecut=    50.00 Ry     beta= 0.70
     CG style diagonalization
     ethr =  1.26E-10,  avg # of iterations =  3.1

     negative rho (up, down):  6.061E-04 0.000E+00

     total cpu time spent up to now is        4.2 secs

     total energy              =    -291.74866627 Ry
     estimated scf accuracy    <       0.00000003 Ry

     iteration # 13     ecut=    50.00 Ry     beta= 0.70
     CG style diagonalization
     ethr =  8.12E-11,  avg # of iterations =  3.4

     negative rho (up, down):  6.061E-04 0.000E+00

     total cpu time spent up to now is        4.5 secs

     End of self-consistent calculation

          k = 0.0000 0.0000 0.0000 (  2373 PWs)   bands (ev):

   -47.1752 -30.2083 -23.7655 -23.7655 -23.7655 -11.4035 -11.4035 -11.4035
    -8.5562  -7.4421  -7.4421   5.5782   5.5782   5.5782   7.5081   7.5081
     7.5081   8.2095   8.2095   8.2095

          k = 0.0000 0.0000 0.2500 (  2373 PWs)   bands (ev):

   -47.1746 -30.2054 -23.8014 -23.7638 -23.7638 -11.5239 -11.3980 -11.3980
    -8.2367  -7.4217  -7.2878   4.9508   5.6228   5.6228   6.7957   6.8079
     6.8079   7.0770   8.0137   8.0137

          k = 0.0000 0.0000-0.5000 (  2392 PWs)   bands (ev):

   -47.1740 -30.2025 -23.8369 -23.7621 -23.7621 -11.6340 -11.3924 -11.3924
    -7.9140  -7.4012  -7.1195   4.2409   5.8358   5.8358   5.9176   6.0868
     6.0868   6.7134   7.9246   7.9246

          k = 0.0000 0.2500 0.2500 (  2352 PWs)   bands (ev):

   -47.1740 -30.2023 -23.8004 -23.7998 -23.7621 -11.5157 -11.4705 -11.3918
    -7.9950  -7.3291  -7.2021   4.6650   5.1670   5.5252   5.6458   6.4695
     6.8770   7.0919   7.5365   7.8910

          k = 0.0000 0.2500-0.5000 (  2366 PWs)   bands (ev):

   -47.1734 -30.1992 -23.8360 -23.7988 -23.7605 -11.5830 -11.4634 -11.3857
    -7.8017  -7.2431  -7.0353   4.2265   4.4474   5.1640   5.8233   5.9397
     6.5210   7.0411   7.3198   7.9987

          k = 0.0000-0.5000-0.5000 (  2408 PWs)   bands (ev):

   -47.1729 -30.1960 -23.8351 -23.8351 -23.7589 -11.5321 -11.5321 -11.3789
    -7.7895  -6.9521  -6.9521   3.7886   4.0728   4.3870   5.8000   5.8000
     6.7324   6.7324   6.9218   8.5856

          k = 0.2500 0.2500 0.2500 (  2383 PWs)   bands (ev):

   -47.1734 -30.1992 -23.7986 -23.7985 -23.7985 -11.5019 -11.4538 -11.4538
    -7.7317  -7.2156  -7.2156   4.4968   5.0990   5.0990   5.5494   5.5494
     5.7738   7.6807   7.6807   8.0608

          k = 0.2500 0.2500-0.5000 (  2386 PWs)   bands (ev):

   -47.1729 -30.1961 -23.8345 -23.7973 -23.7966 -11.5450 -11.4571 -11.4369
    -7.5255  -7.2294  -7.0153   4.2251   4.4565   4.8183   4.9492   5.3431
     5.7659   7.7302   7.7789   8.1548

          k = 0.2500-0.5000-0.5000 (  2356 PWs)   bands (ev):

   -47.1723 -30.1931 -23.8330 -23.8330 -23.7951 -11.5070 -11.5070 -11.4305
    -7.4340  -6.9967  -6.9967   4.0390   4.0901   4.3959   4.8005   4.8005
     5.4575   7.9619   7.9619   8.6331

          k =-0.5000-0.5000-0.5000 (  2320 PWs)   bands (ev):

   -47.1717 -30.1902 -23.8308 -23.8308 -23.8308 -11.4814 -11.4814 -11.4814
    -7.0419  -7.0419  -7.0419   3.9711   4.3003   4.3003   4.3003   4.4047
     4.4047   8.6818   8.6818   8.6818

     highest occupied level (ev):     8.6818

!    total energy              =    -291.74866628 Ry
     estimated scf accuracy    <          4.7E-10 Ry

     The total energy is the sum of the following terms:
     one-electron contribution =     -93.21453025 Ry
     hartree contribution      =      65.82025566 Ry
     xc contribution           =     -51.20982731 Ry
     ewald contribution        =    -213.14456438 Ry

     convergence has been achieved in  13 iterations

     negative rho (up, down):  6.061E-04 0.000E+00

     Forces acting on atoms (cartesian axes, Ry/au):

     atom    1 type  1   force =     0.00000000    0.00000000    0.00000000
     atom    2 type  2   force =     0.00000000    0.00000000    0.00000000
     atom    3 type  3   force =     0.00000000    0.00000000    0.00000000
     atom    4 type  3   force =     0.00000000    0.00000000    0.00000000
     atom    5 type  3   force =     0.00000000    0.00000000    0.00000000

     Total force =     0.000000     Total SCF correction =     0.000000


     Computing stress (Cartesian axis) and pressure


     negative rho (up, down):  6.061E-04 0.000E+00
          total   stress  (Ry/bohr**3)                   (kbar)     P=     -120.48
  -0.00081899   0.00000000   0.00000000         -120.48        0.00        0.00
   0.00000000  -0.00081899   0.00000000            0.00     -120.48        0.00
   0.00000000   0.00000000  -0.00081899            0.00        0.00     -120.48


     Writing all to output data dir ./CTO.save/ :
     XML data file, charge density, pseudopotentials, collected wavefunctions
 
     init_run     :      0.26s CPU      0.34s WALL (       1 calls)
     electrons    :      3.60s CPU      3.90s WALL (       1 calls)
     forces       :      0.07s CPU      0.07s WALL (       1 calls)
     stress       :      0.44s CPU      0.45s WALL (       1 calls)

     Called by init_run:
     wfcinit      :      0.05s CPU      0.08s WALL (       1 calls)
     potinit      :      0.01s CPU      0.01s WALL (       1 calls)
     hinit0       :      0.10s CPU      0.13s WALL (       1 calls)

     Called by electrons:
     c_bands      :      2.27s CPU      2.41s WALL (      13 calls)
     sum_band     :      0.78s CPU      0.82s WALL (      13 calls)
     v_of_rho     :      0.02s CPU      0.02s WALL (      14 calls)
     newd         :      0.54s CPU      0.65s WALL (      14 calls)
     mix_rho      :      0.02s CPU      0.02s WALL (      13 calls)

     Called by c_bands:
     init_us_2    :      0.03s CPU      0.03s WALL (     290 calls)
     init_us_2:cp :      0.03s CPU      0.03s WALL (     290 calls)
     ccgdiagg     :      1.95s CPU      2.06s WALL (     130 calls)
     wfcrot       :      0.35s CPU      0.39s WALL (     130 calls)

     Called by *cgdiagg:
     h_psi        :      1.35s CPU      1.43s WALL (    7627 calls)
     s_psi        :      0.19s CPU      0.20s WALL (   15124 calls)

     Called by h_psi:
     h_psi:calbec :      0.20s CPU      0.21s WALL (    7627 calls)
     vloc_psi     :      0.98s CPU      1.04s WALL (    7627 calls)
     add_vuspsi   :      0.11s CPU      0.11s WALL (    7627 calls)
     hs_1psi      :      1.20s CPU      1.27s WALL (    7497 calls)
     s_1psi       :      0.29s CPU      0.30s WALL (    7497 calls)

     General routines
     calbec       :      0.36s CPU      0.39s WALL (   15304 calls)
     fft          :      0.03s CPU      0.04s WALL (      90 calls)
     ffts         :      0.00s CPU      0.00s WALL (      27 calls)
     fftw         :      0.85s CPU      0.90s WALL (   23034 calls)
     interpolate  :      0.01s CPU      0.01s WALL (      14 calls)
 
     Parallel routines
 
     PWSCF        :      4.56s CPU      5.19s WALL

 
   This run was terminated on:  16:48:46  19Sep2025            

=------------------------------------------------------------------------------=
   JOB DONE.
=------------------------------------------------------------------------------=
TACC:  Shutdown complete. Exiting. 
