TACC:  Starting up job 2476685 
TACC:  Starting parallel tasks... 

     Program PWSCF v.7.3 starts on 18Oct2025 at 16:27:47 

     This program is part of the open-source Quantum ESPRESSO suite
     for quantum simulation of materials; please cite
         "P. Giannozzi et al., J. Phys.:Condens. Matter 21 395502 (2009);
         "P. Giannozzi et al., J. Phys.:Condens. Matter 29 465901 (2017);
         "P. Giannozzi et al., J. Chem. Phys. 152 154105 (2020);
          URL http://www.quantum-espresso.org", 
     in publications or presentations arising from this work. More details at
     http://www.quantum-espresso.org/quote

     Parallel version (MPI & OpenMP), running on      10 processor cores
     Number of MPI processes:                10
     Threads/MPI process:                     1

     MPI processes distributed on     1 nodes
     187715 MiB available memory on the printing compute node when the environment starts
 
     Waiting for input...
     Reading input from standard input

     Current dimensions of program PWSCF are:
     Max number of different atomic species (ntypx) = 10
     Max number of k-points (npk) =  40000
     Max angular momentum in pseudopotentials (lmaxx) =  4
     Message from routine setup:
     using ibrav=0 with symmetry is DISCOURAGED, use correct ibrav instead
 
     R & G space division:  proc/nbgrp/npool/nimage =      10
     Subspace diagonalization in iterative solution of the eigenvalue problem:
     a serial algorithm will be used

 
     Parallelization info
     --------------------
     sticks:   dense  smooth     PW     G-vecs:    dense   smooth      PW
     Min         162      43     15                 4282      595     112
     Max         163      44     16                 4284      598     113
     Sum        1627     433    151                42831     5961    1127
 
     Using Slab Decomposition
 


     bravais-lattice index     =            0
     lattice parameter (alat)  =      10.2000  a.u.
     unit-cell volume          =     265.3009 (a.u.)^3
     number of atoms/cell      =            2
     number of atomic types    =            1
     number of electrons       =         8.00
     number of Kohn-Sham states=            8
     kinetic-energy cutoff     =      30.0000  Ry
     charge density cutoff     =     450.0000  Ry
     scf convergence threshold =      1.0E-08
     mixing beta               =       0.7000
     number of iterations used =            8  plain     mixing
     Exchange-correlation= SLA  PZ   NOGX NOGC
                           (   1   1   0   0   0   0   0)

     celldm(1)=  10.200000  celldm(2)=   0.000000  celldm(3)=   0.000000
     celldm(4)=   0.000000  celldm(5)=   0.000000  celldm(6)=   0.000000

     crystal axes: (cart. coord. in units of alat)
               a(1) = (  -0.500000  -0.001000   0.500000 )  
               a(2) = (   0.001000   0.500000   0.500000 )  
               a(3) = (  -0.499000   0.499000   0.000000 )  

     reciprocal axes: (cart. coord. in units 2 pi/alat)
               b(1) = ( -0.998004 -0.998004  1.000000 )  
               b(2) = (  0.998004  0.998004  1.000000 )  
               b(3) = ( -1.002004  1.002004 -1.000000 )  


     PseudoPot. # 1 for Si read from file:
     /scratch/11018/zhc/Assisgnment2/Q1/1A/energy_cutoff_test/Si_LDA.UPF
     MD5 check sum: b5ade7b37ee992b02096e360e546dc2d
     Pseudo is Ultrasoft + core correction, Zval =  4.0
     Generated by new atomic code, or converted to UPF format
     Using radial grid of  899 points,  6 beta functions with: 
                l(1) =   0
                l(2) =   0
                l(3) =   1
                l(4) =   1
                l(5) =   2
                l(6) =   2
     Q(r) pseudized with  8 coefficients,  rinner =    0.900   0.900   0.900
                                                       0.900   0.900

     atomic species   valence    mass     pseudopotential
     Si                4.00    28.08550     Si( 1.00)

      8 Sym. Ops., with inversion, found ( 4 have fractional translation)



   Cartesian axes

     site n.     atom                  positions (alat units)
         1        Si     tau(   1) = (   0.0000000   0.0000000   0.0000000  )
         2        Si     tau(   2) = (  -0.2495000   0.2495000   0.2500000  )

     number of k points=   280

     Number of k-points >= 100: set verbosity='high' to print them.

     Dense  grid:    42831 G-vectors     FFT dimensions: (  50,  50,  50)

     Smooth grid:     5961 G-vectors     FFT dimensions: (  25,  25,  25)

     Estimated max dynamical RAM per process >      19.99 MB

     Estimated total dynamical RAM >     199.94 MB

     Initial potential from superposition of free atoms

     starting charge       7.9988, renormalised to       8.0000
     Starting wfcs are    8 randomized atomic wfcs

     total cpu time spent up to now is        0.5 secs

     Self-consistent Calculation

     iteration #  1     ecut=    30.00 Ry     beta= 0.70
     CG style diagonalization
     ethr =  1.00E-02,  avg # of iterations =  3.7

     Threshold (ethr) on eigenvalues was too large:
     Diagonalizing with lowered threshold

     CG style diagonalization
     ethr =  7.32E-04,  avg # of iterations =  2.0

     total cpu time spent up to now is        3.4 secs

     total energy              =     -19.25686010 Ry
     estimated scf accuracy    <       0.05938746 Ry

     iteration #  2     ecut=    30.00 Ry     beta= 0.70
     CG style diagonalization
     ethr =  7.42E-04,  avg # of iterations =  3.0

     total cpu time spent up to now is        4.6 secs

     total energy              =     -19.26027779 Ry
     estimated scf accuracy    <       0.00169726 Ry

     iteration #  3     ecut=    30.00 Ry     beta= 0.70
     CG style diagonalization
     ethr =  2.12E-05,  avg # of iterations =  3.8

     total cpu time spent up to now is        6.2 secs

     total energy              =     -19.26048796 Ry
     estimated scf accuracy    <       0.00003873 Ry

     iteration #  4     ecut=    30.00 Ry     beta= 0.70
     CG style diagonalization
     c_bands:  1 eigenvalues not converged
     ethr =  4.84E-07,  avg # of iterations =  4.3

     total cpu time spent up to now is        8.1 secs

     total energy              =     -19.26052052 Ry
     estimated scf accuracy    <       0.00000015 Ry

     iteration #  5     ecut=    30.00 Ry     beta= 0.70
     CG style diagonalization
     ethr =  1.93E-09,  avg # of iterations =  4.2

     total cpu time spent up to now is        9.9 secs

     End of self-consistent calculation

     Number of k-points >= 100: set verbosity='high' to print the bands.

     highest occupied, lowest unoccupied level (ev):     6.2046    6.6423

!    total energy              =     -19.26052107 Ry
     estimated scf accuracy    <          1.2E-09 Ry

     The total energy is the sum of the following terms:
     one-electron contribution =       5.18377678 Ry
     hartree contribution      =       1.09840198 Ry
     xc contribution           =      -8.64296944 Ry
     ewald contribution        =     -16.89973039 Ry

     convergence has been achieved in   5 iterations

     Forces acting on atoms (cartesian axes, Ry/au):

     atom    1 type  1   force =     0.00000000    0.00000000   -0.00156859
     atom    2 type  1   force =     0.00000000    0.00000000    0.00156859

     Total force =     0.002218     Total SCF correction =     0.000014


     Computing stress (Cartesian axis) and pressure

          total   stress  (Ry/bohr**3)                   (kbar)     P=        1.48
   0.00001007  -0.00002893  -0.00000000            1.48       -4.26       -0.00
  -0.00002893   0.00001007   0.00000000           -4.26        1.48        0.00
  -0.00000000   0.00000000   0.00001002           -0.00        0.00        1.47


     Writing all to output data dir ./Si_trigonal_eta0p004.save/ :
     XML data file, charge density, pseudopotentials, collected wavefunctions
 
     init_run     :      0.31s CPU      0.39s WALL (       1 calls)
     electrons    :      8.61s CPU      9.40s WALL (       1 calls)
     forces       :      0.08s CPU      0.09s WALL (       1 calls)
     stress       :      0.58s CPU      0.58s WALL (       1 calls)

     Called by init_run:
     wfcinit      :      0.23s CPU      0.26s WALL (       1 calls)
     potinit      :      0.00s CPU      0.01s WALL (       1 calls)
     hinit0       :      0.04s CPU      0.07s WALL (       1 calls)

     Called by electrons:
     c_bands      :      7.78s CPU      8.49s WALL (       6 calls)
     sum_band     :      0.76s CPU      0.82s WALL (       6 calls)
     v_of_rho     :      0.01s CPU      0.01s WALL (       6 calls)
     newd         :      0.06s CPU      0.07s WALL (       6 calls)
     mix_rho      :      0.00s CPU      0.01s WALL (       6 calls)

     Called by c_bands:
     init_us_2    :      0.10s CPU      0.11s WALL (    4200 calls)
     init_us_2:cp :      0.09s CPU      0.10s WALL (    4200 calls)
     ccgdiagg     :      6.91s CPU      7.53s WALL (    1680 calls)
     wfcrot       :      0.96s CPU      1.08s WALL (    1400 calls)

     Called by *cgdiagg:
     h_psi        :      4.51s CPU      4.93s WALL (   39841 calls)
     s_psi        :      0.31s CPU      0.34s WALL (   78282 calls)

     Called by h_psi:
     h_psi:calbec :      0.64s CPU      0.70s WALL (   39841 calls)
     vloc_psi     :      3.41s CPU      3.72s WALL (   39841 calls)
     add_vuspsi   :      0.18s CPU      0.20s WALL (   39841 calls)
     hs_1psi      :      4.11s CPU      4.47s WALL (   38441 calls)
     s_1psi       :      0.85s CPU      0.92s WALL (   38441 calls)

     General routines
     calbec       :      1.14s CPU      1.24s WALL (   81362 calls)
     fft          :      0.01s CPU      0.03s WALL (      43 calls)
     ffts         :      0.00s CPU      0.00s WALL (      12 calls)
     fftw         :      3.08s CPU      3.36s WALL (  112722 calls)
     interpolate  :      0.00s CPU      0.01s WALL (       6 calls)
 
     Parallel routines
 
     PWSCF        :      9.84s CPU     11.90s WALL

 
   This run was terminated on:  16:27:59  18Oct2025            

=------------------------------------------------------------------------------=
   JOB DONE.
=------------------------------------------------------------------------------=
TACC:  Shutdown complete. Exiting. 
