TACC:  Starting up job 2560869 
TACC:  Starting parallel tasks... 

     Program PWSCF v.7.3 starts on 18Nov2025 at  0:24:17 

     This program is part of the open-source Quantum ESPRESSO suite
     for quantum simulation of materials; please cite
         "P. Giannozzi et al., J. Phys.:Condens. Matter 21 395502 (2009);
         "P. Giannozzi et al., J. Phys.:Condens. Matter 29 465901 (2017);
         "P. Giannozzi et al., J. Chem. Phys. 152 154105 (2020);
          URL http://www.quantum-espresso.org", 
     in publications or presentations arising from this work. More details at
     http://www.quantum-espresso.org/quote

     Parallel version (MPI & OpenMP), running on      10 processor cores
     Number of MPI processes:                10
     Threads/MPI process:                     1

     MPI processes distributed on     1 nodes
     188750 MiB available memory on the printing compute node when the environment starts
 
     Waiting for input...
     Reading input from standard input
Warning: card &CELL ignored
Warning: card  CELL_DYNAMICS = 'BFGS', ignored
Warning: card  PRESS=0.D0, ignored
Warning: card / ignored

     Current dimensions of program PWSCF are:
     Max number of different atomic species (ntypx) = 10
     Max number of k-points (npk) =  40000
     Max angular momentum in pseudopotentials (lmaxx) =  4
     Message from routine setup:
     using ibrav=0 with symmetry is DISCOURAGED, use correct ibrav instead
 
     R & G space division:  proc/nbgrp/npool/nimage =      10
     Subspace diagonalization in iterative solution of the eigenvalue problem:
     a serial algorithm will be used

 
     Parallelization info
     --------------------
     sticks:   dense  smooth     PW     G-vecs:    dense   smooth      PW
     Min         209      84     25                 7675     1944     321
     Max         210      85     26                 7680     1947     324
     Sum        2093     845    253                76767    19455    3227
 
     Using Slab Decomposition
 


     bravais-lattice index     =            0
     lattice parameter (alat)  =       7.2783  a.u.
     unit-cell volume          =     406.4544 (a.u.)^3
     number of atoms/cell      =            5
     number of atomic types    =            3
     number of electrons       =        44.00
     number of Kohn-Sham states=           22
     kinetic-energy cutoff     =      50.0000  Ry
     charge density cutoff     =     500.0000  Ry
     scf convergence threshold =      1.0E-08
     mixing beta               =       0.7000
     number of iterations used =            8  plain     mixing
     energy convergence thresh.=      1.0E-04
     force convergence thresh. =      1.0E-03
     Exchange-correlation= SLA  PZ   NOGX NOGC
                           (   1   1   0   0   0   0   0)
     nstep                     =           50


     celldm(1)=   7.278318  celldm(2)=   0.000000  celldm(3)=   0.000000
     celldm(4)=   0.000000  celldm(5)=   0.000000  celldm(6)=   0.000000

     crystal axes: (cart. coord. in units of alat)
               a(1) = (   1.000000   0.000000   0.000000 )  
               a(2) = (   0.000000   1.001039   0.000000 )  
               a(3) = (   0.000000   0.000000   1.053096 )  

     reciprocal axes: (cart. coord. in units 2 pi/alat)
               b(1) = (  1.000000  0.000000  0.000000 )  
               b(2) = (  0.000000  0.998963  0.000000 )  
               b(3) = (  0.000000  0.000000  0.949581 )  


     PseudoPot. # 1 for Pb read from file:
     /scratch/11018/zhc/assisgnment3/input_files/Pb_LDA.UPF
     MD5 check sum: 062a37469794d955244864f8fe2e5624
     Pseudo is Ultrasoft + core correction, Zval = 14.0
     Generated by new atomic code, or converted to UPF format
     Using radial grid of  899 points,  6 beta functions with: 
                l(1) =   0
                l(2) =   0
                l(3) =   1
                l(4) =   1
                l(5) =   2
                l(6) =   2
     Q(r) pseudized with  6 coefficients,  rinner =    1.000   1.000   1.000
                                                       1.000   1.000

     PseudoPot. # 2 for Ti read from file:
     /scratch/11018/zhc/assisgnment3/input_files/Ti_LDA.UPF
     MD5 check sum: 0d9f225c038fe889ca2a701dcc8d72cb
     Pseudo is Ultrasoft + core correction, Zval = 12.0
     Generated by new atomic code, or converted to UPF format
     Using radial grid of  851 points,  6 beta functions with: 
                l(1) =   0
                l(2) =   0
                l(3) =   1
                l(4) =   1
                l(5) =   2
                l(6) =   2
     Q(r) pseudized with  6 coefficients,  rinner =    1.000   1.000   1.000
                                                       1.000   1.000

     PseudoPot. # 3 for O  read from file:
     /scratch/11018/zhc/assisgnment3/input_files/O_LDA.UPF
     MD5 check sum: 194b818514d2a7dbb603bb78519a4f40
     Pseudo is Ultrasoft + core correction, Zval =  6.0
     Generated by new atomic code, or converted to UPF format
     Using radial grid of  737 points,  5 beta functions with: 
                l(1) =   0
                l(2) =   0
                l(3) =   1
                l(4) =   1
                l(5) =   2
     Q(r) pseudized with  8 coefficients,  rinner =    0.900   0.900   0.900
                                                       0.900   0.900

     atomic species   valence    mass     pseudopotential
     Pb               14.00   207.20000     Pb( 1.00)
     Ti               12.00    47.88000     Ti( 1.00)
     O                 6.00    16.00000     O ( 1.00)

      4 Sym. Ops. (no inversion) found



   Cartesian axes

     site n.     atom                  positions (alat units)
         1        Pb     tau(   1) = (   0.0000000   0.0000000   1.0585445  )
         2        Ti     tau(   2) = (   0.5000000   0.5005193   0.5681815  )
         3        O      tau(   3) = (   0.5000000   0.5005193   0.1047914  )
         4        O      tau(   4) = (   0.5000000   0.0000000   0.6440040  )
         5        O      tau(   5) = (   0.0000000   0.5005193   0.6440040  )

     number of k points=    48
                       cart. coord. in units 2pi/alat
        k(    1) = (   0.0000000   0.0000000   0.0000000), wk =   0.0138889
        k(    2) = (   0.0000000   0.0000000   0.2373953), wk =   0.0277778
        k(    3) = (   0.0000000   0.0000000  -0.4747906), wk =   0.0138889
        k(    4) = (   0.0000000   0.1664938   0.0000000), wk =   0.0277778
        k(    5) = (   0.0000000   0.1664938   0.2373953), wk =   0.0555556
        k(    6) = (   0.0000000   0.1664938  -0.4747906), wk =   0.0277778
        k(    7) = (   0.0000000   0.3329875   0.0000000), wk =   0.0277778
        k(    8) = (   0.0000000   0.3329875   0.2373953), wk =   0.0555556
        k(    9) = (   0.0000000   0.3329875  -0.4747906), wk =   0.0277778
        k(   10) = (   0.0000000  -0.4994813   0.0000000), wk =   0.0138889
        k(   11) = (   0.0000000  -0.4994813   0.2373953), wk =   0.0277778
        k(   12) = (   0.0000000  -0.4994813  -0.4747906), wk =   0.0138889
        k(   13) = (   0.1666667   0.0000000   0.0000000), wk =   0.0277778
        k(   14) = (   0.1666667   0.0000000   0.2373953), wk =   0.0555556
        k(   15) = (   0.1666667   0.0000000  -0.4747906), wk =   0.0277778
        k(   16) = (   0.1666667   0.1664938   0.0000000), wk =   0.0555556
        k(   17) = (   0.1666667   0.1664938   0.2373953), wk =   0.1111111
        k(   18) = (   0.1666667   0.1664938  -0.4747906), wk =   0.0555556
        k(   19) = (   0.1666667   0.3329875   0.0000000), wk =   0.0555556
        k(   20) = (   0.1666667   0.3329875   0.2373953), wk =   0.1111111
        k(   21) = (   0.1666667   0.3329875  -0.4747906), wk =   0.0555556
        k(   22) = (   0.1666667  -0.4994813   0.0000000), wk =   0.0277778
        k(   23) = (   0.1666667  -0.4994813   0.2373953), wk =   0.0555556
        k(   24) = (   0.1666667  -0.4994813  -0.4747906), wk =   0.0277778
        k(   25) = (   0.3333333   0.0000000   0.0000000), wk =   0.0277778
        k(   26) = (   0.3333333   0.0000000   0.2373953), wk =   0.0555556
        k(   27) = (   0.3333333   0.0000000  -0.4747906), wk =   0.0277778
        k(   28) = (   0.3333333   0.1664938   0.0000000), wk =   0.0555556
        k(   29) = (   0.3333333   0.1664938   0.2373953), wk =   0.1111111
        k(   30) = (   0.3333333   0.1664938  -0.4747906), wk =   0.0555556
        k(   31) = (   0.3333333   0.3329875   0.0000000), wk =   0.0555556
        k(   32) = (   0.3333333   0.3329875   0.2373953), wk =   0.1111111
        k(   33) = (   0.3333333   0.3329875  -0.4747906), wk =   0.0555556
        k(   34) = (   0.3333333  -0.4994813   0.0000000), wk =   0.0277778
        k(   35) = (   0.3333333  -0.4994813   0.2373953), wk =   0.0555556
        k(   36) = (   0.3333333  -0.4994813  -0.4747906), wk =   0.0277778
        k(   37) = (  -0.5000000   0.0000000   0.0000000), wk =   0.0138889
        k(   38) = (  -0.5000000   0.0000000   0.2373953), wk =   0.0277778
        k(   39) = (  -0.5000000   0.0000000  -0.4747906), wk =   0.0138889
        k(   40) = (  -0.5000000   0.1664938   0.0000000), wk =   0.0277778
        k(   41) = (  -0.5000000   0.1664938   0.2373953), wk =   0.0555556
        k(   42) = (  -0.5000000   0.1664938  -0.4747906), wk =   0.0277778
        k(   43) = (  -0.5000000   0.3329875   0.0000000), wk =   0.0277778
        k(   44) = (  -0.5000000   0.3329875   0.2373953), wk =   0.0555556
        k(   45) = (  -0.5000000   0.3329875  -0.4747906), wk =   0.0277778
        k(   46) = (  -0.5000000  -0.4994813   0.0000000), wk =   0.0138889
        k(   47) = (  -0.5000000  -0.4994813   0.2373953), wk =   0.0277778
        k(   48) = (  -0.5000000  -0.4994813  -0.4747906), wk =   0.0138889

     Dense  grid:    76767 G-vectors     FFT dimensions: (  54,  54,  60)

     Smooth grid:    19455 G-vectors     FFT dimensions: (  36,  36,  36)

     Estimated max dynamical RAM per process >      38.00 MB

     Estimated total dynamical RAM >     380.05 MB

     Check: negative core charge=   -0.000004

     Initial potential from superposition of free atoms

     starting charge      42.9982, renormalised to      44.0000

     negative rho (up, down):  1.668E-02 0.000E+00
     Starting wfcs are   31 randomized atomic wfcs

     total cpu time spent up to now is        0.8 secs

     Self-consistent Calculation

     iteration #  1     ecut=    50.00 Ry     beta= 0.70
     CG style diagonalization
     ethr =  1.00E-02,  avg # of iterations =  2.1

     negative rho (up, down):  1.400E-02 0.000E+00

     total cpu time spent up to now is        1.6 secs

     total energy              =    -380.06291320 Ry
     estimated scf accuracy    <       1.02087048 Ry

     iteration #  2     ecut=    50.00 Ry     beta= 0.70
     CG style diagonalization
     ethr =  2.32E-03,  avg # of iterations =  4.8

     negative rho (up, down):  1.451E-02 0.000E+00

     total cpu time spent up to now is        3.1 secs

     total energy              =    -379.75113177 Ry
     estimated scf accuracy    <       3.93984497 Ry

     iteration #  3     ecut=    50.00 Ry     beta= 0.70
     CG style diagonalization
     ethr =  2.32E-03,  avg # of iterations =  4.3

     negative rho (up, down):  1.512E-02 0.000E+00

     total cpu time spent up to now is        4.4 secs

     total energy              =    -380.53709792 Ry
     estimated scf accuracy    <       0.31375307 Ry

     iteration #  4     ecut=    50.00 Ry     beta= 0.70
     CG style diagonalization
     ethr =  7.13E-04,  avg # of iterations =  3.4

     negative rho (up, down):  1.511E-02 0.000E+00

     total cpu time spent up to now is        5.4 secs

     total energy              =    -380.55994478 Ry
     estimated scf accuracy    <       0.04302117 Ry

     iteration #  5     ecut=    50.00 Ry     beta= 0.70
     CG style diagonalization
     ethr =  9.78E-05,  avg # of iterations =  3.9

     negative rho (up, down):  1.511E-02 0.000E+00

     total cpu time spent up to now is        6.5 secs

     total energy              =    -380.57147115 Ry
     estimated scf accuracy    <       0.00799986 Ry

     iteration #  6     ecut=    50.00 Ry     beta= 0.70
     CG style diagonalization
     ethr =  1.82E-05,  avg # of iterations =  3.9

     negative rho (up, down):  1.512E-02 0.000E+00

     total cpu time spent up to now is        7.7 secs

     total energy              =    -380.57362087 Ry
     estimated scf accuracy    <       0.00619052 Ry

     iteration #  7     ecut=    50.00 Ry     beta= 0.70
     CG style diagonalization
     ethr =  1.41E-05,  avg # of iterations =  3.2

     negative rho (up, down):  1.513E-02 0.000E+00

     total cpu time spent up to now is        8.7 secs

     total energy              =    -380.57361232 Ry
     estimated scf accuracy    <       0.00167262 Ry

     iteration #  8     ecut=    50.00 Ry     beta= 0.70
     CG style diagonalization
     ethr =  3.80E-06,  avg # of iterations =  3.7

     negative rho (up, down):  1.515E-02 0.000E+00

     total cpu time spent up to now is        9.7 secs

     total energy              =    -380.57397353 Ry
     estimated scf accuracy    <       0.00001054 Ry

     iteration #  9     ecut=    50.00 Ry     beta= 0.70
     CG style diagonalization
     c_bands:  1 eigenvalues not converged
     c_bands:  1 eigenvalues not converged
     c_bands:  1 eigenvalues not converged
     ethr =  2.39E-08,  avg # of iterations =  7.7

     negative rho (up, down):  1.519E-02 0.000E+00

     total cpu time spent up to now is       12.1 secs

     total energy              =    -380.57403886 Ry
     estimated scf accuracy    <       0.00004261 Ry

     iteration # 10     ecut=    50.00 Ry     beta= 0.70
     CG style diagonalization
     ethr =  2.39E-08,  avg # of iterations =  3.6

     negative rho (up, down):  1.523E-02 0.000E+00

     total cpu time spent up to now is       13.2 secs

     total energy              =    -380.57403521 Ry
     estimated scf accuracy    <       0.00002276 Ry

     iteration # 11     ecut=    50.00 Ry     beta= 0.70
     CG style diagonalization
     ethr =  2.39E-08,  avg # of iterations =  3.6

     negative rho (up, down):  1.530E-02 0.000E+00

     total cpu time spent up to now is       14.2 secs

     total energy              =    -380.57403529 Ry
     estimated scf accuracy    <       0.00000406 Ry

     iteration # 12     ecut=    50.00 Ry     beta= 0.70
     CG style diagonalization
     ethr =  9.23E-09,  avg # of iterations =  4.1

     negative rho (up, down):  1.530E-02 0.000E+00

     total cpu time spent up to now is       15.5 secs

     total energy              =    -380.57403651 Ry
     estimated scf accuracy    <       0.00000033 Ry

     iteration # 13     ecut=    50.00 Ry     beta= 0.70
     CG style diagonalization
     ethr =  7.45E-10,  avg # of iterations =  8.0

     negative rho (up, down):  1.530E-02 0.000E+00

     total cpu time spent up to now is       17.9 secs

     total energy              =    -380.57403751 Ry
     estimated scf accuracy    <       0.00000006 Ry

     iteration # 14     ecut=    50.00 Ry     beta= 0.70
     CG style diagonalization
     ethr =  1.36E-10,  avg # of iterations =  6.4

     negative rho (up, down):  1.530E-02 0.000E+00

     total cpu time spent up to now is       19.9 secs

     total energy              =    -380.57403762 Ry
     estimated scf accuracy    <       0.00000006 Ry

     iteration # 15     ecut=    50.00 Ry     beta= 0.70
     CG style diagonalization
     ethr =  1.36E-10,  avg # of iterations =  3.4

     negative rho (up, down):  1.529E-02 0.000E+00

     total cpu time spent up to now is       20.9 secs

     total energy              =    -380.57403763 Ry
     estimated scf accuracy    <       0.00000006 Ry

     iteration # 16     ecut=    50.00 Ry     beta= 0.70
     CG style diagonalization
     ethr =  1.36E-10,  avg # of iterations =  3.1

     negative rho (up, down):  1.529E-02 0.000E+00

     total cpu time spent up to now is       21.8 secs

     total energy              =    -380.57403762 Ry
     estimated scf accuracy    <       0.00000006 Ry

     iteration # 17     ecut=    50.00 Ry     beta= 0.70
     CG style diagonalization
     ethr =  1.36E-10,  avg # of iterations =  3.6

     negative rho (up, down):  1.530E-02 0.000E+00

     total cpu time spent up to now is       22.9 secs

     total energy              =    -380.57403761 Ry
     estimated scf accuracy    <       0.00000004 Ry

     iteration # 18     ecut=    50.00 Ry     beta= 0.70
     CG style diagonalization
     ethr =  9.68E-11,  avg # of iterations =  3.7

     negative rho (up, down):  1.531E-02 0.000E+00

     total cpu time spent up to now is       24.0 secs

     End of self-consistent calculation

          k = 0.0000 0.0000 0.0000 (  2421 PWs)   bands (ev):

   -45.1707 -21.8490 -21.7684 -21.7673  -7.1673  -6.0150  -5.7553  -4.4120
    -4.4116  -4.3714  -4.2529  -4.1434   4.8388   6.7351   6.7433   7.1056
     8.7134   8.7152   8.9480   9.2903   9.4437   9.4453

          k = 0.0000 0.0000 0.2374 (  2437 PWs)   bands (ev):

   -45.1704 -21.8721 -21.7675 -21.7664  -6.9612  -5.9537  -5.6864  -4.4295
    -4.4292  -4.3700  -4.2414  -4.2199   3.9785   6.7904   6.7970   7.3095
     8.4605   8.4644   8.8658   9.3751   9.5624   9.5632

          k = 0.0000 0.0000-0.4748 (  2426 PWs)   bands (ev):

   -45.1700 -21.8950 -21.7666 -21.7655  -6.7372  -5.8866  -5.6244  -4.4470
    -4.4467  -4.3685  -4.3023  -4.2315   3.4366   6.6196   6.8255   6.8300
     8.3023   8.3091   8.7876   9.6383   9.6387  10.6474

          k = 0.0000 0.1665 0.0000 (  2419 PWs)   bands (ev):

   -45.1703 -21.8481 -21.7877 -21.7675  -7.0225  -5.9809  -5.7243  -4.4364
    -4.4101  -4.3863  -4.2561  -4.1315   4.3516   6.7967   6.8532   7.1391
     8.6698   8.7383   8.9482   9.0661   9.1713   9.5633

          k = 0.0000 0.1665 0.2374 (  2432 PWs)   bands (ev):

   -45.1700 -21.8711 -21.7866 -21.7666  -6.8329  -5.9354  -5.6496  -4.4350
    -4.4283  -4.3854  -4.2505  -4.1711   3.7449   6.5826   6.9182   7.3914
     8.1313   8.4469   8.7681   9.1600   9.2334   9.9321

          k = 0.0000 0.1665-0.4748 (  2426 PWs)   bands (ev):

   -45.1696 -21.8938 -21.7856 -21.7657  -6.6369  -5.8836  -5.5724  -4.4463
    -4.4312  -4.3846  -4.2559  -4.2059   3.2916   6.2693   6.9571   7.0406
     7.9338   8.3003   8.8353   9.2192   9.3149  10.5713

          k = 0.0000 0.3330 0.0000 (  2422 PWs)   bands (ev):

   -45.1695 -21.8465 -21.8280 -21.7658  -6.7083  -5.9068  -5.6781  -4.4736
    -4.4159  -4.4067  -4.2516  -4.1362   3.7246   6.4308   7.0906   7.1341
     8.3271   8.3618   8.8014   8.8559   9.2897  10.2184

          k = 0.0000 0.3330 0.2374 (  2415 PWs)   bands (ev):

   -45.1692 -21.8689 -21.8269 -21.7648  -6.5850  -5.8643  -5.5820  -4.4407
    -4.4263  -4.4161  -4.2444  -4.1106   3.3584   6.3010   7.0015   7.2325
     7.7651   8.1897   8.3431   8.9106   9.4218  10.2961

          k = 0.0000 0.3330-0.4748 (  2426 PWs)   bands (ev):

   -45.1689 -21.8913 -21.8256 -21.7639  -6.4933  -5.7971  -5.4557  -4.4455
    -4.4165  -4.3999  -4.2806  -4.0577   3.0381   5.9807   6.7653   7.2755
     7.6526   7.8165   8.1320   8.9422   9.8638  10.1238

          k = 0.0000-0.4995 0.0000 (  2428 PWs)   bands (ev):

   -45.1691 -21.8485 -21.8452 -21.7650  -6.5352  -5.8501  -5.6828  -4.4897
    -4.4305  -4.4051  -4.2263  -4.1678   3.5054   6.0476   7.3593   7.3765
     7.8274   7.9796   8.7232   8.8948   9.3203  11.0216

          k = 0.0000-0.4995 0.2374 (  2430 PWs)   bands (ev):

   -45.1688 -21.8676 -21.8470 -21.7640  -6.4775  -5.7743  -5.5750  -4.4531
    -4.4314  -4.4252  -4.2108  -4.1064   3.2067   6.0191   7.0322   7.2760
     7.5830   7.7808   8.4520   8.8899   9.4215  10.5037

          k = 0.0000-0.4995-0.4748 (  2432 PWs)   bands (ev):

   -45.1685 -21.8899 -21.8456 -21.7630  -6.4594  -5.6932  -5.4014  -4.4450
    -4.4323  -4.4087  -4.2662  -3.9961   2.9367   5.8396   6.4558   7.3366
     7.6016   7.8067   7.8298   8.8864   9.8031  10.1591

          k = 0.1667 0.0000 0.0000 (  2423 PWs)   bands (ev):

   -45.1703 -21.8481 -21.7890 -21.7664  -7.0215  -5.9805  -5.7241  -4.4361
    -4.4104  -4.3865  -4.2560  -4.1312   4.3521   6.8007   6.8451   7.1375
     8.6727   8.7358   8.9491   9.0668   9.1705   9.5631

          k = 0.1667 0.0000 0.2374 (  2429 PWs)   bands (ev):

   -45.1700 -21.8711 -21.7880 -21.7655  -6.8318  -5.9353  -5.6495  -4.4347
    -4.4285  -4.3856  -4.2511  -4.1698   3.7457   6.5860   6.9118   7.3904
     8.1302   8.4430   8.7678   9.1631   9.2324   9.9331

          k = 0.1667 0.0000-0.4748 (  2426 PWs)   bands (ev):

   -45.1696 -21.8938 -21.7870 -21.7645  -6.6354  -5.8840  -5.5723  -4.4465
    -4.4311  -4.3847  -4.2564  -4.2041   3.2927   6.2719   6.9529   7.0391
     7.9356   8.2934   8.8334   9.2234   9.3134  10.5696

          k = 0.1667 0.1665 0.0000 (  2425 PWs)   bands (ev):

   -45.1699 -21.8473 -21.7881 -21.7867  -6.8790  -5.9455  -5.7153  -4.4420
    -4.4265  -4.3901  -4.2321  -4.1202   4.0217   6.7228   6.9708   7.1954
     8.1938   8.3073   9.0405   9.0808   9.3852   9.7992

          k = 0.1667 0.1665 0.2374 (  2422 PWs)   bands (ev):

   -45.1696 -21.8701 -21.7871 -21.7857  -6.7005  -5.9198  -5.6410  -4.4450
    -4.4215  -4.3841  -4.2217  -4.1358   3.6218   6.5010   6.6098   7.3347
     8.0245   8.0440   8.8517   9.2233   9.4633   9.9034

          k = 0.1667 0.1665-0.4748 (  2444 PWs)   bands (ev):

   -45.1693 -21.8927 -21.7860 -21.7847  -6.5227  -5.8938  -5.5544  -4.4579
    -4.3998  -4.3615  -4.2273  -4.1575   3.2591   6.2860   6.3405   7.0263
     7.9340   7.9686   8.7561   9.2991   9.5217  10.2688

          k = 0.1667 0.3330 0.0000 (  2425 PWs)   bands (ev):

   -45.1691 -21.8457 -21.8269 -21.7862  -6.5728  -5.8733  -5.7129  -4.4665
    -4.4154  -4.3744  -4.2077  -4.1252   3.5099   6.4288   6.9729   7.2680
     7.6519   8.2419   8.5454   9.2242   9.4101  10.2981

          k = 0.1667 0.3330 0.2374 (  2428 PWs)   bands (ev):

   -45.1688 -21.8680 -21.8258 -21.7852  -6.4459  -5.8639  -5.6308  -4.4420
    -4.4161  -4.3509  -4.1867  -4.0843   3.3632   6.2498   6.3816   6.9378
     7.3905   8.0822   8.9045   9.1826   9.5149  10.0070

          k = 0.1667 0.3330-0.4748 (  2424 PWs)   bands (ev):

   -45.1685 -21.8903 -21.8246 -21.7842  -6.3566  -5.8404  -5.5097  -4.4396
    -4.3903  -4.3100  -4.1993  -4.0302   3.1727   5.8981   6.3143   6.6416
     6.8813   7.9399   9.0163   9.2293   9.5123   9.9508

          k = 0.1667-0.4995 0.0000 (  2420 PWs)   bands (ev):

   -45.1687 -21.8473 -21.8443 -21.7853  -6.4055  -5.8194  -5.7388  -4.4695
    -4.4074  -4.3524  -4.1899  -4.1580   3.3107   6.0666   7.0898   7.3144
     7.6152   7.9601   8.4122   9.2584   9.4069  10.6275

          k = 0.1667-0.4995 0.2374 (  2430 PWs)   bands (ev):

   -45.1684 -21.8667 -21.8459 -21.7843  -6.3369  -5.7846  -5.6531  -4.4403
    -4.4025  -4.3287  -4.1640  -4.0784   3.2451   6.0237   6.2765   6.6830
     7.3520   8.2251   8.6716   9.1932   9.5224   9.9725

          k = 0.1667-0.4995-0.4748 (  2408 PWs)   bands (ev):

   -45.1681 -21.8890 -21.8446 -21.7833  -6.3216  -5.7511  -5.4929  -4.4342
    -4.3587  -4.3060  -4.1827  -3.9696   3.1322   5.7918   6.1456   6.2972
     6.7381   8.0523   8.8850   9.1447   9.1712  10.1679

          k = 0.3333 0.0000 0.0000 (  2422 PWs)   bands (ev):

   -45.1695 -21.8465 -21.8297 -21.7647  -6.7051  -5.9056  -5.6775  -4.4733
    -4.4163  -4.4070  -4.2509  -4.1356   3.7245   6.4259   7.0901   7.1260
     8.3290   8.3586   8.8022   8.8560   9.2894  10.2202

          k = 0.3333 0.0000 0.2374 (  2421 PWs)   bands (ev):

   -45.1692 -21.8689 -21.8287 -21.7637  -6.5817  -5.8637  -5.5815  -4.4403
    -4.4266  -4.4165  -4.2448  -4.1083   3.3601   6.2987   6.9995   7.2261
     7.7626   8.1860   8.3407   8.9082   9.4236  10.2979

          k = 0.3333 0.0000-0.4748 (  2426 PWs)   bands (ev):

   -45.1689 -21.8913 -21.8275 -21.7627  -6.4901  -5.7971  -5.4552  -4.4457
    -4.4169  -4.3995  -4.2808  -4.0546   3.0410   5.9817   6.7613   7.2723
     7.6479   7.8140   8.1252   8.9387   9.8702  10.1166

          k = 0.3333 0.1665 0.0000 (  2426 PWs)   bands (ev):

   -45.1691 -21.8457 -21.8287 -21.7848  -6.5708  -5.8724  -5.7124  -4.4664
    -4.4154  -4.3744  -4.2074  -4.1249   3.5096   6.4235   6.9714   7.2660
     7.6532   8.2423   8.5455   9.2204   9.4100  10.3005

          k = 0.3333 0.1665 0.2374 (  2427 PWs)   bands (ev):

   -45.1688 -21.8680 -21.8277 -21.7838  -6.4438  -5.8634  -5.6305  -4.4420
    -4.4160  -4.3509  -4.1873  -4.0825   3.3642   6.2477   6.3791   6.9370
     7.3901   8.0798   8.8985   9.1804   9.5163  10.0088

          k = 0.3333 0.1665-0.4748 (  2426 PWs)   bands (ev):

   -45.1685 -21.8903 -21.8265 -21.7828  -6.3547  -5.8402  -5.5094  -4.4395
    -4.3903  -4.3101  -4.2003  -4.0275   3.1748   5.8990   6.3121   6.6408
     6.8761   7.9384   9.0111   9.2237   9.5122   9.9526

          k = 0.3333 0.3330 0.0000 (  2434 PWs)   bands (ev):

   -45.1684 -21.8440 -21.8265 -21.8247  -6.3050  -5.8058  -5.7646  -4.4461
    -4.3956  -4.3021  -4.1274  -4.1248   3.1052   6.4115   6.5050   7.3754
     7.5275   7.6784   8.3411   9.0671   9.8879  10.0268

          k = 0.3333 0.3330 0.2374 (  2426 PWs)   bands (ev):

   -45.1680 -21.8660 -21.8256 -21.8237  -6.1689  -5.8541  -5.7199  -4.4041
    -4.3885  -4.2414  -4.0778  -4.0468   3.2933   5.9574   6.0294   6.4089
     7.0510   7.5576   8.9648   9.4769   9.5235   9.9039

          k = 0.3333 0.3330-0.4748 (  2430 PWs)   bands (ev):

   -45.1677 -21.8881 -21.8246 -21.8227  -6.0993  -5.8990  -5.5964  -4.3814
    -4.3625  -4.1755  -4.0287  -3.9686   3.4574   5.5556   5.5744   6.1586
     6.8104   6.9663   8.2186   9.8573   9.8734  10.0357

          k = 0.3333-0.4995 0.0000 (  2454 PWs)   bands (ev):

   -45.1680 -21.8449 -21.8426 -21.8254  -6.1846  -5.7807  -5.7630  -4.4376
    -4.3714  -4.2376  -4.1607  -4.0897   2.9191   6.0601   6.5477   7.1883
     7.7219   7.8398   7.9586   9.0350   9.7076  10.0913

          k = 0.3333-0.4995 0.2374 (  2432 PWs)   bands (ev):

   -45.1677 -21.8647 -21.8438 -21.8246  -6.0504  -5.8095  -5.7785  -4.3948
    -4.3598  -4.1466  -4.0770  -4.0158   3.2198   5.8511   6.0026   6.0702
     6.8321   7.6296   8.4910   9.4756   9.5049  10.0642

          k = 0.3333-0.4995-0.4748 (  2420 PWs)   bands (ev):

   -45.1673 -21.8869 -21.8426 -21.8236  -6.0399  -5.8530  -5.6349  -4.3640
    -4.3377  -4.0829  -3.9922  -3.9130   3.5974   5.2862   5.4821   5.9133
     6.5715   6.9820   7.4329   9.9603  10.0370  10.1924

          k =-0.5000 0.0000 0.0000 (  2436 PWs)   bands (ev):

   -45.1691 -21.8506 -21.8451 -21.7638  -6.5309  -5.8480  -5.6823  -4.4894
    -4.4310  -4.4054  -4.2243  -4.1681   3.5052   6.0399   7.3564   7.3667
     7.8307   7.9779   8.7232   8.8948   9.3201  11.0260

          k =-0.5000 0.0000 0.2374 (  2428 PWs)   bands (ev):

   -45.1688 -21.8676 -21.8491 -21.7628  -6.4735  -5.7726  -5.5747  -4.4527
    -4.4319  -4.4254  -4.2109  -4.1035   3.2089   6.0125   7.0325   7.2715
     7.5730   7.7807   8.4504   8.8874   9.4215  10.5040

          k =-0.5000 0.0000-0.4748 (  2432 PWs)   bands (ev):

   -45.1685 -21.8899 -21.8477 -21.7618  -6.4561  -5.6919  -5.4008  -4.4453
    -4.4328  -4.4084  -4.2660  -3.9924   2.9407   5.8380   6.4502   7.3327
     7.6024   7.7964   7.8270   8.8824   9.7943  10.1630

          k =-0.5000 0.1665 0.0000 (  2420 PWs)   bands (ev):

   -45.1687 -21.8494 -21.8442 -21.7839  -6.4026  -5.8175  -5.7385  -4.4694
    -4.4074  -4.3524  -4.1883  -4.1586   3.3102   6.0585   7.0864   7.3179
     7.6102   7.9621   8.4119   9.2542   9.4058  10.6320

          k =-0.5000 0.1665 0.2374 (  2426 PWs)   bands (ev):

   -45.1684 -21.8667 -21.8480 -21.7829  -6.3343  -5.7829  -5.6530  -4.4402
    -4.4023  -4.3288  -4.1648  -4.0757   3.2465   6.0172   6.2731   6.6847
     7.3523   8.2242   8.6616   9.1913   9.5224   9.9732

          k =-0.5000 0.1665-0.4748 (  2416 PWs)   bands (ev):

   -45.1681 -21.8889 -21.8467 -21.7819  -6.3196  -5.7495  -5.4926  -4.4341
    -4.3585  -4.3062  -4.1837  -3.9660   3.1356   5.7914   6.1419   6.2926
     6.7369   8.0519   8.8734   9.1408   9.1678  10.1709

          k =-0.5000 0.3330 0.0000 (  2454 PWs)   bands (ev):

   -45.1680 -21.8471 -21.8425 -21.8236  -6.1840  -5.7812  -5.7614  -4.4376
    -4.3714  -4.2363  -4.1620  -4.0893   2.9188   6.0527   6.5537   7.1879
     7.7212   7.8341   7.9634   9.0350   9.7030  10.0948

          k =-0.5000 0.3330 0.2374 (  2432 PWs)   bands (ev):

   -45.1676 -21.8647 -21.8459 -21.8227  -6.0503  -5.8077  -5.7790  -4.3949
    -4.3595  -4.1457  -4.0790  -4.0141   3.2200   5.8496   5.9998   6.0707
     6.8339   7.6300   8.4873   9.4755   9.5045  10.0624

          k =-0.5000 0.3330-0.4748 (  2420 PWs)   bands (ev):

   -45.1673 -21.8868 -21.8447 -21.8217  -6.0407  -5.8509  -5.6349  -4.3643
    -4.3372  -4.0825  -3.9948  -3.9099   3.5987   5.2849   5.4852   5.9094
     6.5673   6.9863   7.4289   9.9568  10.0340  10.1951

          k =-0.5000-0.4995 0.0000 (  2480 PWs)   bands (ev):

   -45.1676 -21.8459 -21.8438 -21.8411  -6.1277  -5.7377  -5.7362  -4.4265
    -4.3232  -4.1838  -4.1820  -4.0377   2.7264   5.9054   6.3811   7.4028
     7.4033   7.9522   7.9588   8.8023   9.2222  10.3548

          k =-0.5000-0.4995 0.2374 (  2424 PWs)   bands (ev):

   -45.1673 -21.8635 -21.8448 -21.8427  -5.9144  -5.8237  -5.8217  -4.3824
    -4.3210  -4.0380  -4.0354  -4.0034   3.1421   5.8622   5.9744   5.9768
     6.3877   7.5715   7.8312   9.5037   9.5047  10.3373

          k =-0.5000-0.4995-0.4748 (  2400 PWs)   bands (ev):

   -45.1669 -21.8857 -21.8437 -21.8416  -5.8987  -5.8964  -5.6945  -4.3383
    -4.3188  -3.9575  -3.9006  -3.8972   3.8148   5.3153   5.3173   5.7453
     6.3943   6.4176   6.6786  10.2043  10.2069  10.3200

     highest occupied level (ev):    11.0260

!    total energy              =    -380.57403761 Ry
     estimated scf accuracy    <          5.6E-09 Ry

     The total energy is the sum of the following terms:
     one-electron contribution =     -79.71501874 Ry
     hartree contribution      =      69.93658928 Ry
     xc contribution           =    -102.67730221 Ry
     ewald contribution        =    -268.11830595 Ry

     convergence has been achieved in  18 iterations

     negative rho (up, down):  1.531E-02 0.000E+00

     Forces acting on atoms (cartesian axes, Ry/au):

     atom    1 type  1   force =     0.00000000    0.00000000    0.00010988
     atom    2 type  2   force =     0.00000000    0.00000000   -0.00129469
     atom    3 type  3   force =     0.00000000    0.00000000    0.00114021
     atom    4 type  3   force =     0.00000000    0.00000000   -0.00008620
     atom    5 type  3   force =     0.00000000    0.00000000    0.00013080

     Total force =     0.001736     Total SCF correction =     0.000258
     SCF correction compared to forces is large: reduce conv_thr to get better values


     Computing stress (Cartesian axis) and pressure


     negative rho (up, down):  1.531E-02 0.000E+00
          total   stress  (Ry/bohr**3)                   (kbar)     P=        0.01
   0.00001501   0.00000000   0.00000000            2.21        0.00        0.00
   0.00000000   0.00000173   0.00000000            0.00        0.25        0.00
   0.00000000   0.00000000  -0.00001661            0.00        0.00       -2.44


     BFGS Geometry Optimization
     Energy error            =      0.0E+00 Ry
     Gradient error          =      1.3E-03 Ry/Bohr

     number of scf cycles    =   1
     number of bfgs steps    =   0

     energy             new  =    -380.5740376132 Ry

     new trust radius        =       0.0012946905 bohr
     new conv_thr            =       0.0000000100 Ry


ATOMIC_POSITIONS (crystal)
Pb               0.0000000000        0.0000000000        1.0051881645
Ti               0.5000000000        0.5000000000        0.5393655149
O                0.5000000000        0.5000000000        0.0996566621
O                0.5000000000        0.0000000000        0.6115228176
O                0.0000000000        0.5000000000        0.6115511287



     Writing config-only to output data dir ./pto_T4_etam0p004.save/ :
     XML data file
     NEW-OLD atomic charge density approx. for the potential

     Check: negative core charge=   -0.000004

     negative rho (up, down):  1.531E-02 0.000E+00

     total cpu time spent up to now is       25.6 secs

     Self-consistent Calculation

     iteration #  1     ecut=    50.00 Ry     beta= 0.70
     CG style diagonalization
     ethr =  1.00E-06,  avg # of iterations =  2.5

     Threshold (ethr) on eigenvalues was too large:
     Diagonalizing with lowered threshold

     CG style diagonalization
     c_bands:  1 eigenvalues not converged
     c_bands:  2 eigenvalues not converged
     c_bands:  1 eigenvalues not converged
     c_bands:  1 eigenvalues not converged
     c_bands:  1 eigenvalues not converged
     c_bands:  1 eigenvalues not converged
     c_bands:  1 eigenvalues not converged
     c_bands:  1 eigenvalues not converged
     c_bands:  1 eigenvalues not converged
     c_bands:  1 eigenvalues not converged
     c_bands:  1 eigenvalues not converged
     c_bands:  1 eigenvalues not converged
     c_bands:  1 eigenvalues not converged
     ethr =  2.95E-09,  avg # of iterations =  6.3

     negative rho (up, down):  1.530E-02 0.000E+00

     total cpu time spent up to now is       28.5 secs

     total energy              =    -380.57403910 Ry
     estimated scf accuracy    <       0.00000148 Ry

     iteration #  2     ecut=    50.00 Ry     beta= 0.70
     CG style diagonalization
     ethr =  3.36E-09,  avg # of iterations =  4.6

     negative rho (up, down):  1.531E-02 0.000E+00

     total cpu time spent up to now is       29.9 secs

     total energy              =    -380.57403887 Ry
     estimated scf accuracy    <       0.00000459 Ry

     iteration #  3     ecut=    50.00 Ry     beta= 0.70
     CG style diagonalization
     ethr =  3.36E-09,  avg # of iterations =  4.2

     negative rho (up, down):  1.531E-02 0.000E+00

     total cpu time spent up to now is       31.2 secs

     total energy              =    -380.57403973 Ry
     estimated scf accuracy    <       0.00000026 Ry

     iteration #  4     ecut=    50.00 Ry     beta= 0.70
     CG style diagonalization
     ethr =  5.90E-10,  avg # of iterations =  3.7

     negative rho (up, down):  1.530E-02 0.000E+00

     total cpu time spent up to now is       32.3 secs

     total energy              =    -380.57403981 Ry
     estimated scf accuracy    <       0.00000003 Ry

     iteration #  5     ecut=    50.00 Ry     beta= 0.70
     CG style diagonalization
     ethr =  7.38E-11,  avg # of iterations =  4.4

     negative rho (up, down):  1.530E-02 0.000E+00

     total cpu time spent up to now is       33.6 secs

     End of self-consistent calculation

          k = 0.0000 0.0000 0.0000 (  2421 PWs)   bands (ev):

   -45.1680 -21.8482 -21.7655 -21.7645  -7.1667  -6.0138  -5.7561  -4.4125
    -4.4121  -4.3721  -4.2535  -4.1438   4.8383   6.7356   6.7438   7.1068
     8.7077   8.7094   8.9481   9.2860   9.4447   9.4465

          k = 0.0000 0.0000 0.2374 (  2437 PWs)   bands (ev):

   -45.1677 -21.8713 -21.7646 -21.7635  -6.9602  -5.9524  -5.6875  -4.4300
    -4.4297  -4.3707  -4.2421  -4.2203   3.9772   6.7900   6.7965   7.3103
     8.4572   8.4611   8.8659   9.3737   9.5633   9.5641

          k = 0.0000 0.0000-0.4748 (  2426 PWs)   bands (ev):

   -45.1673 -21.8943 -21.7637 -21.7626  -6.7357  -5.8852  -5.6258  -4.4474
    -4.4471  -4.3692  -4.3028  -4.2322   3.4346   6.6206   6.8238   6.8282
     8.3011   8.3079   8.7876   9.6393   9.6396  10.6478

          k = 0.0000 0.1665 0.0000 (  2419 PWs)   bands (ev):

   -45.1676 -21.8474 -21.7848 -21.7647  -7.0219  -5.9798  -5.7251  -4.4369
    -4.4105  -4.3870  -4.2567  -4.1319   4.3513   6.7973   6.8538   7.1392
     8.6676   8.7328   8.9476   9.0669   9.1701   9.5614

          k = 0.0000 0.1665 0.2374 (  2432 PWs)   bands (ev):

   -45.1673 -21.8703 -21.7838 -21.7637  -6.8319  -5.9342  -5.6507  -4.4355
    -4.4287  -4.3861  -4.2512  -4.1714   3.7439   6.5821   6.9178   7.3920
     8.1299   8.4438   8.7684   9.1586   9.2340   9.9320

          k = 0.0000 0.1665-0.4748 (  2426 PWs)   bands (ev):

   -45.1670 -21.8931 -21.7828 -21.7628  -6.6354  -5.8824  -5.5738  -4.4467
    -4.4318  -4.3853  -4.2565  -4.2063   3.2901   6.2681   6.9554   7.0416
     7.9334   8.2992   8.8365   9.2178   9.3159  10.5718

          k = 0.0000 0.3330 0.0000 (  2422 PWs)   bands (ev):

   -45.1668 -21.8457 -21.8252 -21.7630  -6.7076  -5.9059  -5.6790  -4.4741
    -4.4166  -4.4072  -4.2521  -4.1366   3.7243   6.4317   7.0905   7.1351
     8.3275   8.3626   8.8018   8.8499   9.2870  10.2170

          k = 0.0000 0.3330 0.2374 (  2415 PWs)   bands (ev):

   -45.1665 -21.8682 -21.8240 -21.7620  -6.5839  -5.8635  -5.5832  -4.4412
    -4.4268  -4.4167  -4.2450  -4.1109   3.3578   6.3013   7.0016   7.2325
     7.7655   8.1886   8.3432   8.9088   9.4208  10.2954

          k = 0.0000 0.3330-0.4748 (  2426 PWs)   bands (ev):

   -45.1662 -21.8906 -21.8228 -21.7610  -6.4919  -5.7962  -5.4573  -4.4459
    -4.4172  -4.4004  -4.2812  -4.0579   3.0373   5.9794   6.7667   7.2740
     7.6531   7.8179   8.1317   8.9422   9.8608  10.1247

          k = 0.0000-0.4995 0.0000 (  2428 PWs)   bands (ev):

   -45.1664 -21.8456 -21.8444 -21.7621  -6.5344  -5.8493  -5.6837  -4.4902
    -4.4311  -4.4056  -4.2266  -4.1683   3.5051   6.0494   7.3583   7.3779
     7.8289   7.9802   8.7236   8.8886   9.3175  11.0203

          k = 0.0000-0.4995 0.2374 (  2430 PWs)   bands (ev):

   -45.1661 -21.8669 -21.8442 -21.7611  -6.4763  -5.7736  -5.5765  -4.4536
    -4.4321  -4.4257  -4.2113  -4.1066   3.2063   6.0205   7.0320   7.2760
     7.5845   7.7792   8.4522   8.8870   9.4212  10.5020

          k = 0.0000-0.4995-0.4748 (  2432 PWs)   bands (ev):

   -45.1658 -21.8892 -21.8428 -21.7601  -6.4581  -5.6924  -5.4031  -4.4455
    -4.4330  -4.4092  -4.2668  -3.9963   2.9362   5.8392   6.4564   7.3373
     7.5989   7.8083   7.8314   8.8856   9.8027  10.1569

          k = 0.1667 0.0000 0.0000 (  2423 PWs)   bands (ev):

   -45.1676 -21.8474 -21.7862 -21.7636  -7.0209  -5.9794  -5.7249  -4.4366
    -4.4108  -4.3871  -4.2566  -4.1315   4.3518   6.8013   6.8458   7.1377
     8.6704   8.7304   8.9484   9.0676   9.1693   9.5613

          k = 0.1667 0.0000 0.2374 (  2429 PWs)   bands (ev):

   -45.1673 -21.8703 -21.7851 -21.7627  -6.8308  -5.9341  -5.6506  -4.4352
    -4.4290  -4.3863  -4.2517  -4.1702   3.7448   6.5855   6.9115   7.3910
     8.1287   8.4400   8.7683   9.1618   9.2330   9.9331

          k = 0.1667 0.0000-0.4748 (  2426 PWs)   bands (ev):

   -45.1670 -21.8931 -21.7841 -21.7617  -6.6341  -5.8828  -5.5737  -4.4470
    -4.4317  -4.3854  -4.2571  -4.2046   3.2912   6.2707   6.9514   7.0399
     7.9352   8.2924   8.8347   9.2220   9.3142  10.5703

          k = 0.1667 0.1665 0.0000 (  2425 PWs)   bands (ev):

   -45.1672 -21.8465 -21.7853 -21.7839  -6.8785  -5.9444  -5.7161  -4.4425
    -4.4270  -4.3908  -4.2327  -4.1206   4.0216   6.7237   6.9716   7.1947
     8.1897   8.3076   9.0409   9.0782   9.3864   9.7957

          k = 0.1667 0.1665 0.2374 (  2422 PWs)   bands (ev):

   -45.1669 -21.8693 -21.7842 -21.7829  -6.6996  -5.9186  -5.6421  -4.4455
    -4.4220  -4.3847  -4.2224  -4.1362   3.6211   6.5005   6.6097   7.3346
     8.0237   8.0446   8.8488   9.2231   9.4637   9.9032

          k = 0.1667 0.1665-0.4748 (  2444 PWs)   bands (ev):

   -45.1666 -21.8919 -21.7832 -21.7818  -6.5214  -5.8927  -5.5559  -4.4585
    -4.4004  -4.3620  -4.2280  -4.1578   3.2578   6.2847   6.3397   7.0276
     7.9339   7.9693   8.7540   9.2991   9.5217  10.2694

          k = 0.1667 0.3330 0.0000 (  2425 PWs)   bands (ev):

   -45.1664 -21.8449 -21.8241 -21.7834  -6.5724  -5.8724  -5.7136  -4.4670
    -4.4159  -4.3750  -4.2083  -4.1256   3.5099   6.4301   6.9725   7.2689
     7.6520   8.2379   8.5462   9.2235   9.4099  10.2961

          k = 0.1667 0.3330 0.2374 (  2428 PWs)   bands (ev):

   -45.1661 -21.8672 -21.8230 -21.7823  -6.4450  -5.8630  -5.6320  -4.4426
    -4.4166  -4.3516  -4.1873  -4.0846   3.3629   6.2499   6.3816   6.9382
     7.3903   8.0826   8.9041   9.1813   9.5142  10.0062

          k = 0.1667 0.3330-0.4748 (  2424 PWs)   bands (ev):

   -45.1658 -21.8896 -21.8218 -21.7813  -6.3554  -5.8396  -5.5112  -4.4402
    -4.3909  -4.3106  -4.1999  -4.0304   3.1720   5.8968   6.3146   6.6419
     6.8825   7.9411   9.0138   9.2302   9.5120   9.9494

          k = 0.1667-0.4995 0.0000 (  2420 PWs)   bands (ev):

   -45.1661 -21.8445 -21.8435 -21.7824  -6.4051  -5.8186  -5.7394  -4.4700
    -4.4079  -4.3531  -4.1903  -4.1585   3.3107   6.0684   7.0885   7.3156
     7.6165   7.9613   8.4067   9.2588   9.4057  10.6267

          k = 0.1667-0.4995 0.2374 (  2430 PWs)   bands (ev):

   -45.1657 -21.8660 -21.8431 -21.7814  -6.3359  -5.7839  -5.6543  -4.4408
    -4.4029  -4.3295  -4.1645  -4.0787   3.2449   6.0250   6.2769   6.6826
     7.3518   8.2253   8.6722   9.1909   9.5228   9.9707

          k = 0.1667-0.4995-0.4748 (  2408 PWs)   bands (ev):

   -45.1654 -21.8882 -21.8418 -21.7804  -6.3204  -5.7504  -5.4944  -4.4348
    -4.3592  -4.3069  -4.1832  -3.9697   3.1319   5.7910   6.1466   6.2979
     6.7383   8.0539   8.8846   9.1424   9.1720  10.1661

          k = 0.3333 0.0000 0.0000 (  2422 PWs)   bands (ev):

   -45.1668 -21.8457 -21.8269 -21.7619  -6.7046  -5.9046  -5.6784  -4.4738
    -4.4170  -4.4075  -4.2515  -4.1360   3.7244   6.4271   7.0902   7.1270
     8.3296   8.3594   8.8023   8.8502   9.2867  10.2187

          k = 0.3333 0.0000 0.2374 (  2421 PWs)   bands (ev):

   -45.1665 -21.8682 -21.8258 -21.7609  -6.5808  -5.8628  -5.5826  -4.4408
    -4.4270  -4.4171  -4.2453  -4.1087   3.3597   6.2991   6.9998   7.2263
     7.7631   8.1851   8.3407   8.9062   9.4226  10.2971

          k = 0.3333 0.0000-0.4748 (  2426 PWs)   bands (ev):

   -45.1662 -21.8906 -21.8246 -21.7599  -6.4889  -5.7961  -5.4568  -4.4462
    -4.4176  -4.4001  -4.2814  -4.0549   3.0404   5.9803   6.7630   7.2709
     7.6481   7.8153   8.1251   8.9383   9.8671  10.1178

          k = 0.3333 0.1665 0.0000 (  2426 PWs)   bands (ev):

   -45.1664 -21.8449 -21.8258 -21.7820  -6.5705  -5.8714  -5.7132  -4.4669
    -4.4159  -4.3750  -4.2080  -4.1253   3.5096   6.4250   6.9710   7.2670
     7.6534   8.2382   8.5464   9.2197   9.4096  10.2984

          k = 0.3333 0.1665 0.2374 (  2427 PWs)   bands (ev):

   -45.1661 -21.8672 -21.8248 -21.7810  -6.4430  -5.8625  -5.6316  -4.4425
    -4.4165  -4.3516  -4.1879  -4.0829   3.3640   6.2478   6.3791   6.9376
     7.3901   8.0800   8.8982   9.1791   9.5156  10.0080

          k = 0.3333 0.1665-0.4748 (  2426 PWs)   bands (ev):

   -45.1658 -21.8895 -21.8236 -21.7800  -6.3536  -5.8392  -5.5109  -4.4401
    -4.3909  -4.3107  -4.2009  -4.0278   3.1743   5.8976   6.3125   6.6411
     6.8778   7.9394   9.0086   9.2247   9.5118   9.9514

          k = 0.3333 0.3330 0.0000 (  2434 PWs)   bands (ev):

   -45.1657 -21.8431 -21.8237 -21.8219  -6.3053  -5.8049  -5.7648  -4.4465
    -4.3962  -4.3027  -4.1278  -4.1256   3.1055   6.4124   6.5072   7.3740
     7.5280   7.6742   8.3437   9.0665   9.8888  10.0257

          k = 0.3333 0.3330 0.2374 (  2426 PWs)   bands (ev):

   -45.1653 -21.8652 -21.8228 -21.8209  -6.1685  -5.8532  -5.7208  -4.4046
    -4.3891  -4.2420  -4.0785  -4.0471   3.2935   5.9572   6.0292   6.4097
     7.0525   7.5577   8.9646   9.4762   9.5214   9.9046

          k = 0.3333 0.3330-0.4748 (  2430 PWs)   bands (ev):

   -45.1650 -21.8874 -21.8217 -21.8199  -6.0984  -5.8982  -5.5978  -4.3821
    -4.3630  -4.1764  -4.0292  -3.9689   3.4572   5.5549   5.5749   6.1588
     6.8113   6.9687   8.2179   9.8552   9.8745  10.0342

          k = 0.3333-0.4995 0.0000 (  2454 PWs)   bands (ev):

   -45.1653 -21.8421 -21.8418 -21.8226  -6.1853  -5.7804  -5.7623  -4.4380
    -4.3721  -4.2381  -4.1612  -4.0905   2.9195   6.0616   6.5500   7.1858
     7.7183   7.8411   7.9597   9.0351   9.7072  10.0925

          k = 0.3333-0.4995 0.2374 (  2432 PWs)   bands (ev):

   -45.1650 -21.8640 -21.8409 -21.8217  -6.0501  -5.8089  -5.7792  -4.3952
    -4.3604  -4.1474  -4.0774  -4.0163   3.2202   5.8507   6.0030   6.0709
     6.8337   7.6297   8.4911   9.4742   9.5034  10.0652

          k = 0.3333-0.4995-0.4748 (  2420 PWs)   bands (ev):

   -45.1646 -21.8861 -21.8397 -21.8207  -6.0390  -5.8524  -5.6362  -4.3646
    -4.3383  -4.0840  -3.9925  -3.9133   3.5976   5.2866   5.4812   5.9144
     6.5727   6.9839   7.4321   9.9584  10.0382  10.1906

          k =-0.5000 0.0000 0.0000 (  2436 PWs)   bands (ev):

   -45.1664 -21.8477 -21.8444 -21.7610  -6.5303  -5.8471  -5.6833  -4.4898
    -4.4317  -4.4059  -4.2248  -4.1686   3.5049   6.0420   7.3559   7.3683
     7.8321   7.9784   8.7233   8.8887   9.3173  11.0246

          k =-0.5000 0.0000 0.2374 (  2428 PWs)   bands (ev):

   -45.1661 -21.8668 -21.8463 -21.7600  -6.4726  -5.7718  -5.5762  -4.4532
    -4.4326  -4.4259  -4.2114  -4.1039   3.2086   6.0142   7.0325   7.2716
     7.5746   7.7792   8.4504   8.8843   9.4213  10.5023

          k =-0.5000 0.0000-0.4748 (  2432 PWs)   bands (ev):

   -45.1658 -21.8891 -21.8448 -21.7590  -6.4550  -5.6910  -5.4025  -4.4457
    -4.4335  -4.4089  -4.2665  -3.9927   2.9405   5.8377   6.4512   7.3332
     7.5999   7.7982   7.8284   8.8812   9.7940  10.1608

          k =-0.5000 0.1665 0.0000 (  2420 PWs)   bands (ev):

   -45.1660 -21.8465 -21.8435 -21.7810  -6.4023  -5.8166  -5.7392  -4.4698
    -4.4079  -4.3531  -4.1889  -4.1591   3.3103   6.0607   7.0852   7.3190
     7.6119   7.9632   8.4064   9.2544   9.4045  10.6311

          k =-0.5000 0.1665 0.2374 (  2426 PWs)   bands (ev):

   -45.1657 -21.8659 -21.8452 -21.7800  -6.3335  -5.7820  -5.6542  -4.4407
    -4.4028  -4.3296  -4.1653  -4.0761   3.2465   6.0188   6.2735   6.6843
     7.3521   8.2240   8.6625   9.1889   9.5227   9.9713

          k =-0.5000 0.1665-0.4748 (  2416 PWs)   bands (ev):

   -45.1654 -21.8882 -21.8438 -21.7790  -6.3186  -5.7487  -5.4941  -4.4347
    -4.3589  -4.3071  -4.1841  -3.9663   3.1354   5.7906   6.1429   6.2935
     6.7372   8.0531   8.8733   9.1384   9.1683  10.1691

          k =-0.5000 0.3330 0.0000 (  2454 PWs)   bands (ev):

   -45.1653 -21.8442 -21.8417 -21.8208  -6.1848  -5.7809  -5.7605  -4.4380
    -4.3720  -4.2369  -4.1623  -4.0902   2.9192   6.0546   6.5558   7.1855
     7.7176   7.8358   7.9641   9.0350   9.7027  10.0959

          k =-0.5000 0.3330 0.2374 (  2432 PWs)   bands (ev):

   -45.1650 -21.8639 -21.8430 -21.8199  -6.0501  -5.8069  -5.7797  -4.3954
    -4.3601  -4.1465  -4.0793  -4.0147   3.2204   5.8493   6.0005   6.0712
     6.8354   7.6299   8.4874   9.4742   9.5029  10.0634

          k =-0.5000 0.3330-0.4748 (  2420 PWs)   bands (ev):

   -45.1646 -21.8861 -21.8418 -21.8189  -6.0400  -5.8501  -5.6362  -4.3649
    -4.3377  -4.0836  -3.9950  -3.9103   3.5991   5.2853   5.4841   5.9107
     6.5688   6.9878   7.4282   9.9548  10.0352  10.1934

          k =-0.5000-0.4995 0.0000 (  2480 PWs)   bands (ev):

   -45.1649 -21.8430 -21.8409 -21.8404  -6.1291  -5.7370  -5.7354  -4.4270
    -4.3238  -4.1840  -4.1825  -4.0388   2.7270   5.9068   6.3842   7.3997
     7.4002   7.9536   7.9598   8.8021   9.2231  10.3560

          k =-0.5000-0.4995 0.2374 (  2424 PWs)   bands (ev):

   -45.1646 -21.8627 -21.8419 -21.8398  -5.9157  -5.8231  -5.8210  -4.3829
    -4.3217  -4.0382  -4.0358  -4.0046   3.1428   5.8636   5.9737   5.9758
     6.3908   7.5714   7.8314   9.5025   9.5033  10.3385

          k =-0.5000-0.4995-0.4748 (  2400 PWs)   bands (ev):

   -45.1643 -21.8849 -21.8409 -21.8387  -5.8981  -5.8956  -5.6958  -4.3387
    -4.3195  -3.9589  -3.9008  -3.8975   3.8159   5.3148   5.3166   5.7466
     6.3974   6.4171   6.6788  10.2025  10.2053  10.3212

     highest occupied level (ev):    11.0246

!    total energy              =    -380.57403983 Ry
     estimated scf accuracy    <          4.5E-09 Ry

     The total energy is the sum of the following terms:
     one-electron contribution =     -79.72167095 Ry
     hartree contribution      =      69.94087254 Ry
     xc contribution           =    -102.67793986 Ry
     ewald contribution        =    -268.11530156 Ry

     convergence has been achieved in   5 iterations

     negative rho (up, down):  1.530E-02 0.000E+00

     Forces acting on atoms (cartesian axes, Ry/au):

     atom    1 type  1   force =     0.00000000    0.00000000    0.00010162
     atom    2 type  2   force =     0.00000000    0.00000000   -0.00050147
     atom    3 type  3   force =     0.00000000    0.00000000    0.00033498
     atom    4 type  3   force =     0.00000000    0.00000000   -0.00006830
     atom    5 type  3   force =     0.00000000    0.00000000    0.00013316

     Total force =     0.000630     Total SCF correction =     0.000218
     SCF correction compared to forces is large: reduce conv_thr to get better values


     Computing stress (Cartesian axis) and pressure


     negative rho (up, down):  1.530E-02 0.000E+00
          total   stress  (Ry/bohr**3)                   (kbar)     P=        0.49
   0.00001602   0.00000000   0.00000000            2.36        0.00        0.00
   0.00000000   0.00000261   0.00000000            0.00        0.38        0.00
   0.00000000   0.00000000  -0.00000872            0.00        0.00       -1.28

     Energy error            =      2.2E-06 Ry
     Gradient error          =      5.0E-04 Ry/Bohr

     bfgs converged in   2 scf cycles and   1 bfgs steps
     (criteria: energy <  1.0E-04 Ry, force <  1.0E-03 Ry/Bohr)

     End of BFGS Geometry Optimization

     Final energy             =    -380.5740398274 Ry

     File ./pto_T4_etam0p004.bfgs deleted, as requested
Begin final coordinates

ATOMIC_POSITIONS (crystal)
Pb               0.0000000000        0.0000000000        1.0051881645
Ti               0.5000000000        0.5000000000        0.5393655149
O                0.5000000000        0.5000000000        0.0996566621
O                0.5000000000        0.0000000000        0.6115228176
O                0.0000000000        0.5000000000        0.6115511287
End final coordinates



     Writing all to output data dir ./pto_T4_etam0p004.save/ :
     XML data file, charge density, pseudopotentials, collected wavefunctions
 
     init_run     :      0.44s CPU      0.54s WALL (       1 calls)
     electrons    :     29.39s CPU     31.26s WALL (       2 calls)
     update_pot   :      0.00s CPU      0.00s WALL (       1 calls)
     forces       :      0.26s CPU      0.27s WALL (       2 calls)
     stress       :      2.74s CPU      2.77s WALL (       2 calls)

     Called by init_run:
     wfcinit      :      0.24s CPU      0.28s WALL (       1 calls)
     potinit      :      0.01s CPU      0.01s WALL (       1 calls)
     hinit0       :      0.10s CPU      0.14s WALL (       1 calls)

     Called by electrons:
     c_bands      :     25.51s CPU     27.09s WALL (      24 calls)
     sum_band     :      2.86s CPU      2.99s WALL (      24 calls)
     v_of_rho     :      0.04s CPU      0.04s WALL (      25 calls)
     newd         :      1.02s CPU      1.14s WALL (      25 calls)
     mix_rho      :      0.03s CPU      0.03s WALL (      24 calls)

     Called by c_bands:
     init_us_2    :      0.24s CPU      0.26s WALL (    2544 calls)
     init_us_2:cp :      0.24s CPU      0.25s WALL (    2544 calls)
     ccgdiagg     :     22.61s CPU     24.04s WALL (    1152 calls)
     wfcrot       :      2.92s CPU      3.09s WALL (    1056 calls)

     Called by *cgdiagg:
     h_psi        :     14.42s CPU     15.30s WALL (   86833 calls)
     s_psi        :      1.92s CPU      2.05s WALL (  172610 calls)

     Called by h_psi:
     h_psi:calbec :      2.26s CPU      2.40s WALL (   86833 calls)
     vloc_psi     :     10.39s CPU     11.03s WALL (   86833 calls)
     add_vuspsi   :      1.08s CPU      1.15s WALL (   86833 calls)
     hs_1psi      :     13.52s CPU     14.36s WALL (   85777 calls)
     s_1psi       :      3.19s CPU      3.38s WALL (   85777 calls)

     General routines
     calbec       :      4.07s CPU      4.33s WALL (  174242 calls)
     fft          :      0.04s CPU      0.06s WALL (     164 calls)
     ffts         :      0.00s CPU      0.00s WALL (      49 calls)
     fftw         :      8.94s CPU      9.45s WALL (  244226 calls)
     interpolate  :      0.01s CPU      0.01s WALL (      25 calls)
 
     Parallel routines
 
     PWSCF        :     33.13s CPU     35.70s WALL

 
   This run was terminated on:   0:24:52  18Nov2025            

=------------------------------------------------------------------------------=
   JOB DONE.
=------------------------------------------------------------------------------=
TACC:  Shutdown complete. Exiting. 
