TACC:  Starting up job 2476548 
TACC:  Starting parallel tasks... 

     Program PWSCF v.7.3 starts on 18Oct2025 at 15:25:41 

     This program is part of the open-source Quantum ESPRESSO suite
     for quantum simulation of materials; please cite
         "P. Giannozzi et al., J. Phys.:Condens. Matter 21 395502 (2009);
         "P. Giannozzi et al., J. Phys.:Condens. Matter 29 465901 (2017);
         "P. Giannozzi et al., J. Chem. Phys. 152 154105 (2020);
          URL http://www.quantum-espresso.org", 
     in publications or presentations arising from this work. More details at
     http://www.quantum-espresso.org/quote

     Parallel version (MPI & OpenMP), running on      10 processor cores
     Number of MPI processes:                10
     Threads/MPI process:                     1

     MPI processes distributed on     1 nodes
     186301 MiB available memory on the printing compute node when the environment starts
 
     Waiting for input...
     Reading input from standard input
Warning: card &CELL ignored
Warning: card  CELL_DYNAMICS = 'BFGS', ignored
Warning: card  PRESS=0.D0, ignored
Warning: card / ignored

     Current dimensions of program PWSCF are:
     Max number of different atomic species (ntypx) = 10
     Max number of k-points (npk) =  40000
     Max angular momentum in pseudopotentials (lmaxx) =  4
 
     R & G space division:  proc/nbgrp/npool/nimage =      10
     Subspace diagonalization in iterative solution of the eigenvalue problem:
     a serial algorithm will be used

 
     Parallelization info
     --------------------
     sticks:   dense  smooth     PW     G-vecs:    dense   smooth      PW
     Min          94      37     12                 2162      543     104
     Max          95      38     14                 2165      546     105
     Sum         949     373    129                21631     5449    1045
 
     Using Slab Decomposition
 


     bravais-lattice index     =            1
     lattice parameter (alat)  =       7.6794  a.u.
     unit-cell volume          =     452.8787 (a.u.)^3
     number of atoms/cell      =            5
     number of atomic types    =            3
     number of electrons       =        40.00
     number of Kohn-Sham states=           20
     kinetic-energy cutoff     =      20.0000  Ry
     charge density cutoff     =     200.0000  Ry
     scf convergence threshold =      1.0E-08
     mixing beta               =       0.7000
     number of iterations used =            8  plain     mixing
     Exchange-correlation= SLA  PZ   NOGX NOGC
                           (   1   1   0   0   0   0   0)

     celldm(1)=   7.679400  celldm(2)=   0.000000  celldm(3)=   0.000000
     celldm(4)=   0.000000  celldm(5)=   0.000000  celldm(6)=   0.000000

     crystal axes: (cart. coord. in units of alat)
               a(1) = (   1.000000   0.000000   0.000000 )  
               a(2) = (   0.000000   1.000000   0.000000 )  
               a(3) = (   0.000000   0.000000   1.000000 )  

     reciprocal axes: (cart. coord. in units 2 pi/alat)
               b(1) = (  1.000000  0.000000  0.000000 )  
               b(2) = (  0.000000  1.000000  0.000000 )  
               b(3) = (  0.000000  0.000000  1.000000 )  


     PseudoPot. # 1 for Ba read from file:
     /scratch/11018/zhc/Assisgnment2/Q1/1D/Kpoints/Ba_LDA.UPF
     MD5 check sum: 0ec7675c796dc0a11c6269c68e51391e
     Pseudo is Ultrasoft + core correction, Zval = 10.0
     Generated by new atomic code, or converted to UPF format
     Using radial grid of  907 points,  7 beta functions with: 
                l(1) =   0
                l(2) =   0
                l(3) =   1
                l(4) =   1
                l(5) =   2
                l(6) =   2
                l(7) =   3
     Q(r) pseudized with  6 coefficients,  rinner =    1.700   1.700   1.700
                                                       1.700   1.700   1.700
                                                       1.700

     PseudoPot. # 2 for Ti read from file:
     /scratch/11018/zhc/Assisgnment2/Q1/1D/Kpoints/Ti_LDA.UPF
     MD5 check sum: 0d9f225c038fe889ca2a701dcc8d72cb
     Pseudo is Ultrasoft + core correction, Zval = 12.0
     Generated by new atomic code, or converted to UPF format
     Using radial grid of  851 points,  6 beta functions with: 
                l(1) =   0
                l(2) =   0
                l(3) =   1
                l(4) =   1
                l(5) =   2
                l(6) =   2
     Q(r) pseudized with  6 coefficients,  rinner =    1.000   1.000   1.000
                                                       1.000   1.000

     PseudoPot. # 3 for O  read from file:
     /scratch/11018/zhc/Assisgnment2/Q1/1D/Kpoints/O_LDA.UPF
     MD5 check sum: 194b818514d2a7dbb603bb78519a4f40
     Pseudo is Ultrasoft + core correction, Zval =  6.0
     Generated by new atomic code, or converted to UPF format
     Using radial grid of  737 points,  5 beta functions with: 
                l(1) =   0
                l(2) =   0
                l(3) =   1
                l(4) =   1
                l(5) =   2
     Q(r) pseudized with  8 coefficients,  rinner =    0.900   0.900   0.900
                                                       0.900   0.900

     atomic species   valence    mass     pseudopotential
     Ba               10.00   137.32700     Ba( 1.00)
     Ti               12.00    47.88000     Ti( 1.00)
     O                 6.00    16.00000     O ( 1.00)

      8 Sym. Ops. (no inversion) found



   Cartesian axes

     site n.     atom                  positions (alat units)
         1        Ba     tau(   1) = (   0.0000000   0.0000000   0.0000000  )
         2        Ti     tau(   2) = (   0.5000000   0.5000000   0.4900000  )
         3        O      tau(   3) = (   0.5000000   0.5000000   0.0000000  )
         4        O      tau(   4) = (   0.5000000   0.0000000   0.5000000  )
         5        O      tau(   5) = (   0.0000000   0.5000000   0.5000000  )

     number of k points=     6
                       cart. coord. in units 2pi/alat
        k(    1) = (   0.0000000   0.0000000   0.0000000), wk =   0.2500000
        k(    2) = (   0.0000000   0.0000000  -0.5000000), wk =   0.2500000
        k(    3) = (   0.0000000  -0.5000000  -0.5000000), wk =   0.5000000
        k(    4) = (  -0.5000000  -0.5000000  -0.5000000), wk =   0.2500000
        k(    5) = (  -0.5000000   0.0000000   0.0000000), wk =   0.5000000
        k(    6) = (  -0.5000000   0.5000000   0.0000000), wk =   0.2500000

     Dense  grid:    21631 G-vectors     FFT dimensions: (  36,  36,  36)

     Smooth grid:     5449 G-vectors     FFT dimensions: (  24,  24,  24)

     Estimated max dynamical RAM per process >      20.49 MB

     Estimated total dynamical RAM >     204.88 MB

     Check: negative core charge=   -0.000005

     Initial potential from superposition of free atoms

     starting charge      38.9872, renormalised to      40.0000

     negative rho (up, down):  1.016E-01 0.000E+00
     Starting wfcs are   35 randomized atomic wfcs

     total cpu time spent up to now is        0.4 secs

     Self-consistent Calculation

     iteration #  1     ecut=    20.00 Ry     beta= 0.70
     CG style diagonalization
     ethr =  1.00E-02,  avg # of iterations =  2.2

     negative rho (up, down):  9.677E-02 0.000E+00

     total cpu time spent up to now is        0.6 secs

     total energy              =    -286.05441152 Ry
     estimated scf accuracy    <       0.58009966 Ry

     iteration #  2     ecut=    20.00 Ry     beta= 0.70
     CG style diagonalization
     ethr =  1.45E-03,  avg # of iterations =  4.5

     negative rho (up, down):  9.536E-02 0.000E+00

     total cpu time spent up to now is        0.7 secs

     total energy              =    -285.33247836 Ry
     estimated scf accuracy    <       6.67859001 Ry

     iteration #  3     ecut=    20.00 Ry     beta= 0.70
     CG style diagonalization
     ethr =  1.45E-03,  avg # of iterations =  4.4

     negative rho (up, down):  9.484E-02 0.000E+00

     total cpu time spent up to now is        0.8 secs

     total energy              =    -286.32193705 Ry
     estimated scf accuracy    <       0.14893519 Ry

     iteration #  4     ecut=    20.00 Ry     beta= 0.70
     CG style diagonalization
     ethr =  3.72E-04,  avg # of iterations =  3.3

     negative rho (up, down):  9.463E-02 0.000E+00

     total cpu time spent up to now is        1.0 secs

     total energy              =    -286.32001660 Ry
     estimated scf accuracy    <       0.06955868 Ry

     iteration #  5     ecut=    20.00 Ry     beta= 0.70
     CG style diagonalization
     ethr =  1.74E-04,  avg # of iterations =  3.3

     negative rho (up, down):  9.470E-02 0.000E+00

     total cpu time spent up to now is        1.1 secs

     total energy              =    -286.32397104 Ry
     estimated scf accuracy    <       0.00999280 Ry

     iteration #  6     ecut=    20.00 Ry     beta= 0.70
     CG style diagonalization
     ethr =  2.50E-05,  avg # of iterations =  3.4

     negative rho (up, down):  9.476E-02 0.000E+00

     total cpu time spent up to now is        1.2 secs

     total energy              =    -286.32504988 Ry
     estimated scf accuracy    <       0.00112373 Ry

     iteration #  7     ecut=    20.00 Ry     beta= 0.70
     CG style diagonalization
     ethr =  2.81E-06,  avg # of iterations =  3.9

     negative rho (up, down):  9.479E-02 0.000E+00

     total cpu time spent up to now is        1.3 secs

     total energy              =    -286.32547290 Ry
     estimated scf accuracy    <       0.00012019 Ry

     iteration #  8     ecut=    20.00 Ry     beta= 0.70
     CG style diagonalization
     ethr =  3.00E-07,  avg # of iterations =  4.0

     negative rho (up, down):  9.479E-02 0.000E+00

     total cpu time spent up to now is        1.4 secs

     total energy              =    -286.32551985 Ry
     estimated scf accuracy    <       0.00011710 Ry

     iteration #  9     ecut=    20.00 Ry     beta= 0.70
     CG style diagonalization
     ethr =  2.93E-07,  avg # of iterations =  3.1

     negative rho (up, down):  9.477E-02 0.000E+00

     total cpu time spent up to now is        1.5 secs

     total energy              =    -286.32550792 Ry
     estimated scf accuracy    <       0.00006245 Ry

     iteration # 10     ecut=    20.00 Ry     beta= 0.70
     CG style diagonalization
     ethr =  1.56E-07,  avg # of iterations =  3.3

     negative rho (up, down):  9.477E-02 0.000E+00

     total cpu time spent up to now is        1.6 secs

     total energy              =    -286.32551407 Ry
     estimated scf accuracy    <       0.00000367 Ry

     iteration # 11     ecut=    20.00 Ry     beta= 0.70
     CG style diagonalization
     ethr =  9.18E-09,  avg # of iterations =  3.9

     negative rho (up, down):  9.477E-02 0.000E+00

     total cpu time spent up to now is        1.8 secs

     total energy              =    -286.32551558 Ry
     estimated scf accuracy    <       0.00000012 Ry

     iteration # 12     ecut=    20.00 Ry     beta= 0.70
     CG style diagonalization
     ethr =  3.07E-10,  avg # of iterations =  4.5

     negative rho (up, down):  9.477E-02 0.000E+00

     total cpu time spent up to now is        1.9 secs

     total energy              =    -286.32551573 Ry
     estimated scf accuracy    <       0.00000005 Ry

     iteration # 13     ecut=    20.00 Ry     beta= 0.70
     CG style diagonalization
     ethr =  1.23E-10,  avg # of iterations =  3.5

     negative rho (up, down):  9.477E-02 0.000E+00

     total cpu time spent up to now is        2.0 secs

     End of self-consistent calculation

          k = 0.0000 0.0000 0.0000 (   691 PWs)   bands (ev):

   -47.6507 -24.0405 -24.0405 -24.0384 -15.2339  -7.4528  -6.7711  -6.7562
    -0.3852  -0.3852  -0.3825   7.0702   7.0706   7.0706   8.5463   8.5463
     8.5625   9.3455   9.3463   9.3463

          k = 0.0000 0.0000-0.5000 (   682 PWs)   bands (ev):

   -47.6497 -24.0577 -24.0425 -24.0425 -15.1345  -7.5937  -6.7268  -6.5597
    -0.2286  -0.2286  -0.0521   5.6760   6.7119   6.7119   7.6920   7.6920
     7.7118   7.7423   8.8614   8.8614

          k = 0.0000-0.5000-0.5000 (   680 PWs)   bands (ev):

   -47.6488 -24.0669 -24.0645 -24.0468 -15.0682  -7.0656  -6.7488  -6.7290
    -0.4502  -0.4459  -0.0438   5.2610   5.5540   5.9225   6.8597   6.8865
     7.6975   8.7123   8.7154   9.5658

          k =-0.5000-0.5000-0.5000 (   672 PWs)   bands (ev):

   -47.6474 -24.0712 -24.0712 -24.0687 -15.0115  -6.6060  -6.5854  -6.5854
    -1.0371  -1.0371  -1.0334   4.9360   5.9924   6.0104   7.0369   7.0369
     7.0462   9.6485   9.6485   9.6632

          k =-0.5000 0.0000 0.0000 (   682 PWs)   bands (ev):

   -47.6497 -24.0600 -24.0424 -24.0402 -15.1344  -7.6039  -6.7379  -6.5392
    -0.2280  -0.2256  -0.0556   5.7002   6.7056   6.7140   7.6393   7.7145
     7.7356   7.7739   8.8235   8.8415

          k =-0.5000 0.5000 0.0000 (   680 PWs)   bands (ev):

   -47.6488 -24.0669 -24.0669 -24.0446 -15.0681  -7.0870  -6.7291  -6.7291
    -0.4496  -0.4496  -0.0414   5.2660   5.5655   5.9356   6.8851   6.8851
     7.6878   8.6888   8.6888   9.5803

     highest occupied level (ev):     9.6632

!    total energy              =    -286.32551574 Ry
     estimated scf accuracy    <          2.8E-09 Ry

     The total energy is the sum of the following terms:
     one-electron contribution =     -74.72522123 Ry
     hartree contribution      =      59.49900546 Ry
     xc contribution           =     -66.91308593 Ry
     ewald contribution        =    -204.18621404 Ry

     convergence has been achieved in  13 iterations

     negative rho (up, down):  9.477E-02 0.000E+00

     Forces acting on atoms (cartesian axes, Ry/au):

     atom    1 type  1   force =     0.00000000    0.00000000   -0.00567621
     atom    2 type  2   force =     0.00000000    0.00000000   -0.06113510
     atom    3 type  3   force =     0.00000000    0.00000000    0.04887484
     atom    4 type  3   force =     0.00000000    0.00000000    0.00896824
     atom    5 type  3   force =     0.00000000    0.00000000    0.00896824

     Total force =     0.079494     Total SCF correction =     0.000036


     Computing stress (Cartesian axis) and pressure


     negative rho (up, down):  9.477E-02 0.000E+00
          total   stress  (Ry/bohr**3)                   (kbar)     P=    -1134.56
  -0.00772010   0.00000000   0.00000000        -1135.67        0.00        0.00
   0.00000000  -0.00772010   0.00000000            0.00    -1135.67        0.00
   0.00000000   0.00000000  -0.00769754            0.00        0.00    -1132.35


     Writing all to output data dir ./BTO_k2.save/ :
     XML data file, charge density, pseudopotentials, collected wavefunctions
 
     init_run     :      0.12s CPU      0.20s WALL (       1 calls)
     electrons    :      1.38s CPU      1.60s WALL (       1 calls)
     forces       :      0.02s CPU      0.03s WALL (       1 calls)
     stress       :      0.15s CPU      0.16s WALL (       1 calls)

     Called by init_run:
     wfcinit      :      0.02s CPU      0.04s WALL (       1 calls)
     potinit      :      0.01s CPU      0.01s WALL (       1 calls)
     hinit0       :      0.08s CPU      0.11s WALL (       1 calls)

     Called by electrons:
     c_bands      :      0.84s CPU      0.92s WALL (      13 calls)
     sum_band     :      0.33s CPU      0.38s WALL (      13 calls)
     v_of_rho     :      0.01s CPU      0.01s WALL (      14 calls)
     newd         :      0.21s CPU      0.28s WALL (      14 calls)
     mix_rho      :      0.01s CPU      0.01s WALL (      13 calls)

     Called by c_bands:
     init_us_2    :      0.01s CPU      0.01s WALL (     174 calls)
     init_us_2:cp :      0.01s CPU      0.01s WALL (     174 calls)
     ccgdiagg     :      0.73s CPU      0.80s WALL (      78 calls)
     wfcrot       :      0.11s CPU      0.15s WALL (      78 calls)

     Called by *cgdiagg:
     h_psi        :      0.43s CPU      0.48s WALL (    4327 calls)
     s_psi        :      0.06s CPU      0.07s WALL (    8576 calls)

     Called by h_psi:
     h_psi:calbec :      0.08s CPU      0.09s WALL (    4327 calls)
     vloc_psi     :      0.28s CPU      0.31s WALL (    4327 calls)
     add_vuspsi   :      0.04s CPU      0.04s WALL (    4327 calls)
     hs_1psi      :      0.40s CPU      0.44s WALL (    4249 calls)
     s_1psi       :      0.12s CPU      0.13s WALL (    4249 calls)

     General routines
     calbec       :      0.15s CPU      0.16s WALL (    8684 calls)
     fft          :      0.01s CPU      0.02s WALL (      90 calls)
     ffts         :      0.00s CPU      0.00s WALL (      27 calls)
     fftw         :      0.26s CPU      0.28s WALL (   13358 calls)
     interpolate  :      0.00s CPU      0.00s WALL (      14 calls)
 
     Parallel routines
 
     PWSCF        :      1.88s CPU      2.35s WALL

 
   This run was terminated on:  15:25:43  18Oct2025            

=------------------------------------------------------------------------------=
   JOB DONE.
=------------------------------------------------------------------------------=
TACC:  Shutdown complete. Exiting. 
