TACC:  Starting up job 2482656 
TACC:  Starting parallel tasks... 

     Program PWSCF v.7.3 starts on 20Oct2025 at 19:46: 8 

     This program is part of the open-source Quantum ESPRESSO suite
     for quantum simulation of materials; please cite
         "P. Giannozzi et al., J. Phys.:Condens. Matter 21 395502 (2009);
         "P. Giannozzi et al., J. Phys.:Condens. Matter 29 465901 (2017);
         "P. Giannozzi et al., J. Chem. Phys. 152 154105 (2020);
          URL http://www.quantum-espresso.org", 
     in publications or presentations arising from this work. More details at
     http://www.quantum-espresso.org/quote

     Parallel version (MPI & OpenMP), running on      10 processor cores
     Number of MPI processes:                10
     Threads/MPI process:                     1

     MPI processes distributed on     1 nodes
     188936 MiB available memory on the printing compute node when the environment starts
 
     Waiting for input...
     Reading input from standard input
Warning: card &CELL ignored
Warning: card  CELL_DYNAMICS = 'BFGS', ignored
Warning: card  PRESS=0.D0, ignored
Warning: card / ignored
     Message from routine read_cards :
     DEPRECATED: no units specified in ATOMIC_POSITIONS card
     Message from routine read_cards :
     ATOMIC_POSITIONS: units set to alat

     Current dimensions of program PWSCF are:
     Max number of different atomic species (ntypx) = 10
     Max number of k-points (npk) =  40000
     Max angular momentum in pseudopotentials (lmaxx) =  4
 
     R & G space division:  proc/nbgrp/npool/nimage =      10
     Subspace diagonalization in iterative solution of the eigenvalue problem:
     a serial algorithm will be used

 
     Parallelization info
     --------------------
     sticks:   dense  smooth     PW     G-vecs:    dense   smooth      PW
     Min         139      36      9                 3401      463      55
     Max         140      37     10                 3402      466      57
     Sum        1393     367     91                34015     4645     561
 
     Using Slab Decomposition
 


     bravais-lattice index     =            2
     lattice parameter (alat)  =       6.6800  a.u.
     unit-cell volume          =      74.5194 (a.u.)^3
     number of atoms/cell      =            2
     number of atomic types    =            1
     number of electrons       =         8.00
     number of Kohn-Sham states=            4
     kinetic-energy cutoff     =      60.0000  Ry
     charge density cutoff     =     900.0000  Ry
     scf convergence threshold =      1.0E-08
     mixing beta               =       0.7000
     number of iterations used =            8  plain     mixing
     Exchange-correlation= SLA  PZ   NOGX NOGC
                           (   1   1   0   0   0   0   0)

     celldm(1)=   6.680000  celldm(2)=   0.000000  celldm(3)=   0.000000
     celldm(4)=   0.000000  celldm(5)=   0.000000  celldm(6)=   0.000000

     crystal axes: (cart. coord. in units of alat)
               a(1) = (  -0.500000   0.000000   0.500000 )  
               a(2) = (   0.000000   0.500000   0.500000 )  
               a(3) = (  -0.500000   0.500000   0.000000 )  

     reciprocal axes: (cart. coord. in units 2 pi/alat)
               b(1) = ( -1.000000 -1.000000  1.000000 )  
               b(2) = (  1.000000  1.000000  1.000000 )  
               b(3) = ( -1.000000  1.000000 -1.000000 )  


     PseudoPot. # 1 for C  read from file:
     /scratch/11018/zhc/Assisgnment2/Q2/Diamond/Diamond/C_LDA.UPF
     MD5 check sum: 407c1fe918d93b14b177d5600f28733c
     Pseudo is Ultrasoft + core correction, Zval =  4.0
     Generated by new atomic code, or converted to UPF format
     Using radial grid of  721 points,  4 beta functions with: 
                l(1) =   0
                l(2) =   0
                l(3) =   1
                l(4) =   1
     Q(r) pseudized with  8 coefficients,  rinner =    1.100   1.100   1.100


     atomic species   valence    mass     pseudopotential
     C                 4.00    12.01100     C ( 1.00)

      6 Sym. Ops. (no inversion) found



   Cartesian axes

     site n.     atom                  positions (alat units)
         1        C      tau(   1) = (   0.0000000   0.0000000   0.0000000  )
         2        C      tau(   2) = (   0.2492943   0.2492943   0.2492943  )

     number of k points=     1
                       cart. coord. in units 2pi/alat
        k(    1) = (   0.0000000   0.0000000   0.0000000), wk =   2.0000000

     Dense  grid:    34015 G-vectors     FFT dimensions: (  45,  45,  45)

     Smooth grid:     4645 G-vectors     FFT dimensions: (  24,  24,  24)

     Estimated max dynamical RAM per process >       5.39 MB

     Estimated total dynamical RAM >      53.88 MB

     Initial potential from superposition of free atoms

     starting charge       7.9999, renormalised to       8.0000
     Starting wfcs are    8 randomized atomic wfcs

     total cpu time spent up to now is        0.2 secs

     Self-consistent Calculation

     iteration #  1     ecut=    60.00 Ry     beta= 0.70
     CG style diagonalization
     ethr =  1.00E-02,  avg # of iterations =  3.0

     total cpu time spent up to now is        0.2 secs

     total energy              =     -20.78853067 Ry
     estimated scf accuracy    <       0.56837238 Ry

     iteration #  2     ecut=    60.00 Ry     beta= 0.70
     CG style diagonalization
     ethr =  7.10E-03,  avg # of iterations =  3.2

     total cpu time spent up to now is        0.2 secs

     total energy              =     -20.82056493 Ry
     estimated scf accuracy    <       0.01604747 Ry

     iteration #  3     ecut=    60.00 Ry     beta= 0.70
     CG style diagonalization
     ethr =  2.01E-04,  avg # of iterations =  3.8

     total cpu time spent up to now is        0.3 secs

     total energy              =     -20.82396693 Ry
     estimated scf accuracy    <       0.00016738 Ry

     iteration #  4     ecut=    60.00 Ry     beta= 0.70
     CG style diagonalization
     ethr =  2.09E-06,  avg # of iterations =  4.0

     total cpu time spent up to now is        0.3 secs

     total energy              =     -20.82403306 Ry
     estimated scf accuracy    <       0.00001420 Ry

     iteration #  5     ecut=    60.00 Ry     beta= 0.70
     CG style diagonalization
     ethr =  1.77E-07,  avg # of iterations =  4.0

     total cpu time spent up to now is        0.3 secs

     total energy              =     -20.82403615 Ry
     estimated scf accuracy    <       0.00000028 Ry

     iteration #  6     ecut=    60.00 Ry     beta= 0.70
     CG style diagonalization
     ethr =  3.48E-09,  avg # of iterations =  5.5

     total cpu time spent up to now is        0.3 secs

     total energy              =     -20.82403677 Ry
     estimated scf accuracy    <       0.00000003 Ry

     iteration #  7     ecut=    60.00 Ry     beta= 0.70
     CG style diagonalization
     ethr =  4.17E-10,  avg # of iterations =  5.0

     total cpu time spent up to now is        0.3 secs

     total energy              =     -20.82403678 Ry
     estimated scf accuracy    <       0.00000003 Ry

     iteration #  8     ecut=    60.00 Ry     beta= 0.70
     CG style diagonalization
     ethr =  3.90E-10,  avg # of iterations =  3.8

     total cpu time spent up to now is        0.3 secs

     End of self-consistent calculation

          k = 0.0000 0.0000 0.0000 (   561 PWs)   bands (ev):

    -7.1356  15.4404  15.5613  15.5613

     highest occupied level (ev):    15.5613

!    total energy              =     -20.82403678 Ry
     estimated scf accuracy    <          6.1E-10 Ry

     The total energy is the sum of the following terms:
     one-electron contribution =       9.83099083 Ry
     hartree contribution      =       2.89841473 Ry
     xc contribution           =      -7.74848224 Ry
     ewald contribution        =     -25.80496010 Ry

     convergence has been achieved in   8 iterations

     Forces acting on atoms (cartesian axes, Ry/au):

     atom    1 type  1   force =    -0.01088703   -0.01088703   -0.01088703
     atom    2 type  1   force =     0.01088703    0.01088703    0.01088703

     Total force =     0.026668     Total SCF correction =     0.000006


     Computing stress (Cartesian axis) and pressure

          total   stress  (Ry/bohr**3)                   (kbar)     P=     3441.81
   0.02339696   0.00011784   0.00011784         3441.81       17.33       17.33
   0.00011784   0.02339696   0.00011784           17.33     3441.81       17.33
   0.00011784   0.00011784   0.02339696           17.33       17.33     3441.81


     Writing all to output data dir ./Diamond_k1.save/ :
     XML data file, charge density, pseudopotentials, collected wavefunctions
 
     init_run     :      0.06s CPU      0.12s WALL (       1 calls)
     electrons    :      0.07s CPU      0.10s WALL (       1 calls)
     forces       :      0.00s CPU      0.00s WALL (       1 calls)
     stress       :      0.01s CPU      0.01s WALL (       1 calls)

     Called by init_run:
     wfcinit      :      0.00s CPU      0.03s WALL (       1 calls)
     potinit      :      0.00s CPU      0.01s WALL (       1 calls)
     hinit0       :      0.03s CPU      0.05s WALL (       1 calls)

     Called by electrons:
     c_bands      :      0.02s CPU      0.02s WALL (       8 calls)
     sum_band     :      0.02s CPU      0.02s WALL (       8 calls)
     v_of_rho     :      0.01s CPU      0.01s WALL (       9 calls)
     newd         :      0.02s CPU      0.02s WALL (       9 calls)
     mix_rho      :      0.01s CPU      0.01s WALL (       8 calls)

     Called by c_bands:
     init_us_2    :      0.00s CPU      0.00s WALL (      17 calls)
     init_us_2:cp :      0.00s CPU      0.00s WALL (      17 calls)
     ccgdiagg     :      0.01s CPU      0.02s WALL (       8 calls)
     wfcrot       :      0.00s CPU      0.03s WALL (       8 calls)

     Called by *cgdiagg:
     h_psi        :      0.01s CPU      0.01s WALL (     109 calls)
     s_psi        :      0.00s CPU      0.00s WALL (     210 calls)

     Called by h_psi:
     h_psi:calbec :      0.00s CPU      0.00s WALL (     109 calls)
     vloc_psi     :      0.01s CPU      0.01s WALL (     109 calls)
     add_vuspsi   :      0.00s CPU      0.00s WALL (     109 calls)
     hs_1psi      :      0.01s CPU      0.01s WALL (     101 calls)
     s_1psi       :      0.00s CPU      0.00s WALL (     101 calls)

     General routines
     calbec       :      0.00s CPU      0.01s WALL (     223 calls)
     fft          :      0.01s CPU      0.03s WALL (      60 calls)
     ffts         :      0.00s CPU      0.00s WALL (      17 calls)
     fftw         :      0.01s CPU      0.01s WALL (     306 calls)
     interpolate  :      0.00s CPU      0.01s WALL (       9 calls)
 
     Parallel routines
 
     PWSCF        :      0.19s CPU      0.48s WALL

 
   This run was terminated on:  19:46: 9  20Oct2025            

=------------------------------------------------------------------------------=
   JOB DONE.
=------------------------------------------------------------------------------=
TACC:  Shutdown complete. Exiting. 
