TACC:  Starting up job 2482949 
TACC:  Starting parallel tasks... 

     Program PWSCF v.7.3 starts on 20Oct2025 at 21:52:13 

     This program is part of the open-source Quantum ESPRESSO suite
     for quantum simulation of materials; please cite
         "P. Giannozzi et al., J. Phys.:Condens. Matter 21 395502 (2009);
         "P. Giannozzi et al., J. Phys.:Condens. Matter 29 465901 (2017);
         "P. Giannozzi et al., J. Chem. Phys. 152 154105 (2020);
          URL http://www.quantum-espresso.org", 
     in publications or presentations arising from this work. More details at
     http://www.quantum-espresso.org/quote

     Parallel version (MPI & OpenMP), running on      10 processor cores
     Number of MPI processes:                10
     Threads/MPI process:                     1

     MPI processes distributed on     1 nodes
     186599 MiB available memory on the printing compute node when the environment starts
 
     Waiting for input...
     Reading input from standard input
Warning: card &CELL ignored
Warning: card  CELL_DYNAMICS = 'BFGS', ignored
Warning: card  PRESS=0.D0, ignored
Warning: card / ignored
     Message from routine read_cards :
     DEPRECATED: no units specified in ATOMIC_POSITIONS card
     Message from routine read_cards :
     ATOMIC_POSITIONS: units set to alat

     Current dimensions of program PWSCF are:
     Max number of different atomic species (ntypx) = 10
     Max number of k-points (npk) =  40000
     Max angular momentum in pseudopotentials (lmaxx) =  4
 
     R & G space division:  proc/nbgrp/npool/nimage =      10
     Subspace diagonalization in iterative solution of the eigenvalue problem:
     a serial algorithm will be used

 
     Parallelization info
     --------------------
     sticks:   dense  smooth     PW     G-vecs:    dense   smooth      PW
     Min         139      36     12                 3401      463      86
     Max         140      37     13                 3402      466      88
     Sum        1393     367    121                34015     4645     869
 
     Using Slab Decomposition
 


     bravais-lattice index     =            2
     lattice parameter (alat)  =       6.6800  a.u.
     unit-cell volume          =      74.5194 (a.u.)^3
     number of atoms/cell      =            2
     number of atomic types    =            1
     number of electrons       =         8.00
     number of Kohn-Sham states=            4
     kinetic-energy cutoff     =      60.0000  Ry
     charge density cutoff     =     900.0000  Ry
     scf convergence threshold =      1.0E-08
     mixing beta               =       0.7000
     number of iterations used =            8  plain     mixing
     Exchange-correlation= SLA  PZ   NOGX NOGC
                           (   1   1   0   0   0   0   0)

     celldm(1)=   6.680000  celldm(2)=   0.000000  celldm(3)=   0.000000
     celldm(4)=   0.000000  celldm(5)=   0.000000  celldm(6)=   0.000000

     crystal axes: (cart. coord. in units of alat)
               a(1) = (  -0.500000   0.000000   0.500000 )  
               a(2) = (   0.000000   0.500000   0.500000 )  
               a(3) = (  -0.500000   0.500000   0.000000 )  

     reciprocal axes: (cart. coord. in units 2 pi/alat)
               b(1) = ( -1.000000 -1.000000  1.000000 )  
               b(2) = (  1.000000  1.000000  1.000000 )  
               b(3) = ( -1.000000  1.000000 -1.000000 )  


     PseudoPot. # 1 for C  read from file:
     /scratch/11018/zhc/Assisgnment2/Q2/Diamond/Diamond/C_LDA.UPF
     MD5 check sum: 407c1fe918d93b14b177d5600f28733c
     Pseudo is Ultrasoft + core correction, Zval =  4.0
     Generated by new atomic code, or converted to UPF format
     Using radial grid of  721 points,  4 beta functions with: 
                l(1) =   0
                l(2) =   0
                l(3) =   1
                l(4) =   1
     Q(r) pseudized with  8 coefficients,  rinner =    1.100   1.100   1.100


     atomic species   valence    mass     pseudopotential
     C                 4.00    12.01100     C ( 1.00)

      6 Sym. Ops. (no inversion) found



   Cartesian axes

     site n.     atom                  positions (alat units)
         1        C      tau(   1) = (   0.0000000   0.0000000   0.0000000  )
         2        C      tau(   2) = (   0.2492943   0.2492943   0.2492943  )

     number of k points=    13
                       cart. coord. in units 2pi/alat
        k(    1) = (   0.0000000   0.0000000   0.0000000), wk =   0.0312500
        k(    2) = (  -0.2500000   0.2500000  -0.2500000), wk =   0.1875000
        k(    3) = (   0.5000000  -0.5000000   0.5000000), wk =   0.0937500
        k(    4) = (   0.0000000   0.5000000   0.0000000), wk =   0.1875000
        k(    5) = (   0.7500000  -0.2500000   0.7500000), wk =   0.1875000
        k(    6) = (   0.5000000   0.0000000   0.5000000), wk =   0.1875000
        k(    7) = (   0.0000000  -1.0000000   0.0000000), wk =   0.0937500
        k(    8) = (  -0.5000000  -1.0000000   0.0000000), wk =   0.1875000
        k(    9) = (  -0.2500000  -0.2500000  -0.2500000), wk =   0.0625000
        k(   10) = (   0.5000000   0.5000000   0.5000000), wk =   0.0312500
        k(   11) = (  -0.2500000  -0.7500000   0.7500000), wk =   0.3750000
        k(   12) = (   0.2500000   0.7500000   0.7500000), wk =   0.1875000
        k(   13) = (   0.0000000  -0.5000000   0.5000000), wk =   0.1875000

     Dense  grid:    34015 G-vectors     FFT dimensions: (  45,  45,  45)

     Smooth grid:     4645 G-vectors     FFT dimensions: (  24,  24,  24)

     Estimated max dynamical RAM per process >       5.43 MB

     Estimated total dynamical RAM >      54.34 MB

     Initial potential from superposition of free atoms

     starting charge       7.9999, renormalised to       8.0000
     Starting wfcs are    8 randomized atomic wfcs

     total cpu time spent up to now is        0.2 secs

     Self-consistent Calculation

     iteration #  1     ecut=    60.00 Ry     beta= 0.70
     CG style diagonalization
     ethr =  1.00E-02,  avg # of iterations =  3.0

     total cpu time spent up to now is        0.3 secs

     total energy              =     -23.03062235 Ry
     estimated scf accuracy    <       0.14444990 Ry

     iteration #  2     ecut=    60.00 Ry     beta= 0.70
     CG style diagonalization
     ethr =  1.81E-03,  avg # of iterations =  3.6

     total cpu time spent up to now is        0.3 secs

     total energy              =     -23.04740169 Ry
     estimated scf accuracy    <       0.00155667 Ry

     iteration #  3     ecut=    60.00 Ry     beta= 0.70
     CG style diagonalization
     ethr =  1.95E-05,  avg # of iterations =  3.9

     total cpu time spent up to now is        0.4 secs

     total energy              =     -23.04786671 Ry
     estimated scf accuracy    <       0.00005260 Ry

     iteration #  4     ecut=    60.00 Ry     beta= 0.70
     CG style diagonalization
     ethr =  6.58E-07,  avg # of iterations =  4.0

     total cpu time spent up to now is        0.4 secs

     total energy              =     -23.04788379 Ry
     estimated scf accuracy    <       0.00000207 Ry

     iteration #  5     ecut=    60.00 Ry     beta= 0.70
     CG style diagonalization
     ethr =  2.58E-08,  avg # of iterations =  3.9

     total cpu time spent up to now is        0.4 secs

     total energy              =     -23.04788442 Ry
     estimated scf accuracy    <       0.00000002 Ry

     iteration #  6     ecut=    60.00 Ry     beta= 0.70
     CG style diagonalization
     ethr =  2.37E-10,  avg # of iterations =  4.8

     total cpu time spent up to now is        0.5 secs

     End of self-consistent calculation

          k = 0.0000 0.0000 0.0000 (   561 PWs)   bands (ev):

    -8.0742  13.5319  13.6492  13.6492

          k =-0.2500 0.2500-0.2500 (   580 PWs)   bands (ev):

    -6.3284   6.9497  11.7731  11.8571

          k = 0.5000-0.5000 0.5000 (   580 PWs)   bands (ev):

    -2.0803  -0.0509  10.7027  10.7852

          k = 0.0000 0.5000 0.0000 (   576 PWs)   bands (ev):

    -5.7504   9.1688   9.3647   9.3901

          k = 0.7500-0.2500 0.7500 (   584 PWs)   bands (ev):

    -1.9175   2.7253   6.7329   8.6257

          k = 0.5000 0.0000 0.5000 (   590 PWs)   bands (ev):

    -3.5159   4.8658   5.8184  10.5462

          k = 0.0000-1.0000 0.0000 (   588 PWs)   bands (ev):

     0.7950   0.8128   7.1352   7.1596

          k =-0.5000-1.0000 0.0000 (   604 PWs)   bands (ev):

     1.6701   1.6995   4.9907   5.0226

          k =-0.2500-0.2500-0.2500 (   580 PWs)   bands (ev):

    -6.3288   6.9154  11.8370  11.8370

          k = 0.5000 0.5000 0.5000 (   580 PWs)   bands (ev):

    -2.0638  -0.0892  10.7561  10.7561

          k =-0.2500-0.7500 0.7500 (   584 PWs)   bands (ev):

    -1.9170   2.7167   6.7741   8.5912

          k = 0.2500 0.7500 0.7500 (   584 PWs)   bands (ev):

    -1.9131   2.6875   6.7778   8.6177

          k = 0.0000-0.5000 0.5000 (   590 PWs)   bands (ev):

    -3.5164   4.8982   5.8163  10.5025

     highest occupied level (ev):    13.6492

!    total energy              =     -23.04788452 Ry
     estimated scf accuracy    <          1.2E-09 Ry

     The total energy is the sum of the following terms:
     one-electron contribution =       8.24545698 Ry
     hartree contribution      =       1.90575427 Ry
     xc contribution           =      -7.39413567 Ry
     ewald contribution        =     -25.80496010 Ry

     convergence has been achieved in   6 iterations

     Forces acting on atoms (cartesian axes, Ry/au):

     atom    1 type  1   force =    -0.00392634   -0.00392634   -0.00392634
     atom    2 type  1   force =     0.00392634    0.00392634    0.00392634

     Total force =     0.009618     Total SCF correction =     0.000002


     Computing stress (Cartesian axis) and pressure

          total   stress  (Ry/bohr**3)                   (kbar)     P=        2.18
   0.00001485   0.00001059   0.00001059            2.18        1.56        1.56
   0.00001059   0.00001485   0.00001059            1.56        2.18        1.56
   0.00001059   0.00001059   0.00001485            1.56        1.56        2.18


     Writing all to output data dir ./Diamond_k4.save/ :
     XML data file, charge density, pseudopotentials, collected wavefunctions
 
     init_run     :      0.07s CPU      0.13s WALL (       1 calls)
     electrons    :      0.22s CPU      0.27s WALL (       1 calls)
     forces       :      0.01s CPU      0.01s WALL (       1 calls)
     stress       :      0.02s CPU      0.02s WALL (       1 calls)

     Called by init_run:
     wfcinit      :      0.01s CPU      0.04s WALL (       1 calls)
     potinit      :      0.01s CPU      0.01s WALL (       1 calls)
     hinit0       :      0.03s CPU      0.05s WALL (       1 calls)

     Called by electrons:
     c_bands      :      0.17s CPU      0.19s WALL (       6 calls)
     sum_band     :      0.03s CPU      0.03s WALL (       6 calls)
     v_of_rho     :      0.01s CPU      0.01s WALL (       7 calls)
     newd         :      0.01s CPU      0.02s WALL (       7 calls)
     mix_rho      :      0.00s CPU      0.01s WALL (       6 calls)

     Called by c_bands:
     init_us_2    :      0.00s CPU      0.00s WALL (     195 calls)
     init_us_2:cp :      0.00s CPU      0.00s WALL (     195 calls)
     ccgdiagg     :      0.14s CPU      0.16s WALL (      78 calls)
     wfcrot       :      0.03s CPU      0.06s WALL (      78 calls)

     Called by *cgdiagg:
     h_psi        :      0.09s CPU      0.11s WALL (    1021 calls)
     s_psi        :      0.00s CPU      0.01s WALL (    1964 calls)

     Called by h_psi:
     h_psi:calbec :      0.02s CPU      0.02s WALL (    1021 calls)
     vloc_psi     :      0.07s CPU      0.07s WALL (    1021 calls)
     add_vuspsi   :      0.00s CPU      0.00s WALL (    1021 calls)
     hs_1psi      :      0.08s CPU      0.09s WALL (     943 calls)
     s_1psi       :      0.02s CPU      0.02s WALL (     943 calls)

     General routines
     calbec       :      0.03s CPU      0.03s WALL (    2107 calls)
     fft          :      0.01s CPU      0.03s WALL (      48 calls)
     ffts         :      0.00s CPU      0.00s WALL (      13 calls)
     fftw         :      0.06s CPU      0.06s WALL (    2926 calls)
     interpolate  :      0.00s CPU      0.00s WALL (       7 calls)
 
     Parallel routines
 
     PWSCF        :      0.36s CPU      0.64s WALL

 
   This run was terminated on:  21:52:14  20Oct2025            

=------------------------------------------------------------------------------=
   JOB DONE.
=------------------------------------------------------------------------------=
TACC:  Shutdown complete. Exiting. 
