TACC:  Starting up job 2553109 
TACC:  Starting parallel tasks... 

     Program PWSCF v.7.3 starts on 15Nov2025 at  3:18:49 

     This program is part of the open-source Quantum ESPRESSO suite
     for quantum simulation of materials; please cite
         "P. Giannozzi et al., J. Phys.:Condens. Matter 21 395502 (2009);
         "P. Giannozzi et al., J. Phys.:Condens. Matter 29 465901 (2017);
         "P. Giannozzi et al., J. Chem. Phys. 152 154105 (2020);
          URL http://www.quantum-espresso.org", 
     in publications or presentations arising from this work. More details at
     http://www.quantum-espresso.org/quote

     Parallel version (MPI & OpenMP), running on      10 processor cores
     Number of MPI processes:                10
     Threads/MPI process:                     1

     MPI processes distributed on     1 nodes
     186425 MiB available memory on the printing compute node when the environment starts
 
     Waiting for input...
     Reading input from standard input

     Current dimensions of program PWSCF are:
     Max number of different atomic species (ntypx) = 10
     Max number of k-points (npk) =  40000
     Max angular momentum in pseudopotentials (lmaxx) =  4
     Message from routine setup:
     using ibrav=0 with symmetry is DISCOURAGED, use correct ibrav instead
 
     R & G space division:  proc/nbgrp/npool/nimage =      10
     Subspace diagonalization in iterative solution of the eigenvalue problem:
     a serial algorithm will be used

 
     Parallelization info
     --------------------
     sticks:   dense  smooth     PW     G-vecs:    dense   smooth      PW
     Min         216      86     26                 7944     2004     338
     Max         217      87     27                 7947     2007     341
     Sum        2161     869    261                79447    20063    3391
 
     Using Slab Decomposition
 


     bravais-lattice index     =            0
     lattice parameter (alat)  =       7.3699  a.u.
     unit-cell volume          =     420.8329 (a.u.)^3
     number of atoms/cell      =            5
     number of atomic types    =            3
     number of electrons       =        44.00
     number of Kohn-Sham states=           22
     kinetic-energy cutoff     =      50.0000  Ry
     charge density cutoff     =     500.0000  Ry
     scf convergence threshold =      1.0E-08
     mixing beta               =       0.7000
     number of iterations used =            8  plain     mixing
     energy convergence thresh.=      1.0E-04
     force convergence thresh. =      1.0E-03
     press convergence thresh. =      5.0E-01
     Exchange-correlation= SLA  PZ   NOGX NOGC
                           (   1   1   0   0   0   0   0)
     nstep                     =           50


     celldm(1)=   7.369932  celldm(2)=   0.000000  celldm(3)=   0.000000
     celldm(4)=   0.000000  celldm(5)=   0.000000  celldm(6)=   0.000000

     crystal axes: (cart. coord. in units of alat)
               a(1) = (   1.000000   0.000000   0.000000 )  
               a(2) = (   0.000000   1.000000   0.000000 )  
               a(3) = (   0.000000   0.000000   1.051282 )  

     reciprocal axes: (cart. coord. in units 2 pi/alat)
               b(1) = (  1.000000  0.000000  0.000000 )  
               b(2) = (  0.000000  1.000000  0.000000 )  
               b(3) = (  0.000000  0.000000  0.951220 )  


     PseudoPot. # 1 for Pb read from file:
     /scratch/11018/zhc/assisgnment3/input_files/Pb_LDA.UPF
     MD5 check sum: 062a37469794d955244864f8fe2e5624
     Pseudo is Ultrasoft + core correction, Zval = 14.0
     Generated by new atomic code, or converted to UPF format
     Using radial grid of  899 points,  6 beta functions with: 
                l(1) =   0
                l(2) =   0
                l(3) =   1
                l(4) =   1
                l(5) =   2
                l(6) =   2
     Q(r) pseudized with  6 coefficients,  rinner =    1.000   1.000   1.000
                                                       1.000   1.000

     PseudoPot. # 2 for Ti read from file:
     /scratch/11018/zhc/assisgnment3/input_files/Ti_LDA.UPF
     MD5 check sum: 0d9f225c038fe889ca2a701dcc8d72cb
     Pseudo is Ultrasoft + core correction, Zval = 12.0
     Generated by new atomic code, or converted to UPF format
     Using radial grid of  851 points,  6 beta functions with: 
                l(1) =   0
                l(2) =   0
                l(3) =   1
                l(4) =   1
                l(5) =   2
                l(6) =   2
     Q(r) pseudized with  6 coefficients,  rinner =    1.000   1.000   1.000
                                                       1.000   1.000

     PseudoPot. # 3 for O  read from file:
     /scratch/11018/zhc/assisgnment3/input_files/O_LDA.UPF
     MD5 check sum: 194b818514d2a7dbb603bb78519a4f40
     Pseudo is Ultrasoft + core correction, Zval =  6.0
     Generated by new atomic code, or converted to UPF format
     Using radial grid of  737 points,  5 beta functions with: 
                l(1) =   0
                l(2) =   0
                l(3) =   1
                l(4) =   1
                l(5) =   2
     Q(r) pseudized with  8 coefficients,  rinner =    0.900   0.900   0.900
                                                       0.900   0.900

     atomic species   valence    mass     pseudopotential
     Pb               14.00   207.20000     Pb( 1.00)
     Ti               12.00    47.88000     Ti( 1.00)
     O                 6.00    16.00000     O ( 1.00)

      8 Sym. Ops. (no inversion) found



   Cartesian axes

     site n.     atom                  positions (alat units)
         1        Pb     tau(   1) = (   0.0000000   0.0000000   1.0580339  )
         2        Ti     tau(   2) = (   0.5000000   0.5000000   0.5681377  )
         3        O      tau(   3) = (   0.5000000   0.5000000   0.1036357  )
         4        O      tau(   4) = (   0.5000000   0.0000000   0.6422586  )
         5        O      tau(   5) = (   0.0000000   0.5000000   0.6422586  )

     number of k points=    30
                       cart. coord. in units 2pi/alat
        k(    1) = (   0.0000000   0.0000000   0.0000000), wk =   0.0138889
        k(    2) = (   0.0000000   0.0000000   0.2378049), wk =   0.0277778
        k(    3) = (   0.0000000   0.0000000  -0.4756098), wk =   0.0138889
        k(    4) = (   0.0000000   0.1666667   0.0000000), wk =   0.0555556
        k(    5) = (   0.0000000   0.1666667   0.2378049), wk =   0.1111111
        k(    6) = (   0.0000000   0.1666667  -0.4756098), wk =   0.0555556
        k(    7) = (   0.0000000   0.3333333   0.0000000), wk =   0.0555556
        k(    8) = (   0.0000000   0.3333333   0.2378049), wk =   0.1111111
        k(    9) = (   0.0000000   0.3333333  -0.4756098), wk =   0.0555556
        k(   10) = (   0.0000000  -0.5000000   0.0000000), wk =   0.0277778
        k(   11) = (   0.0000000  -0.5000000   0.2378049), wk =   0.0555556
        k(   12) = (   0.0000000  -0.5000000  -0.4756098), wk =   0.0277778
        k(   13) = (   0.1666667   0.1666667   0.0000000), wk =   0.0555556
        k(   14) = (   0.1666667   0.1666667   0.2378049), wk =   0.1111111
        k(   15) = (   0.1666667   0.1666667  -0.4756098), wk =   0.0555556
        k(   16) = (   0.1666667   0.3333333   0.0000000), wk =   0.1111111
        k(   17) = (   0.1666667   0.3333333   0.2378049), wk =   0.2222222
        k(   18) = (   0.1666667   0.3333333  -0.4756098), wk =   0.1111111
        k(   19) = (   0.1666667  -0.5000000   0.0000000), wk =   0.0555556
        k(   20) = (   0.1666667  -0.5000000   0.2378049), wk =   0.1111111
        k(   21) = (   0.1666667  -0.5000000  -0.4756098), wk =   0.0555556
        k(   22) = (   0.3333333   0.3333333   0.0000000), wk =   0.0555556
        k(   23) = (   0.3333333   0.3333333   0.2378049), wk =   0.1111111
        k(   24) = (   0.3333333   0.3333333  -0.4756098), wk =   0.0555556
        k(   25) = (   0.3333333  -0.5000000   0.0000000), wk =   0.0555556
        k(   26) = (   0.3333333  -0.5000000   0.2378049), wk =   0.1111111
        k(   27) = (   0.3333333  -0.5000000  -0.4756098), wk =   0.0555556
        k(   28) = (  -0.5000000  -0.5000000   0.0000000), wk =   0.0138889
        k(   29) = (  -0.5000000  -0.5000000   0.2378049), wk =   0.0277778
        k(   30) = (  -0.5000000  -0.5000000  -0.4756098), wk =   0.0138889

     Dense  grid:    79447 G-vectors     FFT dimensions: (  54,  54,  60)

     Smooth grid:    20063 G-vectors     FFT dimensions: (  36,  36,  36)

     Estimated max dynamical RAM per process >      42.98 MB

     Estimated total dynamical RAM >     429.81 MB

     Check: negative core charge=   -0.000004

     Initial potential from superposition of free atoms

     starting charge      42.9982, renormalised to      44.0000

     negative rho (up, down):  1.690E-02 0.000E+00
     Starting wfcs are   31 randomized atomic wfcs

     total cpu time spent up to now is        0.8 secs

     Self-consistent Calculation

     iteration #  1     ecut=    50.00 Ry     beta= 0.70
     CG style diagonalization
     ethr =  1.00E-02,  avg # of iterations =  2.1

     negative rho (up, down):  1.407E-02 0.000E+00

     total cpu time spent up to now is        1.4 secs

     total energy              =    -380.04920042 Ry
     estimated scf accuracy    <       1.03128449 Ry

     iteration #  2     ecut=    50.00 Ry     beta= 0.70
     CG style diagonalization
     ethr =  2.34E-03,  avg # of iterations =  4.9

     negative rho (up, down):  1.455E-02 0.000E+00

     total cpu time spent up to now is        2.3 secs

     total energy              =    -379.56101258 Ry
     estimated scf accuracy    <       5.08804950 Ry

     iteration #  3     ecut=    50.00 Ry     beta= 0.70
     CG style diagonalization
     ethr =  2.34E-03,  avg # of iterations =  4.4

     negative rho (up, down):  1.525E-02 0.000E+00

     total cpu time spent up to now is        3.2 secs

     total energy              =    -380.53185191 Ry
     estimated scf accuracy    <       0.36873891 Ry

     iteration #  4     ecut=    50.00 Ry     beta= 0.70
     CG style diagonalization
     ethr =  8.38E-04,  avg # of iterations =  3.4

     negative rho (up, down):  1.523E-02 0.000E+00

     total cpu time spent up to now is        3.9 secs

     total energy              =    -380.55323159 Ry
     estimated scf accuracy    <       0.06938253 Ry

     iteration #  5     ecut=    50.00 Ry     beta= 0.70
     CG style diagonalization
     ethr =  1.58E-04,  avg # of iterations =  3.7

     negative rho (up, down):  1.523E-02 0.000E+00

     total cpu time spent up to now is        4.7 secs

     total energy              =    -380.56602897 Ry
     estimated scf accuracy    <       0.00922131 Ry

     iteration #  6     ecut=    50.00 Ry     beta= 0.70
     CG style diagonalization
     ethr =  2.10E-05,  avg # of iterations =  4.1

     negative rho (up, down):  1.524E-02 0.000E+00

     total cpu time spent up to now is        5.5 secs

     total energy              =    -380.57052590 Ry
     estimated scf accuracy    <       0.00675534 Ry

     iteration #  7     ecut=    50.00 Ry     beta= 0.70
     CG style diagonalization
     ethr =  1.54E-05,  avg # of iterations =  3.2

     negative rho (up, down):  1.525E-02 0.000E+00

     total cpu time spent up to now is        6.1 secs

     total energy              =    -380.57036714 Ry
     estimated scf accuracy    <       0.00226498 Ry

     iteration #  8     ecut=    50.00 Ry     beta= 0.70
     CG style diagonalization
     ethr =  5.15E-06,  avg # of iterations =  3.6

     negative rho (up, down):  1.526E-02 0.000E+00

     total cpu time spent up to now is        6.8 secs

     total energy              =    -380.57078229 Ry
     estimated scf accuracy    <       0.00001098 Ry

     iteration #  9     ecut=    50.00 Ry     beta= 0.70
     CG style diagonalization
     c_bands:  1 eigenvalues not converged
     ethr =  2.50E-08,  avg # of iterations =  7.8

     negative rho (up, down):  1.530E-02 0.000E+00

     total cpu time spent up to now is        8.4 secs

     total energy              =    -380.57085180 Ry
     estimated scf accuracy    <       0.00003152 Ry

     iteration # 10     ecut=    50.00 Ry     beta= 0.70
     CG style diagonalization
     ethr =  2.50E-08,  avg # of iterations =  3.4

     negative rho (up, down):  1.540E-02 0.000E+00

     total cpu time spent up to now is        9.1 secs

     total energy              =    -380.57084628 Ry
     estimated scf accuracy    <       0.00001608 Ry

     iteration # 11     ecut=    50.00 Ry     beta= 0.70
     CG style diagonalization
     ethr =  2.50E-08,  avg # of iterations =  3.9

     negative rho (up, down):  1.540E-02 0.000E+00

     total cpu time spent up to now is        9.9 secs

     total energy              =    -380.57085026 Ry
     estimated scf accuracy    <       0.00000238 Ry

     iteration # 12     ecut=    50.00 Ry     beta= 0.70
     CG style diagonalization
     ethr =  5.40E-09,  avg # of iterations =  4.6

     negative rho (up, down):  1.540E-02 0.000E+00

     total cpu time spent up to now is       10.8 secs

     total energy              =    -380.57085127 Ry
     estimated scf accuracy    <       0.00000004 Ry

     iteration # 13     ecut=    50.00 Ry     beta= 0.70
     CG style diagonalization
     c_bands:  1 eigenvalues not converged
     c_bands:  1 eigenvalues not converged
     c_bands:  1 eigenvalues not converged
     c_bands:  1 eigenvalues not converged
     c_bands:  1 eigenvalues not converged
     c_bands:  1 eigenvalues not converged
     c_bands:  1 eigenvalues not converged
     ethr =  9.93E-11,  avg # of iterations = 11.7

     negative rho (up, down):  1.540E-02 0.000E+00

     total cpu time spent up to now is       13.2 secs

     total energy              =    -380.57085206 Ry
     estimated scf accuracy    <       0.00000002 Ry

     iteration # 14     ecut=    50.00 Ry     beta= 0.70
     CG style diagonalization
     ethr =  4.47E-11,  avg # of iterations =  4.8

     negative rho (up, down):  1.541E-02 0.000E+00

     total cpu time spent up to now is       14.1 secs

     End of self-consistent calculation

          k = 0.0000 0.0000 0.0000 (  2525 PWs)   bands (ev):

   -45.8570 -22.4919 -22.4297 -22.4297  -7.5140  -6.4344  -6.2012  -5.0267
    -5.0267  -4.9917  -4.8705  -4.7660   4.2243   6.3079   6.3079   6.6265
     8.2751   8.2751   8.4917   8.7798   8.9403   8.9403

          k = 0.0000 0.0000 0.2378 (  2517 PWs)   bands (ev):

   -45.8568 -22.5114 -22.4290 -22.4290  -7.3211  -6.3756  -6.1434  -5.0419
    -5.0419  -4.9904  -4.8627  -4.8372   3.4625   6.3773   6.3773   6.7886
     8.0085   8.0085   8.4075   8.8280   9.0464   9.0464

          k = 0.0000 0.0000-0.4756 (  2530 PWs)   bands (ev):

   -45.8565 -22.5307 -22.4282 -22.4282  -7.1105  -6.3108  -6.0936  -5.0570
    -5.0570  -4.9892  -4.9143  -4.8569   2.9647   6.1483   6.4337   6.4337
     7.8246   7.8246   8.3271   9.1166   9.1166   9.9991

          k = 0.0000 0.1667 0.0000 (  2525 PWs)   bands (ev):

   -45.8567 -22.4912 -22.4469 -22.4290  -7.3790  -6.4051  -6.1723  -5.0474
    -5.0253  -5.0045  -4.8754  -4.7567   3.7958   6.3513   6.4169   6.6734
     8.1866   8.2988   8.4919   8.5701   8.6714   9.0388

          k = 0.0000 0.1667 0.2378 (  2521 PWs)   bands (ev):

   -45.8565 -22.5106 -22.4460 -22.4282  -7.2020  -6.3620  -6.1092  -5.0455
    -5.0410  -5.0037  -4.8726  -4.7933   3.2511   6.1632   6.4936   6.8889
     7.6647   7.9993   8.2723   8.6932   8.7205   9.3668

          k = 0.0000 0.1667-0.4756 (  2516 PWs)   bands (ev):

   -45.8562 -22.5298 -22.4452 -22.4275  -7.0180  -6.3130  -6.0450  -5.0565
    -5.0409  -5.0029  -4.8803  -4.8263   2.8361   5.8589   6.5529   6.5790
     7.4670   7.8275   8.3384   8.7476   8.7951   9.9282

          k = 0.0000 0.3333 0.0000 (  2514 PWs)   bands (ev):

   -45.8561 -22.4901 -22.4807 -22.4276  -7.0855  -6.3421  -6.1285  -5.0804
    -5.0299  -5.0225  -4.8732  -4.7649   3.2190   5.9809   6.6730   6.7027
     7.8550   7.8763   8.3462   8.4088   8.7764   9.6140

          k = 0.0000 0.3333 0.2378 (  2507 PWs)   bands (ev):

   -45.8558 -22.5088 -22.4800 -22.4268  -6.9712  -6.3032  -6.0457  -5.0506
    -5.0392  -5.0299  -4.8695  -4.7390   2.8953   5.8688   6.5592   6.8000
     7.3096   7.7481   7.8613   8.4058   8.9374   9.6824

          k = 0.0000 0.3333-0.4756 (  2518 PWs)   bands (ev):

   -45.8556 -22.5278 -22.4790 -22.4260  -6.8863  -6.2407  -5.9355  -5.0556
    -5.0301  -5.0125  -4.9061  -4.6899   2.6072   5.5747   6.3167   6.8549
     7.2012   7.3660   7.6893   8.4126   9.3287   9.5166

          k = 0.0000-0.5000 0.0000 (  2488 PWs)   bands (ev):

   -45.8558 -22.4982 -22.4887 -22.4269  -6.9229  -6.2953  -6.1300  -5.0958
    -5.0425  -5.0212  -4.8470  -4.7989   3.0109   5.6186   6.9605   6.9709
     7.3501   7.4690   8.2693   8.4493   8.8124  10.3567

          k = 0.0000-0.5000 0.2378 (  2506 PWs)   bands (ev):

   -45.8555 -22.5077 -22.4971 -22.4260  -6.8710  -6.2242  -6.0376  -5.0633
    -5.0430  -5.0383  -4.8399  -4.7351   2.7519   5.5907   6.5919   6.8582
     7.1648   7.3167   7.9706   8.3941   8.9305   9.8624

          k = 0.0000-0.5000-0.4756 (  2516 PWs)   bands (ev):

   -45.8553 -22.5266 -22.4959 -22.4252  -6.8562  -6.1478  -5.8835  -5.0552
    -5.0436  -5.0234  -4.8928  -4.6340   2.5128   5.4248   6.0402   6.9195
     7.1690   7.3710   7.3748   8.3577   9.1476   9.6538

          k = 0.1667 0.1667 0.0000 (  2498 PWs)   bands (ev):

   -45.8564 -22.4905 -22.4462 -22.4460  -7.2468  -6.3749  -6.1649  -5.0529
    -5.0394  -5.0067  -4.8542  -4.7480   3.4997   6.2929   6.5225   6.7215
     7.7676   7.8516   8.5450   8.5681   8.8874   9.2666

          k = 0.1667 0.1667 0.2378 (  2513 PWs)   bands (ev):

   -45.8561 -22.5097 -22.4454 -22.4452  -7.0807  -6.3510  -6.1024  -5.0554
    -5.0349  -5.0000  -4.8456  -4.7623   3.1380   6.1083   6.1889   6.8520
     7.5509   7.5533   8.3754   8.7473   8.9721   9.3183

          k = 0.1667 0.1667-0.4756 (  2522 PWs)   bands (ev):

   -45.8559 -22.5288 -22.4445 -22.4444  -6.9147  -6.3270  -6.0298  -5.0664
    -5.0161  -4.9770  -4.8531  -4.7818   2.8092   5.9089   5.9193   6.5857
     7.4565   7.4712   8.2681   8.8174   9.0321   9.6361

          k = 0.1667 0.3333 0.0000 (  2515 PWs)   bands (ev):

   -45.8558 -22.4894 -22.4798 -22.4446  -6.9621  -6.3131  -6.1642  -5.0752
    -5.0297  -4.9900  -4.8313  -4.7555   3.0307   5.9855   6.5409   6.8254
     7.2118   7.8048   8.0613   8.7221   8.8999   9.6950

          k = 0.1667 0.3333 0.2378 (  2507 PWs)   bands (ev):

   -45.8555 -22.5081 -22.4792 -22.4437  -6.8454  -6.3063  -6.0949  -5.0533
    -5.0303  -4.9666  -4.8135  -4.7150   2.9031   5.8357   6.0050   6.4896
     6.9300   7.5766   8.4108   8.7022   9.0267   9.4117

          k = 0.1667 0.3333-0.4756 (  2514 PWs)   bands (ev):

   -45.8553 -22.5269 -22.4782 -22.4429  -6.7636  -6.2862  -5.9905  -5.0502
    -5.0075  -4.9277  -4.8258  -4.6641   2.7384   5.5164   5.9217   6.2226
     6.4321   7.4294   8.5149   8.7405   8.9217   9.4501

          k = 0.1667-0.5000 0.0000 (  2520 PWs)   bands (ev):

   -45.8555 -22.4973 -22.4880 -22.4438  -6.8060  -6.2683  -6.1870  -5.0783
    -5.0226  -4.9682  -4.8121  -4.7900   2.8443   5.6350   6.6966   6.8509
     7.1895   7.4655   7.9761   8.7815   8.8797   9.9768

          k = 0.1667-0.5000 0.2378 (  2512 PWs)   bands (ev):

   -45.8552 -22.5070 -22.4962 -22.4430  -6.7447  -6.2372  -6.1158  -5.0521
    -5.0181  -4.9440  -4.7948  -4.7084   2.7942   5.5966   5.9123   6.2781
     6.8770   7.7200   8.1793   8.7170   9.0179   9.3833

          k = 0.1667-0.5000-0.4756 (  2520 PWs)   bands (ev):

   -45.8549 -22.5258 -22.4951 -22.4422  -6.7330  -6.2075  -5.9758  -5.0455
    -4.9808  -4.9205  -4.8102  -4.6088   2.7038   5.3943   5.7825   5.8878
     6.3063   7.5408   8.3021   8.6582   8.6658   9.6618

          k = 0.3333 0.3333 0.0000 (  2522 PWs)   bands (ev):

   -45.8552 -22.4881 -22.4783 -22.4778  -6.7183  -6.2557  -6.2175  -5.0576
    -5.0119  -4.9219  -4.7588  -4.7524   2.6719   5.9494   6.0853   6.9501
     7.0875   7.2649   7.8806   8.5189   9.3854   9.4064

          k = 0.3333 0.3333 0.2378 (  2512 PWs)   bands (ev):

   -45.8549 -22.5064 -22.4775 -22.4775  -6.5955  -6.3042  -6.1832  -5.0213
    -5.0054  -4.8621  -4.7082  -4.6818   2.8541   5.5999   5.6632   5.9396
     6.6066   7.0676   8.3846   8.9913   9.0204   9.4016

          k = 0.3333 0.3333-0.4756 (  2502 PWs)   bands (ev):

   -45.8546 -22.5251 -22.4766 -22.4766  -6.5338  -6.3490  -6.0775  -4.9991
    -4.9850  -4.7973  -4.6634  -4.6075   3.0207   5.2163   5.2359   5.7016
     6.3525   6.5137   7.6507   9.3566   9.3705   9.5322

          k = 0.3333-0.5000 0.0000 (  2520 PWs)   bands (ev):

   -45.8548 -22.4954 -22.4868 -22.4771  -6.6079  -6.2339  -6.2191  -5.0504
    -4.9905  -4.8602  -4.7917  -4.7185   2.5048   5.6148   6.1206   6.7803
     7.3021   7.4049   7.4998   8.4943   9.0790   9.5732

          k = 0.3333-0.5000 0.2378 (  2514 PWs)   bands (ev):

   -45.8546 -22.5054 -22.4944 -22.4766  -6.4884  -6.2665  -6.2393  -5.0134
    -4.9800  -4.7722  -4.7109  -4.6493   2.7976   5.4976   5.5744   5.6829
     6.3899   7.1415   7.9047   8.9878   9.0189   9.5539

          k = 0.3333-0.5000-0.4756 (  2496 PWs)   bands (ev):

   -45.8543 -22.5241 -22.4935 -22.4758  -6.4825  -6.3103  -6.1155  -4.9852
    -4.9625  -4.7091  -4.6300  -4.5548   3.1666   4.9606   5.1466   5.4572
     6.1415   6.5289   6.8813   9.4564   9.5258   9.6836

          k =-0.5000-0.5000 0.0000 (  2496 PWs)   bands (ev):

   -45.8545 -22.4944 -22.4944 -22.4854  -6.5576  -6.1973  -6.1973  -5.0408
    -4.9486  -4.8092  -4.8092  -4.6714   2.3356   5.4598   5.9632   6.9994
     6.9994   7.5189   7.5189   8.2489   8.5817   9.8307

          k =-0.5000-0.5000 0.2378 (  2508 PWs)   bands (ev):

   -45.8543 -22.5044 -22.4935 -22.4935  -6.3675  -6.2823  -6.2823  -5.0026
    -4.9468  -4.6709  -4.6709  -4.6375   2.7455   5.4133   5.6168   5.6168
     5.9693   7.0822   7.2562   9.0197   9.0197   9.8152

          k =-0.5000-0.5000-0.4756 (  2504 PWs)   bands (ev):

   -45.8540 -22.5232 -22.4926 -22.4926  -6.3558  -6.3558  -6.1732  -4.9645
    -4.9450  -4.5926  -4.5420  -4.5420   3.4113   4.9828   4.9828   5.2903
     5.8880   5.9755   6.2469   9.6944   9.6944   9.7998

     highest occupied level (ev):    10.3567

!    total energy              =    -380.57085207 Ry
     estimated scf accuracy    <          3.7E-09 Ry

     The total energy is the sum of the following terms:
     one-electron contribution =     -84.08358968 Ry
     hartree contribution      =      71.16903228 Ry
     xc contribution           =    -102.54213522 Ry
     ewald contribution        =    -265.11415945 Ry

     convergence has been achieved in  14 iterations

     negative rho (up, down):  1.541E-02 0.000E+00

     Forces acting on atoms (cartesian axes, Ry/au):

     atom    1 type  1   force =     0.00000000    0.00000000   -0.00787624
     atom    2 type  2   force =     0.00000000    0.00000000   -0.01230891
     atom    3 type  3   force =     0.00000000    0.00000000    0.02037174
     atom    4 type  3   force =     0.00000000    0.00000000   -0.00009330
     atom    5 type  3   force =     0.00000000    0.00000000   -0.00009330

     Total force =     0.025071     Total SCF correction =     0.000224


     Computing stress (Cartesian axis) and pressure


     negative rho (up, down):  1.541E-02 0.000E+00
          total   stress  (Ry/bohr**3)                   (kbar)     P=      -65.46
  -0.00043344   0.00000000   0.00000000          -63.76        0.00        0.00
   0.00000000  -0.00043344   0.00000000            0.00      -63.76        0.00
   0.00000000   0.00000000  -0.00046814            0.00        0.00      -68.87


     BFGS Geometry Optimization
     Energy error            =      0.0E+00 Ry
     Gradient error          =      2.0E-02 Ry/Bohr
     Cell gradient error     =      6.9E+01 kbar

     number of scf cycles    =   1
     number of bfgs steps    =   0

     enthalpy           new  =    -380.5708520678 Ry

     new trust radius        =       0.0480172822 bohr
     new conv_thr            =       0.0000000100 Ry

     new unit-cell volume =    406.94305 a.u.^3 (    60.30274 Ang^3 )
     density =      8.34583 g/cm^3

CELL_PARAMETERS (angstrom)
   3.857739897   0.000000000   0.000000000
   0.000000000   3.857739897   0.000000000
   0.000000000   0.000000000   4.052015983

ATOMIC_POSITIONS (crystal)
Pb               0.0000000000        0.0000000000        1.0054059408
Ti               0.5000000000        0.5000000000        0.5388350157
O                0.5000000000        0.5000000000        0.1012096333
O                0.5000000000        0.0000000000        0.6109168491
O                0.0000000000        0.5000000000        0.6109168491



     Writing config-only to output data dir ./PTO.save/ :
     XML data file
     NEW-OLD atomic charge density approx. for the potential

     Check: negative core charge=   -0.000004

     negative rho (up, down):  1.523E-02 0.000E+00

     total cpu time spent up to now is       15.3 secs

     Self-consistent Calculation

     iteration #  1     ecut=    50.00 Ry     beta= 0.70
     CG style diagonalization
     c_bands:  2 eigenvalues not converged
     c_bands:  2 eigenvalues not converged
     c_bands:  1 eigenvalues not converged
     c_bands:  3 eigenvalues not converged
     c_bands:  1 eigenvalues not converged
     c_bands:  2 eigenvalues not converged
     c_bands:  1 eigenvalues not converged
     c_bands:  2 eigenvalues not converged
     c_bands:  1 eigenvalues not converged
     ethr =  1.00E-06,  avg # of iterations =  8.7

     negative rho (up, down):  1.523E-02 0.000E+00

     total cpu time spent up to now is       17.2 secs

     total energy              =    -380.57403926 Ry
     estimated scf accuracy    <       0.00042555 Ry

     iteration #  2     ecut=    50.00 Ry     beta= 0.70
     CG style diagonalization
     ethr =  9.67E-07,  avg # of iterations =  4.5

     negative rho (up, down):  1.524E-02 0.000E+00

     total cpu time spent up to now is       18.1 secs

     total energy              =    -380.57401803 Ry
     estimated scf accuracy    <       0.00063829 Ry

     iteration #  3     ecut=    50.00 Ry     beta= 0.70
     CG style diagonalization
     ethr =  9.67E-07,  avg # of iterations =  4.1

     negative rho (up, down):  1.524E-02 0.000E+00

     total cpu time spent up to now is       18.9 secs

     total energy              =    -380.57416661 Ry
     estimated scf accuracy    <       0.00016164 Ry

     iteration #  4     ecut=    50.00 Ry     beta= 0.70
     CG style diagonalization
     ethr =  3.67E-07,  avg # of iterations =  3.6

     negative rho (up, down):  1.525E-02 0.000E+00

     total cpu time spent up to now is       19.6 secs

     total energy              =    -380.57419557 Ry
     estimated scf accuracy    <       0.00001155 Ry

     iteration #  5     ecut=    50.00 Ry     beta= 0.70
     CG style diagonalization
     ethr =  2.62E-08,  avg # of iterations =  4.4

     negative rho (up, down):  1.527E-02 0.000E+00

     total cpu time spent up to now is       20.5 secs

     total energy              =    -380.57420429 Ry
     estimated scf accuracy    <       0.00000124 Ry

     iteration #  6     ecut=    50.00 Ry     beta= 0.70
     CG style diagonalization
     ethr =  2.81E-09,  avg # of iterations =  5.1

     negative rho (up, down):  1.528E-02 0.000E+00

     total cpu time spent up to now is       21.5 secs

     total energy              =    -380.57420552 Ry
     estimated scf accuracy    <       0.00000086 Ry

     iteration #  7     ecut=    50.00 Ry     beta= 0.70
     CG style diagonalization
     ethr =  1.95E-09,  avg # of iterations =  3.6

     negative rho (up, down):  1.532E-02 0.000E+00

     total cpu time spent up to now is       22.2 secs

     total energy              =    -380.57420547 Ry
     estimated scf accuracy    <       0.00000032 Ry

     iteration #  8     ecut=    50.00 Ry     beta= 0.70
     CG style diagonalization
     ethr =  7.35E-10,  avg # of iterations =  4.4

     negative rho (up, down):  1.532E-02 0.000E+00

     total cpu time spent up to now is       23.1 secs

     total energy              =    -380.57420556 Ry
     estimated scf accuracy    <       0.00000017 Ry

     iteration #  9     ecut=    50.00 Ry     beta= 0.70
     CG style diagonalization
     ethr =  3.85E-10,  avg # of iterations =  4.1

     negative rho (up, down):  1.532E-02 0.000E+00

     total cpu time spent up to now is       23.9 secs

     total energy              =    -380.57420562 Ry
     estimated scf accuracy    <       0.00000001 Ry

     iteration # 10     ecut=    50.00 Ry     beta= 0.70
     CG style diagonalization
     ethr =  2.90E-11,  avg # of iterations =  6.2

     negative rho (up, down):  1.532E-02 0.000E+00

     total cpu time spent up to now is       25.2 secs

     End of self-consistent calculation

          k = 0.0000 0.0000 0.0000 (  2525 PWs)   bands (ev):

   -45.1694 -21.8644 -21.7642 -21.7642  -7.1696  -6.0176  -5.7799  -4.4402
    -4.4402  -4.4029  -4.2849  -4.1702   4.8124   6.7297   6.7297   7.1066
     8.6592   8.6592   8.9440   9.2406   9.4378   9.4378

          k = 0.0000 0.0000 0.2406 (  2517 PWs)   bands (ev):

   -45.1690 -21.8878 -21.7633 -21.7633  -6.9596  -5.9550  -5.7118  -4.4579
    -4.4579  -4.4014  -4.2732  -4.2479   3.9494   6.7816   6.7816   7.2950
     8.4170   8.4170   8.8601   9.3479   9.5536   9.5536

          k = 0.0000 0.0000-0.4812 (  2530 PWs)   bands (ev):

   -45.1687 -21.9111 -21.7623 -21.7623  -6.7305  -5.8864  -5.6511  -4.4754
    -4.4754  -4.3999  -4.3317  -4.2632   3.4023   6.5988   6.8112   6.8112
     8.2680   8.2680   8.7800   9.6297   9.6297  10.6356

          k = 0.0000 0.1685 0.0000 (  2525 PWs)   bands (ev):

   -45.1690 -21.8635 -21.7845 -21.7634  -7.0253  -5.9835  -5.7492  -4.4649
    -4.4386  -4.4176  -4.2874  -4.1588   4.3295   6.7913   6.8405   7.1339
     8.6327   8.6805   8.9341   9.0608   9.1474   9.5310

          k = 0.0000 0.1685 0.2406 (  2521 PWs)   bands (ev):

   -45.1686 -21.8868 -21.7834 -21.7624  -6.8317  -5.9374  -5.6755  -4.4635
    -4.4569  -4.4168  -4.2821  -4.1985   3.7202   6.5698   6.9034   7.3813
     8.0967   8.4018   8.7513   9.1413   9.2213   9.9141

          k = 0.0000 0.1685-0.4812 (  2516 PWs)   bands (ev):

   -45.1683 -21.9099 -21.7824 -21.7614  -6.6309  -5.8848  -5.5997  -4.4750
    -4.4600  -4.4159  -4.2872  -4.2339   3.2630   6.2456   6.9385   7.0306
     7.9048   8.2610   8.8283   9.1981   9.3041  10.5546

          k = 0.0000 0.3370 0.0000 (  2514 PWs)   bands (ev):

   -45.1682 -21.8618 -21.8248 -21.7617  -6.7118  -5.9103  -5.7035  -4.5022
    -4.4469  -4.4353  -4.2816  -4.1645   3.7050   6.4248   7.0797   7.1239
     8.3127   8.3486   8.7951   8.8016   9.2555  10.1818

          k = 0.0000 0.3370 0.2406 (  2507 PWs)   bands (ev):

   -45.1679 -21.8846 -21.8235 -21.7607  -6.5842  -5.8684  -5.6090  -4.4692
    -4.4550  -4.4470  -4.2747  -4.1377   3.3391   6.2907   6.9869   7.2199
     7.7444   8.1648   8.3246   8.8745   9.4036  10.2649

          k = 0.0000 0.3370-0.4812 (  2518 PWs)   bands (ev):

   -45.1676 -21.9074 -21.8222 -21.7597  -6.4898  -5.7997  -5.4841  -4.4742
    -4.4475  -4.4283  -4.3114  -4.0837   3.0181   5.9566   6.7529   7.2569
     7.6326   7.8097   8.1085   8.9144   9.8206  10.1068

          k = 0.0000-0.5055 0.0000 (  2488 PWs)   bands (ev):

   -45.1678 -21.8606 -21.8450 -21.7608  -6.5385  -5.8539  -5.7091  -4.5180
    -4.4613  -4.4337  -4.2552  -4.1972   3.4857   6.0444   7.3352   7.3694
     7.8299   7.9672   8.7161   8.8355   9.2864  10.9826

          k = 0.0000-0.5055 0.2406 (  2506 PWs)   bands (ev):

   -45.1675 -21.8834 -21.8435 -21.7598  -6.4767  -5.7774  -5.6051  -4.4812
    -4.4622  -4.4538  -4.2406  -4.1333   3.1887   6.0144   7.0139   7.2560
     7.5778   7.7580   8.4359   8.8430   9.4097  10.4575

          k = 0.0000-0.5055-0.4812 (  2516 PWs)   bands (ev):

   -45.1672 -21.9060 -21.8420 -21.7588  -6.4576  -5.6953  -5.4314  -4.4738
    -4.4631  -4.4365  -4.2968  -4.0214   2.9198   5.8223   6.4363   7.3234
     7.5728   7.8038   7.8219   8.8470   9.7588  10.1309

          k = 0.1685 0.1685 0.0000 (  2498 PWs)   bands (ev):

   -45.1686 -21.8627 -21.7838 -21.7833  -6.8837  -5.9484  -5.7402  -4.4709
    -4.4551  -4.4206  -4.2639  -4.1482   4.0015   6.7188   6.9648   7.1844
     8.1503   8.2947   9.0335   9.0374   9.3734   9.7524

          k = 0.1685 0.1685 0.2406 (  2513 PWs)   bands (ev):

   -45.1683 -21.8858 -21.7827 -21.7824  -6.7010  -5.9221  -5.6675  -4.4740
    -4.4506  -4.4140  -4.2533  -4.1639   3.5991   6.4892   6.5961   7.3214
     7.9965   8.0288   8.8071   9.2120   9.4485   9.8787

          k = 0.1685 0.1685-0.4812 (  2522 PWs)   bands (ev):

   -45.1679 -21.9087 -21.7816 -21.7814  -6.5189  -5.8956  -5.5823  -4.4871
    -4.4301  -4.3895  -4.2592  -4.1857   3.2327   6.2689   6.3146   7.0215
     7.9191   7.9480   8.7128   9.2872   9.5056  10.2490

          k = 0.1685 0.3370 0.0000 (  2515 PWs)   bands (ev):

   -45.1678 -21.8609 -21.8237 -21.7817  -6.5796  -5.8767  -5.7361  -4.4951
    -4.4443  -4.4052  -4.2393  -4.1540   3.4918   6.4248   6.9597   7.2618
     7.6432   8.1931   8.5360   9.2007   9.3906  10.2568

          k = 0.1685 0.3370 0.2406 (  2507 PWs)   bands (ev):

   -45.1675 -21.8837 -21.8225 -21.7807  -6.4475  -5.8680  -5.6570  -4.4710
    -4.4450  -4.3816  -4.2178  -4.1118   3.3450   6.2392   6.3690   6.9275
     7.3703   8.0593   8.8791   9.1563   9.4967   9.9753

          k = 0.1685 0.3370-0.4812 (  2514 PWs)   bands (ev):

   -45.1672 -21.9063 -21.8212 -21.7796  -6.3552  -5.8438  -5.5377  -4.4689
    -4.4198  -4.3397  -4.2306  -4.0565   3.1534   5.8760   6.3040   6.6240
     6.8719   7.9260   8.9675   9.2176   9.4809   9.9294

          k = 0.1685-0.5055 0.0000 (  2520 PWs)   bands (ev):

   -45.1674 -21.8597 -21.8438 -21.7808  -6.4132  -5.8230  -5.7612  -4.4982
    -4.4363  -4.3842  -4.2202  -4.1878   3.2928   6.0631   7.0665   7.3181
     7.6106   7.9524   8.3536   9.2436   9.3809  10.5964

          k = 0.1685-0.5055 0.2406 (  2512 PWs)   bands (ev):

   -45.1671 -21.8825 -21.8424 -21.7798  -6.3388  -5.7881  -5.6808  -4.4691
    -4.4312  -4.3611  -4.1936  -4.1060   3.2282   6.0183   6.2647   6.6693
     7.3328   8.1991   8.6552   9.1592   9.5124   9.9315

          k = 0.1685-0.5055-0.4812 (  2520 PWs)   bands (ev):

   -45.1668 -21.9050 -21.8411 -21.7787  -6.3220  -5.7545  -5.5210  -4.4634
    -4.3869  -4.3390  -4.2121  -3.9952   3.1161   5.7715   6.1404   6.2860
     6.7171   8.0402   8.8482   9.1044   9.1538  10.1420

          k = 0.3370 0.3370 0.0000 (  2522 PWs)   bands (ev):

   -45.1671 -21.8590 -21.8216 -21.8214  -6.3208  -5.8092  -5.7811  -4.4748
    -4.4255  -4.3328  -4.1595  -4.1569   3.0900   6.4056   6.5108   7.3546
     7.5189   7.6306   8.3449   9.0403   9.8765   9.9948

          k = 0.3370 0.3370 0.2406 (  2512 PWs)   bands (ev):

   -45.1667 -21.8816 -21.8206 -21.8203  -6.1767  -5.8586  -5.7433  -4.4329
    -4.4187  -4.2725  -4.1107  -4.0749   3.2788   5.9446   6.0170   6.4016
     7.0412   7.5346   8.9382   9.4585   9.4911   9.8911

          k = 0.3370 0.3370-0.4812 (  2502 PWs)   bands (ev):

   -45.1664 -21.9042 -21.8194 -21.8193  -6.1022  -5.9043  -5.6230  -4.4118
    -4.3912  -4.2078  -4.0594  -3.9955   3.4420   5.5368   5.5675   6.1448
     6.7905   6.9642   8.1808   9.8243   9.8652  10.0075

          k = 0.3370-0.5055 0.0000 (  2520 PWs)   bands (ev):

   -45.1667 -21.8578 -21.8415 -21.8204  -6.2067  -5.7909  -5.7661  -4.4665
    -4.4018  -4.2679  -4.1912  -4.1251   2.9048   6.0545   6.5564   7.1595
     7.6800   7.8347   7.9523   9.0142   9.6833  10.0836

          k = 0.3370-0.5055 0.2406 (  2514 PWs)   bands (ev):

   -45.1664 -21.8805 -21.8403 -21.8194  -6.0610  -5.8138  -5.7999  -4.4237
    -4.3901  -4.1795  -4.1061  -4.0467   3.2077   5.8341   5.9922   6.0634
     6.8259   7.6028   8.4684   9.4524   9.4790  10.0525

          k = 0.3370-0.5055-0.4812 (  2496 PWs)   bands (ev):

   -45.1660 -21.9030 -21.8391 -21.8184  -6.0452  -5.8582  -5.6606  -4.3940
    -4.3669  -4.1186  -4.0201  -3.9396   3.5876   5.2765   5.4612   5.9078
     6.5561   6.9707   7.3965   9.9268  10.0264  10.1658

          k =-0.5055-0.5055 0.0000 (  2496 PWs)   bands (ev):

   -45.1663 -21.8567 -21.8403 -21.8403  -6.1571  -5.7406  -5.7406  -4.4556
    -4.3545  -4.2126  -4.2126  -4.0762   2.7139   5.9018   6.3893   7.3681
     7.3681   7.9501   7.9501   8.7800   9.2144  10.3449

          k =-0.5055-0.5055 0.2406 (  2508 PWs)   bands (ev):

   -45.1660 -21.8793 -21.8392 -21.8392  -5.9414  -5.8283  -5.8283  -4.4113
    -4.3523  -4.0643  -4.0643  -4.0425   3.1334   5.8597   5.9524   5.9524
     6.3960   7.5444   7.8151   9.4823   9.4823  10.3272

          k =-0.5055-0.5055-0.4812 (  2504 PWs)   bands (ev):

   -45.1657 -21.9018 -21.8381 -21.8381  -5.9045  -5.9045  -5.7191  -4.3670
    -4.3502  -3.9972  -3.9249  -3.9249   3.8163   5.2931   5.2931   5.7429
     6.3885   6.4027   6.6480  10.1776  10.1776  10.3096

     highest occupied level (ev):    10.9826

!    total energy              =    -380.57420565 Ry
     estimated scf accuracy    <          9.1E-10 Ry

     The total energy is the sum of the following terms:
     one-electron contribution =     -79.91651640 Ry
     hartree contribution      =      70.01007068 Ry
     xc contribution           =    -102.67759637 Ry
     ewald contribution        =    -267.99016357 Ry

     convergence has been achieved in  10 iterations

     negative rho (up, down):  1.532E-02 0.000E+00

     Forces acting on atoms (cartesian axes, Ry/au):

     atom    1 type  1   force =     0.00000000    0.00000000   -0.00118951
     atom    2 type  2   force =     0.00000000    0.00000000    0.00546005
     atom    3 type  3   force =     0.00000000    0.00000000   -0.00704450
     atom    4 type  3   force =     0.00000000    0.00000000    0.00138698
     atom    5 type  3   force =     0.00000000    0.00000000    0.00138698

     Total force =     0.009203     Total SCF correction =     0.000173


     Computing stress (Cartesian axis) and pressure


     negative rho (up, down):  1.532E-02 0.000E+00
          total   stress  (Ry/bohr**3)                   (kbar)     P=        0.78
  -0.00001163   0.00000000   0.00000000           -1.71        0.00        0.00
   0.00000000  -0.00001163   0.00000000            0.00       -1.71        0.00
   0.00000000   0.00000000   0.00003924            0.00        0.00        5.77

     Energy error            =      3.4E-03 Ry
     Gradient error          =      7.0E-03 Ry/Bohr
     Cell gradient error     =      5.8E+00 kbar

     number of scf cycles    =   2
     number of bfgs steps    =   1

     enthalpy           old  =    -380.5708520678 Ry
     enthalpy           new  =    -380.5742056538 Ry

     CASE: enthalpy          _new < enthalpy          _old

     new trust radius        =       0.0063670567 bohr
     new conv_thr            =       0.0000000007 Ry

     new unit-cell volume =    406.93377 a.u.^3 (    60.30136 Ang^3 )
     density =      8.34602 g/cm^3

CELL_PARAMETERS (angstrom)
   3.856170802   0.000000000   0.000000000
   0.000000000   3.856170802   0.000000000
   0.000000000   0.000000000   4.055221751

ATOMIC_POSITIONS (crystal)
Pb               0.0000000000        0.0000000000        1.0052480920
Ti               0.5000000000        0.5000000000        0.5394848689
O                0.5000000000        0.5000000000        0.1003781209
O                0.5000000000        0.0000000000        0.6110866031
O                0.0000000000        0.5000000000        0.6110866031



     Writing config-only to output data dir ./PTO.save/ :
     XML data file
     NEW-OLD atomic charge density approx. for the potential

     Check: negative core charge=   -0.000004

     negative rho (up, down):  1.531E-02 0.000E+00

     total cpu time spent up to now is       26.4 secs

     Self-consistent Calculation

     iteration #  1     ecut=    50.00 Ry     beta= 0.70
     CG style diagonalization
     c_bands:  1 eigenvalues not converged
     ethr =  1.00E-06,  avg # of iterations =  4.6

     negative rho (up, down):  1.532E-02 0.000E+00

     total cpu time spent up to now is       27.4 secs

     total energy              =    -380.57422743 Ry
     estimated scf accuracy    <       0.00004442 Ry

     iteration #  2     ecut=    50.00 Ry     beta= 0.70
     CG style diagonalization
     ethr =  1.01E-07,  avg # of iterations =  4.9

     negative rho (up, down):  1.531E-02 0.000E+00

     total cpu time spent up to now is       28.4 secs

     total energy              =    -380.57423394 Ry
     estimated scf accuracy    <       0.00014157 Ry

     iteration #  3     ecut=    50.00 Ry     beta= 0.70
     CG style diagonalization
     ethr =  1.01E-07,  avg # of iterations =  4.4

     negative rho (up, down):  1.531E-02 0.000E+00

     total cpu time spent up to now is       29.3 secs

     total energy              =    -380.57426000 Ry
     estimated scf accuracy    <       0.00000774 Ry

     iteration #  4     ecut=    50.00 Ry     beta= 0.70
     CG style diagonalization
     ethr =  1.76E-08,  avg # of iterations =  3.8

     negative rho (up, down):  1.531E-02 0.000E+00

     total cpu time spent up to now is       30.0 secs

     total energy              =    -380.57426236 Ry
     estimated scf accuracy    <       0.00000086 Ry

     iteration #  5     ecut=    50.00 Ry     beta= 0.70
     CG style diagonalization
     ethr =  1.95E-09,  avg # of iterations =  4.4

     negative rho (up, down):  1.531E-02 0.000E+00

     total cpu time spent up to now is       30.9 secs

     total energy              =    -380.57426284 Ry
     estimated scf accuracy    <       0.00000009 Ry

     iteration #  6     ecut=    50.00 Ry     beta= 0.70
     CG style diagonalization
     ethr =  2.14E-10,  avg # of iterations =  4.7

     negative rho (up, down):  1.531E-02 0.000E+00

     total cpu time spent up to now is       31.9 secs

     total energy              =    -380.57426289 Ry
     estimated scf accuracy    <       0.00000007 Ry

     iteration #  7     ecut=    50.00 Ry     beta= 0.70
     CG style diagonalization
     ethr =  1.53E-10,  avg # of iterations =  3.8

     negative rho (up, down):  1.531E-02 0.000E+00

     total cpu time spent up to now is       32.6 secs

     total energy              =    -380.57426290 Ry
     estimated scf accuracy    <          9.8E-09 Ry

     iteration #  8     ecut=    50.00 Ry     beta= 0.70
     CG style diagonalization
     ethr =  2.23E-11,  avg # of iterations =  4.9

     negative rho (up, down):  1.531E-02 0.000E+00

     total cpu time spent up to now is       33.6 secs

     total energy              =    -380.57426291 Ry
     estimated scf accuracy    <          3.0E-09 Ry

     iteration #  9     ecut=    50.00 Ry     beta= 0.70
     CG style diagonalization
     ethr =  6.92E-12,  avg # of iterations =  4.3

     negative rho (up, down):  1.531E-02 0.000E+00

     total cpu time spent up to now is       34.5 secs

     End of self-consistent calculation

          k = 0.0000 0.0000 0.0000 (  2525 PWs)   bands (ev):

   -45.1838 -21.8677 -21.7797 -21.7797  -7.1748  -6.0252  -5.7745  -4.4365
    -4.4365  -4.3977  -4.2793  -4.1682   4.8142   6.7278   6.7278   7.0973
     8.6857   8.6857   8.9386   9.2606   9.4321   9.4321

          k = 0.0000 0.0000 0.2404 (  2517 PWs)   bands (ev):

   -45.1834 -21.8909 -21.7788 -21.7788  -6.9676  -5.9634  -5.7059  -4.4541
    -4.4541  -4.3962  -4.2678  -4.2451   3.9556   6.7831   6.7831   7.2939
     8.4349   8.4349   8.8557   9.3526   9.5486   9.5486

          k = 0.0000 0.0000-0.4809 (  2530 PWs)   bands (ev):

   -45.1831 -21.9139 -21.7778 -21.7778  -6.7421  -5.8957  -5.6444  -4.4716
    -4.4716  -4.3947  -4.3279  -4.2579   3.4128   6.6019   6.8176   6.8176
     8.2780   8.2780   8.7766   9.6242   9.6242  10.6286

          k = 0.0000 0.1686 0.0000 (  2525 PWs)   bands (ev):

   -45.1834 -21.8669 -21.8000 -21.7788  -7.0301  -5.9909  -5.7436  -4.4610
    -4.4349  -4.4125  -4.2822  -4.1564   4.3309   6.7862   6.8379   7.1288
     8.6463   8.7074   8.9345   9.0550   9.1523   9.5389

          k = 0.0000 0.1686 0.2404 (  2521 PWs)   bands (ev):

   -45.1831 -21.8899 -21.7990 -21.7779  -6.8392  -5.9452  -5.6693  -4.4596
    -4.4531  -4.4116  -4.2769  -4.1957   3.7247   6.5714   6.9043   7.3777
     8.1071   8.4187   8.7503   9.1453   9.2177   9.9127

          k = 0.0000 0.1686-0.4809 (  2516 PWs)   bands (ev):

   -45.1827 -21.9127 -21.7980 -21.7769  -6.6417  -5.8933  -5.5926  -4.4711
    -4.4561  -4.4108  -4.2823  -4.2305   3.2709   6.2541   6.9446   7.0278
     7.9109   8.2705   8.8217   9.2039   9.2990  10.5492

          k = 0.0000 0.3371 0.0000 (  2514 PWs)   bands (ev):

   -45.1826 -21.8652 -21.8404 -21.7771  -6.7160  -5.9167  -5.6975  -4.4982
    -4.4419  -4.4316  -4.2770  -4.1614   3.7063   6.4169   7.0762   7.1193
     8.3102   8.3462   8.7909   8.8276   9.2666  10.1919

          k = 0.0000 0.3371 0.2404 (  2507 PWs)   bands (ev):

   -45.1823 -21.8878 -21.8392 -21.7761  -6.5914  -5.8745  -5.6020  -4.4653
    -4.4512  -4.4420  -4.2703  -4.1349   3.3415   6.2873   6.9853   7.2185
     7.7449   8.1708   8.3253   8.8843   9.4054  10.2712

          k = 0.0000 0.3371-0.4809 (  2518 PWs)   bands (ev):

   -45.1820 -21.9102 -21.8380 -21.7752  -6.4992  -5.8067  -5.4763  -4.4703
    -4.4425  -4.4246  -4.3068  -4.0813   3.0217   5.9645   6.7470   7.2625
     7.6335   7.8037   8.1109   8.9171   9.8392  10.0997

          k = 0.0000-0.5057 0.0000 (  2488 PWs)   bands (ev):

   -45.1822 -21.8639 -21.8608 -21.7763  -6.5428  -5.8595  -5.7025  -4.5141
    -4.4564  -4.4300  -4.2511  -4.1935   3.4875   6.0329   7.3376   7.3618
     7.8190   7.9655   8.7123   8.8644   9.2975  10.9935

          k = 0.0000-0.5057 0.2404 (  2506 PWs)   bands (ev):

   -45.1819 -21.8865 -21.8593 -21.7753  -6.4841  -5.7835  -5.5961  -4.4776
    -4.4573  -4.4501  -4.2366  -4.1303   3.1905   6.0049   7.0151   7.2567
     7.5686   7.7660   8.4355   8.8594   9.4065  10.4720

          k = 0.0000-0.5057-0.4809 (  2516 PWs)   bands (ev):

   -45.1816 -21.9088 -21.8579 -21.7743  -6.4662  -5.7021  -5.4224  -4.4699
    -4.4582  -4.4332  -4.2922  -4.0194   2.9218   5.8244   6.4348   7.3211
     7.5863   7.7928   7.8163   8.8558   9.7680  10.1388

          k = 0.1686 0.1686 0.0000 (  2498 PWs)   bands (ev):

   -45.1830 -21.8660 -21.7993 -21.7989  -6.8878  -5.9557  -5.7346  -4.4669
    -4.4513  -4.4158  -4.2584  -4.1456   4.0025   6.7135   6.9583   7.1832
     8.1687   8.2930   9.0289   9.0525   9.3689   9.7702

          k = 0.1686 0.1686 0.2404 (  2513 PWs)   bands (ev):

   -45.1827 -21.8889 -21.7982 -21.7979  -6.7080  -5.9298  -5.6610  -4.4699
    -4.4465  -4.4096  -4.2480  -4.1612   3.6025   6.4905   6.5962   7.3208
     8.0020   8.0275   8.8243   9.2102   9.4469   9.8799

          k = 0.1686 0.1686-0.4809 (  2522 PWs)   bands (ev):

   -45.1823 -21.9116 -21.7971 -21.7970  -6.5290  -5.9036  -5.5749  -4.4829
    -4.4254  -4.3862  -4.2538  -4.1828   3.2391   6.2745   6.3228   7.0146
     7.9199   7.9470   8.7276   9.2855   9.5054  10.2458

          k = 0.1686 0.3371 0.0000 (  2515 PWs)   bands (ev):

   -45.1822 -21.8643 -21.8393 -21.7972  -6.5822  -5.8832  -5.7314  -4.4912
    -4.4403  -4.4002  -4.2339  -4.1507   3.4926   6.4157   6.9594   7.2544
     7.6401   8.2138   8.5302   9.2041   9.3914  10.2699

          k = 0.1686 0.3371 0.2404 (  2507 PWs)   bands (ev):

   -45.1819 -21.8868 -21.8382 -21.7962  -6.4536  -5.8742  -5.6505  -4.4670
    -4.4411  -4.3767  -4.2131  -4.1089   3.3466   6.2368   6.3680   6.9248
     7.3722   8.0601   8.8816   9.1621   9.4985   9.9820

          k = 0.1686 0.3371-0.4809 (  2514 PWs)   bands (ev):

   -45.1816 -21.9092 -21.8370 -21.7952  -6.3637  -5.8505  -5.5301  -4.4646
    -4.4156  -4.3354  -4.2259  -4.0541   3.1563   5.8831   6.3017   6.6258
     6.8648   7.9218   8.9850   9.2127   9.4863   9.9329

          k = 0.1686-0.5057 0.0000 (  2520 PWs)   bands (ev):

   -45.1818 -21.8631 -21.8596 -21.7963  -6.4153  -5.8288  -5.7570  -4.4942
    -4.4324  -4.3787  -4.2154  -4.1840   3.2939   6.0517   7.0712   7.3090
     7.6005   7.9459   8.3809   9.2421   9.3856  10.6027

          k = 0.1686-0.5057 0.2404 (  2512 PWs)   bands (ev):

   -45.1815 -21.8855 -21.8582 -21.7953  -6.3450  -5.7940  -5.6733  -4.4651
    -4.4273  -4.3552  -4.1900  -4.1027   3.2293   6.0094   6.2624   6.6705
     7.3351   8.2019   8.6505   9.1704   9.5080   9.9445

          k = 0.1686-0.5057-0.4809 (  2520 PWs)   bands (ev):

   -45.1812 -21.9079 -21.8569 -21.7943  -6.3297  -5.7606  -5.5133  -4.4592
    -4.3835  -4.3327  -4.2086  -3.9930   3.1174   5.7761   6.1343   6.2815
     6.7206   8.0346   8.8540   9.1183   9.1518  10.1485

          k = 0.3371 0.3371 0.0000 (  2522 PWs)   bands (ev):

   -45.1815 -21.8625 -21.8372 -21.8371  -6.3188  -5.8159  -5.7804  -4.4709
    -4.4211  -4.3281  -4.1533  -4.1526   3.0901   6.3994   6.4975   7.3598
     7.5124   7.6516   8.3304   9.0437   9.8731  10.0009

          k = 0.3371 0.3371 0.2404 (  2512 PWs)   bands (ev):

   -45.1811 -21.8848 -21.8362 -21.8361  -6.1799  -5.8647  -5.7385  -4.4291
    -4.4141  -4.2674  -4.1049  -4.0722   3.2784   5.9446   6.0173   6.3961
     7.0345   7.5371   8.9404   9.4597   9.5010   9.8884

          k = 0.3371 0.3371-0.4809 (  2502 PWs)   bands (ev):

   -45.1808 -21.9070 -21.8351 -21.8350  -6.1089  -5.9100  -5.6163  -4.4071
    -4.3876  -4.2020  -4.0550  -3.9935   3.4421   5.5414   5.5640   6.1455
     6.7904   6.9524   8.1900   9.8346   9.8599  10.0148

          k = 0.3371-0.5057 0.0000 (  2520 PWs)   bands (ev):

   -45.1811 -21.8613 -21.8573 -21.8361  -6.2010  -5.7940  -5.7724  -4.4625
    -4.3972  -4.2632  -4.1873  -4.1177   2.9048   6.0448   6.5427   7.1696
     7.6985   7.8242   7.9450   9.0144   9.6830  10.0783

          k = 0.3371-0.5057 0.2404 (  2514 PWs)   bands (ev):

   -45.1808 -21.8836 -21.8561 -21.8351  -6.0628  -5.8194  -5.7964  -4.4199
    -4.3854  -4.1733  -4.1032  -4.0417   3.2063   5.8358   5.9888   6.0587
     6.8183   7.6074   8.4674   9.4564   9.4848  10.0485

          k = 0.3371-0.5057-0.4809 (  2496 PWs)   bands (ev):

   -45.1804 -21.9058 -21.8549 -21.8341  -6.0510  -5.8632  -5.6544  -4.3897
    -4.3629  -4.1107  -4.0180  -3.9369   3.5849   5.2745   5.4677   5.9011
     6.5529   6.9656   7.4047   9.9365  10.0212  10.1727

          k =-0.5057-0.5057 0.0000 (  2496 PWs)   bands (ev):

   -45.1807 -21.8600 -21.8561 -21.8561  -6.1476  -5.7471  -5.7471  -4.4516
    -4.3494  -4.2088  -4.2088  -4.0671   2.7133   5.8933   6.3723   7.3833
     7.3833   7.9411   7.9411   8.7813   9.2044  10.3399

          k =-0.5057-0.5057 0.2404 (  2508 PWs)   bands (ev):

   -45.1804 -21.8824 -21.8550 -21.8550  -5.9338  -5.8337  -5.8337  -4.4075
    -4.3473  -4.0617  -4.0617  -4.0330   3.1305   5.8510   5.9583   5.9583
     6.3788   7.5494   7.8118   9.4855   9.4855  10.3224

          k =-0.5057-0.5057-0.4809 (  2504 PWs)   bands (ev):

   -45.1801 -21.9047 -21.8539 -21.8539  -5.9092  -5.9092  -5.7135  -4.3634
    -4.3451  -3.9874  -3.9233  -3.9233   3.8075   5.2992   5.2992   5.7353
     6.3854   6.3938   6.6549  10.1845  10.1845  10.3049

     highest occupied level (ev):    10.9935

!    total energy              =    -380.57426291 Ry
     estimated scf accuracy    <          3.5E-10 Ry

     The total energy is the sum of the following terms:
     one-electron contribution =     -79.89207363 Ry
     hartree contribution      =      69.99458334 Ry
     xc contribution           =    -102.67486548 Ry
     ewald contribution        =    -268.00190714 Ry

     convergence has been achieved in   9 iterations

     negative rho (up, down):  1.531E-02 0.000E+00

     Forces acting on atoms (cartesian axes, Ry/au):

     atom    1 type  1   force =     0.00000000    0.00000000   -0.00037912
     atom    2 type  2   force =     0.00000000    0.00000000    0.00074665
     atom    3 type  3   force =     0.00000000    0.00000000   -0.00212823
     atom    4 type  3   force =     0.00000000    0.00000000    0.00088035
     atom    5 type  3   force =     0.00000000    0.00000000    0.00088035

     Total force =     0.002604     Total SCF correction =     0.000042


     Computing stress (Cartesian axis) and pressure


     negative rho (up, down):  1.531E-02 0.000E+00
          total   stress  (Ry/bohr**3)                   (kbar)     P=       -0.89
  -0.00000725   0.00000000   0.00000000           -1.07        0.00        0.00
   0.00000000  -0.00000725   0.00000000            0.00       -1.07        0.00
   0.00000000   0.00000000  -0.00000358            0.00        0.00       -0.53

     Energy error            =      5.7E-05 Ry
     Gradient error          =      2.1E-03 Ry/Bohr
     Cell gradient error     =      1.1E+00 kbar

     number of scf cycles    =   3
     number of bfgs steps    =   2

     enthalpy           old  =    -380.5742056538 Ry
     enthalpy           new  =    -380.5742629096 Ry

     CASE: enthalpy          _new < enthalpy          _old

     new trust radius        =       0.0030138663 bohr
     new conv_thr            =            1.0E-10 Ry

     new unit-cell volume =    406.64050 a.u.^3 (    60.25791 Ang^3 )
     density =      8.35204 g/cm^3

CELL_PARAMETERS (angstrom)
   3.855000582   0.000000000   0.000000000
   0.000000000   3.855000582   0.000000000
   0.000000000   0.000000000   4.054759836

ATOMIC_POSITIONS (crystal)
Pb               0.0000000000        0.0000000000        1.0051712259
Ti               0.5000000000        0.5000000000        0.5396427147
O                0.5000000000        0.5000000000        0.0999848331
O                0.5000000000        0.0000000000        0.6112427571
O                0.0000000000        0.5000000000        0.6112427571



     Writing config-only to output data dir ./PTO.save/ :
     XML data file
     NEW-OLD atomic charge density approx. for the potential

     Check: negative core charge=   -0.000004

     negative rho (up, down):  1.530E-02 0.000E+00

     total cpu time spent up to now is       35.7 secs

     Self-consistent Calculation

     iteration #  1     ecut=    50.00 Ry     beta= 0.70
     CG style diagonalization
     ethr =  1.00E-06,  avg # of iterations =  3.1

     Threshold (ethr) on eigenvalues was too large:
     Diagonalizing with lowered threshold

     CG style diagonalization
     c_bands:  2 eigenvalues not converged
     c_bands:  1 eigenvalues not converged
     c_bands:  1 eigenvalues not converged
     ethr =  1.34E-08,  avg # of iterations =  5.8

     negative rho (up, down):  1.531E-02 0.000E+00

     total cpu time spent up to now is       37.6 secs

     total energy              =    -380.57426687 Ry
     estimated scf accuracy    <       0.00000558 Ry

     iteration #  2     ecut=    50.00 Ry     beta= 0.70
     CG style diagonalization
     ethr =  1.27E-08,  avg # of iterations =  4.6

     negative rho (up, down):  1.530E-02 0.000E+00

     total cpu time spent up to now is       38.5 secs

     total energy              =    -380.57426612 Ry
     estimated scf accuracy    <       0.00001541 Ry

     iteration #  3     ecut=    50.00 Ry     beta= 0.70
     CG style diagonalization
     ethr =  1.27E-08,  avg # of iterations =  4.2

     negative rho (up, down):  1.530E-02 0.000E+00

     total cpu time spent up to now is       39.4 secs

     total energy              =    -380.57426921 Ry
     estimated scf accuracy    <       0.00000116 Ry

     iteration #  4     ecut=    50.00 Ry     beta= 0.70
     CG style diagonalization
     ethr =  2.64E-09,  avg # of iterations =  3.7

     negative rho (up, down):  1.530E-02 0.000E+00

     total cpu time spent up to now is       40.1 secs

     total energy              =    -380.57426948 Ry
     estimated scf accuracy    <       0.00000011 Ry

     iteration #  5     ecut=    50.00 Ry     beta= 0.70
     CG style diagonalization
     ethr =  2.51E-10,  avg # of iterations =  4.2

     negative rho (up, down):  1.530E-02 0.000E+00

     total cpu time spent up to now is       41.0 secs

     total energy              =    -380.57426954 Ry
     estimated scf accuracy    <       0.00000001 Ry

     iteration #  6     ecut=    50.00 Ry     beta= 0.70
     CG style diagonalization
     ethr =  3.02E-11,  avg # of iterations =  4.6

     negative rho (up, down):  1.530E-02 0.000E+00

     total cpu time spent up to now is       41.9 secs

     total energy              =    -380.57426955 Ry
     estimated scf accuracy    <          6.6E-09 Ry

     iteration #  7     ecut=    50.00 Ry     beta= 0.70
     CG style diagonalization
     ethr =  1.50E-11,  avg # of iterations =  3.8

     negative rho (up, down):  1.531E-02 0.000E+00

     total cpu time spent up to now is       42.6 secs

     total energy              =    -380.57426955 Ry
     estimated scf accuracy    <          1.1E-09 Ry

     iteration #  8     ecut=    50.00 Ry     beta= 0.70
     CG style diagonalization
     ethr =  2.55E-12,  avg # of iterations =  5.3

     negative rho (up, down):  1.531E-02 0.000E+00

     total cpu time spent up to now is       43.7 secs

     total energy              =    -380.57426955 Ry
     estimated scf accuracy    <          4.7E-10 Ry

     iteration #  9     ecut=    50.00 Ry     beta= 0.70
     CG style diagonalization
     ethr =  1.07E-12,  avg # of iterations =  4.4

     negative rho (up, down):  1.531E-02 0.000E+00

     total cpu time spent up to now is       44.6 secs

     End of self-consistent calculation

          k = 0.0000 0.0000 0.0000 (  2525 PWs)   bands (ev):

   -45.1753 -21.8563 -21.7719 -21.7719  -7.1696  -6.0190  -5.7631  -4.4221
    -4.4221  -4.3826  -4.2643  -4.1536   4.8289   6.7349   6.7349   7.1043
     8.7043   8.7043   8.9462   9.2791   9.4398   9.4398

          k = 0.0000 0.0000 0.2405 (  2517 PWs)   bands (ev):

   -45.1750 -21.8795 -21.7710 -21.7710  -6.9628  -5.9574  -5.6940  -4.4397
    -4.4397  -4.3811  -4.2526  -4.2303   3.9693   6.7907   6.7907   7.3035
     8.4511   8.4511   8.8635   9.3667   9.5571   9.5571

          k = 0.0000 0.0000-0.4809 (  2530 PWs)   bands (ev):

   -45.1746 -21.9025 -21.7701 -21.7701  -6.7380  -5.8899  -5.6317  -4.4572
    -4.4572  -4.3796  -4.3130  -4.2426   3.4270   6.6110   6.8260   6.8260
     8.2926   8.2926   8.7846   9.6327   9.6327  10.6411

          k = 0.0000 0.1686 0.0000 (  2525 PWs)   bands (ev):

   -45.1749 -21.8555 -21.7924 -21.7711  -7.0245  -5.9847  -5.7321  -4.4466
    -4.4205  -4.3974  -4.2672  -4.1417   4.3435   6.7943   6.8449   7.1367
     8.6612   8.7260   8.9439   9.0626   9.1643   9.5535

          k = 0.0000 0.1686 0.2405 (  2521 PWs)   bands (ev):

   -45.1746 -21.8785 -21.7913 -21.7701  -6.8342  -5.9390  -5.6573  -4.4452
    -4.4387  -4.3965  -4.2619  -4.1809   3.7372   6.5800   6.9119   7.3865
     8.1204   8.4340   8.7603   9.1563   9.2269   9.9248

          k = 0.0000 0.1686-0.4809 (  2516 PWs)   bands (ev):

   -45.1742 -21.9013 -21.7903 -21.7692  -6.6374  -5.8873  -5.5798  -4.4568
    -4.4416  -4.3957  -4.2672  -4.2157   3.2837   6.2641   6.9530   7.0352
     7.9234   8.2844   8.8293   9.2152   9.3080  10.5622

          k = 0.0000 0.3372 0.0000 (  2514 PWs)   bands (ev):

   -45.1741 -21.8538 -21.8328 -21.7694  -6.7098  -5.9100  -5.6859  -4.4838
    -4.4270  -4.4172  -4.2622  -4.1465   3.7174   6.4241   7.0854   7.1258
     8.3203   8.3546   8.7986   8.8461   9.2815  10.2080

          k = 0.0000 0.3372 0.2405 (  2507 PWs)   bands (ev):

   -45.1738 -21.8763 -21.8317 -21.7684  -6.5858  -5.8677  -5.5897  -4.4508
    -4.4368  -4.4271  -4.2554  -4.1200   3.3523   6.2953   6.9945   7.2258
     7.7548   8.1813   8.3353   8.8989   9.4168  10.2862

          k = 0.0000 0.3372-0.4809 (  2518 PWs)   bands (ev):

   -45.1735 -21.8988 -21.8304 -21.7674  -6.4940  -5.8002  -5.4632  -4.4560
    -4.4276  -4.4100  -4.2917  -4.0666   3.0325   5.9748   6.7552   7.2712
     7.6426   7.8105   8.1209   8.9298   9.8557  10.1119

          k = 0.0000-0.5058 0.0000 (  2488 PWs)   bands (ev):

   -45.1737 -21.8533 -21.8525 -21.7685  -6.5365  -5.8527  -5.6909  -4.4998
    -4.4415  -4.4156  -4.2361  -4.1786   3.4984   6.0390   7.3491   7.3674
     7.8261   7.9741   8.7201   8.8838   9.3123  11.0109

          k = 0.0000-0.5058 0.2405 (  2506 PWs)   bands (ev):

   -45.1734 -21.8751 -21.8519 -21.7675  -6.4784  -5.7768  -5.5834  -4.4632
    -4.4424  -4.4357  -4.2216  -4.1155   3.2010   6.0114   7.0251   7.2661
     7.5741   7.7763   8.4451   8.8761   9.4168  10.4899

          k = 0.0000-0.5058-0.4809 (  2516 PWs)   bands (ev):

   -45.1731 -21.8975 -21.8504 -21.7665  -6.4607  -5.6955  -5.4090  -4.4555
    -4.4433  -4.4187  -4.2771  -4.0046   2.9319   5.8332   6.4439   7.3286
     7.5976   7.7982   7.8233   8.8709   9.7848  10.1528

          k = 0.1686 0.1686 0.0000 (  2498 PWs)   bands (ev):

   -45.1745 -21.8546 -21.7916 -21.7912  -6.8818  -5.9494  -5.7232  -4.4524
    -4.4368  -4.4010  -4.2433  -4.1307   4.0139   6.7198   6.9665   7.1926
     8.1846   8.3017   9.0371   9.0692   9.3776   9.7879

          k = 0.1686 0.1686 0.2405 (  2513 PWs)   bands (ev):

   -45.1742 -21.8775 -21.7906 -21.7903  -6.7026  -5.9235  -5.6488  -4.4554
    -4.4320  -4.3948  -4.2329  -4.1464   3.6142   6.4981   6.6047   7.3302
     8.0147   8.0368   8.8403   9.2191   9.4564   9.8936

          k = 0.1686 0.1686-0.4809 (  2522 PWs)   bands (ev):

   -45.1739 -21.9002 -21.7895 -21.7893  -6.5243  -5.8974  -5.5619  -4.4684
    -4.4105  -4.3718  -4.2385  -4.1680   3.2512   6.2828   6.3330   7.0214
     7.9289   7.9582   8.7431   9.2945   9.5151  10.2592

          k = 0.1686 0.3372 0.0000 (  2515 PWs)   bands (ev):

   -45.1737 -21.8529 -21.8317 -21.7896  -6.5754  -5.8766  -5.7203  -4.4768
    -4.4258  -4.3853  -4.2188  -4.1358   3.5027   6.4223   6.9682   7.2623
     7.6484   8.2309   8.5393   9.2154   9.4026  10.2870

          k = 0.1686 0.3372 0.2405 (  2507 PWs)   bands (ev):

   -45.1734 -21.8754 -21.8306 -21.7886  -6.4476  -5.8674  -5.6385  -4.4524
    -4.4265  -4.3618  -4.1980  -4.0940   3.3570   6.2446   6.3755   6.9328
     7.3826   8.0716   8.8931   9.1740   9.5094   9.9970

          k = 0.1686 0.3372-0.4809 (  2514 PWs)   bands (ev):

   -45.1731 -21.8978 -21.8295 -21.7875  -6.3582  -5.8438  -5.5172  -4.4500
    -4.4009  -4.3206  -4.2108  -4.0393   3.1669   5.8927   6.3087   6.6344
     6.8723   7.9314   9.0010   9.2208   9.5009   9.9451

          k = 0.1686-0.5058 0.0000 (  2520 PWs)   bands (ev):

   -45.1733 -21.8521 -21.8516 -21.7886  -6.4081  -5.8220  -5.7462  -4.4798
    -4.4178  -4.3636  -4.2003  -4.1691   3.3037   6.0578   7.0818   7.3149
     7.6075   7.9549   8.4000   9.2507   9.3987  10.6187

          k = 0.1686-0.5058 0.2405 (  2512 PWs)   bands (ev):

   -45.1730 -21.8741 -21.8508 -21.7876  -6.3388  -5.7872  -5.6610  -4.4506
    -4.4128  -4.3400  -4.1751  -4.0878   3.2392   6.0160   6.2695   6.6791
     7.3452   8.2141   8.6598   9.1840   9.5173   9.9611

          k = 0.1686-0.5058-0.4809 (  2520 PWs)   bands (ev):

   -45.1727 -21.8965 -21.8494 -21.7866  -6.3238  -5.7537  -5.5003  -4.4446
    -4.3689  -4.3174  -4.1938  -3.9782   3.1273   5.7855   6.1399   6.2891
     6.7298   8.0439   8.8679   9.1326   9.1617  10.1619

          k = 0.3372 0.3372 0.0000 (  2522 PWs)   bands (ev):

   -45.1730 -21.8512 -21.8296 -21.8295  -6.3102  -5.8093  -5.7708  -4.4565
    -4.4063  -4.3131  -4.1382  -4.1369   3.0986   6.4071   6.5022   7.3707
     7.5213   7.6682   8.3363   9.0573   9.8817  10.0165

          k = 0.3372 0.3372 0.2405 (  2512 PWs)   bands (ev):

   -45.1726 -21.8734 -21.8287 -21.8285  -6.1726  -5.8579  -5.7271  -4.4146
    -4.3993  -4.2524  -4.0894  -4.0573   3.2871   5.9526   6.0251   6.4041
     7.0430   7.5484   8.9546   9.4708   9.5150   9.8974

          k = 0.3372 0.3372-0.4809 (  2502 PWs)   bands (ev):

   -45.1723 -21.8956 -21.8276 -21.8275  -6.1025  -5.9030  -5.6036  -4.3922
    -4.3729  -4.1866  -4.0397  -3.9789   3.4515   5.5500   5.5701   6.1538
     6.8005   6.9594   8.2056   9.8486   9.8678  10.0279

          k = 0.3372-0.5058 0.0000 (  2520 PWs)   bands (ev):

   -45.1726 -21.8498 -21.8498 -21.8285  -6.1908  -5.7858  -5.7655  -4.4481
    -4.3823  -4.2481  -4.1723  -4.1018   2.9126   6.0515   6.5477   7.1821
     7.7136   7.8315   7.9540   9.0266   9.6971  10.0869

          k = 0.3372-0.5058 0.2405 (  2514 PWs)   bands (ev):

   -45.1723 -21.8721 -21.8486 -21.8276  -6.0547  -5.8123  -5.7855  -4.4053
    -4.3705  -4.1577  -4.0884  -4.0263   3.2141   5.8444   5.9964   6.0660
     6.8262   7.6193   8.4807   9.4688   9.4975  10.0570

          k = 0.3372-0.5058-0.4809 (  2496 PWs)   bands (ev):

   -45.1719 -21.8944 -21.8475 -21.8266  -6.0441  -5.8559  -5.6419  -4.3749
    -4.3481  -4.0947  -4.0035  -3.9219   3.5929   5.2809   5.4770   5.9078
     6.5612   6.9744   7.4196   9.9503  10.0293  10.1861

          k =-0.5058-0.5058 0.0000 (  2496 PWs)   bands (ev):

   -45.1722 -21.8486 -21.8486 -21.8485  -6.1357  -5.7402  -5.7402  -4.4371
    -4.3343  -4.1938  -4.1938  -4.0507   2.7204   5.9004   6.3768   7.3968
     7.3968   7.9491   7.9491   8.7940   9.2167  10.3484

          k =-0.5058-0.5058 0.2405 (  2508 PWs)   bands (ev):

   -45.1719 -21.8710 -21.8475 -21.8475  -5.9217  -5.8265  -5.8265  -4.3929
    -4.3321  -4.0471  -4.0471  -4.0164   3.1370   5.8579   5.9683   5.9683
     6.3834   7.5612   7.8244   9.4976   9.4976  10.3308

          k =-0.5058-0.5058-0.4809 (  2504 PWs)   bands (ev):

   -45.1716 -21.8932 -21.8465 -21.8465  -5.9017  -5.9017  -5.7012  -4.3487
    -4.3300  -3.9705  -3.9088  -3.9088   3.8123   5.3085   5.3085   5.7419
     6.3900   6.4078   6.6662  10.1979  10.1979  10.3133

     highest occupied level (ev):    11.0109

!    total energy              =    -380.57426955 Ry
     estimated scf accuracy    <          1.1E-11 Ry

     The total energy is the sum of the following terms:
     one-electron contribution =     -79.78812542 Ry
     hartree contribution      =      69.96126375 Ry
     xc contribution           =    -102.67656264 Ry
     ewald contribution        =    -268.07084524 Ry

     convergence has been achieved in   9 iterations

     negative rho (up, down):  1.531E-02 0.000E+00

     Forces acting on atoms (cartesian axes, Ry/au):

     atom    1 type  1   force =     0.00000000    0.00000000    0.00005018
     atom    2 type  2   force =     0.00000000    0.00000000   -0.00042779
     atom    3 type  3   force =     0.00000000    0.00000000   -0.00069571
     atom    4 type  3   force =     0.00000000    0.00000000    0.00053666
     atom    5 type  3   force =     0.00000000    0.00000000    0.00053666

     Total force =     0.001116     Total SCF correction =     0.000005


     Computing stress (Cartesian axis) and pressure


     negative rho (up, down):  1.531E-02 0.000E+00
          total   stress  (Ry/bohr**3)                   (kbar)     P=       -0.11
   0.00000251   0.00000000   0.00000000            0.37        0.00        0.00
   0.00000000   0.00000251   0.00000000            0.00        0.37        0.00
   0.00000000   0.00000000  -0.00000736            0.00        0.00       -1.08

     Energy error            =      6.6E-06 Ry
     Gradient error          =      7.0E-04 Ry/Bohr
     Cell gradient error     =      1.1E+00 kbar

     number of scf cycles    =   4
     number of bfgs steps    =   3

     enthalpy           old  =    -380.5742629096 Ry
     enthalpy           new  =    -380.5742695547 Ry

     CASE: enthalpy          _new < enthalpy          _old

     new trust radius        =       0.0016796778 bohr
     new conv_thr            =            1.0E-10 Ry

     new unit-cell volume =    406.55083 a.u.^3 (    60.24462 Ang^3 )
     density =      8.35388 g/cm^3

CELL_PARAMETERS (angstrom)
   3.855019545   0.000000000   0.000000000
   0.000000000   3.855019545   0.000000000
   0.000000000   0.000000000   4.053825781

ATOMIC_POSITIONS (crystal)
Pb               0.0000000000        0.0000000000        1.0051588548
Ti               0.5000000000        0.5000000000        0.5396255398
O                0.5000000000        0.5000000000        0.0997656223
O                0.5000000000        0.0000000000        0.6113671356
O                0.0000000000        0.5000000000        0.6113671356



     Writing config-only to output data dir ./PTO.save/ :
     XML data file
     NEW-OLD atomic charge density approx. for the potential

     Check: negative core charge=   -0.000004

     negative rho (up, down):  1.530E-02 0.000E+00

     total cpu time spent up to now is       45.8 secs

     Self-consistent Calculation

     iteration #  1     ecut=    50.00 Ry     beta= 0.70
     CG style diagonalization
     ethr =  1.00E-06,  avg # of iterations =  2.5

     Threshold (ethr) on eigenvalues was too large:
     Diagonalizing with lowered threshold

     CG style diagonalization
     c_bands:  2 eigenvalues not converged
     c_bands:  1 eigenvalues not converged
     c_bands:  1 eigenvalues not converged
     c_bands:  1 eigenvalues not converged
     ethr =  1.65E-09,  avg # of iterations =  6.0

     negative rho (up, down):  1.531E-02 0.000E+00

     total cpu time spent up to now is       47.7 secs

     total energy              =    -380.57427101 Ry
     estimated scf accuracy    <       0.00000127 Ry

     iteration #  2     ecut=    50.00 Ry     beta= 0.70
     CG style diagonalization
     ethr =  2.90E-09,  avg # of iterations =  4.6

     negative rho (up, down):  1.531E-02 0.000E+00

     total cpu time spent up to now is       48.6 secs

     total energy              =    -380.57427082 Ry
     estimated scf accuracy    <       0.00000430 Ry

     iteration #  3     ecut=    50.00 Ry     beta= 0.70
     CG style diagonalization
     ethr =  2.90E-09,  avg # of iterations =  4.2

     negative rho (up, down):  1.531E-02 0.000E+00

     total cpu time spent up to now is       49.5 secs

     total energy              =    -380.57427161 Ry
     estimated scf accuracy    <       0.00000020 Ry

     iteration #  4     ecut=    50.00 Ry     beta= 0.70
     CG style diagonalization
     ethr =  4.59E-10,  avg # of iterations =  3.6

     negative rho (up, down):  1.531E-02 0.000E+00

     total cpu time spent up to now is       50.2 secs

     total energy              =    -380.57427166 Ry
     estimated scf accuracy    <       0.00000001 Ry

     iteration #  5     ecut=    50.00 Ry     beta= 0.70
     CG style diagonalization
     ethr =  3.05E-11,  avg # of iterations =  4.5

     negative rho (up, down):  1.531E-02 0.000E+00

     total cpu time spent up to now is       51.1 secs

     total energy              =    -380.57427167 Ry
     estimated scf accuracy    <          6.6E-09 Ry

     iteration #  6     ecut=    50.00 Ry     beta= 0.70
     CG style diagonalization
     ethr =  1.50E-11,  avg # of iterations =  3.9

     negative rho (up, down):  1.531E-02 0.000E+00

     total cpu time spent up to now is       51.9 secs

     total energy              =    -380.57427167 Ry
     estimated scf accuracy    <          8.4E-10 Ry

     iteration #  7     ecut=    50.00 Ry     beta= 0.70
     CG style diagonalization
     ethr =  1.90E-12,  avg # of iterations =  4.4

     negative rho (up, down):  1.531E-02 0.000E+00

     total cpu time spent up to now is       52.8 secs

     total energy              =    -380.57427167 Ry
     estimated scf accuracy    <          1.7E-10 Ry

     iteration #  8     ecut=    50.00 Ry     beta= 0.70
     CG style diagonalization
     ethr =  3.77E-13,  avg # of iterations =  5.1

     negative rho (up, down):  1.531E-02 0.000E+00

     total cpu time spent up to now is       53.8 secs

     End of self-consistent calculation

          k = 0.0000 0.0000 0.0000 (  2525 PWs)   bands (ev):

   -45.1730 -21.8533 -21.7697 -21.7697  -7.1680  -6.0168  -5.7596  -4.4174
    -4.4174  -4.3776  -4.2596  -4.1481   4.8347   6.7359   6.7359   7.1068
     8.7095   8.7095   8.9486   9.2850   9.4413   9.4413

          k = 0.0000 0.0000 0.2405 (  2517 PWs)   bands (ev):

   -45.1727 -21.8765 -21.7688 -21.7688  -6.9611  -5.9552  -5.6902  -4.4350
    -4.4350  -4.3761  -4.2478  -4.2249   3.9743   6.7915   6.7915   7.3055
     8.4559   8.4559   8.8658   9.3719   9.5593   9.5593

          k = 0.0000 0.0000-0.4810 (  2530 PWs)   bands (ev):

   -45.1724 -21.8996 -21.7679 -21.7679  -6.7362  -5.8877  -5.6275  -4.4526
    -4.4526  -4.3746  -4.3076  -4.2376   3.4319   6.6118   6.8264   6.8264
     8.2976   8.2976   8.7868   9.6351   9.6351  10.6465

          k = 0.0000 0.1686 0.0000 (  2525 PWs)   bands (ev):

   -45.1727 -21.8524 -21.7902 -21.7689  -7.0229  -5.9825  -5.7287  -4.4419
    -4.4158  -4.3925  -4.2626  -4.1363   4.3479   6.7974   6.8460   7.1392
     8.6657   8.7312   8.9463   9.0642   9.1679   9.5584

          k = 0.0000 0.1686 0.2405 (  2521 PWs)   bands (ev):

   -45.1723 -21.8755 -21.7891 -21.7679  -6.8324  -5.9368  -5.6535  -4.4404
    -4.4340  -4.3916  -4.2571  -4.1756   3.7416   6.5819   6.9128   7.3889
     8.1241   8.4384   8.7634   9.1593   9.2295   9.9294

          k = 0.0000 0.1686-0.4810 (  2516 PWs)   bands (ev):

   -45.1720 -21.8984 -21.7881 -21.7670  -6.6355  -5.8851  -5.5756  -4.4522
    -4.4367  -4.3907  -4.2621  -4.2105   3.2882   6.2654   6.9535   7.0364
     7.9275   8.2891   8.8314   9.2180   9.3107  10.5678

          k = 0.0000 0.3372 0.0000 (  2514 PWs)   bands (ev):

   -45.1719 -21.8508 -21.8306 -21.7672  -6.7081  -5.9080  -5.6827  -4.4791
    -4.4221  -4.4124  -4.2574  -4.1412   3.7210   6.4273   7.0900   7.1272
     8.3246   8.3563   8.8008   8.8512   9.2861  10.2123

          k = 0.0000 0.3372 0.2405 (  2507 PWs)   bands (ev):

   -45.1715 -21.8734 -21.8294 -21.7662  -6.5839  -5.8657  -5.5862  -4.4460
    -4.4321  -4.4222  -4.2506  -4.1148   3.3561   6.2982   6.9978   7.2270
     7.7581   8.1837   8.3379   8.9035   9.4210  10.2906

          k = 0.0000 0.3372-0.4810 (  2518 PWs)   bands (ev):

   -45.1712 -21.8960 -21.8282 -21.7652  -6.4920  -5.7983  -5.4592  -4.4513
    -4.4226  -4.4050  -4.2867  -4.0614   3.0364   5.9768   6.7588   7.2720
     7.6449   7.8121   8.1240   8.9342   9.8594  10.1174

          k = 0.0000-0.5058 0.0000 (  2488 PWs)   bands (ev):

   -45.1715 -21.8511 -21.8495 -21.7663  -6.5346  -5.8509  -5.6876  -4.4951
    -4.4366  -4.4108  -4.2311  -4.1736   3.5019   6.0424   7.3550   7.3692
     7.8293   7.9754   8.7222   8.8891   9.3170  11.0155

          k = 0.0000-0.5058 0.2405 (  2506 PWs)   bands (ev):

   -45.1712 -21.8721 -21.8496 -21.7653  -6.4764  -5.7751  -5.5798  -4.4583
    -4.4375  -4.4310  -4.2166  -4.1103   3.2047   6.0146   7.0284   7.2694
     7.5762   7.7774   8.4478   8.8812   9.4213  10.4942

          k = 0.0000-0.5058-0.4810 (  2516 PWs)   bands (ev):

   -45.1708 -21.8946 -21.8482 -21.7643  -6.4585  -5.6938  -5.4050  -4.4509
    -4.4384  -4.4138  -4.2721  -3.9994   2.9357   5.8356   6.4475   7.3306
     7.5984   7.8006   7.8250   8.8760   9.7902  10.1571

          k = 0.1686 0.1686 0.0000 (  2498 PWs)   bands (ev):

   -45.1723 -21.8516 -21.7894 -21.7890  -6.8802  -5.9473  -5.7198  -4.4477
    -4.4321  -4.3961  -4.2386  -4.1253   4.0177   6.7211   6.9702   7.1954
     8.1898   8.3043   9.0397   9.0740   9.3802   9.7932

          k = 0.1686 0.1686 0.2405 (  2513 PWs)   bands (ev):

   -45.1719 -21.8745 -21.7883 -21.7880  -6.7008  -5.9214  -5.6451  -4.4506
    -4.4271  -4.3899  -4.2281  -4.1410   3.6183   6.4994   6.6070   7.3327
     8.0194   8.0392   8.8447   9.2216   9.4590   9.8987

          k = 0.1686 0.1686-0.4810 (  2522 PWs)   bands (ev):

   -45.1716 -21.8973 -21.7873 -21.7871  -6.5224  -5.8952  -5.5578  -4.4636
    -4.4056  -4.3670  -4.2336  -4.1628   3.2554   6.2841   6.3342   7.0237
     7.9306   7.9627   8.7474   9.2969   9.5176  10.2647

          k = 0.1686 0.3372 0.0000 (  2515 PWs)   bands (ev):

   -45.1715 -21.8499 -21.8295 -21.7873  -6.5737  -5.8746  -5.7171  -4.4721
    -4.4210  -4.3804  -4.2140  -4.1305   3.5057   6.4251   6.9709   7.2663
     7.6511   8.2365   8.5430   9.2185   9.4061  10.2918

          k = 0.1686 0.3372 0.2405 (  2507 PWs)   bands (ev):

   -45.1712 -21.8724 -21.8284 -21.7863  -6.4458  -5.8654  -5.6349  -4.4476
    -4.4217  -4.3569  -4.1931  -4.0888   3.3604   6.2473   6.3780   6.9350
     7.3858   8.0756   8.8972   9.1773   9.5129  10.0013

          k = 0.1686 0.3372-0.4810 (  2514 PWs)   bands (ev):

   -45.1708 -21.8949 -21.8272 -21.7853  -6.3562  -5.8418  -5.5131  -4.4452
    -4.3960  -4.3157  -4.2059  -4.0341   3.1706   5.8949   6.3106   6.6360
     6.8755   7.9348   9.0050   9.2230   9.5054   9.9491

          k = 0.1686-0.5058 0.0000 (  2520 PWs)   bands (ev):

   -45.1711 -21.8499 -21.8486 -21.7864  -6.4062  -5.8202  -5.7430  -4.4751
    -4.4131  -4.3586  -4.1953  -4.1641   3.3065   6.0611   7.0858   7.3163
     7.6117   7.9587   8.4057   9.2528   9.4030  10.6235

          k = 0.1686-0.5058 0.2405 (  2512 PWs)   bands (ev):

   -45.1708 -21.8712 -21.8486 -21.7854  -6.3368  -5.7854  -5.6575  -4.4458
    -4.4081  -4.3350  -4.1701  -4.0827   3.2424   6.0192   6.2722   6.6816
     7.3477   8.2184   8.6637   9.1876   9.5210   9.9652

          k = 0.1686-0.5058-0.4810 (  2520 PWs)   bands (ev):

   -45.1705 -21.8936 -21.8472 -21.7844  -6.3217  -5.7519  -5.4963  -4.4399
    -4.3641  -4.3124  -4.1888  -3.9730   3.1309   5.7880   6.1418   6.2921
     6.7314   8.0474   8.8722   9.1361   9.1646  10.1663

          k = 0.3372 0.3372 0.0000 (  2522 PWs)   bands (ev):

   -45.1707 -21.8482 -21.8274 -21.8273  -6.3082  -5.8074  -5.7679  -4.4518
    -4.4015  -4.3081  -4.1330  -4.1321   3.1008   6.4099   6.5048   7.3747
     7.5259   7.6735   8.3397   9.0624   9.8837  10.0217

          k = 0.3372 0.3372 0.2405 (  2512 PWs)   bands (ev):

   -45.1704 -21.8704 -21.8264 -21.8263  -6.1707  -5.8559  -5.7237  -4.4098
    -4.3944  -4.2474  -4.0844  -4.0522   3.2897   5.9555   6.0275   6.4067
     7.0473   7.5518   8.9603   9.4748   9.5190   9.8996

          k = 0.3372 0.3372-0.4810 (  2502 PWs)   bands (ev):

   -45.1701 -21.8927 -21.8253 -21.8252  -6.1006  -5.9009  -5.5996  -4.3874
    -4.3681  -4.1817  -4.0347  -3.9737   3.4546   5.5524   5.5723   6.1550
     6.8039   6.9633   8.2105   9.8526   9.8698  10.0317

          k = 0.3372-0.5058 0.0000 (  2520 PWs)   bands (ev):

   -45.1703 -21.8476 -21.8468 -21.8262  -6.1884  -5.7833  -5.7638  -4.4434
    -4.3774  -4.2430  -4.1672  -4.0969   2.9144   6.0548   6.5504   7.1864
     7.7180   7.8358   7.9585   9.0312   9.7025  10.0891

          k = 0.3372-0.5058 0.2405 (  2514 PWs)   bands (ev):

   -45.1700 -21.8692 -21.8464 -21.8253  -6.0526  -5.8104  -5.7823  -4.4005
    -4.3657  -4.1527  -4.0834  -4.0213   3.2162   5.8476   5.9994   6.0686
     6.8300   7.6229   8.4861   9.4732   9.5018  10.0591

          k = 0.3372-0.5058-0.4810 (  2496 PWs)   bands (ev):

   -45.1697 -21.8915 -21.8452 -21.8243  -6.0421  -5.8540  -5.6380  -4.3700
    -4.3432  -4.0897  -3.9985  -3.9168   3.5955   5.2832   5.4797   5.9096
     6.5642   6.9782   7.4244   9.9541  10.0313  10.1905

          k =-0.5058-0.5058 0.0000 (  2496 PWs)   bands (ev):

   -45.1700 -21.8464 -21.8464 -21.8455  -6.1328  -5.7385  -5.7385  -4.4324
    -4.3294  -4.1888  -4.1888  -4.0458   2.7218   5.9036   6.3805   7.4006
     7.4006   7.9536   7.9536   8.7986   9.2231  10.3504

          k =-0.5058-0.5058 0.2405 (  2508 PWs)   bands (ev):

   -45.1696 -21.8680 -21.8453 -21.8453  -5.9184  -5.8246  -5.8246  -4.3881
    -4.3272  -4.0420  -4.0420  -4.0114   3.1385   5.8608   5.9716   5.9716
     6.3870   7.5644   7.8299   9.5023   9.5023  10.3327

          k =-0.5058-0.5058-0.4810 (  2504 PWs)   bands (ev):

   -45.1693 -21.8903 -21.8442 -21.8442  -5.8997  -5.8997  -5.6974  -4.3438
    -4.3250  -3.9654  -3.9038  -3.9038   3.8136   5.3115   5.3115   5.7438
     6.3936   6.4129   6.6692  10.2022  10.2022  10.3153

     highest occupied level (ev):    11.0155

!    total energy              =    -380.57427167 Ry
     estimated scf accuracy    <          3.5E-11 Ry

     The total energy is the sum of the following terms:
     one-electron contribution =     -79.74994306 Ry
     hartree contribution      =      69.94792276 Ry
     xc contribution           =    -102.67694268 Ry
     ewald contribution        =    -268.09530869 Ry

     convergence has been achieved in   8 iterations

     negative rho (up, down):  1.531E-02 0.000E+00

     Forces acting on atoms (cartesian axes, Ry/au):

     atom    1 type  1   force =     0.00000000    0.00000000    0.00014454
     atom    2 type  2   force =     0.00000000    0.00000000   -0.00050662
     atom    3 type  3   force =     0.00000000    0.00000000   -0.00019482
     atom    4 type  3   force =     0.00000000    0.00000000    0.00027845
     atom    5 type  3   force =     0.00000000    0.00000000    0.00027845

     Total force =     0.000686     Total SCF correction =     0.000029


     Computing stress (Cartesian axis) and pressure


     negative rho (up, down):  1.531E-02 0.000E+00
          total   stress  (Ry/bohr**3)                   (kbar)     P=        0.01
   0.00000353   0.00000000   0.00000000            0.52        0.00        0.00
   0.00000000   0.00000353   0.00000000            0.00        0.52        0.00
   0.00000000   0.00000000  -0.00000686            0.00        0.00       -1.01

     Energy error            =      2.1E-06 Ry
     Gradient error          =      5.1E-04 Ry/Bohr
     Cell gradient error     =      1.0E+00 kbar

     number of scf cycles    =   5
     number of bfgs steps    =   4

     enthalpy           old  =    -380.5742695547 Ry
     enthalpy           new  =    -380.5742716690 Ry

     CASE: enthalpy          _new < enthalpy          _old

     new trust radius        =       0.0019742944 bohr
     new conv_thr            =            1.0E-10 Ry

     new unit-cell volume =    406.47517 a.u.^3 (    60.23341 Ang^3 )
     density =      8.35543 g/cm^3

CELL_PARAMETERS (angstrom)
   3.855518365   0.000000000   0.000000000
   0.000000000   3.855518365   0.000000000
   0.000000000   0.000000000   4.052022654

ATOMIC_POSITIONS (crystal)
Pb               0.0000000000        0.0000000000        1.0051738283
Ti               0.5000000000        0.5000000000        0.5395344294
O                0.5000000000        0.5000000000        0.0995079024
O                0.5000000000        0.0000000000        0.6115340639
O                0.0000000000        0.5000000000        0.6115340639



     Writing config-only to output data dir ./PTO.save/ :
     XML data file
     NEW-OLD atomic charge density approx. for the potential

     Check: negative core charge=   -0.000004

     negative rho (up, down):  1.531E-02 0.000E+00

     total cpu time spent up to now is       55.0 secs

     Self-consistent Calculation

     iteration #  1     ecut=    50.00 Ry     beta= 0.70
     CG style diagonalization
     ethr =  1.00E-06,  avg # of iterations =  2.8

     Threshold (ethr) on eigenvalues was too large:
     Diagonalizing with lowered threshold

     CG style diagonalization
     c_bands:  1 eigenvalues not converged
     c_bands:  1 eigenvalues not converged
     c_bands:  2 eigenvalues not converged
     c_bands:  2 eigenvalues not converged
     c_bands:  2 eigenvalues not converged
     c_bands:  1 eigenvalues not converged
     c_bands:  1 eigenvalues not converged
     c_bands:  1 eigenvalues not converged
     c_bands:  2 eigenvalues not converged
     c_bands:  1 eigenvalues not converged
     ethr =  2.02E-09,  avg # of iterations =  7.3

     negative rho (up, down):  1.531E-02 0.000E+00

     total cpu time spent up to now is       57.2 secs

     total energy              =    -380.57427243 Ry
     estimated scf accuracy    <       0.00000177 Ry

     iteration #  2     ecut=    50.00 Ry     beta= 0.70
     CG style diagonalization
     ethr =  4.03E-09,  avg # of iterations =  4.6

     negative rho (up, down):  1.531E-02 0.000E+00

     total cpu time spent up to now is       58.2 secs

     total energy              =    -380.57427244 Ry
     estimated scf accuracy    <       0.00000617 Ry

     iteration #  3     ecut=    50.00 Ry     beta= 0.70
     CG style diagonalization
     ethr =  4.03E-09,  avg # of iterations =  4.1

     negative rho (up, down):  1.531E-02 0.000E+00

     total cpu time spent up to now is       59.0 secs

     total energy              =    -380.57427356 Ry
     estimated scf accuracy    <       0.00000018 Ry

     iteration #  4     ecut=    50.00 Ry     beta= 0.70
     CG style diagonalization
     ethr =  3.99E-10,  avg # of iterations =  3.7

     negative rho (up, down):  1.531E-02 0.000E+00

     total cpu time spent up to now is       59.7 secs

     total energy              =    -380.57427361 Ry
     estimated scf accuracy    <       0.00000001 Ry

     iteration #  5     ecut=    50.00 Ry     beta= 0.70
     CG style diagonalization
     ethr =  2.89E-11,  avg # of iterations =  4.8

     negative rho (up, down):  1.531E-02 0.000E+00

     total cpu time spent up to now is       60.7 secs

     total energy              =    -380.57427362 Ry
     estimated scf accuracy    <          4.5E-09 Ry

     iteration #  6     ecut=    50.00 Ry     beta= 0.70
     CG style diagonalization
     ethr =  1.03E-11,  avg # of iterations =  4.2

     negative rho (up, down):  1.531E-02 0.000E+00

     total cpu time spent up to now is       61.6 secs

     total energy              =    -380.57427347 Ry
     estimated scf accuracy    <          9.2E-10 Ry

     iteration #  7     ecut=    50.00 Ry     beta= 0.70
     CG style diagonalization
     ethr =  2.09E-12,  avg # of iterations =  4.6

     negative rho (up, down):  1.531E-02 0.000E+00

     total cpu time spent up to now is       62.5 secs

     total energy              =    -380.57427347 Ry
     estimated scf accuracy    <          1.7E-10 Ry

     iteration #  8     ecut=    50.00 Ry     beta= 0.70
     CG style diagonalization
     ethr =  3.97E-13,  avg # of iterations =  5.0

     negative rho (up, down):  1.531E-02 0.000E+00

     total cpu time spent up to now is       63.5 secs

     End of self-consistent calculation

          k = 0.0000 0.0000 0.0000 (  2525 PWs)   bands (ev):

   -45.1711 -21.8511 -21.7676 -21.7676  -7.1664  -6.0142  -5.7568  -4.4132
    -4.4132  -4.3734  -4.2559  -4.1426   4.8409   6.7358   6.7358   7.1096
     8.7128   8.7128   8.9512   9.2899   9.4421   9.4421

          k = 0.0000 0.0000 0.2406 (  2517 PWs)   bands (ev):

   -45.1707 -21.8745 -21.7666 -21.7666  -6.9589  -5.9525  -5.6870  -4.4310
    -4.4310  -4.3719  -4.2438  -4.2196   3.9792   6.7908   6.7908   7.3062
     8.4594   8.4594   8.8680   9.3771   9.5609   9.5609

          k = 0.0000 0.0000-0.4812 (  2530 PWs)   bands (ev):

   -45.1704 -21.8977 -21.7657 -21.7657  -6.7334  -5.8848  -5.6238  -4.4486
    -4.4486  -4.3704  -4.3025  -4.2333   3.4362   6.6101   6.8247   6.8247
     8.3021   8.3021   8.7886   9.6370   9.6370  10.6531

          k = 0.0000 0.1686 0.0000 (  2525 PWs)   bands (ev):

   -45.1707 -21.8503 -21.7880 -21.7667  -7.0214  -5.9801  -5.7260  -4.4377
    -4.4116  -4.3882  -4.2589  -4.1309   4.3522   6.8010   6.8461   7.1419
     8.6690   8.7344   8.9480   9.0652   9.1708   9.5628

          k = 0.0000 0.1686 0.2406 (  2521 PWs)   bands (ev):

   -45.1703 -21.8735 -21.7869 -21.7658  -6.8303  -5.9343  -5.6505  -4.4361
    -4.4300  -4.3873  -4.2531  -4.1705   3.7458   6.5829   6.9122   7.3908
     8.1265   8.4414   8.7662   9.1617   9.2318   9.9342

          k = 0.0000 0.1686-0.4812 (  2516 PWs)   bands (ev):

   -45.1700 -21.8965 -21.7859 -21.7648  -6.6329  -5.8824  -5.5721  -4.4482
    -4.4324  -4.3865  -4.2577  -4.2057   3.2922   6.2644   6.9519   7.0364
     7.9311   8.2931   8.8333   9.2197   9.3133  10.5745

          k = 0.0000 0.3372 0.0000 (  2514 PWs)   bands (ev):

   -45.1699 -21.8486 -21.8283 -21.7650  -6.7066  -5.9061  -5.6804  -4.4749
    -4.4178  -4.4083  -4.2534  -4.1363   3.7242   6.4312   7.0959   7.1280
     8.3295   8.3572   8.8027   8.8542   9.2899  10.2150

          k = 0.0000 0.3372 0.2406 (  2507 PWs)   bands (ev):

   -45.1696 -21.8714 -21.8272 -21.7640  -6.5818  -5.8637  -5.5836  -4.4416
    -4.4281  -4.4179  -4.2464  -4.1099   3.3597   6.3013   7.0013   7.2272
     7.7610   8.1848   8.3397   8.9072   9.4253  10.2936

          k = 0.0000 0.3372-0.4812 (  2518 PWs)   bands (ev):

   -45.1692 -21.8940 -21.8259 -21.7630  -6.4893  -5.7964  -5.4559  -4.4474
    -4.4184  -4.4005  -4.2824  -4.0565   3.0401   5.9772   6.7628   7.2708
     7.6462   7.8132   8.1265   8.9382   9.8607  10.1240

          k = 0.0000-0.5058 0.0000 (  2488 PWs)   bands (ev):

   -45.1695 -21.8488 -21.8473 -21.7642  -6.5329  -5.8495  -5.6854  -4.4910
    -4.4323  -4.4067  -4.2266  -4.1692   3.5048   6.0472   7.3623   7.3710
     7.8337   7.9752   8.7240   8.8922   9.3209  11.0182

          k = 0.0000-0.5058 0.2406 (  2506 PWs)   bands (ev):

   -45.1692 -21.8701 -21.8473 -21.7631  -6.4740  -5.7736  -5.5775  -4.4540
    -4.4332  -4.4269  -4.2122  -4.1056   3.2082   6.0189   7.0315   7.2726
     7.5786   7.7760   8.4498   8.8852   9.4267  10.4960

          k = 0.0000-0.5058-0.4812 (  2516 PWs)   bands (ev):

   -45.1689 -21.8927 -21.8459 -21.7621  -6.4558  -5.6923  -5.4020  -4.4469
    -4.4342  -4.4092  -4.2677  -3.9945   2.9395   5.8373   6.4515   7.3321
     7.5963   7.8036   7.8259   8.8805   9.7944  10.1606

          k = 0.1686 0.1686 0.0000 (  2498 PWs)   bands (ev):

   -45.1703 -21.8494 -21.7872 -21.7868  -6.8788  -5.9449  -5.7173  -4.4436
    -4.4279  -4.3918  -4.2349  -4.1201   4.0211   6.7218   6.9750   7.1979
     8.1942   8.3064   9.0422   9.0773   9.3823   9.7971

          k = 0.1686 0.1686 0.2406 (  2513 PWs)   bands (ev):

   -45.1700 -21.8725 -21.7861 -21.7858  -6.6989  -5.9190  -5.6422  -4.4465
    -4.4229  -4.3857  -4.2242  -4.1359   3.6221   6.4996   6.6088   7.3344
     8.0239   8.0407   8.8476   9.2238   9.4611   9.9038

          k = 0.1686 0.1686-0.4812 (  2522 PWs)   bands (ev):

   -45.1696 -21.8954 -21.7850 -21.7849  -6.5200  -5.8928  -5.5543  -4.4594
    -4.4013  -4.3627  -4.2294  -4.1578   3.2592   6.2840   6.3329   7.0261
     7.9310   7.9675   8.7501   9.2989   9.5193  10.2708

          k = 0.1686 0.3372 0.0000 (  2515 PWs)   bands (ev):

   -45.1695 -21.8478 -21.8272 -21.7852  -6.5724  -5.8726  -5.7148  -4.4680
    -4.4168  -4.3761  -4.2101  -4.1256   3.5082   6.4287   6.9733   7.2715
     7.6538   8.2411   8.5474   9.2206   9.4093  10.2949

          k = 0.1686 0.3372 0.2406 (  2507 PWs)   bands (ev):

   -45.1692 -21.8704 -21.8261 -21.7841  -6.4439  -5.8634  -5.6323  -4.4434
    -4.4176  -4.3526  -4.1890  -4.0840   3.3635   6.2500   6.3805   6.9366
     7.3886   8.0795   8.9011   9.1795   9.5161  10.0045

          k = 0.1686 0.3372-0.4812 (  2514 PWs)   bands (ev):

   -45.1689 -21.8930 -21.8249 -21.7831  -6.3539  -5.8399  -5.5098  -4.4411
    -4.3917  -4.3113  -4.2016  -4.0292   3.1742   5.8957   6.3121   6.6363
     6.8792   7.9382   9.0069   9.2249   9.5091   9.9527

          k = 0.1686-0.5058 0.0000 (  2520 PWs)   bands (ev):

   -45.1691 -21.8476 -21.8464 -21.7842  -6.4049  -5.8188  -5.7407  -4.4711
    -4.4089  -4.3543  -4.1910  -4.1596   3.3086   6.0659   7.0900   7.3175
     7.6176   7.9631   8.4096   9.2541   9.4069  10.6272

          k = 0.1686-0.5058 0.2406 (  2512 PWs)   bands (ev):

   -45.1688 -21.8691 -21.8462 -21.7832  -6.3347  -5.7839  -5.6550  -4.4416
    -4.4039  -4.3309  -4.1656  -4.0780   3.2453   6.0234   6.2752   6.6836
     7.3491   8.2225   8.6681   9.1899   9.5251   9.9672

          k = 0.1686-0.5058-0.4812 (  2520 PWs)   bands (ev):

   -45.1685 -21.8917 -21.8449 -21.7822  -6.3192  -5.7503  -5.4932  -4.4357
    -4.3598  -4.3083  -4.1844  -3.9681   3.1344   5.7897   6.1441   6.2955
     6.7315   8.0512   8.8756   9.1376   9.1667  10.1702

          k = 0.3372 0.3372 0.0000 (  2522 PWs)   bands (ev):

   -45.1687 -21.8460 -21.8251 -21.8250  -6.3073  -5.8056  -5.7656  -4.4478
    -4.3972  -4.3038  -4.1283  -4.1283   3.1021   6.4131   6.5085   7.3788
     7.5318   7.6777   8.3448   9.0676   9.8850  10.0262

          k = 0.3372 0.3372 0.2406 (  2512 PWs)   bands (ev):

   -45.1684 -21.8684 -21.8242 -21.8240  -6.1691  -5.8540  -5.7211  -4.4056
    -4.3902  -4.2432  -4.0804  -4.0474   3.2917   5.9586   6.0298   6.4092
     7.0527   7.5546   8.9665   9.4788   9.5219   9.9010

          k = 0.3372 0.3372-0.4812 (  2502 PWs)   bands (ev):

   -45.1681 -21.8908 -21.8231 -21.8230  -6.0988  -5.8990  -5.5964  -4.3832
    -4.3637  -4.1775  -4.0304  -3.9689   3.4576   5.5541   5.5747   6.1546
     6.8070   6.9689   8.2142   9.8554   9.8712  10.0347

          k = 0.3372-0.5058 0.0000 (  2520 PWs)   bands (ev):

   -45.1684 -21.8453 -21.8447 -21.8240  -6.1874  -5.7812  -5.7623  -4.4394
    -4.3732  -4.2385  -4.1627  -4.0931   2.9153   6.0591   6.5544   7.1903
     7.7212   7.8419   7.9642   9.0358   9.7083  10.0909

          k = 0.3372-0.5058 0.2406 (  2514 PWs)   bands (ev):

   -45.1680 -21.8672 -21.8441 -21.8231  -6.0509  -5.8089  -5.7798  -4.3963
    -4.3615  -4.1486  -4.0789  -4.0170   3.2177   5.8509   6.0029   6.0714
     6.8348   7.6255   8.4921   9.4775   9.5059  10.0604

          k = 0.3372-0.5058-0.4812 (  2496 PWs)   bands (ev):

   -45.1677 -21.8896 -21.8429 -21.8220  -6.0402  -5.8524  -5.6347  -4.3658
    -4.3389  -4.0857  -3.9940  -3.9121   3.5981   5.2857   5.4817   5.9112
     6.5673   6.9825   7.4282   9.9569  10.0325  10.1944

          k =-0.5058-0.5058 0.0000 (  2496 PWs)   bands (ev):

   -45.1680 -21.8441 -21.8441 -21.8433  -6.1315  -5.7369  -5.7369  -4.4284
    -4.3252  -4.1842  -4.1842  -4.0423   2.7222   5.9077   6.3863   7.4033
     7.4033   7.9599   7.9599   8.8031   9.2316  10.3516

          k =-0.5058-0.5058 0.2406 (  2508 PWs)   bands (ev):

   -45.1677 -21.8660 -21.8430 -21.8430  -5.9161  -5.8230  -5.8230  -4.3840
    -4.3230  -4.0375  -4.0375  -4.0078   3.1393   5.8643   5.9745   5.9745
     6.3929   7.5666   7.8365   9.5073   9.5073  10.3339

          k =-0.5058-0.5058-0.4812 (  2504 PWs)   bands (ev):

   -45.1673 -21.8884 -21.8419 -21.8419  -5.8981  -5.8981  -5.6941  -4.3395
    -4.3208  -3.9616  -3.8991  -3.8991   3.8152   5.3139   5.3139   5.7456
     6.3996   6.4177   6.6708  10.2060  10.2060  10.3163

     highest occupied level (ev):    11.0182

!    total energy              =    -380.57427347 Ry
     estimated scf accuracy    <          8.1E-12 Ry

     The total energy is the sum of the following terms:
     one-electron contribution =     -79.71053540 Ry
     hartree contribution      =      69.93320640 Ry
     xc contribution           =    -102.67717323 Ry
     ewald contribution        =    -268.11977124 Ry

     convergence has been achieved in   8 iterations

     negative rho (up, down):  1.531E-02 0.000E+00

     Forces acting on atoms (cartesian axes, Ry/au):

     atom    1 type  1   force =     0.00000000    0.00000000    0.00013511
     atom    2 type  2   force =     0.00000000    0.00000000   -0.00012828
     atom    3 type  3   force =     0.00000000    0.00000000    0.00012143
     atom    4 type  3   force =     0.00000000    0.00000000   -0.00006414
     atom    5 type  3   force =     0.00000000    0.00000000   -0.00006414

     Total force =     0.000240     Total SCF correction =     0.000006


     Computing stress (Cartesian axis) and pressure


     negative rho (up, down):  1.531E-02 0.000E+00
          total   stress  (Ry/bohr**3)                   (kbar)     P=        0.04
   0.00000212   0.00000000   0.00000000            0.31        0.00        0.00
   0.00000000   0.00000212   0.00000000            0.00        0.31        0.00
   0.00000000   0.00000000  -0.00000333            0.00        0.00       -0.49

     Energy error            =      1.8E-06 Ry
     Gradient error          =      1.4E-04 Ry/Bohr
     Cell gradient error     =      4.9E-01 kbar

     bfgs converged in   6 scf cycles and   5 bfgs steps
     (criteria: energy <  1.0E-04 Ry, force <  1.0E-03 Ry/Bohr, cell <  5.0E-01 kbar)

     End of BFGS Geometry Optimization

     Final enthalpy           =    -380.5742734748 Ry

     File ./PTO.bfgs deleted, as requested
Begin final coordinates
     new unit-cell volume =    406.47517 a.u.^3 (    60.23341 Ang^3 )
     density =      8.35543 g/cm^3

CELL_PARAMETERS (angstrom)
   3.855518365   0.000000000   0.000000000
   0.000000000   3.855518365   0.000000000
   0.000000000   0.000000000   4.052022654

ATOMIC_POSITIONS (crystal)
Pb               0.0000000000        0.0000000000        1.0051738283
Ti               0.5000000000        0.5000000000        0.5395344294
O                0.5000000000        0.5000000000        0.0995079024
O                0.5000000000        0.0000000000        0.6115340639
O                0.0000000000        0.5000000000        0.6115340639
End final coordinates



     Writing config-only to output data dir ./PTO.save/ :
     XML data file

     Final scf calculation at the relaxed structure.
     The G-vectors are recalculated for the final unit cell
     Results may differ from those at the preceding step.
 
     Parallelization info
     --------------------
     sticks:   dense  smooth     PW     G-vecs:    dense   smooth      PW
     Min         209      84     25                 7671     1942     321
     Max         210      85     26                 7676     1947     324
     Sum        2093     845    253                76731    19447    3231
 
     Using Slab Decomposition
 


     bravais-lattice index     =            0
     lattice parameter (alat)  =       7.3699  a.u.
     unit-cell volume          =     406.4752 (a.u.)^3
     number of atoms/cell      =            5
     number of atomic types    =            3
     number of electrons       =        44.00
     number of Kohn-Sham states=           22
     kinetic-energy cutoff     =      50.0000  Ry
     charge density cutoff     =     500.0000  Ry
     scf convergence threshold =      1.0E-10
     mixing beta               =       0.7000
     number of iterations used =            8  plain     mixing
     press convergence thresh. =      5.0E-01
     Exchange-correlation= SLA  PZ   NOGX NOGC
                           (   1   1   0   0   0   0   0)

     celldm(1)=   7.369932  celldm(2)=   0.000000  celldm(3)=   0.000000
     celldm(4)=   0.000000  celldm(5)=   0.000000  celldm(6)=   0.000000

     crystal axes: (cart. coord. in units of alat)
               a(1) = (   0.988594   0.000000   0.000000 )  
               a(2) = (   0.000000   0.988594   0.000000 )  
               a(3) = (   0.000000   0.000000   1.038980 )  

     reciprocal axes: (cart. coord. in units 2 pi/alat)
               b(1) = (  1.011537  0.000000  0.000000 )  
               b(2) = (  0.000000  1.011537  0.000000 )  
               b(3) = (  0.000000  0.000000  0.962482 )  


     PseudoPot. # 1 for Pb read from file:
     /scratch/11018/zhc/assisgnment3/input_files/Pb_LDA.UPF
     MD5 check sum: 062a37469794d955244864f8fe2e5624
     Pseudo is Ultrasoft + core correction, Zval = 14.0
     Generated by new atomic code, or converted to UPF format
     Using radial grid of  899 points,  6 beta functions with: 
                l(1) =   0
                l(2) =   0
                l(3) =   1
                l(4) =   1
                l(5) =   2
                l(6) =   2
     Q(r) pseudized with  6 coefficients,  rinner =    1.000   1.000   1.000
                                                       1.000   1.000

     PseudoPot. # 2 for Ti read from file:
     /scratch/11018/zhc/assisgnment3/input_files/Ti_LDA.UPF
     MD5 check sum: 0d9f225c038fe889ca2a701dcc8d72cb
     Pseudo is Ultrasoft + core correction, Zval = 12.0
     Generated by new atomic code, or converted to UPF format
     Using radial grid of  851 points,  6 beta functions with: 
                l(1) =   0
                l(2) =   0
                l(3) =   1
                l(4) =   1
                l(5) =   2
                l(6) =   2
     Q(r) pseudized with  6 coefficients,  rinner =    1.000   1.000   1.000
                                                       1.000   1.000

     PseudoPot. # 3 for O  read from file:
     /scratch/11018/zhc/assisgnment3/input_files/O_LDA.UPF
     MD5 check sum: 194b818514d2a7dbb603bb78519a4f40
     Pseudo is Ultrasoft + core correction, Zval =  6.0
     Generated by new atomic code, or converted to UPF format
     Using radial grid of  737 points,  5 beta functions with: 
                l(1) =   0
                l(2) =   0
                l(3) =   1
                l(4) =   1
                l(5) =   2
     Q(r) pseudized with  8 coefficients,  rinner =    0.900   0.900   0.900
                                                       0.900   0.900

     atomic species   valence    mass     pseudopotential
     Pb               14.00   207.20000     Pb( 1.00)
     Ti               12.00    47.88000     Ti( 1.00)
     O                 6.00    16.00000     O ( 1.00)

      8 Sym. Ops. (no inversion) found



   Cartesian axes

     site n.     atom                  positions (alat units)
         1        Pb     tau(   1) = (   0.0000000   0.0000000   1.0443557  )
         2        Ti     tau(   2) = (   0.4942972   0.4942972   0.5605656  )
         3        O      tau(   3) = (   0.4942972   0.4942972   0.1033867  )
         4        O      tau(   4) = (   0.4942972   0.0000000   0.6353718  )
         5        O      tau(   5) = (   0.0000000   0.4942972   0.6353718  )

     number of k points=    30
                       cart. coord. in units 2pi/alat
        k(    1) = (   0.0000000   0.0000000   0.0000000), wk =   0.0138889
        k(    2) = (   0.0000000   0.0000000   0.2406206), wk =   0.0277778
        k(    3) = (   0.0000000   0.0000000  -0.4812411), wk =   0.0138889
        k(    4) = (   0.0000000   0.1685895   0.0000000), wk =   0.0555556
        k(    5) = (   0.0000000   0.1685895   0.2406206), wk =   0.1111111
        k(    6) = (   0.0000000   0.1685895  -0.4812411), wk =   0.0555556
        k(    7) = (   0.0000000   0.3371790   0.0000000), wk =   0.0555556
        k(    8) = (   0.0000000   0.3371790   0.2406206), wk =   0.1111111
        k(    9) = (   0.0000000   0.3371790  -0.4812411), wk =   0.0555556
        k(   10) = (   0.0000000  -0.5057686   0.0000000), wk =   0.0277778
        k(   11) = (   0.0000000  -0.5057686   0.2406206), wk =   0.0555556
        k(   12) = (   0.0000000  -0.5057686  -0.4812411), wk =   0.0277778
        k(   13) = (   0.1685895   0.1685895   0.0000000), wk =   0.0555556
        k(   14) = (   0.1685895   0.1685895   0.2406206), wk =   0.1111111
        k(   15) = (   0.1685895   0.1685895  -0.4812411), wk =   0.0555556
        k(   16) = (   0.1685895   0.3371790   0.0000000), wk =   0.1111111
        k(   17) = (   0.1685895   0.3371790   0.2406206), wk =   0.2222222
        k(   18) = (   0.1685895   0.3371790  -0.4812411), wk =   0.1111111
        k(   19) = (   0.1685895  -0.5057686   0.0000000), wk =   0.0555556
        k(   20) = (   0.1685895  -0.5057686   0.2406206), wk =   0.1111111
        k(   21) = (   0.1685895  -0.5057686  -0.4812411), wk =   0.0555556
        k(   22) = (   0.3371790   0.3371790   0.0000000), wk =   0.0555556
        k(   23) = (   0.3371790   0.3371790   0.2406206), wk =   0.1111111
        k(   24) = (   0.3371790   0.3371790  -0.4812411), wk =   0.0555556
        k(   25) = (   0.3371790  -0.5057686   0.0000000), wk =   0.0555556
        k(   26) = (   0.3371790  -0.5057686   0.2406206), wk =   0.1111111
        k(   27) = (   0.3371790  -0.5057686  -0.4812411), wk =   0.0555556
        k(   28) = (  -0.5057686  -0.5057686   0.0000000), wk =   0.0138889
        k(   29) = (  -0.5057686  -0.5057686   0.2406206), wk =   0.0277778
        k(   30) = (  -0.5057686  -0.5057686  -0.4812411), wk =   0.0138889

     Dense  grid:    76731 G-vectors     FFT dimensions: (  54,  54,  60)

     Smooth grid:    19447 G-vectors     FFT dimensions: (  36,  36,  36)

     Estimated max dynamical RAM per process >      42.09 MB

     Estimated total dynamical RAM >     420.93 MB

     Check: negative core charge=   -0.000004

     Initial potential from superposition of free atoms

     starting charge      42.9982, renormalised to      44.0000

     negative rho (up, down):  1.669E-02 0.000E+00
     Starting wfcs are   31 randomized atomic wfcs

     total cpu time spent up to now is       65.0 secs

     Self-consistent Calculation

     iteration #  1     ecut=    50.00 Ry     beta= 0.70
     CG style diagonalization
     c_bands:  3 eigenvalues not converged
     c_bands:  1 eigenvalues not converged
     c_bands:  2 eigenvalues not converged
     c_bands:  1 eigenvalues not converged
     c_bands:  2 eigenvalues not converged
     c_bands:  1 eigenvalues not converged
     c_bands:  1 eigenvalues not converged
     c_bands:  2 eigenvalues not converged
     c_bands:  2 eigenvalues not converged
     c_bands:  3 eigenvalues not converged
     c_bands:  1 eigenvalues not converged
     c_bands:  3 eigenvalues not converged
     ethr =  1.00E-06,  avg # of iterations =  9.3

     negative rho (up, down):  1.438E-02 0.000E+00

     total cpu time spent up to now is       66.9 secs

     total energy              =    -380.14305223 Ry
     estimated scf accuracy    <       0.93742089 Ry

     iteration #  2     ecut=    50.00 Ry     beta= 0.70
     CG style diagonalization
     ethr =  2.13E-03,  avg # of iterations =  4.6

     negative rho (up, down):  1.513E-02 0.000E+00

     total cpu time spent up to now is       67.8 secs

     total energy              =    -379.98742697 Ry
     estimated scf accuracy    <       2.60114801 Ry

     iteration #  3     ecut=    50.00 Ry     beta= 0.70
     CG style diagonalization
     ethr =  2.13E-03,  avg # of iterations =  4.2

     negative rho (up, down):  1.565E-02 0.000E+00

     total cpu time spent up to now is       68.6 secs

     total energy              =    -380.53546059 Ry
     estimated scf accuracy    <       0.28660151 Ry

     iteration #  4     ecut=    50.00 Ry     beta= 0.70
     CG style diagonalization
     ethr =  6.51E-04,  avg # of iterations =  3.4

     negative rho (up, down):  1.566E-02 0.000E+00

     total cpu time spent up to now is       69.3 secs

     total energy              =    -380.56282772 Ry
     estimated scf accuracy    <       0.02395511 Ry

     iteration #  5     ecut=    50.00 Ry     beta= 0.70
     CG style diagonalization
     ethr =  5.44E-05,  avg # of iterations =  4.1

     negative rho (up, down):  1.563E-02 0.000E+00

     total cpu time spent up to now is       70.1 secs

     total energy              =    -380.57268672 Ry
     estimated scf accuracy    <       0.00746881 Ry

     iteration #  6     ecut=    50.00 Ry     beta= 0.70
     CG style diagonalization
     ethr =  1.70E-05,  avg # of iterations =  3.7

     negative rho (up, down):  1.560E-02 0.000E+00

     total cpu time spent up to now is       70.9 secs

     total energy              =    -380.57384794 Ry
     estimated scf accuracy    <       0.00537677 Ry

     iteration #  7     ecut=    50.00 Ry     beta= 0.70
     CG style diagonalization
     ethr =  1.22E-05,  avg # of iterations =  3.2

     negative rho (up, down):  1.555E-02 0.000E+00

     total cpu time spent up to now is       71.5 secs

     total energy              =    -380.57349921 Ry
     estimated scf accuracy    <       0.00212785 Ry

     iteration #  8     ecut=    50.00 Ry     beta= 0.70
     CG style diagonalization
     ethr =  4.84E-06,  avg # of iterations =  3.6

     negative rho (up, down):  1.554E-02 0.000E+00

     total cpu time spent up to now is       72.2 secs

     total energy              =    -380.57399791 Ry
     estimated scf accuracy    <       0.00005660 Ry

     iteration #  9     ecut=    50.00 Ry     beta= 0.70
     CG style diagonalization
     ethr =  1.29E-07,  avg # of iterations =  4.5

     negative rho (up, down):  1.546E-02 0.000E+00

     total cpu time spent up to now is       73.1 secs

     total energy              =    -380.57404206 Ry
     estimated scf accuracy    <       0.00003160 Ry

     iteration # 10     ecut=    50.00 Ry     beta= 0.70
     CG style diagonalization
     ethr =  7.18E-08,  avg # of iterations =  3.3

     negative rho (up, down):  1.532E-02 0.000E+00

     total cpu time spent up to now is       73.8 secs

     total energy              =    -380.57403929 Ry
     estimated scf accuracy    <       0.00001597 Ry

     iteration # 11     ecut=    50.00 Ry     beta= 0.70
     CG style diagonalization
     ethr =  3.63E-08,  avg # of iterations =  3.8

     negative rho (up, down):  1.532E-02 0.000E+00

     total cpu time spent up to now is       74.5 secs

     total energy              =    -380.57404361 Ry
     estimated scf accuracy    <       0.00000044 Ry

     iteration # 12     ecut=    50.00 Ry     beta= 0.70
     CG style diagonalization
     ethr =  9.93E-10,  avg # of iterations =  8.4

     negative rho (up, down):  1.532E-02 0.000E+00

     total cpu time spent up to now is       76.1 secs

     total energy              =    -380.57404572 Ry
     estimated scf accuracy    <       0.00000021 Ry

     iteration # 13     ecut=    50.00 Ry     beta= 0.70
     CG style diagonalization
     ethr =  4.81E-10,  avg # of iterations =  4.4

     negative rho (up, down):  1.531E-02 0.000E+00

     total cpu time spent up to now is       77.0 secs

     total energy              =    -380.57404580 Ry
     estimated scf accuracy    <       0.00000003 Ry

     iteration # 14     ecut=    50.00 Ry     beta= 0.70
     CG style diagonalization
     ethr =  7.31E-11,  avg # of iterations =  6.1

     negative rho (up, down):  1.531E-02 0.000E+00

     total cpu time spent up to now is       78.2 secs

     total energy              =    -380.57404585 Ry
     estimated scf accuracy    <          4.3E-09 Ry

     iteration # 15     ecut=    50.00 Ry     beta= 0.70
     CG style diagonalization
     ethr =  9.81E-12,  avg # of iterations =  7.6

     negative rho (up, down):  1.531E-02 0.000E+00

     total cpu time spent up to now is       79.7 secs

     total energy              =    -380.57404586 Ry
     estimated scf accuracy    <          1.9E-10 Ry

     iteration # 16     ecut=    50.00 Ry     beta= 0.70
     CG style diagonalization
     c_bands:  1 eigenvalues not converged
     c_bands:  1 eigenvalues not converged
     c_bands:  1 eigenvalues not converged
     c_bands:  1 eigenvalues not converged
     c_bands:  1 eigenvalues not converged
     ethr =  4.31E-13,  avg # of iterations =  9.7

     negative rho (up, down):  1.531E-02 0.000E+00

     total cpu time spent up to now is       81.6 secs

     End of self-consistent calculation

          k = 0.0000 0.0000 0.0000 (  2421 PWs)   bands (ev):

   -45.1709 -21.8510 -21.7675 -21.7675  -7.1665  -6.0143  -5.7569  -4.4131
    -4.4131  -4.3733  -4.2559  -4.1426   4.8409   6.7360   6.7360   7.1096
     8.7130   8.7130   8.9512   9.2899   9.4421   9.4421

          k = 0.0000 0.0000 0.2406 (  2429 PWs)   bands (ev):

   -45.1706 -21.8744 -21.7665 -21.7665  -6.9590  -5.9526  -5.6871  -4.4309
    -4.4309  -4.3718  -4.2438  -4.2195   3.9792   6.7908   6.7908   7.3062
     8.4595   8.4595   8.8680   9.3772   9.5611   9.5611

          k = 0.0000 0.0000-0.4812 (  2410 PWs)   bands (ev):

   -45.1703 -21.8976 -21.7656 -21.7656  -6.7336  -5.8850  -5.6239  -4.4485
    -4.4485  -4.3703  -4.3024  -4.2332   3.4363   6.6102   6.8248   6.8248
     8.3021   8.3021   8.7888   9.6372   9.6372  10.6533

          k = 0.0000 0.1686 0.0000 (  2423 PWs)   bands (ev):

   -45.1705 -21.8501 -21.7878 -21.7666  -7.0215  -5.9802  -5.7262  -4.4376
    -4.4116  -4.3881  -4.2588  -4.1309   4.3522   6.8011   6.8462   7.1420
     8.6691   8.7345   8.9481   9.0654   9.1708   9.5629

          k = 0.0000 0.1686 0.2406 (  2428 PWs)   bands (ev):

   -45.1702 -21.8734 -21.7868 -21.7657  -6.8305  -5.9344  -5.6506  -4.4361
    -4.4299  -4.3873  -4.2530  -4.1704   3.7459   6.5830   6.9122   7.3909
     8.1266   8.4415   8.7662   9.1617   9.2319   9.9343

          k = 0.0000 0.1686-0.4812 (  2426 PWs)   bands (ev):

   -45.1699 -21.8964 -21.7858 -21.7647  -6.6330  -5.8826  -5.5722  -4.4481
    -4.4323  -4.3864  -4.2577  -4.2056   3.2922   6.2645   6.9520   7.0365
     7.9312   8.2932   8.8333   9.2197   9.3134  10.5746

          k = 0.0000 0.3372 0.0000 (  2422 PWs)   bands (ev):

   -45.1698 -21.8485 -21.8282 -21.7649  -6.7067  -5.9062  -5.6805  -4.4748
    -4.4177  -4.4082  -4.2533  -4.1363   3.7242   6.4313   7.0960   7.1280
     8.3295   8.3573   8.8027   8.8544   9.2900  10.2151

          k = 0.0000 0.3372 0.2406 (  2423 PWs)   bands (ev):

   -45.1694 -21.8712 -21.8270 -21.7639  -6.5819  -5.8639  -5.5837  -4.4416
    -4.4280  -4.4178  -4.2463  -4.1098   3.3597   6.3013   7.0013   7.2273
     7.7611   8.1848   8.3398   8.9073   9.4255  10.2937

          k = 0.0000 0.3372-0.4812 (  2430 PWs)   bands (ev):

   -45.1691 -21.8939 -21.8258 -21.7629  -6.4895  -5.7965  -5.4561  -4.4473
    -4.4183  -4.4004  -4.2824  -4.0564   3.0401   5.9773   6.7629   7.2709
     7.6463   7.8132   8.1265   8.9382   9.8608  10.1241

          k = 0.0000-0.5058 0.0000 (  2436 PWs)   bands (ev):

   -45.1694 -21.8487 -21.8472 -21.7640  -6.5331  -5.8496  -5.6856  -4.4909
    -4.4323  -4.4066  -4.2266  -4.1691   3.5048   6.0472   7.3623   7.3710
     7.8337   7.9751   8.7240   8.8923   9.3209  11.0182

          k = 0.0000-0.5058 0.2406 (  2430 PWs)   bands (ev):

   -45.1690 -21.8699 -21.8472 -21.7630  -6.4741  -5.7737  -5.5776  -4.4540
    -4.4332  -4.4268  -4.2121  -4.1056   3.2082   6.0190   7.0315   7.2727
     7.5787   7.7761   8.4498   8.8852   9.4268  10.4960

          k = 0.0000-0.5058-0.4812 (  2432 PWs)   bands (ev):

   -45.1687 -21.8925 -21.8457 -21.7620  -6.4559  -5.6924  -5.4022  -4.4469
    -4.4341  -4.4092  -4.2676  -3.9944   2.9395   5.8374   6.4515   7.3321
     7.5964   7.8037   7.8259   8.8805   9.7944  10.1607

          k = 0.1686 0.1686 0.0000 (  2425 PWs)   bands (ev):

   -45.1701 -21.8493 -21.7871 -21.7867  -6.8790  -5.9451  -5.7174  -4.4435
    -4.4278  -4.3917  -4.2348  -4.1201   4.0211   6.7219   6.9751   7.1979
     8.1942   8.3065   9.0422   9.0773   9.3824   9.7972

          k = 0.1686 0.1686 0.2406 (  2423 PWs)   bands (ev):

   -45.1698 -21.8724 -21.7860 -21.7857  -6.6990  -5.9191  -5.6423  -4.4464
    -4.4228  -4.3856  -4.2241  -4.1359   3.6221   6.4997   6.6089   7.3345
     8.0240   8.0408   8.8477   9.2238   9.4612   9.9039

          k = 0.1686 0.1686-0.4812 (  2444 PWs)   bands (ev):

   -45.1695 -21.8952 -21.7849 -21.7847  -6.5201  -5.8929  -5.5544  -4.4593
    -4.4012  -4.3626  -4.2294  -4.1578   3.2592   6.2840   6.3329   7.0262
     7.9310   7.9676   8.7502   9.2990   9.5194  10.2709

          k = 0.1686 0.3372 0.0000 (  2426 PWs)   bands (ev):

   -45.1694 -21.8476 -21.8271 -21.7850  -6.5726  -5.8728  -5.7149  -4.4679
    -4.4168  -4.3760  -4.2100  -4.1256   3.5082   6.4288   6.9734   7.2715
     7.6539   8.2411   8.5475   9.2207   9.4094  10.2950

          k = 0.1686 0.3372 0.2406 (  2428 PWs)   bands (ev):

   -45.1691 -21.8703 -21.8260 -21.7840  -6.4440  -5.8635  -5.6324  -4.4433
    -4.4175  -4.3525  -4.1890  -4.0839   3.3635   6.2500   6.3805   6.9367
     7.3886   8.0796   8.9012   9.1796   9.5162  10.0045

          k = 0.1686 0.3372-0.4812 (  2426 PWs)   bands (ev):

   -45.1687 -21.8929 -21.8248 -21.7830  -6.3540  -5.8400  -5.5100  -4.4410
    -4.3917  -4.3112  -4.2016  -4.0292   3.1742   5.8958   6.3122   6.6363
     6.8793   7.9383   9.0069   9.2249   9.5091   9.9528

          k = 0.1686-0.5058 0.0000 (  2420 PWs)   bands (ev):

   -45.1690 -21.8475 -21.8463 -21.7841  -6.4050  -5.8189  -5.7408  -4.4710
    -4.4088  -4.3542  -4.1909  -4.1596   3.3086   6.0660   7.0901   7.3177
     7.6177   7.9633   8.4096   9.2542   9.4070  10.6273

          k = 0.1686-0.5058 0.2406 (  2426 PWs)   bands (ev):

   -45.1687 -21.8690 -21.8461 -21.7831  -6.3348  -5.7840  -5.6551  -4.4415
    -4.4038  -4.3308  -4.1656  -4.0780   3.2453   6.0235   6.2752   6.6836
     7.3492   8.2226   8.6682   9.1901   9.5252   9.9673

          k = 0.1686-0.5058-0.4812 (  2416 PWs)   bands (ev):

   -45.1683 -21.8915 -21.8448 -21.7821  -6.3193  -5.7504  -5.4933  -4.4356
    -4.3597  -4.3082  -4.1843  -3.9681   3.1344   5.7898   6.1441   6.2956
     6.7316   8.0513   8.8757   9.1377   9.1668  10.1703

          k = 0.3372 0.3372 0.0000 (  2438 PWs)   bands (ev):

   -45.1686 -21.8459 -21.8250 -21.8249  -6.3074  -5.8057  -5.7658  -4.4477
    -4.3972  -4.3037  -4.1283  -4.1282   3.1021   6.4131   6.5085   7.3789
     7.5319   7.6777   8.3448   9.0676   9.8851  10.0263

          k = 0.3372 0.3372 0.2406 (  2424 PWs)   bands (ev):

   -45.1683 -21.8683 -21.8240 -21.8239  -6.1693  -5.8541  -5.7212  -4.4056
    -4.3901  -4.2431  -4.0804  -4.0473   3.2917   5.9586   6.0298   6.4093
     7.0527   7.5547   8.9666   9.4789   9.5219   9.9011

          k = 0.3372 0.3372-0.4812 (  2428 PWs)   bands (ev):

   -45.1680 -21.8907 -21.8229 -21.8228  -6.0989  -5.8992  -5.5965  -4.3831
    -4.3637  -4.1774  -4.0303  -3.9689   3.4576   5.5541   5.5747   6.1546
     6.8071   6.9689   8.2143   9.8555   9.8712  10.0348

          k = 0.3372-0.5058 0.0000 (  2454 PWs)   bands (ev):

   -45.1682 -21.8451 -21.8445 -21.8238  -6.1875  -5.7813  -5.7624  -4.4393
    -4.3731  -4.2385  -4.1627  -4.0931   2.9153   6.0591   6.5545   7.1903
     7.7213   7.8419   7.9643   9.0359   9.7083  10.0909

          k = 0.3372-0.5058 0.2406 (  2430 PWs)   bands (ev):

   -45.1679 -21.8670 -21.8440 -21.8229  -6.0510  -5.8090  -5.7799  -4.3963
    -4.3614  -4.1485  -4.0789  -4.0170   3.2177   5.8509   6.0029   6.0715
     6.8348   7.6256   8.4922   9.4776   9.5060  10.0604

          k = 0.3372-0.5058-0.4812 (  2420 PWs)   bands (ev):

   -45.1676 -21.8895 -21.8428 -21.8219  -6.0404  -5.8525  -5.6348  -4.3657
    -4.3389  -4.0856  -3.9940  -3.9121   3.5981   5.2858   5.4817   5.9112
     6.5674   6.9826   7.4283   9.9570  10.0326  10.1945

          k =-0.5058-0.5058 0.0000 (  2480 PWs)   bands (ev):

   -45.1678 -21.8440 -21.8440 -21.8432  -6.1316  -5.7370  -5.7370  -4.4284
    -4.3251  -4.1842  -4.1842  -4.0422   2.7222   5.9077   6.3862   7.4032
     7.4032   7.9598   7.9598   8.8030   9.2316  10.3515

          k =-0.5058-0.5058 0.2406 (  2424 PWs)   bands (ev):

   -45.1675 -21.8658 -21.8429 -21.8429  -5.9162  -5.8231  -5.8231  -4.3839
    -4.3229  -4.0374  -4.0374  -4.0077   3.1393   5.8644   5.9746   5.9746
     6.3929   7.5667   7.8366   9.5074   9.5074  10.3339

          k =-0.5058-0.5058-0.4812 (  2400 PWs)   bands (ev):

   -45.1672 -21.8883 -21.8418 -21.8418  -5.8982  -5.8982  -5.6942  -4.3394
    -4.3207  -3.9615  -3.8991  -3.8991   3.8153   5.3139   5.3139   5.7457
     6.3996   6.4178   6.6709  10.2062  10.2062  10.3164

     highest occupied level (ev):    11.0182

!    total energy              =    -380.57404587 Ry
     estimated scf accuracy    <          2.5E-11 Ry

     The total energy is the sum of the following terms:
     one-electron contribution =     -79.71023732 Ry
     hartree contribution      =      69.93306043 Ry
     xc contribution           =    -102.67709774 Ry
     ewald contribution        =    -268.11977124 Ry

     convergence has been achieved in  16 iterations

     negative rho (up, down):  1.531E-02 0.000E+00

     Forces acting on atoms (cartesian axes, Ry/au):

     atom    1 type  1   force =     0.00000000    0.00000000    0.00014731
     atom    2 type  2   force =     0.00000000    0.00000000   -0.00012164
     atom    3 type  3   force =     0.00000000    0.00000000    0.00011278
     atom    4 type  3   force =     0.00000000    0.00000000   -0.00006922
     atom    5 type  3   force =     0.00000000    0.00000000   -0.00006922

     Total force =     0.000242     Total SCF correction =     0.000004


     Computing stress (Cartesian axis) and pressure


     negative rho (up, down):  1.531E-02 0.000E+00
          total   stress  (Ry/bohr**3)                   (kbar)     P=       -0.03
   0.00000163   0.00000000   0.00000000            0.24        0.00        0.00
   0.00000000   0.00000163   0.00000000            0.00        0.24        0.00
   0.00000000   0.00000000  -0.00000380            0.00        0.00       -0.56


     Writing all to output data dir ./PTO.save/ :
     XML data file, charge density, pseudopotentials, collected wavefunctions
 
     init_run     :      0.78s CPU      0.89s WALL (       2 calls)
     electrons    :     68.97s CPU     73.53s WALL (       7 calls)
     update_pot   :      0.03s CPU      0.03s WALL (       5 calls)
     forces       :      0.71s CPU      0.76s WALL (       7 calls)
     stress       :      6.79s CPU      6.88s WALL (       7 calls)

     Called by init_run:
     wfcinit      :      0.31s CPU      0.34s WALL (       2 calls)
     potinit      :      0.02s CPU      0.02s WALL (       2 calls)
     hinit0       :      0.26s CPU      0.29s WALL (       2 calls)

     Called by electrons:
     c_bands      :     58.49s CPU     62.08s WALL (      77 calls)
     sum_band     :      7.09s CPU      7.56s WALL (      77 calls)
     v_of_rho     :      0.12s CPU      0.12s WALL (      81 calls)
     newd         :      3.40s CPU      3.80s WALL (      81 calls)
     mix_rho      :      0.08s CPU      0.09s WALL (      77 calls)

     Called by c_bands:
     init_us_2    :      0.51s CPU      0.54s WALL (    5100 calls)
     init_us_2:cp :      0.50s CPU      0.53s WALL (    5100 calls)
     ccgdiagg     :     52.60s CPU     55.89s WALL (    2310 calls)
     wfcrot       :      5.77s CPU      6.07s WALL (    2070 calls)

     Called by *cgdiagg:
     h_psi        :     32.70s CPU     34.68s WALL (  196460 calls)
     s_psi        :      5.58s CPU      5.95s WALL (  390850 calls)

     Called by h_psi:
     h_psi:calbec :      5.15s CPU      5.47s WALL (  196460 calls)
     vloc_psi     :     22.99s CPU     24.37s WALL (  196460 calls)
     add_vuspsi   :      2.99s CPU      3.19s WALL (  196460 calls)
     hs_1psi      :     32.03s CPU     34.02s WALL (  194390 calls)
     s_1psi       :      7.92s CPU      8.40s WALL (  194390 calls)

     General routines
     calbec       :      9.33s CPU      9.91s WALL (  394210 calls)
     fft          :      0.15s CPU      0.17s WALL (     536 calls)
     ffts         :      0.01s CPU      0.01s WALL (     158 calls)
     fftw         :     19.55s CPU     20.68s WALL (  531760 calls)
     interpolate  :      0.03s CPU      0.03s WALL (      81 calls)
 
     Parallel routines
 
     PWSCF        :   1m17.75s CPU   1m23.06s WALL

 
   This run was terminated on:   3:20:12  15Nov2025            

=------------------------------------------------------------------------------=
   JOB DONE.
=------------------------------------------------------------------------------=
TACC:  Shutdown complete. Exiting. 
