TACC:  Starting up job 2476512 
TACC:  Starting parallel tasks... 

     Program PWSCF v.7.3 starts on 18Oct2025 at 15:13:18 

     This program is part of the open-source Quantum ESPRESSO suite
     for quantum simulation of materials; please cite
         "P. Giannozzi et al., J. Phys.:Condens. Matter 21 395502 (2009);
         "P. Giannozzi et al., J. Phys.:Condens. Matter 29 465901 (2017);
         "P. Giannozzi et al., J. Chem. Phys. 152 154105 (2020);
          URL http://www.quantum-espresso.org", 
     in publications or presentations arising from this work. More details at
     http://www.quantum-espresso.org/quote

     Parallel version (MPI & OpenMP), running on      10 processor cores
     Number of MPI processes:                10
     Threads/MPI process:                     1

     MPI processes distributed on     1 nodes
     186306 MiB available memory on the printing compute node when the environment starts
 
     Waiting for input...
     Reading input from standard input
Warning: card &CELL ignored
Warning: card  CELL_DYNAMICS = 'BFGS', ignored
Warning: card  PRESS=0.D0, ignored
Warning: card / ignored

     Current dimensions of program PWSCF are:
     Max number of different atomic species (ntypx) = 10
     Max number of k-points (npk) =  40000
     Max angular momentum in pseudopotentials (lmaxx) =  4
 
     R & G space division:  proc/nbgrp/npool/nimage =      10
     Subspace diagonalization in iterative solution of the eigenvalue problem:
     a serial algorithm will be used

 
     Parallelization info
     --------------------
     sticks:   dense  smooth     PW     G-vecs:    dense   smooth      PW
     Min         420     111     34                20624     2841     462
     Max         422     112     35                20626     2844     464
     Sum        4205    1117    341               206245    28425    4625
 
     Using Slab Decomposition
 


     bravais-lattice index     =            1
     lattice parameter (alat)  =       7.6794  a.u.
     unit-cell volume          =     452.8787 (a.u.)^3
     number of atoms/cell      =            5
     number of atomic types    =            3
     number of electrons       =        40.00
     number of Kohn-Sham states=           20
     kinetic-energy cutoff     =      60.0000  Ry
     charge density cutoff     =     900.0000  Ry
     scf convergence threshold =      1.0E-08
     mixing beta               =       0.7000
     number of iterations used =            8  plain     mixing
     Exchange-correlation= SLA  PZ   NOGX NOGC
                           (   1   1   0   0   0   0   0)

     celldm(1)=   7.679400  celldm(2)=   0.000000  celldm(3)=   0.000000
     celldm(4)=   0.000000  celldm(5)=   0.000000  celldm(6)=   0.000000

     crystal axes: (cart. coord. in units of alat)
               a(1) = (   1.000000   0.000000   0.000000 )  
               a(2) = (   0.000000   1.000000   0.000000 )  
               a(3) = (   0.000000   0.000000   1.000000 )  

     reciprocal axes: (cart. coord. in units 2 pi/alat)
               b(1) = (  1.000000  0.000000  0.000000 )  
               b(2) = (  0.000000  1.000000  0.000000 )  
               b(3) = (  0.000000  0.000000  1.000000 )  


     PseudoPot. # 1 for Ba read from file:
     /scratch/11018/zhc/Assisgnment2/Q1/1D/energy_off/Ba_LDA.UPF
     MD5 check sum: 0ec7675c796dc0a11c6269c68e51391e
     Pseudo is Ultrasoft + core correction, Zval = 10.0
     Generated by new atomic code, or converted to UPF format
     Using radial grid of  907 points,  7 beta functions with: 
                l(1) =   0
                l(2) =   0
                l(3) =   1
                l(4) =   1
                l(5) =   2
                l(6) =   2
                l(7) =   3
     Q(r) pseudized with  6 coefficients,  rinner =    1.700   1.700   1.700
                                                       1.700   1.700   1.700
                                                       1.700

     PseudoPot. # 2 for Ti read from file:
     /scratch/11018/zhc/Assisgnment2/Q1/1D/energy_off/Ti_LDA.UPF
     MD5 check sum: 0d9f225c038fe889ca2a701dcc8d72cb
     Pseudo is Ultrasoft + core correction, Zval = 12.0
     Generated by new atomic code, or converted to UPF format
     Using radial grid of  851 points,  6 beta functions with: 
                l(1) =   0
                l(2) =   0
                l(3) =   1
                l(4) =   1
                l(5) =   2
                l(6) =   2
     Q(r) pseudized with  6 coefficients,  rinner =    1.000   1.000   1.000
                                                       1.000   1.000

     PseudoPot. # 3 for O  read from file:
     /scratch/11018/zhc/Assisgnment2/Q1/1D/energy_off/O_LDA.UPF
     MD5 check sum: 194b818514d2a7dbb603bb78519a4f40
     Pseudo is Ultrasoft + core correction, Zval =  6.0
     Generated by new atomic code, or converted to UPF format
     Using radial grid of  737 points,  5 beta functions with: 
                l(1) =   0
                l(2) =   0
                l(3) =   1
                l(4) =   1
                l(5) =   2
     Q(r) pseudized with  8 coefficients,  rinner =    0.900   0.900   0.900
                                                       0.900   0.900

     atomic species   valence    mass     pseudopotential
     Ba               10.00   137.32700     Ba( 1.00)
     Ti               12.00    47.88000     Ti( 1.00)
     O                 6.00    16.00000     O ( 1.00)

     48 Sym. Ops., with inversion, found



   Cartesian axes

     site n.     atom                  positions (alat units)
         1        Ba     tau(   1) = (   0.0000000   0.0000000   0.0000000  )
         2        Ti     tau(   2) = (   0.5000000   0.5000000   0.5000000  )
         3        O      tau(   3) = (   0.5000000   0.5000000   0.0000000  )
         4        O      tau(   4) = (   0.5000000   0.0000000   0.5000000  )
         5        O      tau(   5) = (   0.0000000   0.5000000   0.5000000  )

     number of k points=     4
                       cart. coord. in units 2pi/alat
        k(    1) = (   0.0000000   0.0000000   0.0000000), wk =   0.2500000
        k(    2) = (   0.0000000   0.0000000  -0.5000000), wk =   0.7500000
        k(    3) = (   0.0000000  -0.5000000  -0.5000000), wk =   0.7500000
        k(    4) = (  -0.5000000  -0.5000000  -0.5000000), wk =   0.2500000

     Dense  grid:   206245 G-vectors     FFT dimensions: (  75,  75,  75)

     Smooth grid:    28425 G-vectors     FFT dimensions: (  40,  40,  40)

     Estimated max dynamical RAM per process >     146.53 MB

     Estimated total dynamical RAM >       1.43 GB

     Check: negative core charge=   -0.000001

     Initial potential from superposition of free atoms

     starting charge      38.9872, renormalised to      40.0000

     negative rho (up, down):  1.015E-01 0.000E+00
     Starting wfcs are   35 randomized atomic wfcs

     total cpu time spent up to now is        0.8 secs

     Self-consistent Calculation

     iteration #  1     ecut=    60.00 Ry     beta= 0.70
     CG style diagonalization
     ethr =  1.00E-02,  avg # of iterations =  2.2

     negative rho (up, down):  9.409E-02 0.000E+00

     total cpu time spent up to now is        1.3 secs

     total energy              =    -286.62266744 Ry
     estimated scf accuracy    <       0.87645836 Ry

     iteration #  2     ecut=    60.00 Ry     beta= 0.70
     CG style diagonalization
     ethr =  2.19E-03,  avg # of iterations =  4.6

     negative rho (up, down):  9.278E-02 0.000E+00

     total cpu time spent up to now is        1.8 secs

     total energy              =    -285.82096255 Ry
     estimated scf accuracy    <       8.38159854 Ry

     iteration #  3     ecut=    60.00 Ry     beta= 0.70
     CG style diagonalization
     ethr =  2.19E-03,  avg # of iterations =  4.5

     negative rho (up, down):  9.188E-02 0.000E+00

     total cpu time spent up to now is        2.3 secs

     total energy              =    -287.12438990 Ry
     estimated scf accuracy    <       0.16809188 Ry

     iteration #  4     ecut=    60.00 Ry     beta= 0.70
     CG style diagonalization
     ethr =  4.20E-04,  avg # of iterations =  3.4

     negative rho (up, down):  9.100E-02 0.000E+00

     total cpu time spent up to now is        2.8 secs

     total energy              =    -287.12526299 Ry
     estimated scf accuracy    <       0.05213940 Ry

     iteration #  5     ecut=    60.00 Ry     beta= 0.70
     CG style diagonalization
     ethr =  1.30E-04,  avg # of iterations =  3.3

     negative rho (up, down):  9.117E-02 0.000E+00

     total cpu time spent up to now is        3.3 secs

     total energy              =    -287.13598486 Ry
     estimated scf accuracy    <       0.00061632 Ry

     iteration #  6     ecut=    60.00 Ry     beta= 0.70
     CG style diagonalization
     ethr =  1.54E-06,  avg # of iterations =  4.0

     negative rho (up, down):  9.109E-02 0.000E+00

     total cpu time spent up to now is        3.8 secs

     total energy              =    -287.13627472 Ry
     estimated scf accuracy    <       0.00002501 Ry

     iteration #  7     ecut=    60.00 Ry     beta= 0.70
     CG style diagonalization
     ethr =  6.25E-08,  avg # of iterations =  4.3

     negative rho (up, down):  9.104E-02 0.000E+00

     total cpu time spent up to now is        4.4 secs

     total energy              =    -287.13631858 Ry
     estimated scf accuracy    <       0.00002717 Ry

     iteration #  8     ecut=    60.00 Ry     beta= 0.70
     CG style diagonalization
     ethr =  6.25E-08,  avg # of iterations =  3.3

     negative rho (up, down):  9.104E-02 0.000E+00

     total cpu time spent up to now is        4.8 secs

     total energy              =    -287.13631806 Ry
     estimated scf accuracy    <       0.00000743 Ry

     iteration #  9     ecut=    60.00 Ry     beta= 0.70
     CG style diagonalization
     ethr =  1.86E-08,  avg # of iterations =  3.4

     negative rho (up, down):  9.104E-02 0.000E+00

     total cpu time spent up to now is        5.3 secs

     total energy              =    -287.13632005 Ry
     estimated scf accuracy    <       0.00000027 Ry

     iteration # 10     ecut=    60.00 Ry     beta= 0.70
     CG style diagonalization
     ethr =  6.85E-10,  avg # of iterations =  4.3

     negative rho (up, down):  9.104E-02 0.000E+00

     total cpu time spent up to now is        5.9 secs

     total energy              =    -287.13632025 Ry
     estimated scf accuracy    <       0.00000002 Ry

     iteration # 11     ecut=    60.00 Ry     beta= 0.70
     CG style diagonalization
     ethr =  5.30E-11,  avg # of iterations =  4.4

     negative rho (up, down):  9.104E-02 0.000E+00

     total cpu time spent up to now is        6.4 secs

     total energy              =    -287.13632026 Ry
     estimated scf accuracy    <       0.00000001 Ry

     iteration # 12     ecut=    60.00 Ry     beta= 0.70
     CG style diagonalization
     ethr =  3.55E-11,  avg # of iterations =  3.4

     negative rho (up, down):  9.104E-02 0.000E+00

     total cpu time spent up to now is        6.9 secs

     End of self-consistent calculation

          k = 0.0000 0.0000 0.0000 (  3575 PWs)   bands (ev):

   -47.1429 -23.6411 -23.6411 -23.6411 -15.3102  -6.9651  -6.2373  -6.2373
    -0.4586  -0.4586  -0.4586   7.1357   7.1357   7.1357   8.4239   8.4239
     8.4239   9.3213   9.3213   9.3213

          k = 0.0000 0.0000-0.5000 (  3546 PWs)   bands (ev):

   -47.1424 -23.6792 -23.6395 -23.6395 -15.2151  -7.1385  -6.2012  -6.0042
    -0.3066  -0.3066  -0.0746   5.4905   6.7449   6.7449   7.5449   7.6072
     7.6072   7.6519   8.7776   8.7776

          k = 0.0000-0.5000-0.5000 (  3556 PWs)   bands (ev):

   -47.1418 -23.6767 -23.6767 -23.6378 -15.1510  -6.5598  -6.2228  -6.2228
    -0.4828  -0.4828  -0.1227   5.1861   5.4880   5.6416   6.8386   6.8386
     7.7174   8.5957   8.5957   9.4204

          k =-0.5000-0.5000-0.5000 (  3544 PWs)   bands (ev):

   -47.1413 -23.6747 -23.6747 -23.6747 -15.0946  -6.0499  -6.0499  -6.0499
    -1.1096  -1.1096  -1.1096   4.9990   5.6574   5.6574   7.0011   7.0011
     7.0011   9.4836   9.4836   9.4836

     highest occupied level (ev):     9.4836

!    total energy              =    -287.13632026 Ry
     estimated scf accuracy    <          5.7E-10 Ry

     The total energy is the sum of the following terms:
     one-electron contribution =     -76.42217728 Ry
     hartree contribution      =      60.66748158 Ry
     xc contribution           =     -67.17706385 Ry
     ewald contribution        =    -204.20456071 Ry

     convergence has been achieved in  12 iterations

     negative rho (up, down):  9.104E-02 0.000E+00

     Forces acting on atoms (cartesian axes, Ry/au):

     atom    1 type  1   force =     0.00000000    0.00000000    0.00000000
     atom    2 type  2   force =     0.00000000    0.00000000    0.00000000
     atom    3 type  3   force =     0.00000000    0.00000000    0.00000000
     atom    4 type  3   force =     0.00000000    0.00000000    0.00000000
     atom    5 type  3   force =     0.00000000    0.00000000    0.00000000

     Total force =     0.000000     Total SCF correction =     0.000000


     Computing stress (Cartesian axis) and pressure


     negative rho (up, down):  9.104E-02 0.000E+00
          total   stress  (Ry/bohr**3)                   (kbar)     P=     -121.01
  -0.00082263   0.00000000   0.00000000         -121.01        0.00        0.00
   0.00000000  -0.00082263   0.00000000            0.00     -121.01        0.00
   0.00000000   0.00000000  -0.00082263            0.00        0.00     -121.01


     Writing all to output data dir ./BTO_60.save/ :
     XML data file, charge density, pseudopotentials, collected wavefunctions
 
     init_run     :      0.40s CPU      0.52s WALL (       1 calls)
     electrons    :      5.19s CPU      6.17s WALL (       1 calls)
     forces       :      0.21s CPU      0.25s WALL (       1 calls)
     stress       :      1.08s CPU      1.19s WALL (       1 calls)

     Called by init_run:
     wfcinit      :      0.03s CPU      0.05s WALL (       1 calls)
     potinit      :      0.01s CPU      0.02s WALL (       1 calls)
     hinit0       :      0.16s CPU      0.20s WALL (       1 calls)

     Called by electrons:
     c_bands      :      1.17s CPU      1.22s WALL (      12 calls)
     sum_band     :      2.14s CPU      2.60s WALL (      12 calls)
     v_of_rho     :      0.04s CPU      0.05s WALL (      13 calls)
     newd         :      1.94s CPU      2.42s WALL (      13 calls)
     mix_rho      :      0.03s CPU      0.03s WALL (      12 calls)

     Called by c_bands:
     init_us_2    :      0.02s CPU      0.02s WALL (     108 calls)
     init_us_2:cp :      0.02s CPU      0.02s WALL (     108 calls)
     ccgdiagg     :      1.00s CPU      1.04s WALL (      48 calls)
     wfcrot       :      0.19s CPU      0.21s WALL (      48 calls)

     Called by *cgdiagg:
     h_psi        :      0.75s CPU      0.78s WALL (    2781 calls)
     s_psi        :      0.12s CPU      0.12s WALL (    5514 calls)

     Called by h_psi:
     h_psi:calbec :      0.11s CPU      0.12s WALL (    2781 calls)
     vloc_psi     :      0.55s CPU      0.57s WALL (    2781 calls)
     add_vuspsi   :      0.07s CPU      0.07s WALL (    2781 calls)
     hs_1psi      :      0.67s CPU      0.69s WALL (    2733 calls)
     s_1psi       :      0.15s CPU      0.15s WALL (    2733 calls)

     General routines
     calbec       :      0.20s CPU      0.21s WALL (    5582 calls)
     fft          :      0.07s CPU      0.08s WALL (      84 calls)
     ffts         :      0.00s CPU      0.00s WALL (      25 calls)
     fftw         :      0.42s CPU      0.44s WALL (    8466 calls)
     interpolate  :      0.01s CPU      0.02s WALL (      13 calls)
 
     Parallel routines
 
     PWSCF        :      7.09s CPU      8.51s WALL

 
   This run was terminated on:  15:13:27  18Oct2025            

=------------------------------------------------------------------------------=
   JOB DONE.
=------------------------------------------------------------------------------=
TACC:  Shutdown complete. Exiting. 
