TACC:  Starting up job 2482958 
TACC:  Starting parallel tasks... 

     Program PWSCF v.7.3 starts on 20Oct2025 at 21:54:52 

     This program is part of the open-source Quantum ESPRESSO suite
     for quantum simulation of materials; please cite
         "P. Giannozzi et al., J. Phys.:Condens. Matter 21 395502 (2009);
         "P. Giannozzi et al., J. Phys.:Condens. Matter 29 465901 (2017);
         "P. Giannozzi et al., J. Chem. Phys. 152 154105 (2020);
          URL http://www.quantum-espresso.org", 
     in publications or presentations arising from this work. More details at
     http://www.quantum-espresso.org/quote

     Parallel version (MPI & OpenMP), running on      10 processor cores
     Number of MPI processes:                10
     Threads/MPI process:                     1

     MPI processes distributed on     1 nodes
     186619 MiB available memory on the printing compute node when the environment starts
 
     Waiting for input...
     Reading input from standard input
Warning: card &CELL ignored
Warning: card  CELL_DYNAMICS = 'BFGS', ignored
Warning: card  PRESS=0.D0, ignored
Warning: card / ignored
     Message from routine read_cards :
     DEPRECATED: no units specified in ATOMIC_POSITIONS card
     Message from routine read_cards :
     ATOMIC_POSITIONS: units set to alat

     Current dimensions of program PWSCF are:
     Max number of different atomic species (ntypx) = 10
     Max number of k-points (npk) =  40000
     Max angular momentum in pseudopotentials (lmaxx) =  4
 
     R & G space division:  proc/nbgrp/npool/nimage =      10
     Subspace diagonalization in iterative solution of the eigenvalue problem:
     a serial algorithm will be used

 
     Parallelization info
     --------------------
     sticks:   dense  smooth     PW     G-vecs:    dense   smooth      PW
     Min         139      36     12                 3401      463      93
     Max         140      37     13                 3402      466      97
     Sum        1393     367    121                34015     4645     941
 
     Using Slab Decomposition
 


     bravais-lattice index     =            2
     lattice parameter (alat)  =       6.6800  a.u.
     unit-cell volume          =      74.5194 (a.u.)^3
     number of atoms/cell      =            2
     number of atomic types    =            1
     number of electrons       =         8.00
     number of Kohn-Sham states=            4
     kinetic-energy cutoff     =      60.0000  Ry
     charge density cutoff     =     900.0000  Ry
     scf convergence threshold =      1.0E-08
     mixing beta               =       0.7000
     number of iterations used =            8  plain     mixing
     Exchange-correlation= SLA  PZ   NOGX NOGC
                           (   1   1   0   0   0   0   0)

     celldm(1)=   6.680000  celldm(2)=   0.000000  celldm(3)=   0.000000
     celldm(4)=   0.000000  celldm(5)=   0.000000  celldm(6)=   0.000000

     crystal axes: (cart. coord. in units of alat)
               a(1) = (  -0.500000   0.000000   0.500000 )  
               a(2) = (   0.000000   0.500000   0.500000 )  
               a(3) = (  -0.500000   0.500000   0.000000 )  

     reciprocal axes: (cart. coord. in units 2 pi/alat)
               b(1) = ( -1.000000 -1.000000  1.000000 )  
               b(2) = (  1.000000  1.000000  1.000000 )  
               b(3) = ( -1.000000  1.000000 -1.000000 )  


     PseudoPot. # 1 for C  read from file:
     /scratch/11018/zhc/Assisgnment2/Q2/Diamond/Diamond/C_LDA.UPF
     MD5 check sum: 407c1fe918d93b14b177d5600f28733c
     Pseudo is Ultrasoft + core correction, Zval =  4.0
     Generated by new atomic code, or converted to UPF format
     Using radial grid of  721 points,  4 beta functions with: 
                l(1) =   0
                l(2) =   0
                l(3) =   1
                l(4) =   1
     Q(r) pseudized with  8 coefficients,  rinner =    1.100   1.100   1.100


     atomic species   valence    mass     pseudopotential
     C                 4.00    12.01100     C ( 1.00)

      6 Sym. Ops. (no inversion) found



   Cartesian axes

     site n.     atom                  positions (alat units)
         1        C      tau(   1) = (   0.0000000   0.0000000   0.0000000  )
         2        C      tau(   2) = (   0.2492943   0.2492943   0.2492943  )

     number of k points=   189

     Number of k-points >= 100: set verbosity='high' to print them.

     Dense  grid:    34015 G-vectors     FFT dimensions: (  45,  45,  45)

     Smooth grid:     4645 G-vectors     FFT dimensions: (  24,  24,  24)

     Estimated max dynamical RAM per process >       6.06 MB

     Estimated total dynamical RAM >      60.57 MB

     Initial potential from superposition of free atoms

     starting charge       7.9999, renormalised to       8.0000
     Starting wfcs are    8 randomized atomic wfcs

     total cpu time spent up to now is        0.4 secs

     Self-consistent Calculation

     iteration #  1     ecut=    60.00 Ry     beta= 0.70
     CG style diagonalization
     ethr =  1.00E-02,  avg # of iterations =  3.0

     total cpu time spent up to now is        0.8 secs

     total energy              =     -23.04049452 Ry
     estimated scf accuracy    <       0.14063965 Ry

     iteration #  2     ecut=    60.00 Ry     beta= 0.70
     CG style diagonalization
     ethr =  1.76E-03,  avg # of iterations =  3.6

     total cpu time spent up to now is        1.2 secs

     total energy              =     -23.05710926 Ry
     estimated scf accuracy    <       0.00142673 Ry

     iteration #  3     ecut=    60.00 Ry     beta= 0.70
     CG style diagonalization
     ethr =  1.78E-05,  avg # of iterations =  4.0

     total cpu time spent up to now is        1.7 secs

     total energy              =     -23.05761098 Ry
     estimated scf accuracy    <       0.00005018 Ry

     iteration #  4     ecut=    60.00 Ry     beta= 0.70
     CG style diagonalization
     ethr =  6.27E-07,  avg # of iterations =  4.1

     total cpu time spent up to now is        2.2 secs

     total energy              =     -23.05763067 Ry
     estimated scf accuracy    <       0.00000287 Ry

     iteration #  5     ecut=    60.00 Ry     beta= 0.70
     CG style diagonalization
     ethr =  3.58E-08,  avg # of iterations =  3.9

     total cpu time spent up to now is        2.7 secs

     total energy              =     -23.05763179 Ry
     estimated scf accuracy    <       0.00000006 Ry

     iteration #  6     ecut=    60.00 Ry     beta= 0.70
     CG style diagonalization
     ethr =  7.03E-10,  avg # of iterations =  4.3

     total cpu time spent up to now is        3.2 secs

     End of self-consistent calculation

     Number of k-points >= 100: set verbosity='high' to print the bands.

     highest occupied level (ev):    13.6170

!    total energy              =     -23.05763183 Ry
     estimated scf accuracy    <          2.0E-10 Ry

     The total energy is the sum of the following terms:
     one-electron contribution =       8.24549509 Ry
     hartree contribution      =       1.89067030 Ry
     xc contribution           =      -7.38883712 Ry
     ewald contribution        =     -25.80496010 Ry

     convergence has been achieved in   6 iterations

     Forces acting on atoms (cartesian axes, Ry/au):

     atom    1 type  1   force =    -0.00376340   -0.00376340   -0.00376340
     atom    2 type  1   force =     0.00376340    0.00376340    0.00376340

     Total force =     0.009218     Total SCF correction =     0.000001


     Computing stress (Cartesian axis) and pressure

          total   stress  (Ry/bohr**3)                   (kbar)     P=       -8.93
  -0.00006067   0.00001033   0.00001033           -8.93        1.52        1.52
   0.00001033  -0.00006067   0.00001033            1.52       -8.93        1.52
   0.00001033   0.00001033  -0.00006067            1.52        1.52       -8.93


     Writing all to output data dir ./Diamond_k12.save/ :
     XML data file, charge density, pseudopotentials, collected wavefunctions
 
     init_run     :      0.17s CPU      0.25s WALL (       1 calls)
     electrons    :      2.62s CPU      2.89s WALL (       1 calls)
     forces       :      0.03s CPU      0.03s WALL (       1 calls)
     stress       :      0.10s CPU      0.10s WALL (       1 calls)

     Called by init_run:
     wfcinit      :      0.12s CPU      0.15s WALL (       1 calls)
     potinit      :      0.01s CPU      0.01s WALL (       1 calls)
     hinit0       :      0.03s CPU      0.05s WALL (       1 calls)

     Called by electrons:
     c_bands      :      2.39s CPU      2.62s WALL (       6 calls)
     sum_band     :      0.20s CPU      0.22s WALL (       6 calls)
     v_of_rho     :      0.01s CPU      0.01s WALL (       7 calls)
     newd         :      0.01s CPU      0.02s WALL (       7 calls)
     mix_rho      :      0.00s CPU      0.01s WALL (       6 calls)

     Called by c_bands:
     init_us_2    :      0.04s CPU      0.04s WALL (    2835 calls)
     init_us_2:cp :      0.03s CPU      0.04s WALL (    2835 calls)
     ccgdiagg     :      2.05s CPU      2.25s WALL (    1134 calls)
     wfcrot       :      0.40s CPU      0.45s WALL (    1134 calls)

     Called by *cgdiagg:
     h_psi        :      1.31s CPU      1.44s WALL (   14715 calls)
     s_psi        :      0.07s CPU      0.08s WALL (   28296 calls)

     Called by h_psi:
     h_psi:calbec :      0.22s CPU      0.24s WALL (   14715 calls)
     vloc_psi     :      0.95s CPU      1.04s WALL (   14715 calls)
     add_vuspsi   :      0.04s CPU      0.05s WALL (   14715 calls)
     hs_1psi      :      1.13s CPU      1.24s WALL (   13581 calls)
     s_1psi       :      0.26s CPU      0.28s WALL (   13581 calls)

     General routines
     calbec       :      0.37s CPU      0.41s WALL (   30375 calls)
     fft          :      0.01s CPU      0.03s WALL (      48 calls)
     ffts         :      0.00s CPU      0.00s WALL (      13 calls)
     fftw         :      0.80s CPU      0.88s WALL (   42282 calls)
     interpolate  :      0.00s CPU      0.01s WALL (       7 calls)
 
     Parallel routines
 
     PWSCF        :      3.05s CPU      4.20s WALL

 
   This run was terminated on:  21:54:56  20Oct2025            

=------------------------------------------------------------------------------=
   JOB DONE.
=------------------------------------------------------------------------------=
TACC:  Shutdown complete. Exiting. 
