TACC:  Starting up job 2477146 
TACC:  Starting parallel tasks... 

     Program PWSCF v.7.3 starts on 18Oct2025 at 20:45:59 

     This program is part of the open-source Quantum ESPRESSO suite
     for quantum simulation of materials; please cite
         "P. Giannozzi et al., J. Phys.:Condens. Matter 21 395502 (2009);
         "P. Giannozzi et al., J. Phys.:Condens. Matter 29 465901 (2017);
         "P. Giannozzi et al., J. Chem. Phys. 152 154105 (2020);
          URL http://www.quantum-espresso.org", 
     in publications or presentations arising from this work. More details at
     http://www.quantum-espresso.org/quote

     Parallel version (MPI & OpenMP), running on      10 processor cores
     Number of MPI processes:                10
     Threads/MPI process:                     1

     MPI processes distributed on     1 nodes
     185789 MiB available memory on the printing compute node when the environment starts
 
     Waiting for input...
     Reading input from standard input
Warning: card &CELL ignored
Warning: card  CELL_DYNAMICS = 'BFGS', ignored
Warning: card  PRESS=0.D0, ignored
Warning: card / ignored
     Message from routine read_cards :
     DEPRECATED: no units specified in ATOMIC_POSITIONS card
     Message from routine read_cards :
     ATOMIC_POSITIONS: units set to alat

     Current dimensions of program PWSCF are:
     Max number of different atomic species (ntypx) = 10
     Max number of k-points (npk) =  40000
     Max angular momentum in pseudopotentials (lmaxx) =  4
     Message from routine setup:
     using ibrav=0 with symmetry is DISCOURAGED, use correct ibrav instead
 
     R & G space division:  proc/nbgrp/npool/nimage =      10
     Subspace diagonalization in iterative solution of the eigenvalue problem:
     a serial algorithm will be used

 
     Parallelization info
     --------------------
     sticks:   dense  smooth     PW     G-vecs:    dense   smooth      PW
     Min         123      48     18                 2768      694     157
     Max         124      49     19                 2771      697     160
     Sum        1239     487    181                27691     6963    1585
 
     Using Slab Decomposition
 


     bravais-lattice index     =            0
     lattice parameter (alat)  =       6.7000  a.u.
     unit-cell volume          =     146.6077 (a.u.)^3
     number of atoms/cell      =            2
     number of atomic types    =            1
     number of electrons       =         8.00
     number of Kohn-Sham states=            4
     kinetic-energy cutoff     =      50.0000  Ry
     charge density cutoff     =     500.0000  Ry
     scf convergence threshold =      1.0E-08
     mixing beta               =       0.7000
     number of iterations used =            8  plain     mixing
     Exchange-correlation= SLA  PZ   NOGX NOGC
                           (   1   1   0   0   0   0   0)

     celldm(1)=   6.700000  celldm(2)=   0.000000  celldm(3)=   0.000000
     celldm(4)=   0.000000  celldm(5)=   0.000000  celldm(6)=   0.000000

     crystal axes: (cart. coord. in units of alat)
               a(1) = (  -0.498775   0.498775   0.489850 )  
               a(2) = (   0.498775  -0.498775   0.489850 )  
               a(3) = (   0.498775   0.498775  -0.489850 )  

     reciprocal axes: (cart. coord. in units 2 pi/alat)
               b(1) = (  0.000000  1.002456  1.020720 )  
               b(2) = (  1.002456  0.000000  1.020720 )  
               b(3) = (  1.002456  1.002456  0.000000 )  


     PseudoPot. # 1 for C  read from file:
     /scratch/11018/zhc/Assisgnment2/Q2/Diamond/Diamond/C_LDA.UPF
     MD5 check sum: 407c1fe918d93b14b177d5600f28733c
     Pseudo is Ultrasoft + core correction, Zval =  4.0
     Generated by new atomic code, or converted to UPF format
     Using radial grid of  721 points,  4 beta functions with: 
                l(1) =   0
                l(2) =   0
                l(3) =   1
                l(4) =   1
     Q(r) pseudized with  8 coefficients,  rinner =    1.100   1.100   1.100


     atomic species   valence    mass     pseudopotential
     C                 4.00    12.01100     C ( 1.00)

      2 Sym. Ops. (no inversion) found



   Cartesian axes

     site n.     atom                  positions (alat units)
         1        C      tau(   1) = (   0.0000000   0.0000000   0.0000000  )
         2        C      tau(   2) = (   0.2500000   0.2500000   0.2500000  )

     number of k points=    24
                       cart. coord. in units 2pi/alat
        k(    1) = (   0.0000000   0.0000000   0.0000000), wk =   0.0312500
        k(    2) = (   0.2506141   0.2506141   0.0000000), wk =   0.0625000
        k(    3) = (  -0.5012282  -0.5012282   0.0000000), wk =   0.0312500
        k(    4) = (   0.2506141   0.0000000   0.2551799), wk =   0.1250000
        k(    5) = (   0.5012282   0.2506141   0.2551799), wk =   0.1250000
        k(    6) = (  -0.5012282   0.0000000  -0.5103599), wk =   0.0625000
        k(    7) = (  -0.2506141   0.2506141  -0.5103599), wk =   0.1250000
        k(    8) = (   0.5012282   0.5012282   0.5103599), wk =   0.0625000
        k(    9) = (   0.0000000   0.0000000   0.5103599), wk =   0.0625000
        k(   10) = (  -1.0024564  -0.2506141  -0.2551799), wk =   0.1250000
        k(   11) = (   0.0000000   0.5012282   0.0000000), wk =   0.1250000
        k(   12) = (  -0.7518423  -0.2506141   0.0000000), wk =   0.0625000
        k(   13) = (  -1.0024564  -1.0024564  -1.0207198), wk =   0.0312500
        k(   14) = (  -0.2506141   0.2506141   0.0000000), wk =   0.0625000
        k(   15) = (   0.5012282  -0.5012282   0.0000000), wk =   0.0312500
        k(   16) = (   0.2506141   0.0000000  -0.2551799), wk =   0.1250000
        k(   17) = (  -0.5012282   0.2506141  -0.2551799), wk =   0.1250000
        k(   18) = (   0.5012282  -0.2506141  -0.2551799), wk =   0.1250000
        k(   19) = (   0.2506141   0.5012282  -0.2551799), wk =   0.1250000
        k(   20) = (  -0.5012282   0.0000000   0.5103599), wk =   0.0625000
        k(   21) = (   0.2506141   0.2506141   0.5103599), wk =   0.0625000
        k(   22) = (  -0.2506141  -0.2506141   0.5103599), wk =   0.0625000
        k(   23) = (   1.0024564  -0.2506141   0.2551799), wk =   0.1250000
        k(   24) = (   0.7518423  -0.2506141   0.0000000), wk =   0.0625000

     Dense  grid:    27691 G-vectors     FFT dimensions: (  45,  45,  45)

     Smooth grid:     6963 G-vectors     FFT dimensions: (  25,  25,  25)

     Estimated max dynamical RAM per process >       4.61 MB

     Estimated total dynamical RAM >      46.09 MB

     Initial potential from superposition of free atoms

     starting charge       7.9999, renormalised to       8.0000
     Starting wfcs are    8 randomized atomic wfcs

     total cpu time spent up to now is        0.2 secs

     Self-consistent Calculation

     iteration #  1     ecut=    50.00 Ry     beta= 0.70
     CG style diagonalization
     ethr =  1.00E-02,  avg # of iterations =  2.8

     Threshold (ethr) on eigenvalues was too large:
     Diagonalizing with lowered threshold

     CG style diagonalization
     ethr =  5.56E-04,  avg # of iterations =  2.0

     total cpu time spent up to now is        0.3 secs

     total energy              =     -22.64867388 Ry
     estimated scf accuracy    <       0.04302862 Ry

     iteration #  2     ecut=    50.00 Ry     beta= 0.70
     CG style diagonalization
     ethr =  5.38E-04,  avg # of iterations =  3.7

     total cpu time spent up to now is        0.4 secs

     total energy              =     -22.65327911 Ry
     estimated scf accuracy    <       0.00106825 Ry

     iteration #  3     ecut=    50.00 Ry     beta= 0.70
     CG style diagonalization
     ethr =  1.34E-05,  avg # of iterations =  3.6

     total cpu time spent up to now is        0.5 secs

     total energy              =     -22.65343165 Ry
     estimated scf accuracy    <       0.00005066 Ry

     iteration #  4     ecut=    50.00 Ry     beta= 0.70
     CG style diagonalization
     ethr =  6.33E-07,  avg # of iterations =  4.3

     total cpu time spent up to now is        0.6 secs

     total energy              =     -22.65344828 Ry
     estimated scf accuracy    <       0.00001215 Ry

     iteration #  5     ecut=    50.00 Ry     beta= 0.70
     CG style diagonalization
     ethr =  1.52E-07,  avg # of iterations =  3.8

     total cpu time spent up to now is        0.6 secs

     total energy              =     -22.65345102 Ry
     estimated scf accuracy    <       0.00000071 Ry

     iteration #  6     ecut=    50.00 Ry     beta= 0.70
     CG style diagonalization
     ethr =  8.88E-09,  avg # of iterations =  4.8

     total cpu time spent up to now is        0.7 secs

     total energy              =     -22.65345136 Ry
     estimated scf accuracy    <       0.00000204 Ry

     iteration #  7     ecut=    50.00 Ry     beta= 0.70
     CG style diagonalization
     ethr =  8.88E-09,  avg # of iterations =  3.3

     total cpu time spent up to now is        0.8 secs

     total energy              =     -22.65345115 Ry
     estimated scf accuracy    <       0.00000067 Ry

     iteration #  8     ecut=    50.00 Ry     beta= 0.70
     CG style diagonalization
     ethr =  8.41E-09,  avg # of iterations =  4.2

     total cpu time spent up to now is        0.9 secs

     total energy              =     -22.65345138 Ry
     estimated scf accuracy    <       0.00000060 Ry

     iteration #  9     ecut=    50.00 Ry     beta= 0.70
     CG style diagonalization
     ethr =  7.51E-09,  avg # of iterations =  3.0

     total cpu time spent up to now is        0.9 secs

     total energy              =     -22.65345133 Ry
     estimated scf accuracy    <       0.00000032 Ry

     iteration # 10     ecut=    50.00 Ry     beta= 0.70
     CG style diagonalization
     ethr =  4.05E-09,  avg # of iterations =  3.5

     total cpu time spent up to now is        1.0 secs

     End of self-consistent calculation

          k = 0.0000 0.0000 0.0000 (   903 PWs)   bands (ev):

   -11.3675  -2.7951   3.3114   3.3895

          k = 0.2506 0.2506 0.0000 (   885 PWs)   bands (ev):

   -10.3876  -4.5223   3.1011   3.9024

          k =-0.5012-0.5012 0.0000 (   866 PWs)   bands (ev):

    -7.8058  -7.6849   3.4968   3.7271

          k = 0.2506 0.0000 0.2552 (   884 PWs)   bands (ev):

   -10.3751  -4.5046   3.0145   3.9157

          k = 0.5012 0.2506 0.2552 (   873 PWs)   bands (ev):

    -8.3760  -6.9174   1.9735   4.5169

          k =-0.5012 0.0000-0.5104 (   868 PWs)   bands (ev):

    -7.7806  -7.6462   3.4873   3.5728

          k =-0.2506 0.2506-0.5104 (   876 PWs)   bands (ev):

    -9.0951  -5.0888  -0.3140   2.8845

          k = 0.5012 0.5012 0.5104 (   868 PWs)   bands (ev):

    -8.5219  -5.5680   0.2007   0.2804

          k = 0.0000 0.0000 0.5104 (   879 PWs)   bands (ev):

    -9.6086  -4.5282   0.9826   3.0018

          k =-1.0025-0.2506-0.2552 (   866 PWs)   bands (ev):

    -8.6601  -4.5420  -0.7291   1.8965

          k = 0.0000 0.5012 0.0000 (   880 PWs)   bands (ev):

    -9.6651  -4.4947   1.0864   3.0377

          k =-0.7518-0.2506 0.0000 (   876 PWs)   bands (ev):

    -7.3637  -7.2326   2.3782   2.4765

          k =-1.0025-1.0025-1.0207 (   856 PWs)   bands (ev):

    -6.8773  -6.7339   2.8417   2.8876

          k =-0.2506 0.2506 0.0000 (   885 PWs)   bands (ev):

   -10.5684  -2.9300   0.5023   2.8086

          k = 0.5012-0.5012 0.0000 (   866 PWs)   bands (ev):

    -9.4549  -3.0658  -2.0249   2.3005

          k = 0.2506 0.0000-0.2552 (   884 PWs)   bands (ev):

   -10.5459  -2.9548   0.5449   2.7104

          k =-0.5012 0.2506-0.2552 (   873 PWs)   bands (ev):

    -9.1399  -5.0431  -0.3048   2.9631

          k = 0.5012-0.2506-0.2552 (   873 PWs)   bands (ev):

    -9.4715  -3.0963  -1.0474   0.7325

          k = 0.2506 0.5012-0.2552 (   873 PWs)   bands (ev):

    -9.1138  -5.1051  -0.2814   2.9248

          k =-0.5012 0.0000 0.5104 (   868 PWs)   bands (ev):

    -9.3932  -3.1138  -2.0180   2.1723

          k = 0.2506 0.2506 0.5104 (   876 PWs)   bands (ev):

    -8.3349  -6.9399   2.0237   4.4638

          k =-0.2506-0.2506 0.5104 (   876 PWs)   bands (ev):

    -9.4371  -3.1201  -1.1119   0.7578

          k = 1.0025-0.2506 0.2552 (   866 PWs)   bands (ev):

    -7.3557  -7.1972   2.2868   2.3349

          k = 0.7518-0.2506 0.0000 (   876 PWs)   bands (ev):

    -8.7101  -4.4889  -0.7551   2.0373

     highest occupied level (ev):     4.5169

!    total energy              =     -22.65345138 Ry
     estimated scf accuracy    <          9.5E-10 Ry

     The total energy is the sum of the following terms:
     one-electron contribution =       0.00793246 Ry
     hartree contribution      =       3.38468548 Ry
     xc contribution           =      -6.58603486 Ry
     ewald contribution        =     -19.46003446 Ry

     convergence has been achieved in  10 iterations

     Forces acting on atoms (cartesian axes, Ry/au):

     atom    1 type  1   force =    -0.01525200   -0.01525200   -0.01361335
     atom    2 type  1   force =     0.01525200    0.01525200    0.01361335

     Total force =     0.036071     Total SCF correction =     0.000035


     Computing stress (Cartesian axis) and pressure

          total   stress  (Ry/bohr**3)                   (kbar)     P=     -649.77
  -0.00451316  -0.00529465  -0.00521647         -663.91     -778.87     -767.37
  -0.00529465  -0.00451316  -0.00521647         -778.87     -663.91     -767.37
  -0.00521647  -0.00521647  -0.00422475         -767.37     -767.37     -621.48


     Writing all to output data dir ./diamond_tetragonal_eta0p006.save/ :
     XML data file, charge density, pseudopotentials, collected wavefunctions
 
     init_run     :      0.05s CPU      0.12s WALL (       1 calls)
     electrons    :      0.71s CPU      0.80s WALL (       1 calls)
     forces       :      0.01s CPU      0.01s WALL (       1 calls)
     stress       :      0.03s CPU      0.03s WALL (       1 calls)

     Called by init_run:
     wfcinit      :      0.02s CPU      0.05s WALL (       1 calls)
     potinit      :      0.00s CPU      0.01s WALL (       1 calls)
     hinit0       :      0.02s CPU      0.04s WALL (       1 calls)

     Called by electrons:
     c_bands      :      0.59s CPU      0.65s WALL (      11 calls)
     sum_band     :      0.08s CPU      0.09s WALL (      11 calls)
     v_of_rho     :      0.01s CPU      0.01s WALL (      11 calls)
     newd         :      0.02s CPU      0.02s WALL (      11 calls)
     mix_rho      :      0.01s CPU      0.01s WALL (      11 calls)

     Called by c_bands:
     init_us_2    :      0.01s CPU      0.01s WALL (     600 calls)
     init_us_2:cp :      0.01s CPU      0.01s WALL (     600 calls)
     ccgdiagg     :      0.50s CPU      0.54s WALL (     264 calls)
     wfcrot       :      0.10s CPU      0.14s WALL (     240 calls)

     Called by *cgdiagg:
     h_psi        :      0.36s CPU      0.39s WALL (    3115 calls)
     s_psi        :      0.02s CPU      0.02s WALL (    5990 calls)

     Called by h_psi:
     h_psi:calbec :      0.05s CPU      0.06s WALL (    3115 calls)
     vloc_psi     :      0.27s CPU      0.30s WALL (    3115 calls)
     add_vuspsi   :      0.01s CPU      0.01s WALL (    3115 calls)
     hs_1psi      :      0.30s CPU      0.33s WALL (    2875 calls)
     s_1psi       :      0.06s CPU      0.06s WALL (    2875 calls)

     General routines
     calbec       :      0.08s CPU      0.09s WALL (    6374 calls)
     fft          :      0.01s CPU      0.03s WALL (      73 calls)
     ffts         :      0.00s CPU      0.00s WALL (      22 calls)
     fftw         :      0.25s CPU      0.28s WALL (    8918 calls)
     interpolate  :      0.00s CPU      0.01s WALL (      11 calls)
 
     Parallel routines
 
     PWSCF        :      0.85s CPU      1.23s WALL

 
   This run was terminated on:  20:46: 0  18Oct2025            

=------------------------------------------------------------------------------=
   JOB DONE.
=------------------------------------------------------------------------------=
TACC:  Shutdown complete. Exiting. 
