TACC:  Starting up job 2477120 
TACC:  Starting parallel tasks... 

     Program PWSCF v.7.3 starts on 18Oct2025 at 20:38:18 

     This program is part of the open-source Quantum ESPRESSO suite
     for quantum simulation of materials; please cite
         "P. Giannozzi et al., J. Phys.:Condens. Matter 21 395502 (2009);
         "P. Giannozzi et al., J. Phys.:Condens. Matter 29 465901 (2017);
         "P. Giannozzi et al., J. Chem. Phys. 152 154105 (2020);
          URL http://www.quantum-espresso.org", 
     in publications or presentations arising from this work. More details at
     http://www.quantum-espresso.org/quote

     Parallel version (MPI & OpenMP), running on      10 processor cores
     Number of MPI processes:                10
     Threads/MPI process:                     1

     MPI processes distributed on     1 nodes
     187699 MiB available memory on the printing compute node when the environment starts
 
     Waiting for input...
     Reading input from standard input
Warning: card &CELL ignored
Warning: card  CELL_DYNAMICS = 'BFGS', ignored
Warning: card  PRESS=0.D0, ignored
Warning: card / ignored
     Message from routine read_cards :
     DEPRECATED: no units specified in ATOMIC_POSITIONS card
     Message from routine read_cards :
     ATOMIC_POSITIONS: units set to alat

     Current dimensions of program PWSCF are:
     Max number of different atomic species (ntypx) = 10
     Max number of k-points (npk) =  40000
     Max angular momentum in pseudopotentials (lmaxx) =  4
 
     R & G space division:  proc/nbgrp/npool/nimage =      10
     Subspace diagonalization in iterative solution of the eigenvalue problem:
     a serial algorithm will be used

 
     Parallelization info
     --------------------
     sticks:   dense  smooth     PW     G-vecs:    dense   smooth      PW
     Min         168      67     19                 4591     1178     189
     Max         170      68     20                 4592     1182     192
     Sum        1687     673    199                45911    11791    1917
 
     Using Slab Decomposition
 


     bravais-lattice index     =            2
     lattice parameter (alat)  =       6.7000  a.u.
     unit-cell volume          =      75.1908 (a.u.)^3
     number of atoms/cell      =            2
     number of atomic types    =            1
     number of electrons       =         8.00
     number of Kohn-Sham states=            4
     kinetic-energy cutoff     =     110.0000  Ry
     charge density cutoff     =    1100.0000  Ry
     scf convergence threshold =      1.0E-08
     mixing beta               =       0.7000
     number of iterations used =            8  plain     mixing
     Exchange-correlation= SLA  PZ   NOGX NOGC
                           (   1   1   0   0   0   0   0)

     celldm(1)=   6.700000  celldm(2)=   0.000000  celldm(3)=   0.000000
     celldm(4)=   0.000000  celldm(5)=   0.000000  celldm(6)=   0.000000

     crystal axes: (cart. coord. in units of alat)
               a(1) = (  -0.500000   0.000000   0.500000 )  
               a(2) = (   0.000000   0.500000   0.500000 )  
               a(3) = (  -0.500000   0.500000   0.000000 )  

     reciprocal axes: (cart. coord. in units 2 pi/alat)
               b(1) = ( -1.000000 -1.000000  1.000000 )  
               b(2) = (  1.000000  1.000000  1.000000 )  
               b(3) = ( -1.000000  1.000000 -1.000000 )  


     PseudoPot. # 1 for C  read from file:
     /scratch/11018/zhc/Assisgnment2/Q2/Diamond/Diamond/C_LDA.UPF
     MD5 check sum: 407c1fe918d93b14b177d5600f28733c
     Pseudo is Ultrasoft + core correction, Zval =  4.0
     Generated by new atomic code, or converted to UPF format
     Using radial grid of  721 points,  4 beta functions with: 
                l(1) =   0
                l(2) =   0
                l(3) =   1
                l(4) =   1
     Q(r) pseudized with  8 coefficients,  rinner =    1.100   1.100   1.100


     atomic species   valence    mass     pseudopotential
     C                 4.00    12.01100     C ( 1.00)

     48 Sym. Ops., with inversion, found (24 have fractional translation)



   Cartesian axes

     site n.     atom                  positions (alat units)
         1        C      tau(   1) = (   0.0000000   0.0000000   0.0000000  )
         2        C      tau(   2) = (   0.2500000   0.2500000   0.2500000  )

     number of k points=     8
                       cart. coord. in units 2pi/alat
        k(    1) = (   0.0000000   0.0000000   0.0000000), wk =   0.0312500
        k(    2) = (  -0.2500000   0.2500000  -0.2500000), wk =   0.2500000
        k(    3) = (   0.5000000  -0.5000000   0.5000000), wk =   0.1250000
        k(    4) = (   0.0000000   0.5000000   0.0000000), wk =   0.1875000
        k(    5) = (   0.7500000  -0.2500000   0.7500000), wk =   0.7500000
        k(    6) = (   0.5000000   0.0000000   0.5000000), wk =   0.3750000
        k(    7) = (   0.0000000  -1.0000000   0.0000000), wk =   0.0937500
        k(    8) = (  -0.5000000  -1.0000000   0.0000000), wk =   0.1875000

     Dense  grid:    45911 G-vectors     FFT dimensions: (  50,  50,  50)

     Smooth grid:    11791 G-vectors     FFT dimensions: (  32,  32,  32)

     Estimated max dynamical RAM per process >       7.12 MB

     Estimated total dynamical RAM >      71.21 MB

     Initial potential from superposition of free atoms

     starting charge       7.9999, renormalised to       8.0000
     Starting wfcs are    8 randomized atomic wfcs

     total cpu time spent up to now is        0.2 secs

     Self-consistent Calculation

     iteration #  1     ecut=   110.00 Ry     beta= 0.70
     CG style diagonalization
     ethr =  1.00E-02,  avg # of iterations =  3.0

     total cpu time spent up to now is        0.3 secs

     total energy              =     -23.03102168 Ry
     estimated scf accuracy    <       0.14286435 Ry

     iteration #  2     ecut=   110.00 Ry     beta= 0.70
     CG style diagonalization
     ethr =  1.79E-03,  avg # of iterations =  3.5

     total cpu time spent up to now is        0.3 secs

     total energy              =     -23.04809797 Ry
     estimated scf accuracy    <       0.00148001 Ry

     iteration #  3     ecut=   110.00 Ry     beta= 0.70
     CG style diagonalization
     ethr =  1.85E-05,  avg # of iterations =  4.0

     total cpu time spent up to now is        0.3 secs

     total energy              =     -23.04858492 Ry
     estimated scf accuracy    <       0.00005507 Ry

     iteration #  4     ecut=   110.00 Ry     beta= 0.70
     CG style diagonalization
     ethr =  6.88E-07,  avg # of iterations =  4.0

     total cpu time spent up to now is        0.4 secs

     total energy              =     -23.04860470 Ry
     estimated scf accuracy    <       0.00000294 Ry

     iteration #  5     ecut=   110.00 Ry     beta= 0.70
     CG style diagonalization
     ethr =  3.67E-08,  avg # of iterations =  3.9

     total cpu time spent up to now is        0.4 secs

     total energy              =     -23.04860571 Ry
     estimated scf accuracy    <       0.00000004 Ry

     iteration #  6     ecut=   110.00 Ry     beta= 0.70
     CG style diagonalization
     ethr =  4.63E-10,  avg # of iterations =  4.5

     total cpu time spent up to now is        0.4 secs

     total energy              =     -23.04860574 Ry
     estimated scf accuracy    <       0.00000001 Ry

     iteration #  7     ecut=   110.00 Ry     beta= 0.70
     CG style diagonalization
     ethr =  1.36E-10,  avg # of iterations =  3.8

     total cpu time spent up to now is        0.5 secs

     End of self-consistent calculation

          k = 0.0000 0.0000 0.0000 (  1459 PWs)   bands (ev):

    -8.1164  13.4439  13.4439  13.4439

          k =-0.2500 0.2500-0.2500 (  1453 PWs)   bands (ev):

    -6.3814   6.8195  11.6703  11.6703

          k = 0.5000-0.5000 0.5000 (  1476 PWs)   bands (ev):

    -2.1708  -0.1237  10.6046  10.6046

          k = 0.0000 0.5000 0.0000 (  1475 PWs)   bands (ev):

    -5.8067   9.0214   9.2464   9.2464

          k = 0.7500-0.2500 0.7500 (  1467 PWs)   bands (ev):

    -2.0001   2.6133   6.6468   8.4838

          k = 0.5000 0.0000 0.5000 (  1464 PWs)   bands (ev):

    -3.5878   4.7634   5.7142  10.3848

          k = 0.0000-1.0000 0.0000 (  1476 PWs)   bands (ev):

     0.7047   0.7047   7.0369   7.0369

          k =-0.5000-1.0000 0.0000 (  1448 PWs)   bands (ev):

     1.5702   1.5702   4.9201   4.9201

     highest occupied level (ev):    13.4439

!    total energy              =     -23.04860574 Ry
     estimated scf accuracy    <          4.9E-11 Ry

     The total energy is the sum of the following terms:
     one-electron contribution =       8.14354972 Ry
     hartree contribution      =       1.91481398 Ry
     xc contribution           =      -7.37897878 Ry
     ewald contribution        =     -25.72799066 Ry

     convergence has been achieved in   7 iterations

     Forces acting on atoms (cartesian axes, Ry/au):

     atom    1 type  1   force =     0.00000000    0.00000000    0.00000000
     atom    2 type  1   force =     0.00000000    0.00000000    0.00000000

     Total force =     0.000000     Total SCF correction =     0.000000


     Computing stress (Cartesian axis) and pressure

          total   stress  (Ry/bohr**3)                   (kbar)     P=      -40.74
  -0.00027691   0.00000000   0.00000000          -40.74        0.00        0.00
   0.00000000  -0.00027691  -0.00000000            0.00      -40.74       -0.00
   0.00000000  -0.00000000  -0.00027691            0.00       -0.00      -40.74


     Writing all to output data dir ./DIAMOND_110.save/ :
     XML data file, charge density, pseudopotentials, collected wavefunctions
 
     init_run     :      0.07s CPU      0.14s WALL (       1 calls)
     electrons    :      0.22s CPU      0.26s WALL (       1 calls)
     forces       :      0.01s CPU      0.01s WALL (       1 calls)
     stress       :      0.02s CPU      0.02s WALL (       1 calls)

     Called by init_run:
     wfcinit      :      0.01s CPU      0.03s WALL (       1 calls)
     potinit      :      0.01s CPU      0.01s WALL (       1 calls)
     hinit0       :      0.03s CPU      0.05s WALL (       1 calls)

     Called by electrons:
     c_bands      :      0.14s CPU      0.16s WALL (       7 calls)
     sum_band     :      0.04s CPU      0.04s WALL (       7 calls)
     v_of_rho     :      0.01s CPU      0.01s WALL (       8 calls)
     newd         :      0.02s CPU      0.03s WALL (       8 calls)
     mix_rho      :      0.00s CPU      0.01s WALL (       7 calls)

     Called by c_bands:
     init_us_2    :      0.00s CPU      0.00s WALL (     136 calls)
     init_us_2:cp :      0.00s CPU      0.00s WALL (     136 calls)
     ccgdiagg     :      0.12s CPU      0.13s WALL (      56 calls)
     wfcrot       :      0.03s CPU      0.05s WALL (      56 calls)

     Called by *cgdiagg:
     h_psi        :      0.08s CPU      0.09s WALL (     718 calls)
     s_psi        :      0.00s CPU      0.01s WALL (    1380 calls)

     Called by h_psi:
     h_psi:calbec :      0.01s CPU      0.02s WALL (     718 calls)
     vloc_psi     :      0.06s CPU      0.07s WALL (     718 calls)
     add_vuspsi   :      0.00s CPU      0.00s WALL (     718 calls)
     hs_1psi      :      0.07s CPU      0.08s WALL (     662 calls)
     s_1psi       :      0.01s CPU      0.02s WALL (     662 calls)

     General routines
     calbec       :      0.02s CPU      0.03s WALL (    1476 calls)
     fft          :      0.01s CPU      0.03s WALL (      54 calls)
     ffts         :      0.00s CPU      0.00s WALL (      15 calls)
     fftw         :      0.05s CPU      0.06s WALL (    2060 calls)
     interpolate  :      0.00s CPU      0.01s WALL (       8 calls)
 
     Parallel routines
 
     PWSCF        :      0.37s CPU      0.63s WALL

 
   This run was terminated on:  20:38:19  18Oct2025            

=------------------------------------------------------------------------------=
   JOB DONE.
=------------------------------------------------------------------------------=
TACC:  Shutdown complete. Exiting. 
