TACC:  Starting up job 2560478 
TACC:  Starting parallel tasks... 

     Program PWSCF v.7.3 starts on 17Nov2025 at 20:35:56 

     This program is part of the open-source Quantum ESPRESSO suite
     for quantum simulation of materials; please cite
         "P. Giannozzi et al., J. Phys.:Condens. Matter 21 395502 (2009);
         "P. Giannozzi et al., J. Phys.:Condens. Matter 29 465901 (2017);
         "P. Giannozzi et al., J. Chem. Phys. 152 154105 (2020);
          URL http://www.quantum-espresso.org", 
     in publications or presentations arising from this work. More details at
     http://www.quantum-espresso.org/quote

     Parallel version (MPI & OpenMP), running on      10 processor cores
     Number of MPI processes:                10
     Threads/MPI process:                     1

     MPI processes distributed on     1 nodes
     189528 MiB available memory on the printing compute node when the environment starts
 
     Waiting for input...
     Reading input from standard input
Warning: card &CELL ignored
Warning: card  CELL_DYNAMICS = 'BFGS', ignored
Warning: card  PRESS=0.D0, ignored
Warning: card / ignored

     Current dimensions of program PWSCF are:
     Max number of different atomic species (ntypx) = 10
     Max number of k-points (npk) =  40000
     Max angular momentum in pseudopotentials (lmaxx) =  4
     Message from routine setup:
     using ibrav=0 with symmetry is DISCOURAGED, use correct ibrav instead
 
     R & G space division:  proc/nbgrp/npool/nimage =      10
     Subspace diagonalization in iterative solution of the eigenvalue problem:
     a serial algorithm will be used

 
     Parallelization info
     --------------------
     sticks:   dense  smooth     PW     G-vecs:    dense   smooth      PW
     Min         209      84     25                 7675     1944     323
     Max         210      85     27                 7678     1947     324
     Sum        2093     845    253                76763    19447    3231
 
     Using Slab Decomposition
 


     bravais-lattice index     =            0
     lattice parameter (alat)  =       7.2567  a.u.
     unit-cell volume          =     406.4557 (a.u.)^3
     number of atoms/cell      =            5
     number of atomic types    =            3
     number of electrons       =        44.00
     number of Kohn-Sham states=           22
     kinetic-energy cutoff     =      50.0000  Ry
     charge density cutoff     =     500.0000  Ry
     scf convergence threshold =      1.0E-08
     mixing beta               =       0.7000
     number of iterations used =            8  plain     mixing
     energy convergence thresh.=      1.0E-04
     force convergence thresh. =      1.0E-03
     Exchange-correlation= SLA  PZ   NOGX NOGC
                           (   1   1   0   0   0   0   0)
     nstep                     =           50


     celldm(1)=   7.256730  celldm(2)=   0.000000  celldm(3)=   0.000000
     celldm(4)=   0.000000  celldm(5)=   0.000000  celldm(6)=   0.000000

     crystal axes: (cart. coord. in units of alat)
               a(1) = (   1.000000   0.000000   0.000000 )  
               a(2) = (   0.000000   1.000000   0.000000 )  
               a(3) = (   0.000000   0.000000   1.063629 )  

     reciprocal axes: (cart. coord. in units 2 pi/alat)
               b(1) = (  1.000000  0.000000  0.000000 )  
               b(2) = (  0.000000  1.000000  0.000000 )  
               b(3) = (  0.000000  0.000000  0.940177 )  


     PseudoPot. # 1 for Pb read from file:
     /scratch/11018/zhc/assisgnment3/input_files/Pb_LDA.UPF
     MD5 check sum: 062a37469794d955244864f8fe2e5624
     Pseudo is Ultrasoft + core correction, Zval = 14.0
     Generated by new atomic code, or converted to UPF format
     Using radial grid of  899 points,  6 beta functions with: 
                l(1) =   0
                l(2) =   0
                l(3) =   1
                l(4) =   1
                l(5) =   2
                l(6) =   2
     Q(r) pseudized with  6 coefficients,  rinner =    1.000   1.000   1.000
                                                       1.000   1.000

     PseudoPot. # 2 for Ti read from file:
     /scratch/11018/zhc/assisgnment3/input_files/Ti_LDA.UPF
     MD5 check sum: 0d9f225c038fe889ca2a701dcc8d72cb
     Pseudo is Ultrasoft + core correction, Zval = 12.0
     Generated by new atomic code, or converted to UPF format
     Using radial grid of  851 points,  6 beta functions with: 
                l(1) =   0
                l(2) =   0
                l(3) =   1
                l(4) =   1
                l(5) =   2
                l(6) =   2
     Q(r) pseudized with  6 coefficients,  rinner =    1.000   1.000   1.000
                                                       1.000   1.000

     PseudoPot. # 3 for O  read from file:
     /scratch/11018/zhc/assisgnment3/input_files/O_LDA.UPF
     MD5 check sum: 194b818514d2a7dbb603bb78519a4f40
     Pseudo is Ultrasoft + core correction, Zval =  6.0
     Generated by new atomic code, or converted to UPF format
     Using radial grid of  737 points,  5 beta functions with: 
                l(1) =   0
                l(2) =   0
                l(3) =   1
                l(4) =   1
                l(5) =   2
     Q(r) pseudized with  8 coefficients,  rinner =    0.900   0.900   0.900
                                                       0.900   0.900

     atomic species   valence    mass     pseudopotential
     Pb               14.00   207.20000     Pb( 1.00)
     Ti               12.00    47.88000     Ti( 1.00)
     O                 6.00    16.00000     O ( 1.00)

      8 Sym. Ops. (no inversion) found



   Cartesian axes

     site n.     atom                  positions (alat units)
         1        Pb     tau(   1) = (   0.0000000   0.0000000   1.0691323  )
         2        Ti     tau(   2) = (   0.5000000   0.5000000   0.5738646  )
         3        O      tau(   3) = (   0.5000000   0.5000000   0.1058395  )
         4        O      tau(   4) = (   0.5000000   0.0000000   0.6504455  )
         5        O      tau(   5) = (   0.0000000   0.5000000   0.6504455  )

     number of k points=    30
                       cart. coord. in units 2pi/alat
        k(    1) = (   0.0000000   0.0000000   0.0000000), wk =   0.0138889
        k(    2) = (   0.0000000   0.0000000   0.2350443), wk =   0.0277778
        k(    3) = (   0.0000000   0.0000000  -0.4700886), wk =   0.0138889
        k(    4) = (   0.0000000   0.1666667   0.0000000), wk =   0.0555556
        k(    5) = (   0.0000000   0.1666667   0.2350443), wk =   0.1111111
        k(    6) = (   0.0000000   0.1666667  -0.4700886), wk =   0.0555556
        k(    7) = (   0.0000000   0.3333333   0.0000000), wk =   0.0555556
        k(    8) = (   0.0000000   0.3333333   0.2350443), wk =   0.1111111
        k(    9) = (   0.0000000   0.3333333  -0.4700886), wk =   0.0555556
        k(   10) = (   0.0000000  -0.5000000   0.0000000), wk =   0.0277778
        k(   11) = (   0.0000000  -0.5000000   0.2350443), wk =   0.0555556
        k(   12) = (   0.0000000  -0.5000000  -0.4700886), wk =   0.0277778
        k(   13) = (   0.1666667   0.1666667   0.0000000), wk =   0.0555556
        k(   14) = (   0.1666667   0.1666667   0.2350443), wk =   0.1111111
        k(   15) = (   0.1666667   0.1666667  -0.4700886), wk =   0.0555556
        k(   16) = (   0.1666667   0.3333333   0.0000000), wk =   0.1111111
        k(   17) = (   0.1666667   0.3333333   0.2350443), wk =   0.2222222
        k(   18) = (   0.1666667   0.3333333  -0.4700886), wk =   0.1111111
        k(   19) = (   0.1666667  -0.5000000   0.0000000), wk =   0.0555556
        k(   20) = (   0.1666667  -0.5000000   0.2350443), wk =   0.1111111
        k(   21) = (   0.1666667  -0.5000000  -0.4700886), wk =   0.0555556
        k(   22) = (   0.3333333   0.3333333   0.0000000), wk =   0.0555556
        k(   23) = (   0.3333333   0.3333333   0.2350443), wk =   0.1111111
        k(   24) = (   0.3333333   0.3333333  -0.4700886), wk =   0.0555556
        k(   25) = (   0.3333333  -0.5000000   0.0000000), wk =   0.0555556
        k(   26) = (   0.3333333  -0.5000000   0.2350443), wk =   0.1111111
        k(   27) = (   0.3333333  -0.5000000  -0.4700886), wk =   0.0555556
        k(   28) = (  -0.5000000  -0.5000000   0.0000000), wk =   0.0138889
        k(   29) = (  -0.5000000  -0.5000000   0.2350443), wk =   0.0277778
        k(   30) = (  -0.5000000  -0.5000000  -0.4700886), wk =   0.0138889

     Dense  grid:    76763 G-vectors     FFT dimensions: (  54,  54,  60)

     Smooth grid:    19447 G-vectors     FFT dimensions: (  36,  36,  36)

     Estimated max dynamical RAM per process >      36.54 MB

     Estimated total dynamical RAM >     365.42 MB

     Check: negative core charge=   -0.000004

     Initial potential from superposition of free atoms

     starting charge      42.9982, renormalised to      44.0000

     negative rho (up, down):  1.666E-02 0.000E+00
     Starting wfcs are   31 randomized atomic wfcs

     total cpu time spent up to now is        0.7 secs

     Self-consistent Calculation

     iteration #  1     ecut=    50.00 Ry     beta= 0.70
     CG style diagonalization
     ethr =  1.00E-02,  avg # of iterations =  2.1

     negative rho (up, down):  1.399E-02 0.000E+00

     total cpu time spent up to now is        1.2 secs

     total energy              =    -380.06264090 Ry
     estimated scf accuracy    <       1.02131877 Ry

     iteration #  2     ecut=    50.00 Ry     beta= 0.70
     CG style diagonalization
     ethr =  2.32E-03,  avg # of iterations =  4.8

     negative rho (up, down):  1.450E-02 0.000E+00

     total cpu time spent up to now is        2.2 secs

     total energy              =    -379.76241137 Ry
     estimated scf accuracy    <       3.87777453 Ry

     iteration #  3     ecut=    50.00 Ry     beta= 0.70
     CG style diagonalization
     ethr =  2.32E-03,  avg # of iterations =  4.3

     negative rho (up, down):  1.510E-02 0.000E+00

     total cpu time spent up to now is        3.0 secs

     total energy              =    -380.53614765 Ry
     estimated scf accuracy    <       0.31370225 Ry

     iteration #  4     ecut=    50.00 Ry     beta= 0.70
     CG style diagonalization
     ethr =  7.13E-04,  avg # of iterations =  3.4

     negative rho (up, down):  1.509E-02 0.000E+00

     total cpu time spent up to now is        3.7 secs

     total energy              =    -380.56017872 Ry
     estimated scf accuracy    <       0.04143955 Ry

     iteration #  5     ecut=    50.00 Ry     beta= 0.70
     CG style diagonalization
     ethr =  9.42E-05,  avg # of iterations =  3.8

     negative rho (up, down):  1.509E-02 0.000E+00

     total cpu time spent up to now is        4.5 secs

     total energy              =    -380.57098123 Ry
     estimated scf accuracy    <       0.00848098 Ry

     iteration #  6     ecut=    50.00 Ry     beta= 0.70
     CG style diagonalization
     ethr =  1.93E-05,  avg # of iterations =  3.9

     negative rho (up, down):  1.510E-02 0.000E+00

     total cpu time spent up to now is        5.2 secs

     total energy              =    -380.57339011 Ry
     estimated scf accuracy    <       0.00617597 Ry

     iteration #  7     ecut=    50.00 Ry     beta= 0.70
     CG style diagonalization
     ethr =  1.40E-05,  avg # of iterations =  3.2

     negative rho (up, down):  1.511E-02 0.000E+00

     total cpu time spent up to now is        5.9 secs

     total energy              =    -380.57331576 Ry
     estimated scf accuracy    <       0.00179200 Ry

     iteration #  8     ecut=    50.00 Ry     beta= 0.70
     CG style diagonalization
     ethr =  4.07E-06,  avg # of iterations =  3.6

     negative rho (up, down):  1.514E-02 0.000E+00

     total cpu time spent up to now is        6.6 secs

     total energy              =    -380.57371118 Ry
     estimated scf accuracy    <       0.00001170 Ry

     iteration #  9     ecut=    50.00 Ry     beta= 0.70
     CG style diagonalization
     c_bands:  1 eigenvalues not converged
     ethr =  2.66E-08,  avg # of iterations =  7.2

     negative rho (up, down):  1.517E-02 0.000E+00

     total cpu time spent up to now is        8.0 secs

     total energy              =    -380.57377218 Ry
     estimated scf accuracy    <       0.00003096 Ry

     iteration # 10     ecut=    50.00 Ry     beta= 0.70
     CG style diagonalization
     ethr =  2.66E-08,  avg # of iterations =  3.4

     negative rho (up, down):  1.527E-02 0.000E+00

     total cpu time spent up to now is        8.7 secs

     total energy              =    -380.57376697 Ry
     estimated scf accuracy    <       0.00001829 Ry

     iteration # 11     ecut=    50.00 Ry     beta= 0.70
     CG style diagonalization
     ethr =  2.66E-08,  avg # of iterations =  3.8

     negative rho (up, down):  1.527E-02 0.000E+00

     total cpu time spent up to now is        9.4 secs

     total energy              =    -380.57377085 Ry
     estimated scf accuracy    <       0.00000065 Ry

     iteration # 12     ecut=    50.00 Ry     beta= 0.70
     CG style diagonalization
     ethr =  1.49E-09,  avg # of iterations =  7.0

     negative rho (up, down):  1.527E-02 0.000E+00

     total cpu time spent up to now is       10.8 secs

     total energy              =    -380.57377226 Ry
     estimated scf accuracy    <       0.00000010 Ry

     iteration # 13     ecut=    50.00 Ry     beta= 0.70
     CG style diagonalization
     ethr =  2.28E-10,  avg # of iterations =  7.4

     negative rho (up, down):  1.529E-02 0.000E+00

     total cpu time spent up to now is       12.2 secs

     total energy              =    -380.57377253 Ry
     estimated scf accuracy    <       0.00000003 Ry

     iteration # 14     ecut=    50.00 Ry     beta= 0.70
     CG style diagonalization
     ethr =  6.35E-11,  avg # of iterations =  5.8

     negative rho (up, down):  1.528E-02 0.000E+00

     total cpu time spent up to now is       13.4 secs

     total energy              =    -380.57377256 Ry
     estimated scf accuracy    <       0.00000001 Ry

     iteration # 15     ecut=    50.00 Ry     beta= 0.70
     CG style diagonalization
     ethr =  2.96E-11,  avg # of iterations =  4.7

     negative rho (up, down):  1.528E-02 0.000E+00

     total cpu time spent up to now is       14.3 secs

     End of self-consistent calculation

          k = 0.0000 0.0000 0.0000 (  2437 PWs)   bands (ev):

   -45.1770 -21.8432 -21.7781 -21.7781  -7.1773  -6.0242  -5.7484  -4.4094
    -4.4094  -4.3658  -4.2389  -4.1564   4.8174   6.7563   6.7563   7.0734
     8.7185   8.7185   8.9212   9.2879   9.4558   9.4558

          k = 0.0000 0.0000 0.2350 (  2453 PWs)   bands (ev):

   -45.1767 -21.8644 -21.7773 -21.7773  -6.9806  -5.9660  -5.6863  -4.4258
    -4.4258  -4.3644  -4.2314  -4.2297   3.9679   6.8089   6.8089   7.3267
     8.4782   8.4782   8.8461   9.3550   9.5696   9.5696

          k = 0.0000 0.0000-0.4701 (  2402 PWs)   bands (ev):

   -45.1764 -21.8855 -21.7764 -21.7764  -6.7662  -5.9024  -5.6320  -4.4421
    -4.4421  -4.3630  -4.3082  -4.2259   3.4344   6.6797   6.8433   6.8433
     8.3260   8.3260   8.7745   9.6424   9.6424  10.5982

          k = 0.0000 0.1667 0.0000 (  2423 PWs)   bands (ev):

   -45.1766 -21.8424 -21.7994 -21.7772  -7.0296  -5.9892  -5.7150  -4.4340
    -4.4078  -4.3812  -4.2438  -4.1416   4.3427   6.7767   6.8645   7.1089
     8.6791   8.7492   8.9498   9.0686   9.1668   9.5596

          k = 0.0000 0.1667 0.2350 (  2424 PWs)   bands (ev):

   -45.1763 -21.8634 -21.7985 -21.7763  -6.8494  -5.9460  -5.6468  -4.4331
    -4.4248  -4.3805  -4.2423  -4.1775   3.7363   6.5886   6.9288   7.3851
     8.1546   8.4640   8.7744   9.1563   9.2345   9.9153

          k = 0.0000 0.1667-0.4701 (  2430 PWs)   bands (ev):

   -45.1760 -21.8843 -21.7975 -21.7755  -6.6620  -5.8973  -5.5777  -4.4416
    -4.4301  -4.3797  -4.2529  -4.2075   3.2877   6.3068   6.9699   7.0586
     7.9542   8.3178   8.8364   9.2273   9.3140  10.5344

          k = 0.0000 0.3333 0.0000 (  2434 PWs)   bands (ev):

   -45.1758 -21.8441 -21.8381 -21.7754  -6.7111  -5.9110  -5.6635  -4.4709
    -4.4120  -4.4043  -4.2439  -4.1404   3.7213   6.4031   7.0472   7.1390
     8.3124   8.3739   8.7908   8.8629   9.2812  10.2427

          k = 0.0000 0.3333 0.2350 (  2417 PWs)   bands (ev):

   -45.1755 -21.8614 -21.8404 -21.7745  -6.5974  -5.8697  -5.5726  -4.4400
    -4.4227  -4.4122  -4.2396  -4.1138   3.3514   6.2846   6.9903   7.2376
     7.7775   8.2035   8.3516   8.9196   9.3970  10.3154

          k = 0.0000 0.3333-0.4701 (  2424 PWs)   bands (ev):

   -45.1752 -21.8818 -21.8394 -21.7736  -6.5114  -5.8057  -5.4557  -4.4407
    -4.4127  -4.4018  -4.2762  -4.0612   3.0311   6.0014   6.7625   7.2880
     7.6725   7.8248   8.1386   8.9512   9.8965  10.0937

          k = 0.0000-0.5000 0.0000 (  2420 PWs)   bands (ev):

   -45.1754 -21.8630 -21.8392 -21.7745  -6.5378  -5.8494  -5.6655  -4.4869
    -4.4271  -4.4027  -4.2234  -4.1667   3.5034   6.0148   7.3226   7.3711
     7.7926   7.9967   8.7122   8.9086   9.3098  11.0569

          k = 0.0000-0.5000 0.2350 (  2424 PWs)   bands (ev):

   -45.1751 -21.8617 -21.8598 -21.7736  -6.4895  -5.7765  -5.5606  -4.4527
    -4.4281  -4.4215  -4.2089  -4.1073   3.2006   5.9891   7.0335   7.2762
     7.5687   7.8064   8.4561   8.9078   9.3785  10.5530

          k = 0.0000-0.5000-0.4701 (  2436 PWs)   bands (ev):

   -45.1748 -21.8802 -21.8604 -21.7727  -6.4749  -5.6984  -5.3979  -4.4402
    -4.4291  -4.4112  -4.2626  -4.0004   2.9291   5.8407   6.4612   7.3475
     7.6350   7.7820   7.8415   8.9069   9.8080  10.1704

          k = 0.1667 0.1667 0.0000 (  2427 PWs)   bands (ev):

   -45.1762 -21.8416 -21.7985 -21.7982  -6.8837  -5.9534  -5.7053  -4.4385
    -4.4247  -4.3860  -4.2199  -4.1283   4.0201   6.7238   6.9360   7.1735
     8.1865   8.3073   9.0243   9.0994   9.3995   9.8091

          k = 0.1667 0.1667 0.2350 (  2424 PWs)   bands (ev):

   -45.1759 -21.8624 -21.7976 -21.7974  -6.7146  -5.9294  -5.6367  -4.4422
    -4.4189  -4.3803  -4.2120  -4.1426   3.6150   6.5053   6.6114   7.3310
     8.0255   8.0577   8.8746   9.2139   9.4733   9.8953

          k = 0.1667 0.1667-0.4701 (  2418 PWs)   bands (ev):

   -45.1756 -21.8831 -21.7966 -21.7965  -6.5451  -5.9052  -5.5584  -4.4547
    -4.3965  -4.3608  -4.2195  -4.1624   3.2535   6.2954   6.3869   7.0229
     7.9486   7.9707   8.7918   9.2952   9.5327  10.2479

          k = 0.1667 0.3333 0.0000 (  2415 PWs)   bands (ev):

   -45.1754 -21.8431 -21.8371 -21.7964  -6.5714  -5.8781  -5.7016  -4.4630
    -4.4127  -4.3702  -4.1970  -4.1284   3.5151   6.4027   6.9577   7.2313
     7.6386   8.2446   8.5268   9.2282   9.4096  10.3236

          k = 0.1667 0.3333 0.2350 (  2424 PWs)   bands (ev):

   -45.1751 -21.8604 -21.8393 -21.7955  -6.4549  -5.8691  -5.6234  -4.4398
    -4.4128  -4.3467  -4.1803  -4.0870   3.3604   6.2351   6.3744   6.9377
     7.3969   8.0860   8.8969   9.1889   9.5064  10.0281

          k = 0.1667 0.3333-0.4701 (  2424 PWs)   bands (ev):

   -45.1748 -21.8807 -21.8384 -21.7946  -6.3713  -5.8471  -5.5113  -4.4365
    -4.3880  -4.3085  -4.1946  -4.0335   3.1661   5.9117   6.3141   6.6719
     6.8706   7.9403   9.0527   9.2330   9.5265   9.9401

          k = 0.1667-0.5000 0.0000 (  2412 PWs)   bands (ev):

   -45.1750 -21.8618 -21.8383 -21.7954  -6.4026  -5.8197  -5.7280  -4.4658
    -4.4044  -4.3468  -4.1832  -4.1567   3.3182   6.0340   7.0694   7.2993
     7.5736   7.9421   8.4246   9.2656   9.3968  10.6410

          k = 0.1667-0.5000 0.2350 (  2416 PWs)   bands (ev):

   -45.1747 -21.8606 -21.8588 -21.7946  -6.3453  -5.7864  -5.6430  -4.4381
    -4.3991  -4.3213  -4.1635  -4.0774   3.2443   5.9949   6.2678   6.6808
     7.3674   8.2345   8.6487   9.2022   9.4982  10.0064

          k = 0.1667-0.5000-0.4701 (  2420 PWs)   bands (ev):

   -45.1744 -21.8792 -21.8593 -21.7937  -6.3336  -5.7542  -5.4933  -4.4313
    -4.3581  -4.2984  -4.1824  -3.9728   3.1259   5.7970   6.1371   6.2868
     6.7745   8.0526   8.8962   9.1719   9.1819  10.1586

          k = 0.3333 0.3333 0.0000 (  2420 PWs)   bands (ev):

   -45.1746 -21.8421 -21.8382 -21.8338  -6.2938  -5.8113  -5.7609  -4.4413
    -4.3918  -4.2981  -4.1281  -4.1086   3.1221   6.3960   6.4747   7.3445
     7.4944   7.6784   8.3113   9.0580   9.9035  10.0235

          k = 0.3333 0.3333 0.2350 (  2425 PWs)   bands (ev):

   -45.1743 -21.8585 -21.8373 -21.8370  -6.1710  -5.8585  -5.7156  -4.4014
    -4.3841  -4.2367  -4.0663  -4.0502   3.2994   5.9451   6.0215   6.4005
     7.0346   7.5728   8.9455   9.4579   9.5303   9.9181

          k = 0.3333 0.3333-0.4701 (  2432 PWs)   bands (ev):

   -45.1740 -21.8785 -21.8364 -21.8363  -6.1068  -5.9024  -5.6007  -4.3770
    -4.3615  -4.1700  -4.0231  -3.9743   3.4514   5.5621   5.5679   6.1790
     6.8312   6.9430   8.2420   9.8641   9.8831  10.0363

          k = 0.3333-0.5000 0.0000 (  2454 PWs)   bands (ev):

   -45.1742 -21.8594 -21.8397 -21.8338  -6.1672  -5.7832  -5.7656  -4.4324
    -4.3668  -4.2337  -4.1592  -4.0711   2.9399   6.0331   6.5195   7.1669
     7.7175   7.7987   7.9356   9.0242   9.6774  10.1033

          k = 0.3333-0.5000 0.2350 (  2436 PWs)   bands (ev):

   -45.1739 -21.8583 -21.8570 -21.8361  -6.0504  -5.8107  -5.7753  -4.3918
    -4.3547  -4.1379  -4.0791  -4.0065   3.2303   5.8421   5.9842   6.0585
     6.8163   7.6547   8.4620   9.4556   9.4900  10.0783

          k = 0.3333-0.5000-0.4701 (  2424 PWs)   bands (ev):

   -45.1736 -21.8771 -21.8572 -21.8353  -6.0446  -5.8529  -5.6403  -4.3611
    -4.3347  -4.0698  -3.9975  -3.9131   3.5929   5.2806   5.4928   5.9054
     6.5770   6.9940   7.4439   9.9629  10.0510  10.1817

          k =-0.5000-0.5000 0.0000 (  2480 PWs)   bands (ev):

   -45.1738 -21.8581 -21.8581 -21.8350  -6.1061  -5.7415  -5.7415  -4.4209
    -4.3169  -4.1810  -4.1810  -4.0131   2.7519   5.8851   6.3407   7.3965
     7.3965   7.9216   7.9216   8.7924   9.1505  10.3724

          k =-0.5000-0.5000 0.2350 (  2416 PWs)   bands (ev):

   -45.1735 -21.8571 -21.8571 -21.8555  -5.9067  -5.8246  -5.8246  -4.3790
    -4.3148  -4.0390  -4.0390  -3.9798   3.1570   5.8429   5.9789   5.9789
     6.3467   7.6000   7.7885   9.4759   9.4759  10.3559

          k =-0.5000-0.5000-0.4701 (  2416 PWs)   bands (ev):

   -45.1732 -21.8758 -21.8562 -21.8562  -5.8974  -5.8974  -5.7016  -4.3371
    -4.3129  -3.9362  -3.9049  -3.9049   3.8075   5.3290   5.3290   5.7368
     6.3527   6.4110   6.7283  10.1942  10.1942  10.3394

     highest occupied level (ev):    11.0569

!    total energy              =    -380.57377257 Ry
     estimated scf accuracy    <          2.1E-10 Ry

     The total energy is the sum of the following terms:
     one-electron contribution =     -79.80482283 Ry
     hartree contribution      =      69.98040708 Ry
     xc contribution           =    -102.67788118 Ry
     ewald contribution        =    -268.07147564 Ry

     convergence has been achieved in  15 iterations

     negative rho (up, down):  1.528E-02 0.000E+00

     Forces acting on atoms (cartesian axes, Ry/au):

     atom    1 type  1   force =     0.00000000    0.00000000    0.00061744
     atom    2 type  2   force =     0.00000000    0.00000000   -0.00949812
     atom    3 type  3   force =     0.00000000    0.00000000    0.00793625
     atom    4 type  3   force =     0.00000000    0.00000000    0.00047222
     atom    5 type  3   force =     0.00000000    0.00000000    0.00047222

     Total force =     0.012411     Total SCF correction =     0.000023


     Computing stress (Cartesian axis) and pressure


     negative rho (up, down):  1.528E-02 0.000E+00
          total   stress  (Ry/bohr**3)                   (kbar)     P=        0.62
   0.00005665   0.00000000   0.00000000            8.33        0.00        0.00
   0.00000000   0.00005665   0.00000000            0.00        8.33        0.00
   0.00000000   0.00000000  -0.00010061            0.00        0.00      -14.80


     BFGS Geometry Optimization
     Energy error            =      0.0E+00 Ry
     Gradient error          =      9.5E-03 Ry/Bohr

     number of scf cycles    =   1
     number of bfgs steps    =   0

     energy             new  =    -380.5737725662 Ry

     new trust radius        =       0.0094981246 bohr
     new conv_thr            =       0.0000000100 Ry


ATOMIC_POSITIONS (crystal)
Pb               0.0000000000        0.0000000000        1.0052538238
Ti               0.5000000000        0.5000000000        0.5383038586
O                0.5000000000        0.5000000000        0.1005361173
O                0.5000000000        0.0000000000        0.6115952441
O                0.0000000000        0.5000000000        0.6115952441



     Writing config-only to output data dir ./pto_tetragonal_etam0p004.save/ :
     XML data file
     NEW-OLD atomic charge density approx. for the potential

     Check: negative core charge=   -0.000004

     negative rho (up, down):  1.527E-02 0.000E+00

     total cpu time spent up to now is       15.4 secs

     Self-consistent Calculation

     iteration #  1     ecut=    50.00 Ry     beta= 0.70
     CG style diagonalization
     c_bands:  1 eigenvalues not converged
     c_bands:  1 eigenvalues not converged
     ethr =  1.00E-06,  avg # of iterations =  5.1

     negative rho (up, down):  1.527E-02 0.000E+00

     total cpu time spent up to now is       16.6 secs

     total energy              =    -380.57383922 Ry
     estimated scf accuracy    <       0.00006768 Ry

     iteration #  2     ecut=    50.00 Ry     beta= 0.70
     CG style diagonalization
     ethr =  1.54E-07,  avg # of iterations =  4.7

     negative rho (up, down):  1.527E-02 0.000E+00

     total cpu time spent up to now is       17.5 secs

     total energy              =    -380.57384186 Ry
     estimated scf accuracy    <       0.00017850 Ry

     iteration #  3     ecut=    50.00 Ry     beta= 0.70
     CG style diagonalization
     ethr =  1.54E-07,  avg # of iterations =  4.2

     negative rho (up, down):  1.527E-02 0.000E+00

     total cpu time spent up to now is       18.3 secs

     total energy              =    -380.57387633 Ry
     estimated scf accuracy    <       0.00001553 Ry

     iteration #  4     ecut=    50.00 Ry     beta= 0.70
     CG style diagonalization
     ethr =  3.53E-08,  avg # of iterations =  3.6

     negative rho (up, down):  1.527E-02 0.000E+00

     total cpu time spent up to now is       19.0 secs

     total energy              =    -380.57388022 Ry
     estimated scf accuracy    <       0.00000161 Ry

     iteration #  5     ecut=    50.00 Ry     beta= 0.70
     CG style diagonalization
     ethr =  3.67E-09,  avg # of iterations =  4.2

     negative rho (up, down):  1.527E-02 0.000E+00

     total cpu time spent up to now is       19.9 secs

     total energy              =    -380.57388108 Ry
     estimated scf accuracy    <       0.00000022 Ry

     iteration #  6     ecut=    50.00 Ry     beta= 0.70
     CG style diagonalization
     ethr =  4.97E-10,  avg # of iterations =  4.4

     negative rho (up, down):  1.527E-02 0.000E+00

     total cpu time spent up to now is       20.7 secs

     total energy              =    -380.57388118 Ry
     estimated scf accuracy    <       0.00000012 Ry

     iteration #  7     ecut=    50.00 Ry     beta= 0.70
     CG style diagonalization
     ethr =  2.66E-10,  avg # of iterations =  3.7

     negative rho (up, down):  1.527E-02 0.000E+00

     total cpu time spent up to now is       21.4 secs

     total energy              =    -380.57388119 Ry
     estimated scf accuracy    <       0.00000002 Ry

     iteration #  8     ecut=    50.00 Ry     beta= 0.70
     CG style diagonalization
     ethr =  5.01E-11,  avg # of iterations =  4.8

     negative rho (up, down):  1.527E-02 0.000E+00

     total cpu time spent up to now is       22.4 secs

     total energy              =    -380.57388121 Ry
     estimated scf accuracy    <       0.00000002 Ry

     iteration #  9     ecut=    50.00 Ry     beta= 0.70
     CG style diagonalization
     ethr =  4.20E-11,  avg # of iterations =  3.6

     negative rho (up, down):  1.527E-02 0.000E+00

     total cpu time spent up to now is       23.1 secs

     End of self-consistent calculation

          k = 0.0000 0.0000 0.0000 (  2437 PWs)   bands (ev):

   -45.1573 -21.8367 -21.7573 -21.7573  -7.1721  -6.0144  -5.7547  -4.4122
    -4.4122  -4.3699  -4.2431  -4.1578   4.8137   6.7601   6.7601   7.0825
     8.6771   8.6771   8.9223   9.2563   9.4646   9.4646

          k = 0.0000 0.0000 0.2350 (  2453 PWs)   bands (ev):

   -45.1570 -21.8580 -21.7565 -21.7565  -6.9729  -5.9557  -5.6946  -4.4286
    -4.4286  -4.3685  -4.2359  -4.2316   3.9587   6.8054   6.8054   7.3324
     8.4544   8.4544   8.8469   9.3448   9.5768   9.5768

          k = 0.0000 0.0000-0.4701 (  2402 PWs)   bands (ev):

   -45.1567 -21.8792 -21.7557 -21.7557  -6.7550  -5.8916  -5.6431  -4.4448
    -4.4448  -4.3672  -4.3107  -4.2308   3.4200   6.6860   6.8306   6.8306
     8.3178   8.3178   8.7751   9.6500   9.6500  10.6018

          k = 0.0000 0.1667 0.0000 (  2423 PWs)   bands (ev):

   -45.1569 -21.8359 -21.7786 -21.7564  -7.0248  -5.9799  -5.7216  -4.4370
    -4.4105  -4.3853  -4.2475  -4.1431   4.3407   6.7812   6.8692   7.1096
     8.6658   8.7087   8.9432   9.0760   9.1575   9.5472

          k = 0.0000 0.1667 0.2350 (  2424 PWs)   bands (ev):

   -45.1566 -21.8570 -21.7777 -21.7556  -6.8420  -5.9365  -5.6554  -4.4361
    -4.4275  -4.3846  -4.2463  -4.1792   3.7297   6.5849   6.9264   7.3891
     8.1452   8.4421   8.7778   9.1465   9.2392   9.9155

          k = 0.0000 0.1667-0.4701 (  2430 PWs)   bands (ev):

   -45.1563 -21.8779 -21.7768 -21.7547  -6.6513  -5.8875  -5.5891  -4.4443
    -4.4332  -4.3838  -4.2569  -4.2096   3.2768   6.2975   6.9581   7.0656
     7.9521   8.3101   8.8457   9.2173   9.3210  10.5398

          k = 0.0000 0.3333 0.0000 (  2434 PWs)   bands (ev):

   -45.1561 -21.8344 -21.8206 -21.7546  -6.7063  -5.9036  -5.6707  -4.4739
    -4.4161  -4.4070  -4.2468  -4.1423   3.7198   6.4114   7.0480   7.1464
     8.3177   8.3807   8.7929   8.8199   9.2612  10.2320

          k = 0.0000 0.3333 0.2350 (  2417 PWs)   bands (ev):

   -45.1558 -21.8548 -21.8197 -21.7537  -6.5898  -5.8629  -5.5821  -4.4430
    -4.4254  -4.4163  -4.2427  -4.1152   3.3482   6.2876   6.9915   7.2387
     7.7817   8.1964   8.3520   8.9056   9.3912  10.3088

          k = 0.0000 0.3333-0.4701 (  2424 PWs)   bands (ev):

   -45.1555 -21.8754 -21.8186 -21.7528  -6.5014  -5.7985  -5.4679  -4.4434
    -4.4168  -4.4049  -4.2797  -4.0622   3.0263   5.9920   6.7738   7.2782
     7.6755   7.8352   8.1371   8.9496   9.8767  10.1002

          k = 0.0000-0.5000 0.0000 (  2420 PWs)   bands (ev):

   -45.1556 -21.8422 -21.8327 -21.7537  -6.5323  -5.8432  -5.6736  -4.4897
    -4.4312  -4.4054  -4.2255  -4.1694   3.5012   6.0303   7.3190   7.3825
     7.8028   8.0007   8.7143   8.8639   9.2893  11.0469

          k = 0.0000-0.5000 0.2350 (  2424 PWs)   bands (ev):

   -45.1554 -21.8534 -21.8409 -21.7528  -6.4812  -5.7702  -5.5721  -4.4554
    -4.4322  -4.4242  -4.2117  -4.1088   3.1983   6.0014   7.0326   7.2775
     7.5808   7.7952   8.4570   8.8863   9.3781  10.5398

          k = 0.0000-0.5000-0.4701 (  2436 PWs)   bands (ev):

   -45.1551 -21.8739 -21.8395 -21.7519  -6.4652  -5.6920  -5.4115  -4.4429
    -4.4332  -4.4139  -4.2657  -4.0012   2.9269   5.8398   6.4658   7.3524
     7.6157   7.7951   7.8525   8.8995   9.8114  10.1491

          k = 0.1667 0.1667 0.0000 (  2427 PWs)   bands (ev):

   -45.1565 -21.8350 -21.7778 -21.7775  -6.8795  -5.9444  -5.7119  -4.4414
    -4.4277  -4.3898  -4.2237  -4.1299   4.0194   6.7305   6.9417   7.1685
     8.1577   8.3108   9.0271   9.0803   9.4093   9.7831

          k = 0.1667 0.1667 0.2350 (  2424 PWs)   bands (ev):

   -45.1562 -21.8559 -21.7769 -21.7766  -6.7078  -5.9203  -5.6456  -4.4455
    -4.4220  -4.3839  -4.2160  -4.1441   3.6101   6.5017   6.6110   7.3297
     8.0202   8.0625   8.8535   9.2126   9.4775   9.8936

          k = 0.1667 0.1667-0.4701 (  2418 PWs)   bands (ev):

   -45.1559 -21.8768 -21.7759 -21.7757  -6.5351  -5.8959  -5.5702  -4.4581
    -4.4003  -4.3634  -4.2240  -4.1638   3.2445   6.2857   6.3804   7.0333
     7.9485   7.9767   8.7768   9.2952   9.5340  10.2528

          k = 0.1667 0.3333 0.0000 (  2415 PWs)   bands (ev):

   -45.1556 -21.8335 -21.8194 -21.7757  -6.5683  -5.8707  -5.7075  -4.4658
    -4.4157  -4.3741  -4.2006  -4.1302   3.5154   6.4133   6.9547   7.2395
     7.6396   8.2164   8.5336   9.2224   9.4083  10.3085

          k = 0.1667 0.3333 0.2350 (  2424 PWs)   bands (ev):

   -45.1554 -21.8538 -21.8187 -21.7748  -6.4485  -5.8622  -5.6323  -4.4430
    -4.4157  -4.3508  -4.1837  -4.0885   3.3585   6.2368   6.3754   6.9414
     7.3960   8.0881   8.8957   9.1793   9.5031  10.0208

          k = 0.1667 0.3333-0.4701 (  2424 PWs)   bands (ev):

   -45.1551 -21.8743 -21.8176 -21.7738  -6.3623  -5.8400  -5.5231  -4.4399
    -4.3913  -4.3122  -4.1981  -4.0345   3.1620   5.9025   6.3179   6.6732
     6.8817   7.9488   9.0360   9.2400   9.5256   9.9300

          k = 0.1667-0.5000 0.0000 (  2412 PWs)   bands (ev):

   -45.1552 -21.8410 -21.8318 -21.7747  -6.3994  -5.8135  -5.7337  -4.4685
    -4.4074  -4.3511  -4.1860  -4.1592   3.3182   6.0496   7.0608   7.3076
     7.5859   7.9508   8.3852   9.2685   9.3873  10.6346

          k = 0.1667-0.5000 0.2350 (  2416 PWs)   bands (ev):

   -45.1549 -21.8524 -21.8397 -21.7738  -6.3383  -5.7802  -5.6530  -4.4412
    -4.4018  -4.3264  -4.1658  -4.0791   3.2435   6.0066   6.2713   6.6780
     7.3661   8.2347   8.6551   9.1852   9.5021   9.9922

          k = 0.1667-0.5000-0.4701 (  2420 PWs)   bands (ev):

   -45.1547 -21.8728 -21.8385 -21.7729  -6.3248  -5.7481  -5.5053  -4.4346
    -4.3606  -4.3041  -4.1846  -3.9738   3.1244   5.7926   6.1447   6.2926
     6.7753   8.0636   8.8962   9.1550   9.1875  10.1450

          k = 0.3333 0.3333 0.0000 (  2420 PWs)   bands (ev):

   -45.1548 -21.8318 -21.8174 -21.8169  -6.2955  -5.8042  -5.7630  -4.4438
    -4.3952  -4.3014  -4.1298  -4.1137   3.1246   6.4028   6.4913   7.3362
     7.4977   7.6481   8.3311   9.0533   9.9104  10.0151

          k = 0.3333 0.3333 0.2350 (  2425 PWs)   bands (ev):

   -45.1545 -21.8517 -21.8165 -21.8165  -6.1677  -5.8517  -5.7228  -4.4040
    -4.3878  -4.2406  -4.0709  -4.0515   3.3009   5.9441   6.0209   6.4075
     7.0462   7.5732   8.9454   9.4532   9.5143   9.9239

          k = 0.3333 0.3333-0.4701 (  2432 PWs)   bands (ev):

   -45.1543 -21.8720 -21.8156 -21.8156  -6.0998  -5.8959  -5.6115  -4.3808
    -4.3642  -4.1750  -4.0269  -3.9750   3.4504   5.5574   5.5723   6.1804
     6.8368   6.9618   8.2383   9.8487   9.8912  10.0261

          k = 0.3333-0.5000 0.0000 (  2454 PWs)   bands (ev):

   -45.1544 -21.8386 -21.8302 -21.8160  -6.1728  -5.7812  -5.7594  -4.4349
    -4.3703  -4.2364  -4.1612  -4.0768   2.9430   6.0464   6.5365   7.1501
     7.6930   7.8107   7.9417   9.0235   9.6754  10.1121

          k = 0.3333-0.5000 0.2350 (  2436 PWs)   bands (ev):

   -45.1541 -21.8504 -21.8375 -21.8154  -6.0483  -5.8049  -5.7812  -4.3944
    -4.3583  -4.1426  -4.0806  -4.0105   3.2335   5.8404   5.9902   6.0633
     6.8282   7.6541   8.4636   9.4460   9.4792  10.0861

          k = 0.3333-0.5000-0.4701 (  2424 PWs)   bands (ev):

   -45.1538 -21.8707 -21.8364 -21.8145  -6.0381  -5.8475  -5.6505  -4.3644
    -4.3378  -4.0770  -3.9986  -3.9152   3.5954   5.2839   5.4863   5.9151
     6.5875   7.0059   7.4392   9.9490  10.0606  10.1698

          k =-0.5000-0.5000 0.0000 (  2480 PWs)   bands (ev):

   -45.1540 -21.8373 -21.8373 -21.8285  -6.1167  -5.7354  -5.7354  -4.4234
    -4.3208  -4.1825  -4.1825  -4.0206   2.7560   5.8966   6.3645   7.3744
     7.3744   7.9312   7.9312   8.7901   9.1570  10.3818

          k =-0.5000-0.5000 0.2350 (  2416 PWs)   bands (ev):

   -45.1537 -21.8490 -21.8363 -21.8363  -5.9169  -5.8190  -5.8190  -4.3816
    -4.3188  -4.0401  -4.0401  -3.9881   3.1622   5.8541   5.9731   5.9731
     6.3706   7.5989   7.7902   9.4676   9.4676  10.3654

          k =-0.5000-0.5000-0.4701 (  2416 PWs)   bands (ev):

   -45.1534 -21.8694 -21.8354 -21.8354  -5.8922  -5.8922  -5.7112  -4.3397
    -4.3168  -3.9456  -3.9057  -3.9057   3.8157   5.3250   5.3250   5.7468
     6.3766   6.4080   6.7292  10.1828  10.1828  10.3489

     highest occupied level (ev):    11.0469

!    total energy              =    -380.57388121 Ry
     estimated scf accuracy    <          1.9E-09 Ry

     The total energy is the sum of the following terms:
     one-electron contribution =     -79.84888680 Ry
     hartree contribution      =      70.00809040 Ry
     xc contribution           =    -102.68195708 Ry
     ewald contribution        =    -268.05112773 Ry

     convergence has been achieved in   9 iterations

     negative rho (up, down):  1.527E-02 0.000E+00

     Forces acting on atoms (cartesian axes, Ry/au):

     atom    1 type  1   force =     0.00000000    0.00000000   -0.00061222
     atom    2 type  2   force =     0.00000000    0.00000000   -0.00409304
     atom    3 type  3   force =     0.00000000    0.00000000    0.00296524
     atom    4 type  3   force =     0.00000000    0.00000000    0.00087001
     atom    5 type  3   force =     0.00000000    0.00000000    0.00087001

     Total force =     0.005238     Total SCF correction =     0.000064


     Computing stress (Cartesian axis) and pressure


     negative rho (up, down):  1.527E-02 0.000E+00
          total   stress  (Ry/bohr**3)                   (kbar)     P=        2.92
   0.00005661   0.00000000   0.00000000            8.33        0.00        0.00
   0.00000000   0.00005661   0.00000000            0.00        8.33        0.00
   0.00000000   0.00000000  -0.00005359            0.00        0.00       -7.88

     Energy error            =      1.1E-04 Ry
     Gradient error          =      4.1E-03 Ry/Bohr

     number of scf cycles    =   2
     number of bfgs steps    =   1

     energy             old  =    -380.5737725662 Ry
     energy             new  =    -380.5738812066 Ry

     CASE: energy            _new < energy            _old

     new trust radius        =       0.0072290566 bohr
     new conv_thr            =       0.0000000001 Ry


ATOMIC_POSITIONS (crystal)
Pb               0.0000000000        0.0000000000        1.0051224720
Ti               0.5000000000        0.5000000000        0.5373672668
O                0.5000000000        0.5000000000        0.1012191642
O                0.5000000000        0.0000000000        0.6117876924
O                0.0000000000        0.5000000000        0.6117876924



     Writing config-only to output data dir ./pto_tetragonal_etam0p004.save/ :
     XML data file
     NEW-OLD atomic charge density approx. for the potential

     Check: negative core charge=   -0.000004

     negative rho (up, down):  1.525E-02 0.000E+00

     total cpu time spent up to now is       24.3 secs

     Self-consistent Calculation

     iteration #  1     ecut=    50.00 Ry     beta= 0.70
     CG style diagonalization
     ethr =  1.00E-06,  avg # of iterations =  4.4

     Threshold (ethr) on eigenvalues was too large:
     Diagonalizing with lowered threshold

     CG style diagonalization
     c_bands:  1 eigenvalues not converged
     c_bands:  1 eigenvalues not converged
     c_bands:  1 eigenvalues not converged
     c_bands:  2 eigenvalues not converged
     ethr =  7.06E-08,  avg # of iterations =  4.5

     negative rho (up, down):  1.524E-02 0.000E+00

     total cpu time spent up to now is       26.2 secs

     total energy              =    -380.57389319 Ry
     estimated scf accuracy    <       0.00002959 Ry

     iteration #  2     ecut=    50.00 Ry     beta= 0.70
     CG style diagonalization
     ethr =  6.72E-08,  avg # of iterations =  4.6

     negative rho (up, down):  1.524E-02 0.000E+00

     total cpu time spent up to now is       27.1 secs

     total energy              =    -380.57389019 Ry
     estimated scf accuracy    <       0.00006682 Ry

     iteration #  3     ecut=    50.00 Ry     beta= 0.70
     CG style diagonalization
     ethr =  6.72E-08,  avg # of iterations =  4.1

     negative rho (up, down):  1.525E-02 0.000E+00

     total cpu time spent up to now is       27.9 secs

     total energy              =    -380.57390416 Ry
     estimated scf accuracy    <       0.00000793 Ry

     iteration #  4     ecut=    50.00 Ry     beta= 0.70
     CG style diagonalization
     ethr =  1.80E-08,  avg # of iterations =  3.6

     negative rho (up, down):  1.524E-02 0.000E+00

     total cpu time spent up to now is       28.6 secs

     total energy              =    -380.57390603 Ry
     estimated scf accuracy    <       0.00000072 Ry

     iteration #  5     ecut=    50.00 Ry     beta= 0.70
     CG style diagonalization
     ethr =  1.64E-09,  avg # of iterations =  4.4

     negative rho (up, down):  1.524E-02 0.000E+00

     total cpu time spent up to now is       29.5 secs

     total energy              =    -380.57390654 Ry
     estimated scf accuracy    <       0.00000010 Ry

     iteration #  6     ecut=    50.00 Ry     beta= 0.70
     CG style diagonalization
     ethr =  2.19E-10,  avg # of iterations =  4.1

     negative rho (up, down):  1.524E-02 0.000E+00

     total cpu time spent up to now is       30.3 secs

     total energy              =    -380.57390658 Ry
     estimated scf accuracy    <       0.00000004 Ry

     iteration #  7     ecut=    50.00 Ry     beta= 0.70
     CG style diagonalization
     ethr =  8.40E-11,  avg # of iterations =  4.3

     negative rho (up, down):  1.524E-02 0.000E+00

     total cpu time spent up to now is       31.2 secs

     total energy              =    -380.57390658 Ry
     estimated scf accuracy    <       0.00000002 Ry

     iteration #  8     ecut=    50.00 Ry     beta= 0.70
     CG style diagonalization
     ethr =  5.22E-11,  avg # of iterations =  3.9

     negative rho (up, down):  1.524E-02 0.000E+00

     total cpu time spent up to now is       31.9 secs

     total energy              =    -380.57390659 Ry
     estimated scf accuracy    <          2.2E-09 Ry

     iteration #  9     ecut=    50.00 Ry     beta= 0.70
     CG style diagonalization
     ethr =  5.05E-12,  avg # of iterations =  5.0

     negative rho (up, down):  1.524E-02 0.000E+00

     total cpu time spent up to now is       32.9 secs

     End of self-consistent calculation

          k = 0.0000 0.0000 0.0000 (  2437 PWs)   bands (ev):

   -45.1436 -21.8328 -21.7428 -21.7428  -7.1699  -6.0089  -5.7586  -4.4131
    -4.4131  -4.3715  -4.2453  -4.1567   4.8117   6.7610   6.7610   7.0908
     8.6463   8.6463   8.9215   9.2331   9.4690   9.4690

          k = 0.0000 0.0000 0.2350 (  2453 PWs)   bands (ev):

   -45.1433 -21.8542 -21.7420 -21.7420  -6.9691  -5.9500  -5.6998  -4.4294
    -4.4294  -4.3701  -4.2382  -4.2307   3.9530   6.8001   6.8001   7.3371
     8.4373   8.4373   8.8459   9.3376   9.5804   9.5804

          k = 0.0000 0.0000-0.4701 (  2402 PWs)   bands (ev):

   -45.1430 -21.8753 -21.7412 -21.7412  -6.7490  -5.8856  -5.6502  -4.4456
    -4.4456  -4.3687  -4.3100  -4.2331   3.4106   6.6910   6.8178   6.8178
     8.3133   8.3133   8.7739   9.6537   9.6537  10.6044

          k = 0.0000 0.1667 0.0000 (  2423 PWs)   bands (ev):

   -45.1432 -21.8319 -21.7641 -21.7419  -7.0228  -5.9748  -5.7258  -4.4380
    -4.4114  -4.3869  -4.2492  -4.1420   4.3397   6.7841   6.8707   7.1096
     8.6555   8.6785   8.9378   9.0797   9.1486   9.5391

          k = 0.0000 0.1667 0.2350 (  2424 PWs)   bands (ev):

   -45.1429 -21.8531 -21.7632 -21.7411  -6.8384  -5.9315  -5.6610  -4.4370
    -4.4283  -4.3862  -4.2481  -4.1783   3.7257   6.5804   6.9219   7.3917
     8.1383   8.4262   8.7795   9.1384   9.2415   9.9159

          k = 0.0000 0.1667-0.4701 (  2430 PWs)   bands (ev):

   -45.1426 -21.8741 -21.7623 -21.7402  -6.6456  -5.8824  -5.5966  -4.4451
    -4.4340  -4.3854  -4.2584  -4.2092   3.2698   6.2893   6.9459   7.0699
     7.9512   8.3055   8.8505   9.2087   9.3248  10.5447

          k = 0.0000 0.3333 0.0000 (  2434 PWs)   bands (ev):

   -45.1424 -21.8302 -21.8063 -21.7401  -6.7045  -5.9001  -5.6757  -4.4749
    -4.4176  -4.4078  -4.2473  -4.1417   3.7190   6.4168   7.0492   7.1501
     8.3215   8.3841   8.7877   8.7928   9.2456  10.2253

          k = 0.0000 0.3333 0.2350 (  2417 PWs)   bands (ev):

   -45.1421 -21.8509 -21.8053 -21.7392  -6.5860  -5.8600  -5.5886  -4.4439
    -4.4263  -4.4178  -4.2436  -4.1142   3.3466   6.2886   6.9924   7.2369
     7.7843   8.1896   8.3518   8.8957   9.3861  10.3049

          k = 0.0000 0.3333-0.4701 (  2424 PWs)   bands (ev):

   -45.1418 -21.8715 -21.8041 -21.7383  -6.4959  -5.7957  -5.4763  -4.4442
    -4.4184  -4.4057  -4.2807  -4.0610   3.0238   5.9835   6.7831   7.2675
     7.6763   7.8417   8.1355   8.9487   9.8609  10.1072

          k = 0.0000-0.5000 0.0000 (  2420 PWs)   bands (ev):

   -45.1420 -21.8288 -21.8277 -21.7392  -6.5300  -5.8410  -5.6794  -4.4903
    -4.4327  -4.4062  -4.2247  -4.1699   3.4997   6.0417   7.3174   7.3894
     7.8096   8.0019   8.7139   8.8304   9.2733  11.0405

          k = 0.0000-0.5000 0.2350 (  2424 PWs)   bands (ev):

   -45.1417 -21.8495 -21.8263 -21.7383  -6.4768  -5.7680  -5.5802  -4.4560
    -4.4337  -4.4250  -4.2122  -4.1077   3.1974   6.0098   7.0319   7.2776
     7.5881   7.7842   8.4570   8.8710   9.3770  10.5315

          k = 0.0000-0.5000-0.4701 (  2436 PWs)   bands (ev):

   -45.1414 -21.8700 -21.8250 -21.7374  -6.4597  -5.6900  -5.4210  -4.4437
    -4.4348  -4.4144  -4.2662  -4.0000   2.9265   5.8374   6.4706   7.3537
     7.5986   7.8030   7.8600   8.8951   9.8155  10.1336

          k = 0.1667 0.1667 0.0000 (  2427 PWs)   bands (ev):

   -45.1428 -21.8311 -21.7634 -21.7630  -6.8780  -5.9398  -5.7162  -4.4424
    -4.4287  -4.3911  -4.2253  -4.1288   4.0189   6.7336   6.9461   7.1635
     8.1364   8.3118   9.0278   9.0668   9.4155   9.7644

          k = 0.1667 0.1667 0.2350 (  2424 PWs)   bands (ev):

   -45.1425 -21.8521 -21.7624 -21.7621  -6.7047  -5.9155  -5.6515  -4.4465
    -4.4229  -4.3851  -4.2178  -4.1430   3.6070   6.4969   6.6095   7.3279
     8.0170   8.0647   8.8382   9.2098   9.4798   9.8935

          k = 0.1667 0.1667-0.4701 (  2418 PWs)   bands (ev):

   -45.1422 -21.8729 -21.7614 -21.7612  -6.5299  -5.8911  -5.5780  -4.4593
    -4.4016  -4.3640  -4.2261  -4.1627   3.2388   6.2766   6.3743   7.0402
     7.9459   7.9821   8.7667   9.2930   9.5339  10.2578

          k = 0.1667 0.3333 0.0000 (  2415 PWs)   bands (ev):

   -45.1420 -21.8293 -21.8052 -21.7612  -6.5676  -5.8674  -5.7118  -4.4666
    -4.4167  -4.3755  -4.2017  -4.1294   3.5153   6.4202   6.9513   7.2456
     7.6392   8.1954   8.5393   9.2169   9.4064  10.2984

          k = 0.1667 0.3333 0.2350 (  2424 PWs)   bands (ev):

   -45.1417 -21.8499 -21.8042 -21.7603  -6.4456  -5.8592  -5.6384  -4.4440
    -4.4166  -4.3524  -4.1848  -4.0875   3.3574   6.2368   6.3750   6.9431
     7.3953   8.0900   8.8936   9.1721   9.4994  10.0168

          k = 0.1667 0.3333-0.4701 (  2424 PWs)   bands (ev):

   -45.1414 -21.8704 -21.8031 -21.7594  -6.3576  -5.8370  -5.5311  -4.4411
    -4.3923  -4.3137  -4.1991  -4.0334   3.1596   5.8946   6.3189   6.6738
     6.8897   7.9548   9.0232   9.2438   9.5263   9.9223

          k = 0.1667-0.5000 0.0000 (  2412 PWs)   bands (ev):

   -45.1415 -21.8279 -21.8265 -21.7602  -6.3988  -5.8114  -5.7380  -4.4692
    -4.4082  -4.3529  -4.1858  -4.1593   3.3179   6.0610   7.0539   7.3116
     7.5955   7.9570   8.3567   9.2688   9.3794  10.6310

          k = 0.1667-0.5000 0.2350 (  2416 PWs)   bands (ev):

   -45.1413 -21.8485 -21.8252 -21.7593  -6.3350  -5.7782  -5.6599  -4.4421
    -4.4025  -4.3288  -4.1659  -4.0784   3.2431   6.0146   6.2731   6.6751
     7.3647   8.2354   8.6594   9.1720   9.5038   9.9831

          k = 0.1667-0.5000-0.4701 (  2420 PWs)   bands (ev):

   -45.1410 -21.8690 -21.8240 -21.7584  -6.3201  -5.7462  -5.5135  -4.4358
    -4.3612  -4.3071  -4.1845  -3.9728   3.1240   5.7878   6.1483   6.2974
     6.7756   8.0718   8.8967   9.1422   9.1915  10.1346

          k = 0.3333 0.3333 0.0000 (  2420 PWs)   bands (ev):

   -45.1411 -21.8274 -21.8029 -21.8029  -6.2979  -5.8014  -5.7651  -4.4444
    -4.3964  -4.3021  -4.1289  -4.1160   3.1253   6.4067   6.5030   7.3282
     7.5022   7.6268   8.3456   9.0505   9.9136  10.0102

          k = 0.3333 0.3333 0.2350 (  2425 PWs)   bands (ev):

   -45.1409 -21.8477 -21.8021 -21.8020  -6.1671  -5.8490  -5.7277  -4.4045
    -4.3891  -4.2421  -4.0728  -4.0504   3.3010   5.9429   6.0198   6.4116
     7.0560   7.5741   8.9466   9.4491   9.5028   9.9265

          k = 0.3333 0.3333-0.4701 (  2432 PWs)   bands (ev):

   -45.1406 -21.8681 -21.8011 -21.8010  -6.0967  -5.8932  -5.6186  -4.3822
    -4.3649  -4.1776  -4.0282  -3.9738   3.4490   5.5537   5.5743   6.1800
     6.8419   6.9765   8.2383   9.8370   9.8948  10.0181

          k = 0.3333-0.5000 0.0000 (  2454 PWs)   bands (ev):

   -45.1407 -21.8260 -21.8240 -21.8018  -6.1774  -5.7812  -5.7575  -4.4354
    -4.3715  -4.2364  -4.1607  -4.0795   2.9439   6.0559   6.5485   7.1374
     7.6738   7.8203   7.9482   9.0234   9.6755  10.1167

          k = 0.3333-0.5000 0.2350 (  2436 PWs)   bands (ev):

   -45.1404 -21.8464 -21.8229 -21.8010  -6.0486  -5.8031  -5.7853  -4.3950
    -4.3596  -4.1447  -4.0799  -4.0117   3.2342   5.8393   5.9930   6.0672
     6.8377   7.6544   8.4668   9.4389   9.4710  10.0899

          k = 0.3333-0.5000-0.4701 (  2424 PWs)   bands (ev):

   -45.1402 -21.8668 -21.8219 -21.8000  -6.0353  -5.8457  -5.6572  -4.3654
    -4.3387  -4.0812  -3.9979  -3.9150   3.5955   5.2859   5.4815   5.9210
     6.5958   7.0159   7.4391   9.9382  10.0656  10.1606

          k =-0.5000-0.5000 0.0000 (  2480 PWs)   bands (ev):

   -45.1403 -21.8246 -21.8228 -21.8228  -6.1237  -5.7337  -5.7337  -4.4239
    -4.3222  -4.1814  -4.1814  -4.0249   2.7572   5.9045   6.3827   7.3575
     7.3575   7.9395   7.9395   8.7891   9.1636  10.3867

          k =-0.5000-0.5000 0.2350 (  2416 PWs)   bands (ev):

   -45.1400 -21.8451 -21.8218 -21.8218  -5.9236  -5.8173  -5.8173  -4.3821
    -4.3202  -4.0391  -4.0391  -3.9931   3.1635   5.8617   5.9694   5.9694
     6.3888   7.5988   7.7941   9.4613   9.4613  10.3703

          k =-0.5000-0.5000-0.4701 (  2416 PWs)   bands (ev):

   -45.1397 -21.8656 -21.8208 -21.8208  -5.8904  -5.8904  -5.7174  -4.3403
    -4.3183  -3.9514  -3.9048  -3.9048   3.8173   5.3228   5.3228   5.7531
     6.3949   6.4106   6.7310  10.1741  10.1741  10.3538

     highest occupied level (ev):    11.0405

!    total energy              =    -380.57390659 Ry
     estimated scf accuracy    <          5.1E-11 Ry

     The total energy is the sum of the following terms:
     one-electron contribution =     -79.89963081 Ry
     hartree contribution      =      70.03745560 Ry
     xc contribution           =    -102.68523362 Ry
     ewald contribution        =    -268.02649776 Ry

     convergence has been achieved in   9 iterations

     negative rho (up, down):  1.524E-02 0.000E+00

     Forces acting on atoms (cartesian axes, Ry/au):

     atom    1 type  1   force =     0.00000000    0.00000000   -0.00133612
     atom    2 type  2   force =     0.00000000    0.00000000    0.00001480
     atom    3 type  3   force =     0.00000000    0.00000000   -0.00058371
     atom    4 type  3   force =     0.00000000    0.00000000    0.00095252
     atom    5 type  3   force =     0.00000000    0.00000000    0.00095252

     Total force =     0.001985     Total SCF correction =     0.000014


     Computing stress (Cartesian axis) and pressure


     negative rho (up, down):  1.524E-02 0.000E+00
          total   stress  (Ry/bohr**3)                   (kbar)     P=        4.66
   0.00005650   0.00000000   0.00000000            8.31        0.00        0.00
   0.00000000   0.00005650   0.00000000            0.00        8.31        0.00
   0.00000000   0.00000000  -0.00001802            0.00        0.00       -2.65

     Energy error            =      2.5E-05 Ry
     Gradient error          =      1.3E-03 Ry/Bohr

     number of scf cycles    =   3
     number of bfgs steps    =   2

     energy             old  =    -380.5738812066 Ry
     energy             new  =    -380.5739065926 Ry

     CASE: energy            _new < energy            _old

     new trust radius        =       0.0013967063 bohr
     new conv_thr            =            1.0E-10 Ry


ATOMIC_POSITIONS (crystal)
Pb               0.0000000000        0.0000000000        1.0049415157
Ti               0.5000000000        0.5000000000        0.5372868182
O                0.5000000000        0.5000000000        0.1012058524
O                0.5000000000        0.0000000000        0.6119250508
O                0.0000000000        0.5000000000        0.6119250508



     Writing config-only to output data dir ./pto_tetragonal_etam0p004.save/ :
     XML data file
     NEW-OLD atomic charge density approx. for the potential

     Check: negative core charge=   -0.000004

     negative rho (up, down):  1.522E-02 0.000E+00

     total cpu time spent up to now is       34.1 secs

     Self-consistent Calculation

     iteration #  1     ecut=    50.00 Ry     beta= 0.70
     CG style diagonalization
     ethr =  1.00E-06,  avg # of iterations =  2.7

     Threshold (ethr) on eigenvalues was too large:
     Diagonalizing with lowered threshold

     CG style diagonalization
     c_bands:  1 eigenvalues not converged
     c_bands:  1 eigenvalues not converged
     ethr =  2.96E-09,  avg # of iterations =  6.2

     negative rho (up, down):  1.522E-02 0.000E+00

     total cpu time spent up to now is       36.0 secs

     total energy              =    -380.57391095 Ry
     estimated scf accuracy    <       0.00000030 Ry

     iteration #  2     ecut=    50.00 Ry     beta= 0.70
     CG style diagonalization
     ethr =  6.74E-10,  avg # of iterations =  4.3

     negative rho (up, down):  1.522E-02 0.000E+00

     total cpu time spent up to now is       36.8 secs

     total energy              =    -380.57391098 Ry
     estimated scf accuracy    <       0.00000038 Ry

     iteration #  3     ecut=    50.00 Ry     beta= 0.70
     CG style diagonalization
     ethr =  6.74E-10,  avg # of iterations =  3.9

     negative rho (up, down):  1.522E-02 0.000E+00

     total cpu time spent up to now is       37.6 secs

     total energy              =    -380.57391107 Ry
     estimated scf accuracy    <       0.00000010 Ry

     iteration #  4     ecut=    50.00 Ry     beta= 0.70
     CG style diagonalization
     ethr =  2.31E-10,  avg # of iterations =  3.5

     negative rho (up, down):  1.522E-02 0.000E+00

     total cpu time spent up to now is       38.3 secs

     total energy              =    -380.57391109 Ry
     estimated scf accuracy    <          2.5E-09 Ry

     iteration #  5     ecut=    50.00 Ry     beta= 0.70
     CG style diagonalization
     ethr =  5.79E-12,  avg # of iterations =  5.2

     negative rho (up, down):  1.522E-02 0.000E+00

     total cpu time spent up to now is       39.3 secs

     total energy              =    -380.57391109 Ry
     estimated scf accuracy    <          1.1E-09 Ry

     iteration #  6     ecut=    50.00 Ry     beta= 0.70
     CG style diagonalization
     ethr =  2.58E-12,  avg # of iterations =  4.3

     negative rho (up, down):  1.522E-02 0.000E+00

     total cpu time spent up to now is       40.2 secs

     total energy              =    -380.57391110 Ry
     estimated scf accuracy    <          3.8E-10 Ry

     iteration #  7     ecut=    50.00 Ry     beta= 0.70
     CG style diagonalization
     ethr =  8.55E-13,  avg # of iterations =  4.2

     negative rho (up, down):  1.522E-02 0.000E+00

     total cpu time spent up to now is       41.0 secs

     End of self-consistent calculation

          k = 0.0000 0.0000 0.0000 (  2437 PWs)   bands (ev):

   -45.1438 -21.8332 -21.7430 -21.7430  -7.1712  -6.0102  -5.7582  -4.4121
    -4.4121  -4.3703  -4.2446  -4.1547   4.8123   6.7593   6.7593   7.0927
     8.6445   8.6445   8.9201   9.2318   9.4673   9.4673

          k = 0.0000 0.0000 0.2350 (  2453 PWs)   bands (ev):

   -45.1435 -21.8546 -21.7422 -21.7422  -6.9705  -5.9513  -5.6993  -4.4284
    -4.4284  -4.3689  -4.2375  -4.2286   3.9537   6.7976   6.7976   7.3380
     8.4370   8.4370   8.8445   9.3375   9.5788   9.5788

          k = 0.0000 0.0000-0.4701 (  2402 PWs)   bands (ev):

   -45.1432 -21.8758 -21.7413 -21.7413  -6.7506  -5.8871  -5.6497  -4.4446
    -4.4446  -4.3675  -4.3078  -4.2322   3.4112   6.6916   6.8144   6.8144
     8.3143   8.3143   8.7725   9.6522   9.6522  10.6046

          k = 0.0000 0.1667 0.0000 (  2423 PWs)   bands (ev):

   -45.1434 -21.8324 -21.7643 -21.7421  -7.0242  -5.9762  -5.7256  -4.4370
    -4.4104  -4.3857  -4.2483  -4.1401   4.3400   6.7837   6.8691   7.1093
     8.6555   8.6769   8.9363   9.0780   9.1472   9.5387

          k = 0.0000 0.1667 0.2350 (  2424 PWs)   bands (ev):

   -45.1431 -21.8535 -21.7633 -21.7412  -6.8398  -5.9330  -5.6607  -4.4359
    -4.4274  -4.3849  -4.2472  -4.1763   3.7263   6.5788   6.9194   7.3918
     8.1382   8.4256   8.7788   9.1370   9.2402   9.9161

          k = 0.0000 0.1667-0.4701 (  2430 PWs)   bands (ev):

   -45.1428 -21.8745 -21.7624 -21.7404  -6.6472  -5.8840  -5.5962  -4.4442
    -4.4328  -4.3842  -4.2573  -4.2073   3.2704   6.2876   6.9426   7.0695
     7.9519   8.3063   8.8489   9.2073   9.3237  10.5458

          k = 0.0000 0.3333 0.0000 (  2434 PWs)   bands (ev):

   -45.1426 -21.8306 -21.8064 -21.7403  -6.7058  -5.9018  -5.6758  -4.4737
    -4.4164  -4.4068  -4.2459  -4.1399   3.7192   6.4163   7.0498   7.1487
     8.3217   8.3830   8.7853   8.7913   9.2442  10.2260

          k = 0.0000 0.3333 0.2350 (  2417 PWs)   bands (ev):

   -45.1423 -21.8513 -21.8054 -21.7394  -6.5874  -5.8618  -5.5887  -4.4427
    -4.4253  -4.4166  -4.2424  -4.1122   3.3472   6.2877   6.9925   7.2348
     7.7840   8.1882   8.3515   8.8951   9.3852  10.3056

          k = 0.0000 0.3333-0.4701 (  2424 PWs)   bands (ev):

   -45.1420 -21.8719 -21.8042 -21.7385  -6.4973  -5.7977  -5.4762  -4.4432
    -4.4172  -4.4044  -4.2793  -4.0593   3.0246   5.9819   6.7842   7.2645
     7.6752   7.8411   8.1348   8.9487   9.8596  10.1092

          k = 0.0000-0.5000 0.0000 (  2420 PWs)   bands (ev):

   -45.1422 -21.8292 -21.8278 -21.7394  -6.5312  -5.8429  -5.6798  -4.4892
    -4.4315  -4.4052  -4.2226  -4.1686   3.5000   6.0421   7.3185   7.3883
     7.8091   8.0003   8.7123   8.8282   9.2718  11.0412

          k = 0.0000-0.5000 0.2350 (  2424 PWs)   bands (ev):

   -45.1419 -21.8499 -21.8265 -21.7385  -6.4781  -5.7702  -5.5804  -4.4548
    -4.4325  -4.4240  -4.2108  -4.1059   3.1981   6.0097   7.0317   7.2770
     7.5870   7.7816   8.4565   8.8705   9.3765  10.5323

          k = 0.0000-0.5000-0.4701 (  2436 PWs)   bands (ev):

   -45.1416 -21.8704 -21.8251 -21.7376  -6.4609  -5.6924  -5.4211  -4.4427
    -4.4335  -4.4131  -4.2646  -3.9983   2.9276   5.8363   6.4714   7.3518
     7.5956   7.8018   7.8601   8.8956   9.8179  10.1323

          k = 0.1667 0.1667 0.0000 (  2427 PWs)   bands (ev):

   -45.1430 -21.8315 -21.7635 -21.7631  -6.8794  -5.9413  -5.7161  -4.4413
    -4.4277  -4.3899  -4.2243  -4.1268   4.0190   6.7322   6.9465   7.1622
     8.1356   8.3108   9.0268   9.0665   9.4147   9.7638

          k = 0.1667 0.1667 0.2350 (  2424 PWs)   bands (ev):

   -45.1427 -21.8525 -21.7625 -21.7622  -6.7062  -5.9171  -5.6514  -4.4455
    -4.4218  -4.3839  -4.2168  -4.1410   3.6074   6.4951   6.6084   7.3271
     8.0175   8.0638   8.8375   9.2082   9.4787   9.8945

          k = 0.1667 0.1667-0.4701 (  2418 PWs)   bands (ev):

   -45.1424 -21.8733 -21.7615 -21.7613  -6.5315  -5.8927  -5.5777  -4.4582
    -4.4004  -4.3629  -4.2250  -4.1607   3.2393   6.2746   6.3730   7.0401
     7.9437   7.9833   8.7669   9.2915   9.5325  10.2593

          k = 0.1667 0.3333 0.0000 (  2415 PWs)   bands (ev):

   -45.1422 -21.8297 -21.8053 -21.7613  -6.5689  -5.8692  -5.7121  -4.4655
    -4.4156  -4.3742  -4.2004  -4.1275   3.5151   6.4198   6.9503   7.2459
     7.6380   8.1951   8.5395   9.2158   9.4053  10.2987

          k = 0.1667 0.3333 0.2350 (  2424 PWs)   bands (ev):

   -45.1419 -21.8503 -21.8043 -21.7604  -6.4471  -5.8610  -5.6384  -4.4428
    -4.4155  -4.3512  -4.1835  -4.0856   3.3576   6.2359   6.3742   6.9423
     7.3952   8.0906   8.8932   9.1709   9.4984  10.0176

          k = 0.1667 0.3333-0.4701 (  2424 PWs)   bands (ev):

   -45.1416 -21.8708 -21.8032 -21.7595  -6.3591  -5.8389  -5.5309  -4.4400
    -4.3912  -4.3126  -4.1978  -4.0317   3.1601   5.8932   6.3175   6.6735
     6.8899   7.9551   9.0227   9.2425   9.5278   9.9214

          k = 0.1667-0.5000 0.0000 (  2412 PWs)   bands (ev):

   -45.1417 -21.8283 -21.8266 -21.7604  -6.4000  -5.8134  -5.7385  -4.4680
    -4.4072  -4.3516  -4.1839  -4.1579   3.3176   6.0615   7.0533   7.3099
     7.5964   7.9573   8.3559   9.2672   9.3785  10.6318

          k = 0.1667-0.5000 0.2350 (  2416 PWs)   bands (ev):

   -45.1415 -21.8489 -21.8253 -21.7595  -6.3364  -5.7803  -5.6600  -4.4410
    -4.4014  -4.3277  -4.1644  -4.0766   3.2432   6.0146   6.2724   6.6742
     7.3641   8.2360   8.6592   9.1706   9.5029   9.9838

          k = 0.1667-0.5000-0.4701 (  2420 PWs)   bands (ev):

   -45.1412 -21.8694 -21.8241 -21.7585  -6.3215  -5.7484  -5.5134  -4.4347
    -4.3601  -4.3061  -4.1830  -3.9712   3.1247   5.7867   6.1468   6.2975
     6.7754   8.0722   8.8976   9.1413   9.1916  10.1336

          k = 0.3333 0.3333 0.0000 (  2420 PWs)   bands (ev):

   -45.1413 -21.8278 -21.8031 -21.8030  -6.2989  -5.8035  -5.7659  -4.4432
    -4.3952  -4.3007  -4.1269  -4.1148   3.1244   6.4060   6.5030   7.3276
     7.5029   7.6269   8.3461   9.0511   9.9120  10.0111

          k = 0.3333 0.3333 0.2350 (  2425 PWs)   bands (ev):

   -45.1411 -21.8482 -21.8022 -21.8021  -6.1686  -5.8509  -5.7279  -4.4034
    -4.3880  -4.2409  -4.0716  -4.0485   3.3002   5.9425   6.0194   6.4108
     7.0574   7.5747   8.9482   9.4485   9.5023   9.9250

          k = 0.3333 0.3333-0.4701 (  2432 PWs)   bands (ev):

   -45.1408 -21.8685 -21.8012 -21.8012  -6.0985  -5.8949  -5.6183  -4.3811
    -4.3637  -4.1768  -4.0269  -3.9722   3.4484   5.5535   5.5732   6.1786
     6.8429   6.9781   8.2410   9.8359   9.8932  10.0172

          k = 0.3333-0.5000 0.0000 (  2454 PWs)   bands (ev):

   -45.1409 -21.8264 -21.8241 -21.8019  -6.1779  -5.7827  -5.7598  -4.4343
    -4.3703  -4.2346  -4.1589  -4.0783   2.9427   6.0560   6.5486   7.1371
     7.6734   7.8210   7.9488   9.0239   9.6768  10.1152

          k = 0.3333-0.5000 0.2350 (  2436 PWs)   bands (ev):

   -45.1406 -21.8468 -21.8231 -21.8011  -6.0498  -5.8052  -5.7857  -4.3938
    -4.3585  -4.1435  -4.0784  -4.0102   3.2329   5.8395   5.9928   6.0671
     6.8387   7.6552   8.4689   9.4385   9.4703  10.0884

          k = 0.3333-0.5000-0.4701 (  2424 PWs)   bands (ev):

   -45.1404 -21.8672 -21.8220 -21.8002  -6.0370  -5.8475  -5.6569  -4.3643
    -4.3376  -4.0804  -3.9966  -3.9136   3.5941   5.2855   5.4815   5.9203
     6.5967   7.0174   7.4422   9.9373  10.0640  10.1599

          k =-0.5000-0.5000 0.0000 (  2480 PWs)   bands (ev):

   -45.1405 -21.8250 -21.8229 -21.8229  -6.1235  -5.7361  -5.7361  -4.4227
    -4.3211  -4.1793  -4.1793  -4.0241   2.7555   5.9045   6.3841   7.3571
     7.3571   7.9400   7.9400   8.7898   9.1654  10.3851

          k =-0.5000-0.5000 0.2350 (  2416 PWs)   bands (ev):

   -45.1402 -21.8456 -21.8219 -21.8219  -5.9232  -5.8193  -5.8193  -4.3809
    -4.3191  -4.0374  -4.0374  -3.9923   3.1614   5.8615   5.9700   5.9700
     6.3902   7.5994   7.7966   9.4610   9.4610  10.3687

          k =-0.5000-0.5000-0.4701 (  2416 PWs)   bands (ev):

   -45.1399 -21.8660 -21.8210 -21.8210  -5.8922  -5.8922  -5.7169  -4.3391
    -4.3171  -3.9508  -3.9035  -3.9035   3.8134   5.3236   5.3236   5.7524
     6.3963   6.4149   6.7319  10.1735  10.1735  10.3522

     highest occupied level (ev):    11.0412

!    total energy              =    -380.57391110 Ry
     estimated scf accuracy    <          1.9E-11 Ry

     The total energy is the sum of the following terms:
     one-electron contribution =     -79.91646085 Ry
     hartree contribution      =      70.04595544 Ry
     xc contribution           =    -102.68558260 Ry
     ewald contribution        =    -268.01782309 Ry

     convergence has been achieved in   7 iterations

     negative rho (up, down):  1.522E-02 0.000E+00

     Forces acting on atoms (cartesian axes, Ry/au):

     atom    1 type  1   force =     0.00000000    0.00000000   -0.00122621
     atom    2 type  2   force =     0.00000000    0.00000000    0.00013603
     atom    3 type  3   force =     0.00000000    0.00000000   -0.00049841
     atom    4 type  3   force =     0.00000000    0.00000000    0.00079429
     atom    5 type  3   force =     0.00000000    0.00000000    0.00079429

     Total force =     0.001741     Total SCF correction =     0.000016


     Computing stress (Cartesian axis) and pressure


     negative rho (up, down):  1.522E-02 0.000E+00
          total   stress  (Ry/bohr**3)                   (kbar)     P=        4.80
   0.00005689   0.00000000   0.00000000            8.37        0.00        0.00
   0.00000000   0.00005689   0.00000000            0.00        8.37        0.00
   0.00000000   0.00000000  -0.00001585            0.00        0.00       -2.33

     Energy error            =      4.5E-06 Ry
     Gradient error          =      1.2E-03 Ry/Bohr

     number of scf cycles    =   4
     number of bfgs steps    =   3

     energy             old  =    -380.5739065926 Ry
     energy             new  =    -380.5739110952 Ry

     CASE: energy            _new < energy            _old


     WARNING: bfgs curvature condition failed, Theta= 0.936
     new trust radius        =       0.0015363769 bohr
     new conv_thr            =            1.0E-10 Ry


ATOMIC_POSITIONS (crystal)
Pb               0.0000000000        0.0000000000        1.0047424637
Ti               0.5000000000        0.5000000000        0.5372268116
O                0.5000000000        0.5000000000        0.1011876575
O                0.5000000000        0.0000000000        0.6120636775
O                0.0000000000        0.5000000000        0.6120636775



     Writing config-only to output data dir ./pto_tetragonal_etam0p004.save/ :
     XML data file
     NEW-OLD atomic charge density approx. for the potential

     Check: negative core charge=   -0.000004

     negative rho (up, down):  1.520E-02 0.000E+00

     total cpu time spent up to now is       42.1 secs

     Self-consistent Calculation

     iteration #  1     ecut=    50.00 Ry     beta= 0.70
     CG style diagonalization
     ethr =  1.00E-06,  avg # of iterations =  2.7

     Threshold (ethr) on eigenvalues was too large:
     Diagonalizing with lowered threshold

     CG style diagonalization
     c_bands:  1 eigenvalues not converged
     c_bands:  1 eigenvalues not converged
     ethr =  3.44E-09,  avg # of iterations =  5.9

     negative rho (up, down):  1.520E-02 0.000E+00

     total cpu time spent up to now is       44.0 secs

     total energy              =    -380.57391463 Ry
     estimated scf accuracy    <       0.00000032 Ry

     iteration #  2     ecut=    50.00 Ry     beta= 0.70
     CG style diagonalization
     ethr =  7.38E-10,  avg # of iterations =  4.4

     negative rho (up, down):  1.520E-02 0.000E+00

     total cpu time spent up to now is       44.9 secs

     total energy              =    -380.57391467 Ry
     estimated scf accuracy    <       0.00000046 Ry

     iteration #  3     ecut=    50.00 Ry     beta= 0.70
     CG style diagonalization
     ethr =  7.38E-10,  avg # of iterations =  3.9

     negative rho (up, down):  1.520E-02 0.000E+00

     total cpu time spent up to now is       45.6 secs

     total energy              =    -380.57391478 Ry
     estimated scf accuracy    <       0.00000009 Ry

     iteration #  4     ecut=    50.00 Ry     beta= 0.70
     CG style diagonalization
     ethr =  2.11E-10,  avg # of iterations =  3.6

     negative rho (up, down):  1.520E-02 0.000E+00

     total cpu time spent up to now is       46.3 secs

     total energy              =    -380.57391480 Ry
     estimated scf accuracy    <          4.2E-09 Ry

     iteration #  5     ecut=    50.00 Ry     beta= 0.70
     CG style diagonalization
     ethr =  9.61E-12,  avg # of iterations =  4.7

     negative rho (up, down):  1.520E-02 0.000E+00

     total cpu time spent up to now is       47.3 secs

     total energy              =    -380.57391480 Ry
     estimated scf accuracy    <          1.6E-09 Ry

     iteration #  6     ecut=    50.00 Ry     beta= 0.70
     CG style diagonalization
     ethr =  3.72E-12,  avg # of iterations =  4.1

     negative rho (up, down):  1.520E-02 0.000E+00

     total cpu time spent up to now is       48.1 secs

     total energy              =    -380.57391480 Ry
     estimated scf accuracy    <          2.3E-10 Ry

     iteration #  7     ecut=    50.00 Ry     beta= 0.70
     CG style diagonalization
     ethr =  5.32E-13,  avg # of iterations =  5.0

     negative rho (up, down):  1.520E-02 0.000E+00

     total cpu time spent up to now is       49.0 secs

     End of self-consistent calculation

          k = 0.0000 0.0000 0.0000 (  2437 PWs)   bands (ev):

   -45.1443 -21.8338 -21.7434 -21.7434  -7.1727  -6.0117  -5.7577  -4.4110
    -4.4110  -4.3689  -4.2439  -4.1527   4.8128   6.7575   6.7575   7.0947
     8.6433   8.6433   8.9186   9.2309   9.4655   9.4655

          k = 0.0000 0.0000 0.2350 (  2453 PWs)   bands (ev):

   -45.1440 -21.8551 -21.7426 -21.7426  -6.9721  -5.9530  -5.6988  -4.4273
    -4.4273  -4.3675  -4.2366  -4.2264   3.9545   6.7951   6.7951   7.3390
     8.4369   8.4369   8.8430   9.3375   9.5771   9.5771

          k = 0.0000 0.0000-0.4701 (  2402 PWs)   bands (ev):

   -45.1437 -21.8763 -21.7418 -21.7418  -6.7525  -5.8890  -5.6490  -4.4435
    -4.4435  -4.3661  -4.3054  -4.2312   3.4119   6.6923   6.8111   6.8111
     8.3154   8.3154   8.7710   9.6504   9.6504  10.6047

          k = 0.0000 0.1667 0.0000 (  2423 PWs)   bands (ev):

   -45.1439 -21.8329 -21.7647 -21.7425  -7.0257  -5.9778  -5.7252  -4.4359
    -4.4093  -4.3843  -4.2474  -4.1380   4.3404   6.7832   6.8674   7.1091
     8.6557   8.6758   8.9349   9.0761   9.1458   9.5384

          k = 0.0000 0.1667 0.2350 (  2424 PWs)   bands (ev):

   -45.1436 -21.8540 -21.7638 -21.7417  -6.8415  -5.9347  -5.6603  -4.4347
    -4.4263  -4.3836  -4.2462  -4.1742   3.7270   6.5771   6.9170   7.3918
     8.1381   8.4253   8.7781   9.1356   9.2388   9.9162

          k = 0.0000 0.1667-0.4701 (  2430 PWs)   bands (ev):

   -45.1433 -21.8750 -21.7628 -21.7408  -6.6491  -5.8859  -5.5956  -4.4431
    -4.4314  -4.3828  -4.2560  -4.2054   3.2712   6.2861   6.9393   7.0690
     7.9526   8.3071   8.8470   9.2060   9.3223  10.5469

          k = 0.0000 0.3333 0.0000 (  2434 PWs)   bands (ev):

   -45.1430 -21.8311 -21.8069 -21.7407  -6.7073  -5.9038  -5.6759  -4.4725
    -4.4151  -4.4057  -4.2444  -4.1379   3.7195   6.4157   7.0504   7.1471
     8.3218   8.3818   8.7834   8.7896   9.2430  10.2269

          k = 0.0000 0.3333 0.2350 (  2417 PWs)   bands (ev):

   -45.1427 -21.8518 -21.8058 -21.7398  -6.5890  -5.8638  -5.5886  -4.4414
    -4.4242  -4.4153  -4.2411  -4.1102   3.3479   6.2866   6.9924   7.2326
     7.7835   8.1868   8.3511   8.8945   9.3844  10.3064

          k = 0.0000 0.3333-0.4701 (  2424 PWs)   bands (ev):

   -45.1425 -21.8724 -21.8047 -21.7389  -6.4990  -5.8000  -5.4760  -4.4421
    -4.4158  -4.4030  -4.2779  -4.0574   3.0256   5.9803   6.7852   7.2615
     7.6738   7.8403   8.1341   8.9486   9.8586  10.1112

          k = 0.0000-0.5000 0.0000 (  2420 PWs)   bands (ev):

   -45.1426 -21.8297 -21.8282 -21.7398  -6.5327  -5.8451  -5.6802  -4.4879
    -4.4301  -4.4041  -4.2203  -4.1672   3.5002   6.0421   7.3196   7.3870
     7.8085   7.9987   8.7106   8.8265   9.2705  11.0420

          k = 0.0000-0.5000 0.2350 (  2424 PWs)   bands (ev):

   -45.1423 -21.8504 -21.8269 -21.7389  -6.4796  -5.7725  -5.5804  -4.4535
    -4.4312  -4.4229  -4.2092  -4.1039   3.1989   6.0095   7.0315   7.2762
     7.5856   7.7792   8.4559   8.8702   9.3759  10.5333

          k = 0.0000-0.5000-0.4701 (  2436 PWs)   bands (ev):

   -45.1420 -21.8709 -21.8255 -21.7380  -6.4624  -5.6950  -5.4210  -4.4416
    -4.4322  -4.4117  -4.2630  -3.9965   2.9288   5.8351   6.4721   7.3497
     7.5928   7.8002   7.8600   8.8961   9.8203  10.1313

          k = 0.1667 0.1667 0.0000 (  2427 PWs)   bands (ev):

   -45.1435 -21.8320 -21.7639 -21.7635  -6.8809  -5.9430  -5.7159  -4.4402
    -4.4266  -4.3886  -4.2232  -4.1247   4.0191   6.7307   6.9467   7.1609
     8.1351   8.3097   9.0256   9.0664   9.4137   9.7637

          k = 0.1667 0.1667 0.2350 (  2424 PWs)   bands (ev):

   -45.1432 -21.8530 -21.7630 -21.7627  -6.7079  -5.9189  -5.6510  -4.4443
    -4.4205  -4.3827  -4.2157  -4.1389   3.6079   6.4933   6.6072   7.3265
     8.0181   8.0627   8.8371   9.2066   9.4775   9.8955

          k = 0.1667 0.1667-0.4701 (  2418 PWs)   bands (ev):

   -45.1429 -21.8738 -21.7620 -21.7618  -6.5335  -5.8946  -5.5772  -4.4569
    -4.3990  -4.3617  -4.2239  -4.1586   3.2400   6.2727   6.3717   7.0397
     7.9413   7.9844   8.7672   9.2899   9.5311  10.2608

          k = 0.1667 0.3333 0.0000 (  2415 PWs)   bands (ev):

   -45.1426 -21.8302 -21.8057 -21.7618  -6.5704  -5.8712  -5.7123  -4.4642
    -4.4144  -4.3729  -4.1989  -4.1254   3.5149   6.4192   6.9493   7.2461
     7.6368   8.1952   8.5395   9.2148   9.4042  10.2993

          k = 0.1667 0.3333 0.2350 (  2424 PWs)   bands (ev):

   -45.1423 -21.8508 -21.8047 -21.7609  -6.4488  -5.8630  -5.6384  -4.4416
    -4.4143  -4.3500  -4.1822  -4.0836   3.3578   6.2349   6.3733   6.9414
     7.3951   8.0911   8.8926   9.1698   9.4972  10.0185

          k = 0.1667 0.3333-0.4701 (  2424 PWs)   bands (ev):

   -45.1420 -21.8713 -21.8036 -21.7599  -6.3609  -5.8410  -5.5305  -4.4388
    -4.3899  -4.3114  -4.1963  -4.0298   3.1607   5.8919   6.3159   6.6731
     6.8898   7.9551   9.0224   9.2409   9.5295   9.9205

          k = 0.1667-0.5000 0.0000 (  2412 PWs)   bands (ev):

   -45.1422 -21.8288 -21.8270 -21.7608  -6.4014  -5.8157  -5.7389  -4.4668
    -4.4060  -4.3502  -4.1818  -4.1563   3.3173   6.0616   7.0528   7.3080
     7.5969   7.9574   8.3555   9.2654   9.3777  10.6328

          k = 0.1667-0.5000 0.2350 (  2416 PWs)   bands (ev):

   -45.1419 -21.8494 -21.8258 -21.7599  -6.3381  -5.7826  -5.6599  -4.4397
    -4.4002  -4.3265  -4.1629  -4.0747   3.2434   6.0143   6.2716   6.6733
     7.3635   8.2366   8.6588   9.1694   9.5019   9.9847

          k = 0.1667-0.5000-0.4701 (  2420 PWs)   bands (ev):

   -45.1416 -21.8699 -21.8245 -21.7590  -6.3231  -5.7508  -5.5131  -4.4335
    -4.3589  -4.3050  -4.1814  -3.9694   3.1254   5.7856   6.1450   6.2976
     6.7752   8.0724   8.8984   9.1406   9.1915  10.1328

          k = 0.3333 0.3333 0.0000 (  2420 PWs)   bands (ev):

   -45.1418 -21.8283 -21.8035 -21.8034  -6.3000  -5.8058  -5.7668  -4.4420
    -4.3939  -4.2991  -4.1247  -4.1134   3.1234   6.4051   6.5027   7.3271
     7.5034   7.6273   8.3463   9.0517   9.9102  10.0121

          k = 0.3333 0.3333 0.2350 (  2425 PWs)   bands (ev):

   -45.1415 -21.8487 -21.8026 -21.8025  -6.1702  -5.8530  -5.7280  -4.4021
    -4.3867  -4.2397  -4.0703  -4.0466   3.2992   5.9421   6.0190   6.4098
     7.0587   7.5753   8.9499   9.4478   9.5019   9.9232

          k = 0.3333 0.3333-0.4701 (  2432 PWs)   bands (ev):

   -45.1412 -21.8691 -21.8017 -21.8016  -6.1005  -5.8969  -5.6178  -4.3799
    -4.3625  -4.1758  -4.0256  -3.9705   3.4478   5.5534   5.5720   6.1773
     6.8439   6.9793   8.2438   9.8351   9.8914  10.0164

          k = 0.3333-0.5000 0.0000 (  2454 PWs)   bands (ev):

   -45.1414 -21.8269 -21.8246 -21.8023  -6.1783  -5.7843  -5.7623  -4.4330
    -4.3689  -4.2327  -4.1570  -4.0770   2.9413   6.0559   6.5484   7.1370
     7.6735   7.8214   7.9492   9.0243   9.6782  10.1134

          k = 0.3333-0.5000 0.2350 (  2436 PWs)   bands (ev):

   -45.1411 -21.8474 -21.8235 -21.8015  -6.0512  -5.8074  -5.7859  -4.3926
    -4.3572  -4.1423  -4.0767  -4.0087   3.2313   5.8398   5.9924   6.0668
     6.8394   7.6559   8.4710   9.4382   9.4697  10.0866

          k = 0.3333-0.5000-0.4701 (  2424 PWs)   bands (ev):

   -45.1408 -21.8678 -21.8224 -21.8006  -6.0388  -5.8496  -5.6563  -4.3631
    -4.3363  -4.0796  -3.9951  -3.9121   3.5925   5.2851   5.4816   5.9194
     6.5973   7.0186   7.4456   9.9365  10.0621  10.1593

          k =-0.5000-0.5000 0.0000 (  2480 PWs)   bands (ev):

   -45.1410 -21.8255 -21.8234 -21.8234  -6.1230  -5.7388  -5.7388  -4.4215
    -4.3197  -4.1770  -4.1770  -4.0232   2.7537   5.9042   6.3850   7.3572
     7.3572   7.9403   7.9403   8.7905   9.1673  10.3833

          k =-0.5000-0.5000 0.2350 (  2416 PWs)   bands (ev):

   -45.1407 -21.8461 -21.8224 -21.8224  -5.9227  -5.8216  -5.8216  -4.3797
    -4.3177  -4.0356  -4.0356  -3.9915   3.1589   5.8610   5.9706   5.9706
     6.3911   7.6000   7.7992   9.4607   9.4607  10.3668

          k =-0.5000-0.5000-0.4701 (  2416 PWs)   bands (ev):

   -45.1404 -21.8665 -21.8214 -21.8214  -5.8942  -5.8942  -5.7163  -4.3379
    -4.3158  -3.9501  -3.9021  -3.9021   3.8091   5.3245   5.3245   5.7515
     6.3972   6.4195   6.7328  10.1730  10.1730  10.3504

     highest occupied level (ev):    11.0420

!    total energy              =    -380.57391480 Ry
     estimated scf accuracy    <          1.9E-11 Ry

     The total energy is the sum of the following terms:
     one-electron contribution =     -79.93461177 Ry
     hartree contribution      =      70.05504800 Ry
     xc contribution           =    -102.68591392 Ry
     ewald contribution        =    -268.00843711 Ry

     convergence has been achieved in   7 iterations

     negative rho (up, down):  1.520E-02 0.000E+00

     Forces acting on atoms (cartesian axes, Ry/au):

     atom    1 type  1   force =     0.00000000    0.00000000   -0.00107909
     atom    2 type  2   force =     0.00000000    0.00000000    0.00016711
     atom    3 type  3   force =     0.00000000    0.00000000   -0.00035498
     atom    4 type  3   force =     0.00000000    0.00000000    0.00063348
     atom    5 type  3   force =     0.00000000    0.00000000    0.00063348

     Total force =     0.001456     Total SCF correction =     0.000020


     Computing stress (Cartesian axis) and pressure


     negative rho (up, down):  1.520E-02 0.000E+00
          total   stress  (Ry/bohr**3)                   (kbar)     P=        4.93
   0.00005737   0.00000000   0.00000000            8.44        0.00        0.00
   0.00000000   0.00005737   0.00000000            0.00        8.44        0.00
   0.00000000   0.00000000  -0.00001414            0.00        0.00       -2.08

     Energy error            =      3.7E-06 Ry
     Gradient error          =      1.1E-03 Ry/Bohr

     number of scf cycles    =   5
     number of bfgs steps    =   4

     energy             old  =    -380.5739110952 Ry
     energy             new  =    -380.5739148026 Ry

     CASE: energy            _new < energy            _old

     new trust radius        =       0.0023045654 bohr
     new conv_thr            =            1.0E-10 Ry


ATOMIC_POSITIONS (crystal)
Pb               0.0000000000        0.0000000000        1.0044438857
Ti               0.5000000000        0.5000000000        0.5371531595
O                0.5000000000        0.5000000000        0.1011735809
O                0.5000000000        0.0000000000        0.6122568308
O                0.0000000000        0.5000000000        0.6122568308



     Writing config-only to output data dir ./pto_tetragonal_etam0p004.save/ :
     XML data file
     NEW-OLD atomic charge density approx. for the potential

     Check: negative core charge=   -0.000004

     negative rho (up, down):  1.519E-02 0.000E+00

     total cpu time spent up to now is       50.2 secs

     Self-consistent Calculation

     iteration #  1     ecut=    50.00 Ry     beta= 0.70
     CG style diagonalization
     ethr =  1.00E-06,  avg # of iterations =  2.8

     Threshold (ethr) on eigenvalues was too large:
     Diagonalizing with lowered threshold

     CG style diagonalization
     c_bands:  1 eigenvalues not converged
     c_bands:  1 eigenvalues not converged
     ethr =  8.20E-09,  avg # of iterations =  5.6

     negative rho (up, down):  1.519E-02 0.000E+00

     total cpu time spent up to now is       52.0 secs

     total energy              =    -380.57391841 Ry
     estimated scf accuracy    <       0.00000065 Ry

     iteration #  2     ecut=    50.00 Ry     beta= 0.70
     CG style diagonalization
     ethr =  1.48E-09,  avg # of iterations =  4.4

     negative rho (up, down):  1.519E-02 0.000E+00

     total cpu time spent up to now is       52.9 secs

     total energy              =    -380.57391851 Ry
     estimated scf accuracy    <       0.00000088 Ry

     iteration #  3     ecut=    50.00 Ry     beta= 0.70
     CG style diagonalization
     ethr =  1.48E-09,  avg # of iterations =  3.9

     negative rho (up, down):  1.519E-02 0.000E+00

     total cpu time spent up to now is       53.7 secs

     total energy              =    -380.57391873 Ry
     estimated scf accuracy    <       0.00000019 Ry

     iteration #  4     ecut=    50.00 Ry     beta= 0.70
     CG style diagonalization
     ethr =  4.38E-10,  avg # of iterations =  3.6

     negative rho (up, down):  1.519E-02 0.000E+00

     total cpu time spent up to now is       54.4 secs

     total energy              =    -380.57391877 Ry
     estimated scf accuracy    <          7.6E-09 Ry

     iteration #  5     ecut=    50.00 Ry     beta= 0.70
     CG style diagonalization
     ethr =  1.72E-11,  avg # of iterations =  4.7

     negative rho (up, down):  1.519E-02 0.000E+00

     total cpu time spent up to now is       55.3 secs

     total energy              =    -380.57391878 Ry
     estimated scf accuracy    <          3.5E-09 Ry

     iteration #  6     ecut=    50.00 Ry     beta= 0.70
     CG style diagonalization
     ethr =  8.05E-12,  avg # of iterations =  4.0

     negative rho (up, down):  1.519E-02 0.000E+00

     total cpu time spent up to now is       56.1 secs

     total energy              =    -380.57391878 Ry
     estimated scf accuracy    <          4.9E-10 Ry

     iteration #  7     ecut=    50.00 Ry     beta= 0.70
     CG style diagonalization
     ethr =  1.11E-12,  avg # of iterations =  4.9

     negative rho (up, down):  1.519E-02 0.000E+00

     total cpu time spent up to now is       57.0 secs

     End of self-consistent calculation

          k = 0.0000 0.0000 0.0000 (  2437 PWs)   bands (ev):

   -45.1450 -21.8345 -21.7441 -21.7441  -7.1748  -6.0140  -5.7569  -4.4094
    -4.4094  -4.3669  -4.2429  -4.1496   4.8134   6.7549   6.7549   7.0977
     8.6417   8.6417   8.9165   9.2296   9.4627   9.4627

          k = 0.0000 0.0000 0.2350 (  2453 PWs)   bands (ev):

   -45.1447 -21.8558 -21.7433 -21.7433  -6.9746  -5.9555  -5.6979  -4.4258
    -4.4258  -4.3656  -4.2354  -4.2231   3.9556   6.7915   6.7915   7.3404
     8.4368   8.4368   8.8409   9.3374   9.5744   9.5744

          k = 0.0000 0.0000-0.4701 (  2402 PWs)   bands (ev):

   -45.1444 -21.8770 -21.7424 -21.7424  -6.7553  -5.8918  -5.6479  -4.4420
    -4.4420  -4.3642  -4.3019  -4.2298   3.4131   6.6933   6.8064   6.8064
     8.3169   8.3169   8.7689   9.6477   9.6477  10.6047

          k = 0.0000 0.1667 0.0000 (  2423 PWs)   bands (ev):

   -45.1446 -21.8336 -21.7654 -21.7432  -7.0278  -5.9803  -5.7247  -4.4343
    -4.4077  -4.3824  -4.2461  -4.1349   4.3408   6.7824   6.8648   7.1089
     8.6561   8.6744   8.9328   9.0733   9.1439   9.5378

          k = 0.0000 0.1667 0.2350 (  2424 PWs)   bands (ev):

   -45.1443 -21.8548 -21.7644 -21.7424  -6.8440  -5.9373  -5.6596  -4.4330
    -4.4247  -4.3816  -4.2447  -4.1711   3.7280   6.5747   6.9135   7.3919
     8.1380   8.4249   8.7769   9.1338   9.2367   9.9164

          k = 0.0000 0.1667-0.4701 (  2430 PWs)   bands (ev):

   -45.1440 -21.8758 -21.7635 -21.7415  -6.6519  -5.8888  -5.5947  -4.4415
    -4.4295  -4.3809  -4.2542  -4.2025   3.2723   6.2840   6.9348   7.0683
     7.9534   8.3081   8.8443   9.2041   9.3203  10.5484

          k = 0.0000 0.3333 0.0000 (  2434 PWs)   bands (ev):

   -45.1437 -21.8319 -21.8075 -21.7414  -6.7095  -5.9066  -5.6761  -4.4708
    -4.4131  -4.4041  -4.2422  -4.1351   3.7199   6.4147   7.0512   7.1447
     8.3217   8.3800   8.7809   8.7872   9.2414  10.2283

          k = 0.0000 0.3333 0.2350 (  2417 PWs)   bands (ev):

   -45.1434 -21.8525 -21.8065 -21.7405  -6.5914  -5.8668  -5.5886  -4.4395
    -4.4226  -4.4133  -4.2391  -4.1072   3.3490   6.2851   6.9923   7.2294
     7.7826   8.1849   8.3506   8.8937   9.3832  10.3076

          k = 0.0000 0.3333-0.4701 (  2424 PWs)   bands (ev):

   -45.1431 -21.8732 -21.8053 -21.7396  -6.5015  -5.8033  -5.4755  -4.4405
    -4.4139  -4.4009  -4.2758  -4.0547   3.0270   5.9780   6.7864   7.2573
     7.6718   7.8393   8.1330   8.9484   9.8571  10.1139

          k = 0.0000-0.5000 0.0000 (  2420 PWs)   bands (ev):

   -45.1433 -21.8305 -21.8289 -21.7405  -6.5348  -5.8482  -5.6807  -4.4860
    -4.4282  -4.4025  -4.2170  -4.1651   3.5007   6.0421   7.3209   7.3850
     7.8074   7.9963   8.7080   8.8242   9.2687  11.0432

          k = 0.0000-0.5000 0.2350 (  2424 PWs)   bands (ev):

   -45.1430 -21.8512 -21.8275 -21.7396  -6.4819  -5.7760  -5.5804  -4.4515
    -4.4292  -4.4213  -4.2070  -4.1009   3.2001   6.0089   7.0311   7.2749
     7.5834   7.7758   8.4552   8.8697   9.3750  10.5349

          k = 0.0000-0.5000-0.4701 (  2436 PWs)   bands (ev):

   -45.1427 -21.8717 -21.8262 -21.7387  -6.4646  -5.6989  -5.4207  -4.4400
    -4.4302  -4.4096  -4.2605  -3.9939   2.9305   5.8333   6.4729   7.3465
     7.5891   7.7978   7.8599   8.8967   9.8238  10.1299

          k = 0.1667 0.1667 0.0000 (  2427 PWs)   bands (ev):

   -45.1441 -21.8327 -21.7646 -21.7642  -6.8831  -5.9457  -5.7156  -4.4386
    -4.4249  -4.3867  -4.2217  -4.1216   4.0192   6.7284   6.9471   7.1591
     8.1346   8.3080   9.0240   9.0664   9.4121   9.7635

          k = 0.1667 0.1667 0.2350 (  2424 PWs)   bands (ev):

   -45.1438 -21.8537 -21.7636 -21.7633  -6.7104  -5.9217  -5.6505  -4.4426
    -4.4187  -4.3808  -4.2142  -4.1359   3.6086   6.4907   6.6054   7.3255
     8.0189   8.0611   8.8366   9.2044   9.4756   9.8969

          k = 0.1667 0.1667-0.4701 (  2418 PWs)   bands (ev):

   -45.1436 -21.8746 -21.7626 -21.7624  -6.5364  -5.8974  -5.5764  -4.4552
    -4.3971  -4.3600  -4.2222  -4.1555   3.2410   6.2700   6.3699   7.0390
     7.9380   7.9858   8.7676   9.2875   9.5289  10.2628

          k = 0.1667 0.3333 0.0000 (  2415 PWs)   bands (ev):

   -45.1433 -21.8309 -21.8064 -21.7624  -6.5725  -5.8743  -5.7126  -4.4625
    -4.4127  -4.3709  -4.1968  -4.1225   3.5146   6.4181   6.9478   7.2462
     7.6349   8.1954   8.5393   9.2132   9.4025  10.3002

          k = 0.1667 0.3333 0.2350 (  2424 PWs)   bands (ev):

   -45.1430 -21.8515 -21.8054 -21.7615  -6.4513  -5.8660  -5.6382  -4.4398
    -4.4125  -4.3481  -4.1802  -4.0807   3.3581   6.2333   6.3719   6.9402
     7.3948   8.0916   8.8918   9.1681   9.4956  10.0198

          k = 0.1667 0.3333-0.4701 (  2424 PWs)   bands (ev):

   -45.1427 -21.8721 -21.8043 -21.7606  -6.3636  -5.8441  -5.5299  -4.4371
    -4.3881  -4.3098  -4.1942  -4.0272   3.1616   5.8900   6.3135   6.6727
     6.8896   7.9551   9.0220   9.2385   9.5318   9.9193

          k = 0.1667-0.5000 0.0000 (  2412 PWs)   bands (ev):

   -45.1429 -21.8296 -21.8276 -21.7615  -6.4034  -5.8190  -5.7396  -4.4649
    -4.4043  -4.3482  -4.1788  -4.1540   3.3169   6.0615   7.0520   7.3053
     7.5976   7.9573   8.3551   9.2629   9.3765  10.6342

          k = 0.1667-0.5000 0.2350 (  2416 PWs)   bands (ev):

   -45.1426 -21.8502 -21.8264 -21.7606  -6.3404  -5.7861  -5.6598  -4.4379
    -4.3984  -4.3248  -4.1606  -4.0719   3.2437   6.0138   6.2704   6.6721
     7.3627   8.2374   8.6582   9.1677   9.5004   9.9861

          k = 0.1667-0.5000-0.4701 (  2420 PWs)   bands (ev):

   -45.1423 -21.8707 -21.8251 -21.7596  -6.3256  -5.7543  -5.5125  -4.4318
    -4.3571  -4.3034  -4.1790  -3.9669   3.1264   5.7840   6.1423   6.2975
     6.7750   8.0726   8.8995   9.1396   9.1914  10.1316

          k = 0.3333 0.3333 0.0000 (  2420 PWs)   bands (ev):

   -45.1425 -21.8291 -21.8041 -21.8041  -6.3015  -5.8093  -5.7681  -4.4402
    -4.3920  -4.2968  -4.1216  -4.1115   3.1219   6.4037   6.5021   7.3264
     7.5040   7.6281   8.3464   9.0525   9.9075  10.0137

          k = 0.3333 0.3333 0.2350 (  2425 PWs)   bands (ev):

   -45.1422 -21.8494 -21.8033 -21.8032  -6.1726  -5.8561  -5.7281  -4.4003
    -4.3849  -4.2378  -4.0683  -4.0438   3.2978   5.9415   6.0184   6.4084
     7.0603   7.5761   8.9522   9.4469   9.5015   9.9207

          k = 0.3333 0.3333-0.4701 (  2432 PWs)   bands (ev):

   -45.1419 -21.8698 -21.8023 -21.8022  -6.1035  -5.8997  -5.6170  -4.3781
    -4.3606  -4.1743  -4.0237  -3.9680   3.4469   5.5532   5.5702   6.1754
     6.8451   6.9809   8.2479   9.8339   9.8886  10.0152

          k = 0.3333-0.5000 0.0000 (  2454 PWs)   bands (ev):

   -45.1421 -21.8277 -21.8252 -21.8030  -6.1789  -5.7867  -5.7660  -4.4312
    -4.3670  -4.2299  -4.1542  -4.0751   2.9393   6.0555   6.5479   7.1370
     7.6736   7.8218   7.9497   9.0249   9.6803  10.1108

          k = 0.3333-0.5000 0.2350 (  2436 PWs)   bands (ev):

   -45.1418 -21.8481 -21.8241 -21.8022  -6.0532  -5.8108  -5.7863  -4.3907
    -4.3554  -4.1405  -4.0742  -4.0065   3.2290   5.8401   5.9919   6.0663
     6.8403   7.6570   8.4741   9.4378   9.4689  10.0838

          k = 0.3333-0.5000-0.4701 (  2424 PWs)   bands (ev):

   -45.1415 -21.8685 -21.8231 -21.8013  -6.0416  -5.8527  -5.6554  -4.3613
    -4.3345  -4.0783  -3.9930  -3.9099   3.5901   5.2843   5.4816   5.9181
     6.5981   7.0202   7.4505   9.9354  10.0593  10.1585

          k =-0.5000-0.5000 0.0000 (  2480 PWs)   bands (ev):

   -45.1417 -21.8262 -21.8240 -21.8240  -6.1223  -5.7426  -5.7426  -4.4196
    -4.3179  -4.1738  -4.1738  -4.0219   2.7509   5.9036   6.3861   7.3575
     7.3575   7.9406   7.9406   8.7914   9.1699  10.3804

          k =-0.5000-0.5000 0.2350 (  2416 PWs)   bands (ev):

   -45.1414 -21.8468 -21.8230 -21.8230  -5.9218  -5.8249  -5.8249  -4.3779
    -4.3159  -4.0331  -4.0331  -3.9903   3.1552   5.8602   5.9716   5.9716
     6.3923   7.6009   7.8031   9.4603   9.4603  10.3640

          k =-0.5000-0.5000-0.4701 (  2416 PWs)   bands (ev):

   -45.1411 -21.8672 -21.8220 -21.8220  -5.8971  -5.8971  -5.7153  -4.3361
    -4.3139  -3.9491  -3.9000  -3.9000   3.8027   5.3258   5.3258   5.7503
     6.3984   6.4263   6.7339  10.1723  10.1723  10.3476

     highest occupied level (ev):    11.0432

!    total energy              =    -380.57391878 Ry
     estimated scf accuracy    <          5.3E-11 Ry

     The total energy is the sum of the following terms:
     one-electron contribution =     -79.96238473 Ry
     hartree contribution      =      70.06893823 Ry
     xc contribution           =    -102.68641711 Ry
     ewald contribution        =    -267.99405516 Ry

     convergence has been achieved in   7 iterations

     negative rho (up, down):  1.519E-02 0.000E+00

     Forces acting on atoms (cartesian axes, Ry/au):

     atom    1 type  1   force =     0.00000000    0.00000000   -0.00084635
     atom    2 type  2   force =     0.00000000    0.00000000    0.00018410
     atom    3 type  3   force =     0.00000000    0.00000000   -0.00016715
     atom    4 type  3   force =     0.00000000    0.00000000    0.00041470
     atom    5 type  3   force =     0.00000000    0.00000000    0.00041470

     Total force =     0.001059     Total SCF correction =     0.000030


     Computing stress (Cartesian axis) and pressure


     negative rho (up, down):  1.519E-02 0.000E+00
          total   stress  (Ry/bohr**3)                   (kbar)     P=        5.14
   0.00005825   0.00000000   0.00000000            8.57        0.00        0.00
   0.00000000   0.00005825   0.00000000            0.00        8.57        0.00
   0.00000000   0.00000000  -0.00001160            0.00        0.00       -1.71

     Energy error            =      4.0E-06 Ry
     Gradient error          =      8.5E-04 Ry/Bohr

     bfgs converged in   6 scf cycles and   5 bfgs steps
     (criteria: energy <  1.0E-04 Ry, force <  1.0E-03 Ry/Bohr)

     End of BFGS Geometry Optimization

     Final energy             =    -380.5739187791 Ry

     File ./pto_tetragonal_etam0p004.bfgs deleted, as requested
Begin final coordinates

ATOMIC_POSITIONS (crystal)
Pb               0.0000000000        0.0000000000        1.0044438857
Ti               0.5000000000        0.5000000000        0.5371531595
O                0.5000000000        0.5000000000        0.1011735809
O                0.5000000000        0.0000000000        0.6122568308
O                0.0000000000        0.5000000000        0.6122568308
End final coordinates



     Writing all to output data dir ./pto_tetragonal_etam0p004.save/ :
     XML data file, charge density, pseudopotentials, collected wavefunctions
 
     init_run     :      0.36s CPU      0.46s WALL (       1 calls)
     electrons    :     47.41s CPU     50.69s WALL (       6 calls)
     update_pot   :      0.02s CPU      0.02s WALL (       5 calls)
     forces       :      0.61s CPU      0.63s WALL (       6 calls)
     stress       :      5.66s CPU      5.73s WALL (       6 calls)

     Called by init_run:
     wfcinit      :      0.15s CPU      0.18s WALL (       1 calls)
     potinit      :      0.01s CPU      0.01s WALL (       1 calls)
     hinit0       :      0.11s CPU      0.14s WALL (       1 calls)

     Called by electrons:
     c_bands      :     39.86s CPU     42.32s WALL (      58 calls)
     sum_band     :      5.33s CPU      5.61s WALL (      58 calls)
     v_of_rho     :      0.09s CPU      0.09s WALL (      60 calls)
     newd         :      2.27s CPU      2.71s WALL (      60 calls)
     mix_rho      :      0.06s CPU      0.06s WALL (      58 calls)

     Called by c_bands:
     init_us_2    :      0.37s CPU      0.39s WALL (    3870 calls)
     init_us_2:cp :      0.36s CPU      0.38s WALL (    3870 calls)
     ccgdiagg     :     35.67s CPU     37.91s WALL (    1740 calls)
     wfcrot       :      4.04s CPU      4.26s WALL (    1470 calls)

     Called by *cgdiagg:
     h_psi        :     22.26s CPU     23.62s WALL (  136501 calls)
     s_psi        :      3.24s CPU      3.47s WALL (  271532 calls)

     Called by h_psi:
     h_psi:calbec :      3.51s CPU      3.73s WALL (  136501 calls)
     vloc_psi     :     16.01s CPU     17.00s WALL (  136501 calls)
     add_vuspsi   :      1.66s CPU      1.77s WALL (  136501 calls)
     hs_1psi      :     21.44s CPU     22.78s WALL (  135031 calls)
     s_1psi       :      5.08s CPU      5.39s WALL (  135031 calls)

     General routines
     calbec       :      6.28s CPU      6.67s WALL (  274172 calls)
     fft          :      0.11s CPU      0.13s WALL (     405 calls)
     ffts         :      0.01s CPU      0.01s WALL (     118 calls)
     fftw         :     13.75s CPU     14.55s WALL (  373562 calls)
     interpolate  :      0.02s CPU      0.02s WALL (      60 calls)
 
     Parallel routines
 
     PWSCF        :     54.52s CPU     58.46s WALL

 
   This run was terminated on:  20:36:54  17Nov2025            

=------------------------------------------------------------------------------=
   JOB DONE.
=------------------------------------------------------------------------------=
TACC:  Shutdown complete. Exiting. 
