TACC:  Starting up job 2474962 
TACC:  Starting parallel tasks... 

     Program PWSCF v.7.3 starts on 17Oct2025 at 19:34:45 

     This program is part of the open-source Quantum ESPRESSO suite
     for quantum simulation of materials; please cite
         "P. Giannozzi et al., J. Phys.:Condens. Matter 21 395502 (2009);
         "P. Giannozzi et al., J. Phys.:Condens. Matter 29 465901 (2017);
         "P. Giannozzi et al., J. Chem. Phys. 152 154105 (2020);
          URL http://www.quantum-espresso.org", 
     in publications or presentations arising from this work. More details at
     http://www.quantum-espresso.org/quote

     Parallel version (MPI & OpenMP), running on      10 processor cores
     Number of MPI processes:                10
     Threads/MPI process:                     1

     MPI processes distributed on     1 nodes
     183948 MiB available memory on the printing compute node when the environment starts
 
     Waiting for input...
     Reading input from standard input

     Current dimensions of program PWSCF are:
     Max number of different atomic species (ntypx) = 10
     Max number of k-points (npk) =  40000
     Max angular momentum in pseudopotentials (lmaxx) =  4
 
     R & G space division:  proc/nbgrp/npool/nimage =      10
     Subspace diagonalization in iterative solution of the eigenvalue problem:
     a serial algorithm will be used

 
     Parallelization info
     --------------------
     sticks:   dense  smooth     PW     G-vecs:    dense   smooth      PW
     Min         271      72     22                 9221     1262     213
     Max         272      73     23                 9222     1263     214
     Sum        2713     721    223                92217    12627    2133
 
     Using Slab Decomposition
 


     bravais-lattice index     =            2
     lattice parameter (alat)  =      10.2000  a.u.
     unit-cell volume          =     265.3020 (a.u.)^3
     number of atoms/cell      =            2
     number of atomic types    =            1
     number of electrons       =         8.00
     number of Kohn-Sham states=            8
     kinetic-energy cutoff     =      50.0000  Ry
     charge density cutoff     =     750.0000  Ry
     scf convergence threshold =      1.0E-08
     mixing beta               =       0.7000
     number of iterations used =            8  plain     mixing
     Exchange-correlation= SLA  PZ   NOGX NOGC
                           (   1   1   0   0   0   0   0)

     celldm(1)=  10.200000  celldm(2)=   0.000000  celldm(3)=   0.000000
     celldm(4)=   0.000000  celldm(5)=   0.000000  celldm(6)=   0.000000

     crystal axes: (cart. coord. in units of alat)
               a(1) = (  -0.500000   0.000000   0.500000 )  
               a(2) = (   0.000000   0.500000   0.500000 )  
               a(3) = (  -0.500000   0.500000   0.000000 )  

     reciprocal axes: (cart. coord. in units 2 pi/alat)
               b(1) = ( -1.000000 -1.000000  1.000000 )  
               b(2) = (  1.000000  1.000000  1.000000 )  
               b(3) = ( -1.000000  1.000000 -1.000000 )  


     PseudoPot. # 1 for Si read from file:
     /scratch/11018/zhc/Assisgnment2/Q1/1A/energy_cutoff_test/Si_LDA.UPF
     MD5 check sum: b5ade7b37ee992b02096e360e546dc2d
     Pseudo is Ultrasoft + core correction, Zval =  4.0
     Generated by new atomic code, or converted to UPF format
     Using radial grid of  899 points,  6 beta functions with: 
                l(1) =   0
                l(2) =   0
                l(3) =   1
                l(4) =   1
                l(5) =   2
                l(6) =   2
     Q(r) pseudized with  8 coefficients,  rinner =    0.900   0.900   0.900
                                                       0.900   0.900

     atomic species   valence    mass     pseudopotential
     Si                4.00    28.08550     Si( 1.00)

     48 Sym. Ops., with inversion, found (24 have fractional translation)



   Cartesian axes

     site n.     atom                  positions (alat units)
         1        Si     tau(   1) = (   0.0000000   0.0000000   0.0000000  )
         2        Si     tau(   2) = (  -0.2500000   0.2500000   0.2500000  )

     number of k points=    72
                       cart. coord. in units 2pi/alat
        k(    1) = (   0.0000000   0.0000000   0.0000000), wk =   0.0011574
        k(    2) = (  -0.0833333   0.0833333  -0.0833333), wk =   0.0092593
        k(    3) = (  -0.1666667   0.1666667  -0.1666667), wk =   0.0092593
        k(    4) = (  -0.2500000   0.2500000  -0.2500000), wk =   0.0092593
        k(    5) = (  -0.3333333   0.3333333  -0.3333333), wk =   0.0092593
        k(    6) = (  -0.4166667   0.4166667  -0.4166667), wk =   0.0092593
        k(    7) = (   0.5000000  -0.5000000   0.5000000), wk =   0.0046296
        k(    8) = (   0.0000000   0.1666667   0.0000000), wk =   0.0069444
        k(    9) = (  -0.0833333   0.2500000  -0.0833333), wk =   0.0277778
        k(   10) = (  -0.1666667   0.3333333  -0.1666667), wk =   0.0277778
        k(   11) = (  -0.2500000   0.4166667  -0.2500000), wk =   0.0277778
        k(   12) = (  -0.3333333   0.5000000  -0.3333333), wk =   0.0277778
        k(   13) = (   0.5833333  -0.4166667   0.5833333), wk =   0.0277778
        k(   14) = (   0.5000000  -0.3333333   0.5000000), wk =   0.0277778
        k(   15) = (   0.4166667  -0.2500000   0.4166667), wk =   0.0277778
        k(   16) = (   0.3333333  -0.1666667   0.3333333), wk =   0.0277778
        k(   17) = (   0.2500000  -0.0833333   0.2500000), wk =   0.0277778
        k(   18) = (   0.1666667  -0.0000000   0.1666667), wk =   0.0138889
        k(   19) = (   0.0000000   0.3333333   0.0000000), wk =   0.0069444
        k(   20) = (  -0.0833333   0.4166667  -0.0833333), wk =   0.0277778
        k(   21) = (  -0.1666667   0.5000000  -0.1666667), wk =   0.0277778
        k(   22) = (  -0.2500000   0.5833333  -0.2500000), wk =   0.0277778
        k(   23) = (   0.6666667  -0.3333333   0.6666667), wk =   0.0277778
        k(   24) = (   0.5833333  -0.2500000   0.5833333), wk =   0.0277778
        k(   25) = (   0.5000000  -0.1666667   0.5000000), wk =   0.0277778
        k(   26) = (   0.4166667  -0.0833333   0.4166667), wk =   0.0277778
        k(   27) = (   0.3333333   0.0000000   0.3333333), wk =   0.0138889
        k(   28) = (   0.0000000   0.5000000   0.0000000), wk =   0.0069444
        k(   29) = (  -0.0833333   0.5833333  -0.0833333), wk =   0.0277778
        k(   30) = (  -0.1666667   0.6666667  -0.1666667), wk =   0.0277778
        k(   31) = (   0.7500000  -0.2500000   0.7500000), wk =   0.0277778
        k(   32) = (   0.6666667  -0.1666667   0.6666667), wk =   0.0277778
        k(   33) = (   0.5833333  -0.0833333   0.5833333), wk =   0.0277778
        k(   34) = (   0.5000000   0.0000000   0.5000000), wk =   0.0138889
        k(   35) = (   0.0000000   0.6666667   0.0000000), wk =   0.0069444
        k(   36) = (  -0.0833333   0.7500000  -0.0833333), wk =   0.0277778
        k(   37) = (   0.8333333  -0.1666667   0.8333333), wk =   0.0277778
        k(   38) = (   0.7500000  -0.0833333   0.7500000), wk =   0.0277778
        k(   39) = (   0.6666667  -0.0000000   0.6666667), wk =   0.0138889
        k(   40) = (   0.0000000   0.8333333   0.0000000), wk =   0.0069444
        k(   41) = (   0.9166667  -0.0833333   0.9166667), wk =   0.0277778
        k(   42) = (   0.8333333   0.0000000   0.8333333), wk =   0.0138889
        k(   43) = (   0.0000000  -1.0000000   0.0000000), wk =   0.0034722
        k(   44) = (  -0.1666667   0.3333333   0.0000000), wk =   0.0277778
        k(   45) = (  -0.2500000   0.4166667  -0.0833333), wk =   0.0555556
        k(   46) = (  -0.3333333   0.5000000  -0.1666667), wk =   0.0555556
        k(   47) = (   0.5833333  -0.4166667   0.7500000), wk =   0.0555556
        k(   48) = (   0.5000000  -0.3333333   0.6666667), wk =   0.0277778
        k(   49) = (  -0.1666667   0.5000000   0.0000000), wk =   0.0277778
        k(   50) = (  -0.2500000   0.5833333  -0.0833333), wk =   0.0555556
        k(   51) = (   0.6666667  -0.3333333   0.8333333), wk =   0.0555556
        k(   52) = (   0.5833333  -0.2500000   0.7500000), wk =   0.0555556
        k(   53) = (   0.5000000  -0.1666667   0.6666667), wk =   0.0555556
        k(   54) = (   0.4166667  -0.0833333   0.5833333), wk =   0.0555556
        k(   55) = (   0.3333333   0.0000000   0.5000000), wk =   0.0277778
        k(   56) = (  -0.1666667   0.6666667  -0.0000000), wk =   0.0277778
        k(   57) = (   0.7500000  -0.2500000   0.9166667), wk =   0.0555556
        k(   58) = (   0.6666667  -0.1666667   0.8333333), wk =   0.0555556
        k(   59) = (   0.5833333  -0.0833333   0.7500000), wk =   0.0555556
        k(   60) = (   0.5000000   0.0000000   0.6666667), wk =   0.0277778
        k(   61) = (   0.8333333  -0.1666667   1.0000000), wk =   0.0277778
        k(   62) = (   0.7500000  -0.0833333   0.9166667), wk =   0.0555556
        k(   63) = (   0.6666667   0.0000000   0.8333333), wk =   0.0277778
        k(   64) = (  -0.1666667  -1.0000000  -0.0000000), wk =   0.0138889
        k(   65) = (   0.6666667  -0.3333333   1.0000000), wk =   0.0277778
        k(   66) = (   0.5833333  -0.2500000   0.9166667), wk =   0.0555556
        k(   67) = (   0.5000000  -0.1666667   0.8333333), wk =   0.0277778
        k(   68) = (   0.6666667  -0.1666667   1.0000000), wk =   0.0277778
        k(   69) = (   0.5833333  -0.0833333   0.9166667), wk =   0.0555556
        k(   70) = (   0.5000000   0.0000000   0.8333333), wk =   0.0277778
        k(   71) = (  -0.3333333  -1.0000000   0.0000000), wk =   0.0138889
        k(   72) = (  -0.5000000  -1.0000000   0.0000000), wk =   0.0069444

     Dense  grid:    92217 G-vectors     FFT dimensions: (  64,  64,  64)

     Smooth grid:    12627 G-vectors     FFT dimensions: (  36,  36,  36)

     Estimated max dynamical RAM per process >      37.72 MB

     Estimated total dynamical RAM >     377.18 MB

     Initial potential from superposition of free atoms

     starting charge       7.9988, renormalised to       8.0000
     Starting wfcs are    8 randomized atomic wfcs

     total cpu time spent up to now is        0.4 secs

     Self-consistent Calculation

     iteration #  1     ecut=    50.00 Ry     beta= 0.70
     CG style diagonalization
     ethr =  1.00E-02,  avg # of iterations =  3.7

     Threshold (ethr) on eigenvalues was too large:
     Diagonalizing with lowered threshold

     CG style diagonalization
     ethr =  7.35E-04,  avg # of iterations =  2.0

     total cpu time spent up to now is        1.4 secs

     total energy              =     -19.25702285 Ry
     estimated scf accuracy    <       0.05929104 Ry

     iteration #  2     ecut=    50.00 Ry     beta= 0.70
     CG style diagonalization
     ethr =  7.41E-04,  avg # of iterations =  3.0

     total cpu time spent up to now is        1.9 secs

     total energy              =     -19.26039384 Ry
     estimated scf accuracy    <       0.00170578 Ry

     iteration #  3     ecut=    50.00 Ry     beta= 0.70
     CG style diagonalization
     ethr =  2.13E-05,  avg # of iterations =  3.8

     total cpu time spent up to now is        2.4 secs

     total energy              =     -19.26059892 Ry
     estimated scf accuracy    <       0.00003823 Ry

     iteration #  4     ecut=    50.00 Ry     beta= 0.70
     CG style diagonalization
     ethr =  4.78E-07,  avg # of iterations =  4.4

     total cpu time spent up to now is        3.1 secs

     total energy              =     -19.26063432 Ry
     estimated scf accuracy    <       0.00000013 Ry

     iteration #  5     ecut=    50.00 Ry     beta= 0.70
     CG style diagonalization
     ethr =  1.64E-09,  avg # of iterations =  4.2

     total cpu time spent up to now is        3.7 secs

     End of self-consistent calculation

          k = 0.0000 0.0000 0.0000 (  1591 PWs)   bands (ev):

    -5.8903   6.1994   6.1994   6.1994   8.7356   8.7356   8.7356   9.5916

          k =-0.0833 0.0833-0.0833 (  1570 PWs)   bands (ev):

    -5.7979   5.3283   6.0524   6.0524   8.7806   8.9511   8.9511  10.2494

          k =-0.1667 0.1667-0.1667 (  1570 PWs)   bands (ev):

    -5.5234   3.7860   5.7407   5.7407   8.5159   9.3920   9.3920  11.6616

          k =-0.2500 0.2500-0.2500 (  1582 PWs)   bands (ev):

    -5.0774   2.2188   5.4280   5.4280   8.1857   9.6830   9.6830  13.1024

          k =-0.3333 0.3333-0.3333 (  1591 PWs)   bands (ev):

    -4.4892   0.7904   5.1858   5.1858   7.9154   9.6724   9.6724  13.9477

          k =-0.4167 0.4167-0.4167 (  1586 PWs)   bands (ev):

    -3.8533  -0.3612   5.0368   5.0368   7.7452   9.5508   9.5508  13.8360

          k = 0.5000-0.5000 0.5000 (  1568 PWs)   bands (ev):

    -3.5073  -0.8806   4.9869   4.9869   7.6876   9.4932   9.4932  13.7463

          k = 0.0000 0.1667 0.0000 (  1571 PWs)   bands (ev):

    -5.7669   5.5051   5.7577   5.7577   8.4434   9.3263   9.3264  10.2292

          k =-0.0833 0.2500-0.0833 (  1568 PWs)   bands (ev):

    -5.5526   4.2516   5.3871   5.5849   8.4602   9.4159   9.8710  11.0986

          k =-0.1667 0.3333-0.1667 (  1574 PWs)   bands (ev):

    -5.1624   2.7279   5.0704   5.2552   8.5895   9.4003  10.2553  11.5511

          k =-0.2500 0.4167-0.2500 (  1588 PWs)   bands (ev):

    -4.6166   1.2695   4.8594   4.8966   8.4486   9.4639  10.2679  12.1210

          k =-0.3333 0.5000-0.3333 (  1577 PWs)   bands (ev):

    -3.9770   0.0172   4.5959   4.7707   8.2837   9.4146  10.0612  13.1696

          k = 0.5833-0.4167 0.5833 (  1576 PWs)   bands (ev):

    -3.4707  -0.7719   4.3871   4.8042   8.2049   9.4087   9.8541  13.9971

          k = 0.5000-0.3333 0.5000 (  1581 PWs)   bands (ev):

    -3.5960  -0.5890   4.2886   4.9511   8.2344   9.5254   9.7415  14.0930

          k = 0.4167-0.2500 0.4167 (  1586 PWs)   bands (ev):

    -4.1941   0.4048   4.3138   5.1950   8.3707   9.7142   9.7426  13.6215

          k = 0.3333-0.1667 0.3333 (  1584 PWs)   bands (ev):

    -4.8145   1.7414   4.4730   5.5098   8.6010   9.6429   9.9100  12.6805

          k = 0.2500-0.0833 0.2500 (  1570 PWs)   bands (ev):

    -5.3119   3.2226   4.7789   5.8438   8.8902   9.3477   9.7069  11.9261

          k = 0.1667-0.0000 0.1667 (  1566 PWs)   bands (ev):

    -5.6446   4.5946   5.3099   6.0820   8.9873   9.1225   9.1317  11.0410

          k = 0.0000 0.3333 0.0000 (  1559 PWs)   bands (ev):

    -5.3987   4.1566   4.9803   4.9803   7.8289  10.4649  10.5430  10.5430

          k =-0.0833 0.4167-0.0833 (  1583 PWs)   bands (ev):

    -5.0663   3.0528   4.6274   4.6412   7.8467  10.0443  10.8611  11.1080

          k =-0.1667 0.5000-0.1667 (  1592 PWs)   bands (ev):

    -4.5697   1.7194   4.1651   4.4207   8.0868  10.2242  10.6839  11.2685

          k =-0.2500 0.5833-0.2500 (  1591 PWs)   bands (ev):

    -3.9496   0.4616   3.7177   4.3372   8.1267  10.4372  11.0777  11.1979

          k = 0.6667-0.3333 0.6667 (  1585 PWs)   bands (ev):

    -3.3502  -0.4946   3.3665   4.3937   8.1591  10.2814  10.7968  12.5863

          k = 0.5833-0.2500 0.5833 (  1576 PWs)   bands (ev):

    -3.2313  -0.6597   3.1469   4.5823   8.3121  10.2256  10.5666  14.1461

          k = 0.5000-0.1667 0.5000 (  1578 PWs)   bands (ev):

    -3.7457   0.1190   3.0857   4.8836   8.5919  10.2738  10.4028  13.4550

          k = 0.4167-0.0833 0.4167 (  1574 PWs)   bands (ev):

    -4.3837   1.2897   3.2268   5.2590   8.9435  10.1819  10.3285  12.2928

          k = 0.3333 0.0000 0.3333 (  1574 PWs)   bands (ev):

    -4.9254   2.4504   3.7221   5.6300   9.2214   9.7395  10.0024  11.8245

          k = 0.0000 0.5000 0.0000 (  1587 PWs)   bands (ev):

    -4.7915   2.6691   4.2729   4.2729   7.2300   9.2382  11.9634  11.9635

          k =-0.0833 0.5833-0.0833 (  1587 PWs)   bands (ev):

    -4.3478   1.7480   3.7927   4.0233   7.3147   8.8767  12.2496  12.4442

          k =-0.1667 0.6667-0.1667 (  1588 PWs)   bands (ev):

    -3.7619   0.7016   3.1416   3.9156   7.5274   9.3666  12.1104  12.3945

          k = 0.7500-0.2500 0.7500 (  1592 PWs)   bands (ev):

    -3.1232  -0.2452   2.5822   3.9561   7.6119  10.5805  11.9416  12.1099

          k = 0.6667-0.1667 0.6667 (  1579 PWs)   bands (ev):

    -2.7879  -0.6732   2.2103   4.1402   7.7965  11.6022  11.8091  12.3599

          k = 0.5833-0.0833 0.5833 (  1580 PWs)   bands (ev):

    -3.1745  -0.1652   2.0840   4.4513   8.1332  11.5114  11.5969  13.3528

          k = 0.5000 0.0000 0.5000 (  1576 PWs)   bands (ev):

    -3.8107   0.6737   2.3501   4.8517   8.5796  10.9808  11.2867  12.3164

          k = 0.0000 0.6667 0.0000 (  1580 PWs)   bands (ev):

    -3.9563   1.1615   3.7379   3.7379   6.8095   8.0704  13.4748  13.4748

          k =-0.0833 0.7500-0.0833 (  1594 PWs)   bands (ev):

    -3.4127   0.3666   3.2320   3.5936   6.9728   7.9456  13.7972  13.8430

          k = 0.8333-0.1667 0.8333 (  1596 PWs)   bands (ev):

    -2.7711  -0.4124   2.4759   3.6006   7.1408   8.8304  13.6562  13.6826

          k = 0.7500-0.0833 0.7500 (  1589 PWs)   bands (ev):

    -2.2874  -0.9154   1.8777   3.7576   7.3208  10.2976  13.3029  13.5082

          k = 0.6667-0.0000 0.6667 (  1578 PWs)   bands (ev):

    -2.5638  -0.6268   1.6694   4.0517   7.6583  11.9369  12.6816  13.6247

          k = 0.0000 0.8333 0.0000 (  1600 PWs)   bands (ev):

    -2.9108  -0.3075   3.4085   3.4085   6.6428   7.2429  15.0410  15.0411

          k = 0.9167-0.0833 0.9167 (  1592 PWs)   bands (ev):

    -2.2868  -1.0042   2.9555   3.3746   6.8427   7.4261  15.2887  15.3844

          k = 0.8333 0.0000 0.8333 (  1600 PWs)   bands (ev):

    -1.8169  -1.4169   2.2556   3.4939   7.0043   8.6563  14.7430  15.2673

          k = 0.0000-1.0000 0.0000 (  1588 PWs)   bands (ev):

    -1.6817  -1.6817   3.2975   3.2975   6.7754   6.7754  16.3291  16.3291

          k =-0.1667 0.3333 0.0000 (  1575 PWs)   bands (ev):

    -5.2796   3.4513   4.5218   5.4834   8.4819   9.7457  10.3432  11.0602

          k =-0.2500 0.4167-0.0833 (  1582 PWs)   bands (ev):

    -4.8358   2.1912   3.9816   5.2028   8.7652   9.7047  10.7460  11.0299

          k =-0.3333 0.5000-0.1667 (  1587 PWs)   bands (ev):

    -4.2496   0.8660   3.7121   4.8684   8.8101   9.5493  10.8024  11.6933

          k = 0.5833-0.4167 0.7500 (  1584 PWs)   bands (ev):

    -3.6127  -0.2467   3.5860   4.6164   8.7606   9.3343  10.7168  12.9241

          k = 0.5000-0.3333 0.6667 (  1580 PWs)   bands (ev):

    -3.2627  -0.7591   3.5511   4.5226   8.7437   9.2390  10.6700  14.2144

          k =-0.1667 0.5000 0.0000 (  1582 PWs)   bands (ev):

    -4.6789   2.2557   3.8136   4.5422   7.9118   9.6484  11.0072  11.8377

          k =-0.2500 0.5833-0.0833 (  1586 PWs)   bands (ev):

    -4.1368   1.1890   3.2654   4.2448   8.2450   9.8703  10.7441  12.2211

          k = 0.6667-0.3333 0.8333 (  1581 PWs)   bands (ev):

    -3.4979   0.1120   2.9050   4.0281   8.3611  10.3624  10.9722  12.1994

          k = 0.5833-0.2500 0.7500 (  1577 PWs)   bands (ev):

    -2.9860  -0.6142   2.6552   4.0097   8.4916  10.0887  12.0835  12.4524

          k = 0.5000-0.1667 0.6667 (  1582 PWs)   bands (ev):

    -3.1259  -0.4216   2.5320   4.1869   8.7506   9.8945  12.0040  12.8303

          k = 0.4167-0.0833 0.5833 (  1586 PWs)   bands (ev):

    -3.7315   0.4778   2.6016   4.5121   9.1264   9.7522  11.4533  11.9465

          k = 0.3333 0.0000 0.5000 (  1583 PWs)   bands (ev):

    -4.3461   1.4745   3.0209   4.9041   9.3642   9.5294  10.8061  11.5232

          k =-0.1667 0.6667-0.0000 (  1583 PWs)   bands (ev):

    -3.8554   0.9834   3.2954   3.7374   7.4977   8.5718  12.2612  13.4214

          k = 0.7500-0.2500 0.9167 (  1589 PWs)   bands (ev):

    -3.2381   0.1367   2.6881   3.5129   7.8295   9.1224  11.9514  13.7905

          k = 0.6667-0.1667 0.8333 (  1585 PWs)   bands (ev):

    -2.6338  -0.5938   2.1516   3.5213   7.9823  10.4335  11.6531  13.7230

          k = 0.5833-0.0833 0.7500 (  1586 PWs)   bands (ev):

    -2.5584  -0.6685   1.8535   3.7248   8.2458  11.2109  12.2202  12.9227

          k = 0.5000 0.0000 0.6667 (  1581 PWs)   bands (ev):

    -3.1091  -0.0669   1.9410   4.0785   8.6508  10.8059  11.6657  13.0222

          k = 0.8333-0.1667 1.0000 (  1594 PWs)   bands (ev):

    -2.8309  -0.3428   3.0072   3.2093   7.3153   7.8192  13.6423  15.0374

          k = 0.7500-0.0833 0.9167 (  1596 PWs)   bands (ev):

    -2.1888  -0.9938   2.3517   3.1637   7.6057   8.7546  13.3145  14.8100

          k = 0.6667 0.0000 0.8333 (  1584 PWs)   bands (ev):

    -2.0243  -1.1132   1.8352   3.3654   7.8485  10.3040  12.8532  13.2364

          k =-0.1667-1.0000-0.0000 (  1602 PWs)   bands (ev):

    -1.6411  -1.6411   2.9718   2.9718   7.4103   7.4103  15.1210  15.1210

          k = 0.6667-0.3333 1.0000 (  1587 PWs)   bands (ev):

    -3.5620   0.5167   2.5399   3.8508   8.9890   9.8238  10.4160  13.2679

          k = 0.5833-0.2500 0.9167 (  1592 PWs)   bands (ev):

    -2.9240  -0.2664   2.1859   3.5027   9.3555   9.9097  10.9161  13.6955

          k = 0.5000-0.1667 0.8333 (  1584 PWs)   bands (ev):

    -2.5528  -0.7079   2.0926   3.3692   9.4696   9.7167  12.2562  12.7081

          k = 0.6667-0.1667 1.0000 (  1586 PWs)   bands (ev):

    -2.6098  -0.4870   2.3359   2.9696   8.8069   9.1984  11.5636  14.5108

          k = 0.5833-0.0833 0.9167 (  1590 PWs)   bands (ev):

    -2.0737  -1.0014   2.0078   2.8106   9.1455  10.4138  11.2908  12.6773

          k = 0.5000 0.0000 0.8333 (  1589 PWs)   bands (ev):

    -2.3087  -0.7697   1.8791   3.0422   9.4506  10.6195  11.1647  12.4232

          k =-0.3333-1.0000 0.0000 (  1586 PWs)   bands (ev):

    -1.5538  -1.5538   2.4613   2.4613   8.8657   8.8657  12.9499  12.9499

          k =-0.5000-1.0000 0.0000 (  1604 PWs)   bands (ev):

    -1.5064  -1.5064   2.2438   2.2438  10.3881  10.3881  11.1894  11.1894

     highest occupied, lowest unoccupied level (ev):     6.1994    6.6428

!    total energy              =     -19.26063490 Ry
     estimated scf accuracy    <          1.6E-09 Ry

     The total energy is the sum of the following terms:
     one-electron contribution =       5.18350445 Ry
     hartree contribution      =       1.09839865 Ry
     xc contribution           =      -8.64277943 Ry
     ewald contribution        =     -16.89975857 Ry

     convergence has been achieved in   5 iterations

     Forces acting on atoms (cartesian axes, Ry/au):

     atom    1 type  1   force =     0.00000000    0.00000000   -0.00000000
     atom    2 type  1   force =     0.00000000    0.00000000    0.00000000

     Total force =     0.000000     Total SCF correction =     0.000000


     Computing stress (Cartesian axis) and pressure

          total   stress  (Ry/bohr**3)                   (kbar)     P=        1.47
   0.00001002  -0.00000000  -0.00000000            1.47       -0.00       -0.00
  -0.00000000   0.00001002   0.00000000           -0.00        1.47        0.00
  -0.00000000   0.00000000   0.00001002           -0.00        0.00        1.47


     Writing all to output data dir ./Si_50.save/ :
     XML data file, charge density, pseudopotentials, collected wavefunctions
 
     init_run     :      0.24s CPU      0.31s WALL (       1 calls)
     electrons    :      3.02s CPU      3.28s WALL (       1 calls)
     forces       :      0.06s CPU      0.07s WALL (       1 calls)
     stress       :      0.39s CPU      0.40s WALL (       1 calls)

     Called by init_run:
     wfcinit      :      0.08s CPU      0.11s WALL (       1 calls)
     potinit      :      0.01s CPU      0.01s WALL (       1 calls)
     hinit0       :      0.04s CPU      0.07s WALL (       1 calls)

     Called by electrons:
     c_bands      :      2.46s CPU      2.63s WALL (       6 calls)
     sum_band     :      0.44s CPU      0.48s WALL (       6 calls)
     v_of_rho     :      0.01s CPU      0.01s WALL (       6 calls)
     newd         :      0.12s CPU      0.16s WALL (       6 calls)
     mix_rho      :      0.00s CPU      0.01s WALL (       6 calls)

     Called by c_bands:
     init_us_2    :      0.05s CPU      0.05s WALL (    1080 calls)
     init_us_2:cp :      0.05s CPU      0.05s WALL (    1080 calls)
     ccgdiagg     :      2.14s CPU      2.29s WALL (     432 calls)
     wfcrot       :      0.35s CPU      0.39s WALL (     360 calls)

     Called by *cgdiagg:
     h_psi        :      1.56s CPU      1.68s WALL (   10195 calls)
     s_psi        :      0.10s CPU      0.10s WALL (   20030 calls)

     Called by h_psi:
     h_psi:calbec :      0.19s CPU      0.21s WALL (   10195 calls)
     vloc_psi     :      1.24s CPU      1.33s WALL (   10195 calls)
     add_vuspsi   :      0.05s CPU      0.06s WALL (   10195 calls)
     hs_1psi      :      1.38s CPU      1.48s WALL (    9835 calls)
     s_1psi       :      0.24s CPU      0.26s WALL (    9835 calls)

     General routines
     calbec       :      0.35s CPU      0.38s WALL (   20822 calls)
     fft          :      0.02s CPU      0.03s WALL (      43 calls)
     ffts         :      0.00s CPU      0.00s WALL (      12 calls)
     fftw         :      1.02s CPU      1.08s WALL (   28886 calls)
     interpolate  :      0.00s CPU      0.00s WALL (       6 calls)
 
     Parallel routines
 
     PWSCF        :      3.86s CPU      4.60s WALL

 
   This run was terminated on:  19:34:50  17Oct2025            

=------------------------------------------------------------------------------=
   JOB DONE.
=------------------------------------------------------------------------------=
TACC:  Shutdown complete. Exiting. 
