TACC:  Starting up job 2547148 
TACC:  Starting parallel tasks... 

     Program PWSCF v.7.3 starts on 13Nov2025 at  0:39:33 

     This program is part of the open-source Quantum ESPRESSO suite
     for quantum simulation of materials; please cite
         "P. Giannozzi et al., J. Phys.:Condens. Matter 21 395502 (2009);
         "P. Giannozzi et al., J. Phys.:Condens. Matter 29 465901 (2017);
         "P. Giannozzi et al., J. Chem. Phys. 152 154105 (2020);
          URL http://www.quantum-espresso.org", 
     in publications or presentations arising from this work. More details at
     http://www.quantum-espresso.org/quote

     Parallel version (MPI & OpenMP), running on      10 processor cores
     Number of MPI processes:                10
     Threads/MPI process:                     1

     MPI processes distributed on     1 nodes
     188691 MiB available memory on the printing compute node when the environment starts
 
     Waiting for input...
     Reading input from standard input
Warning: card &CELL ignored
Warning: card  CELL_DYNAMICS = 'BFGS', ignored
Warning: card  PRESS=0.D0, ignored
Warning: card / ignored

     Current dimensions of program PWSCF are:
     Max number of different atomic species (ntypx) = 10
     Max number of k-points (npk) =  40000
     Max angular momentum in pseudopotentials (lmaxx) =  4
     Message from routine setup:
     using ibrav=0 with symmetry is DISCOURAGED, use correct ibrav instead
 
     R & G space division:  proc/nbgrp/npool/nimage =      10
     Subspace diagonalization in iterative solution of the eigenvalue problem:
     a serial algorithm will be used

 
     Parallelization info
     --------------------
     sticks:   dense  smooth     PW     G-vecs:    dense   smooth      PW
     Min         649     259     72                41311    10433    1550
     Max         650     260     73                41314    10436    1553
     Sum        6493    2593    725               413131   104341   15515
 
     Using Slab Decomposition
 


     bravais-lattice index     =            0
     lattice parameter (alat)  =       7.3699  a.u.
     unit-cell volume          =     420.8329 (a.u.)^3
     number of atoms/cell      =            5
     number of atomic types    =            3
     number of electrons       =        44.00
     number of Kohn-Sham states=           22
     kinetic-energy cutoff     =     150.0000  Ry
     charge density cutoff     =    1500.0000  Ry
     scf convergence threshold =      1.0E-08
     mixing beta               =       0.7000
     number of iterations used =            8  plain     mixing
     energy convergence thresh.=      1.0E-04
     force convergence thresh. =      1.0E-03
     Exchange-correlation= SLA  PZ   NOGX NOGC
                           (   1   1   0   0   0   0   0)
     nstep                     =           50


     celldm(1)=   7.369932  celldm(2)=   0.000000  celldm(3)=   0.000000
     celldm(4)=   0.000000  celldm(5)=   0.000000  celldm(6)=   0.000000

     crystal axes: (cart. coord. in units of alat)
               a(1) = (   1.000000   0.000000   0.000000 )  
               a(2) = (   0.000000   1.000000   0.000000 )  
               a(3) = (   0.000000   0.000000   1.051282 )  

     reciprocal axes: (cart. coord. in units 2 pi/alat)
               b(1) = (  1.000000  0.000000  0.000000 )  
               b(2) = (  0.000000  1.000000  0.000000 )  
               b(3) = (  0.000000  0.000000  0.951220 )  


     PseudoPot. # 1 for Pb read from file:
     /scratch/11018/zhc/assisgnment3/input_files/Pb_LDA.UPF
     MD5 check sum: 062a37469794d955244864f8fe2e5624
     Pseudo is Ultrasoft + core correction, Zval = 14.0
     Generated by new atomic code, or converted to UPF format
     Using radial grid of  899 points,  6 beta functions with: 
                l(1) =   0
                l(2) =   0
                l(3) =   1
                l(4) =   1
                l(5) =   2
                l(6) =   2
     Q(r) pseudized with  6 coefficients,  rinner =    1.000   1.000   1.000
                                                       1.000   1.000

     PseudoPot. # 2 for Ti read from file:
     /scratch/11018/zhc/assisgnment3/input_files/Ti_LDA.UPF
     MD5 check sum: 0d9f225c038fe889ca2a701dcc8d72cb
     Pseudo is Ultrasoft + core correction, Zval = 12.0
     Generated by new atomic code, or converted to UPF format
     Using radial grid of  851 points,  6 beta functions with: 
                l(1) =   0
                l(2) =   0
                l(3) =   1
                l(4) =   1
                l(5) =   2
                l(6) =   2
     Q(r) pseudized with  6 coefficients,  rinner =    1.000   1.000   1.000
                                                       1.000   1.000

     PseudoPot. # 3 for O  read from file:
     /scratch/11018/zhc/assisgnment3/input_files/O_LDA.UPF
     MD5 check sum: 194b818514d2a7dbb603bb78519a4f40
     Pseudo is Ultrasoft + core correction, Zval =  6.0
     Generated by new atomic code, or converted to UPF format
     Using radial grid of  737 points,  5 beta functions with: 
                l(1) =   0
                l(2) =   0
                l(3) =   1
                l(4) =   1
                l(5) =   2
     Q(r) pseudized with  8 coefficients,  rinner =    0.900   0.900   0.900
                                                       0.900   0.900

     atomic species   valence    mass     pseudopotential
     Pb               14.00   207.20000     Pb( 1.00)
     Ti               12.00    47.88000     Ti( 1.00)
     O                 6.00    16.00000     O ( 1.00)

      8 Sym. Ops. (no inversion) found



   Cartesian axes

     site n.     atom                  positions (alat units)
         1        Pb     tau(   1) = (   0.0000000   0.0000000   1.0580339  )
         2        Ti     tau(   2) = (   0.5000000   0.5000000   0.5681377  )
         3        O      tau(   3) = (   0.5000000   0.5000000   0.1036357  )
         4        O      tau(   4) = (   0.5000000   0.0000000   0.6422586  )
         5        O      tau(   5) = (   0.0000000   0.5000000   0.6422586  )

     number of k points=    30
                       cart. coord. in units 2pi/alat
        k(    1) = (   0.0000000   0.0000000   0.0000000), wk =   0.0138889
        k(    2) = (   0.0000000   0.0000000   0.2378049), wk =   0.0277778
        k(    3) = (   0.0000000   0.0000000  -0.4756098), wk =   0.0138889
        k(    4) = (   0.0000000   0.1666667   0.0000000), wk =   0.0555556
        k(    5) = (   0.0000000   0.1666667   0.2378049), wk =   0.1111111
        k(    6) = (   0.0000000   0.1666667  -0.4756098), wk =   0.0555556
        k(    7) = (   0.0000000   0.3333333   0.0000000), wk =   0.0555556
        k(    8) = (   0.0000000   0.3333333   0.2378049), wk =   0.1111111
        k(    9) = (   0.0000000   0.3333333  -0.4756098), wk =   0.0555556
        k(   10) = (   0.0000000  -0.5000000   0.0000000), wk =   0.0277778
        k(   11) = (   0.0000000  -0.5000000   0.2378049), wk =   0.0555556
        k(   12) = (   0.0000000  -0.5000000  -0.4756098), wk =   0.0277778
        k(   13) = (   0.1666667   0.1666667   0.0000000), wk =   0.0555556
        k(   14) = (   0.1666667   0.1666667   0.2378049), wk =   0.1111111
        k(   15) = (   0.1666667   0.1666667  -0.4756098), wk =   0.0555556
        k(   16) = (   0.1666667   0.3333333   0.0000000), wk =   0.1111111
        k(   17) = (   0.1666667   0.3333333   0.2378049), wk =   0.2222222
        k(   18) = (   0.1666667   0.3333333  -0.4756098), wk =   0.1111111
        k(   19) = (   0.1666667  -0.5000000   0.0000000), wk =   0.0555556
        k(   20) = (   0.1666667  -0.5000000   0.2378049), wk =   0.1111111
        k(   21) = (   0.1666667  -0.5000000  -0.4756098), wk =   0.0555556
        k(   22) = (   0.3333333   0.3333333   0.0000000), wk =   0.0555556
        k(   23) = (   0.3333333   0.3333333   0.2378049), wk =   0.1111111
        k(   24) = (   0.3333333   0.3333333  -0.4756098), wk =   0.0555556
        k(   25) = (   0.3333333  -0.5000000   0.0000000), wk =   0.0555556
        k(   26) = (   0.3333333  -0.5000000   0.2378049), wk =   0.1111111
        k(   27) = (   0.3333333  -0.5000000  -0.4756098), wk =   0.0555556
        k(   28) = (  -0.5000000  -0.5000000   0.0000000), wk =   0.0138889
        k(   29) = (  -0.5000000  -0.5000000   0.2378049), wk =   0.0277778
        k(   30) = (  -0.5000000  -0.5000000  -0.4756098), wk =   0.0138889

     Dense  grid:   413131 G-vectors     FFT dimensions: (  96,  96,  96)

     Smooth grid:   104341 G-vectors     FFT dimensions: (  60,  60,  64)

     Estimated max dynamical RAM per process >     176.89 MB

     Estimated total dynamical RAM >       1.73 GB

     Initial potential from superposition of free atoms

     starting charge      42.9982, renormalised to      44.0000

     negative rho (up, down):  1.718E-02 0.000E+00
     Starting wfcs are   31 randomized atomic wfcs

     total cpu time spent up to now is        1.4 secs

     Self-consistent Calculation

     iteration #  1     ecut=   150.00 Ry     beta= 0.70
     CG style diagonalization
     ethr =  1.00E-02,  avg # of iterations =  2.1

     negative rho (up, down):  1.457E-02 0.000E+00

     total cpu time spent up to now is        3.6 secs

     total energy              =    -380.04593702 Ry
     estimated scf accuracy    <       1.03844190 Ry

     iteration #  2     ecut=   150.00 Ry     beta= 0.70
     CG style diagonalization
     ethr =  2.36E-03,  avg # of iterations =  4.9

     negative rho (up, down):  1.476E-02 0.000E+00

     total cpu time spent up to now is        7.4 secs

     total energy              =    -379.62145182 Ry
     estimated scf accuracy    <       4.77840994 Ry

     iteration #  3     ecut=   150.00 Ry     beta= 0.70
     CG style diagonalization
     ethr =  2.36E-03,  avg # of iterations =  4.5

     negative rho (up, down):  1.552E-02 0.000E+00

     total cpu time spent up to now is       10.8 secs

     total energy              =    -380.53644256 Ry
     estimated scf accuracy    <       0.30246299 Ry

     iteration #  4     ecut=   150.00 Ry     beta= 0.70
     CG style diagonalization
     ethr =  6.87E-04,  avg # of iterations =  3.5

     negative rho (up, down):  1.566E-02 0.000E+00

     total cpu time spent up to now is       13.5 secs

     total energy              =    -380.55305534 Ry
     estimated scf accuracy    <       0.07319886 Ry

     iteration #  5     ecut=   150.00 Ry     beta= 0.70
     CG style diagonalization
     ethr =  1.66E-04,  avg # of iterations =  3.7

     negative rho (up, down):  1.567E-02 0.000E+00

     total cpu time spent up to now is       16.4 secs

     total energy              =    -380.57204772 Ry
     estimated scf accuracy    <       0.00413245 Ry

     iteration #  6     ecut=   150.00 Ry     beta= 0.70
     CG style diagonalization
     ethr =  9.39E-06,  avg # of iterations =  4.4

     negative rho (up, down):  1.564E-02 0.000E+00

     total cpu time spent up to now is       19.8 secs

     total energy              =    -380.57509368 Ry
     estimated scf accuracy    <       0.00918502 Ry

     iteration #  7     ecut=   150.00 Ry     beta= 0.70
     CG style diagonalization
     ethr =  9.39E-06,  avg # of iterations =  3.3

     negative rho (up, down):  1.562E-02 0.000E+00

     total cpu time spent up to now is       22.4 secs

     total energy              =    -380.57402886 Ry
     estimated scf accuracy    <       0.00433366 Ry

     iteration #  8     ecut=   150.00 Ry     beta= 0.70
     CG style diagonalization
     ethr =  9.39E-06,  avg # of iterations =  3.6

     negative rho (up, down):  1.564E-02 0.000E+00

     total cpu time spent up to now is       25.2 secs

     total energy              =    -380.57482836 Ry
     estimated scf accuracy    <       0.00001655 Ry

     iteration #  9     ecut=   150.00 Ry     beta= 0.70
     CG style diagonalization
     ethr =  3.76E-08,  avg # of iterations =  7.1

     negative rho (up, down):  1.568E-02 0.000E+00

     total cpu time spent up to now is       30.4 secs

     total energy              =    -380.57490180 Ry
     estimated scf accuracy    <       0.00001369 Ry

     iteration # 10     ecut=   150.00 Ry     beta= 0.70
     CG style diagonalization
     ethr =  3.11E-08,  avg # of iterations =  3.4

     negative rho (up, down):  1.574E-02 0.000E+00

     total cpu time spent up to now is       33.2 secs

     total energy              =    -380.57490024 Ry
     estimated scf accuracy    <       0.00000897 Ry

     iteration # 11     ecut=   150.00 Ry     beta= 0.70
     CG style diagonalization
     ethr =  2.04E-08,  avg # of iterations =  3.9

     negative rho (up, down):  1.575E-02 0.000E+00

     total cpu time spent up to now is       36.2 secs

     total energy              =    -380.57490268 Ry
     estimated scf accuracy    <       0.00000030 Ry

     iteration # 12     ecut=   150.00 Ry     beta= 0.70
     CG style diagonalization
     c_bands:  1 eigenvalues not converged
     c_bands:  1 eigenvalues not converged
     ethr =  6.90E-10,  avg # of iterations =  9.2

     negative rho (up, down):  1.575E-02 0.000E+00

     total cpu time spent up to now is       42.8 secs

     total energy              =    -380.57490431 Ry
     estimated scf accuracy    <       0.00000025 Ry

     iteration # 13     ecut=   150.00 Ry     beta= 0.70
     CG style diagonalization
     ethr =  5.64E-10,  avg # of iterations =  4.5

     negative rho (up, down):  1.576E-02 0.000E+00

     total cpu time spent up to now is       46.2 secs

     total energy              =    -380.57490442 Ry
     estimated scf accuracy    <       0.00000003 Ry

     iteration # 14     ecut=   150.00 Ry     beta= 0.70
     CG style diagonalization
     ethr =  7.54E-11,  avg # of iterations =  6.3

     negative rho (up, down):  1.577E-02 0.000E+00

     total cpu time spent up to now is       50.9 secs

     total energy              =    -380.57490446 Ry
     estimated scf accuracy    <       0.00000004 Ry

     iteration # 15     ecut=   150.00 Ry     beta= 0.70
     CG style diagonalization
     ethr =  7.54E-11,  avg # of iterations =  4.7

     negative rho (up, down):  1.577E-02 0.000E+00

     total cpu time spent up to now is       54.5 secs

     total energy              =    -380.57490447 Ry
     estimated scf accuracy    <       0.00000001 Ry

     iteration # 16     ecut=   150.00 Ry     beta= 0.70
     CG style diagonalization
     ethr =  2.74E-11,  avg # of iterations =  5.0

     negative rho (up, down):  1.577E-02 0.000E+00

     total cpu time spent up to now is       58.3 secs

     End of self-consistent calculation

          k = 0.0000 0.0000 0.0000 ( 13095 PWs)   bands (ev):

   -45.8570 -22.4927 -22.4305 -22.4305  -7.5122  -6.4329  -6.1997  -5.0273
    -5.0273  -4.9923  -4.8707  -4.7661   4.2240   6.3075   6.3075   6.6260
     8.2743   8.2743   8.4908   8.7787   8.9393   8.9393

          k = 0.0000 0.0000 0.2378 ( 13054 PWs)   bands (ev):

   -45.8567 -22.5122 -22.4297 -22.4297  -7.3194  -6.3740  -6.1419  -5.0425
    -5.0425  -4.9911  -4.8630  -4.8374   3.4622   6.3768   6.3768   6.7880
     8.0077   8.0077   8.4068   8.8272   9.0454   9.0454

          k = 0.0000 0.0000-0.4756 ( 13046 PWs)   bands (ev):

   -45.8564 -22.5315 -22.4290 -22.4290  -7.1087  -6.3091  -6.0920  -5.0576
    -5.0576  -4.9898  -4.9145  -4.8572   2.9644   6.1478   6.4332   6.4332
     7.8239   7.8239   8.3265   9.1155   9.1155   9.9981

          k = 0.0000 0.1667 0.0000 ( 13083 PWs)   bands (ev):

   -45.8567 -22.4920 -22.4477 -22.4298  -7.3773  -6.4036  -6.1707  -5.0480
    -5.0259  -5.0051  -4.8757  -4.7569   3.7955   6.3508   6.4164   6.6728
     8.1859   8.2980   8.4911   8.5693   8.6705   9.0378

          k = 0.0000 0.1667 0.2378 ( 13068 PWs)   bands (ev):

   -45.8564 -22.5113 -22.4468 -22.4290  -7.2002  -6.3604  -6.1076  -5.0461
    -5.0416  -5.0043  -4.8729  -4.7935   3.2508   6.1627   6.4930   6.8883
     7.6640   7.9986   8.2715   8.6923   8.7196   9.3659

          k = 0.0000 0.1667-0.4756 ( 13072 PWs)   bands (ev):

   -45.8561 -22.5306 -22.4460 -22.4282  -7.0162  -6.3114  -6.0434  -5.0571
    -5.0415  -5.0035  -4.8806  -4.8266   2.8358   5.8584   6.5523   6.5784
     7.4663   7.8268   8.3376   8.7467   8.7940   9.9272

          k = 0.0000 0.3333 0.0000 ( 13037 PWs)   bands (ev):

   -45.8560 -22.4909 -22.4815 -22.4284  -7.0837  -6.3406  -6.1268  -5.0810
    -5.0306  -5.0231  -4.8735  -4.7651   3.2187   5.9803   6.6725   6.7022
     7.8542   7.8756   8.3454   8.4078   8.7754   9.6131

          k = 0.0000 0.3333 0.2378 ( 13057 PWs)   bands (ev):

   -45.8558 -22.5096 -22.4808 -22.4276  -6.9694  -6.3016  -6.0440  -5.0511
    -5.0399  -5.0305  -4.8699  -4.7391   2.8949   5.8682   6.5586   6.7994
     7.3089   7.7474   7.8606   8.4048   8.9365   9.6814

          k = 0.0000 0.3333-0.4756 ( 13080 PWs)   bands (ev):

   -45.8555 -22.5286 -22.4798 -22.4268  -6.8847  -6.2391  -5.9338  -5.0563
    -5.0307  -5.0131  -4.9066  -4.6901   2.6069   5.5743   6.3161   6.8543
     7.2006   7.3655   7.6887   8.4116   9.3278   9.5157

          k = 0.0000-0.5000 0.0000 ( 13028 PWs)   bands (ev):

   -45.8557 -22.4990 -22.4895 -22.4277  -6.9211  -6.2938  -6.1283  -5.0964
    -5.0431  -5.0218  -4.8472  -4.7992   3.0106   5.6180   6.9600   6.9703
     7.3494   7.4681   8.2685   8.4483   8.8114  10.3557

          k = 0.0000-0.5000 0.2378 ( 13068 PWs)   bands (ev):

   -45.8555 -22.5085 -22.4979 -22.4268  -6.8693  -6.2226  -6.0358  -5.0639
    -5.0437  -5.0389  -4.8402  -4.7353   2.7516   5.5902   6.5913   6.8577
     7.1643   7.3160   7.9698   8.3932   8.9296   9.8615

          k = 0.0000-0.5000-0.4756 ( 13016 PWs)   bands (ev):

   -45.8552 -22.5274 -22.4967 -22.4260  -6.8547  -6.1461  -5.8817  -5.0558
    -5.0442  -5.0240  -4.8932  -4.6341   2.5124   5.4244   6.0396   6.9190
     7.1683   7.3704   7.3742   8.3567   9.1469   9.6526

          k = 0.1667 0.1667 0.0000 ( 13048 PWs)   bands (ev):

   -45.8564 -22.4913 -22.4470 -22.4468  -7.2450  -6.3734  -6.1633  -5.0535
    -5.0401  -5.0073  -4.8544  -4.7481   3.4993   6.2922   6.5219   6.7210
     7.7668   7.8508   8.5440   8.5672   8.8865   9.2655

          k = 0.1667 0.1667 0.2378 ( 13066 PWs)   bands (ev):

   -45.8561 -22.5105 -22.4462 -22.4460  -7.0789  -6.3495  -6.1008  -5.0560
    -5.0355  -5.0006  -4.8459  -4.7624   3.1377   6.1078   6.1884   6.8514
     7.5501   7.5526   8.3746   8.7464   8.9712   9.3174

          k = 0.1667 0.1667-0.4756 ( 13078 PWs)   bands (ev):

   -45.8558 -22.5297 -22.4453 -22.4452  -6.9130  -6.3254  -6.0282  -5.0671
    -5.0168  -4.9775  -4.8534  -4.7819   2.8089   5.9085   5.9188   6.5852
     7.4559   7.4704   8.2674   8.8165   9.0312   9.6352

          k = 0.1667 0.3333 0.0000 ( 13041 PWs)   bands (ev):

   -45.8557 -22.4902 -22.4806 -22.4454  -6.9604  -6.3116  -6.1626  -5.0758
    -5.0303  -4.9906  -4.8316  -4.7557   3.0304   5.9849   6.5403   6.8249
     7.2112   7.8042   8.0605   8.7211   8.8990   9.6940

          k = 0.1667 0.3333 0.2378 ( 13062 PWs)   bands (ev):

   -45.8555 -22.5089 -22.4800 -22.4445  -6.8437  -6.3048  -6.0934  -5.0539
    -5.0309  -4.9671  -4.8137  -4.7152   2.9028   5.8351   6.0046   6.4891
     6.9293   7.5759   8.4100   8.7013   9.0257   9.4108

          k = 0.1667 0.3333-0.4756 ( 13080 PWs)   bands (ev):

   -45.8552 -22.5277 -22.4790 -22.4437  -6.7620  -6.2847  -5.9889  -5.0508
    -5.0081  -4.9282  -4.8261  -4.6642   2.7381   5.5160   5.9213   6.2221
     6.4315   7.4286   8.5141   8.7396   8.9209   9.4490

          k = 0.1667-0.5000 0.0000 ( 13036 PWs)   bands (ev):

   -45.8554 -22.4981 -22.4888 -22.4446  -6.8043  -6.2668  -6.1855  -5.0789
    -5.0232  -4.9688  -4.8123  -4.7903   2.8440   5.6345   6.6961   6.8502
     7.1890   7.4648   7.9754   8.7806   8.8786   9.9759

          k = 0.1667-0.5000 0.2378 ( 13058 PWs)   bands (ev):

   -45.8551 -22.5078 -22.4970 -22.4438  -6.7431  -6.2357  -6.1142  -5.0527
    -5.0187  -4.9445  -4.7951  -4.7085   2.7939   5.5961   5.9119   6.2776
     6.8763   7.7192   8.1786   8.7161   9.0170   9.3824

          k = 0.1667-0.5000-0.4756 ( 13044 PWs)   bands (ev):

   -45.8549 -22.5266 -22.4959 -22.4429  -6.7315  -6.2060  -5.9742  -5.0461
    -4.9814  -4.9209  -4.8105  -4.6088   2.7035   5.3939   5.7822   5.8873
     6.3057   7.5400   8.3014   8.6574   8.6649   9.6607

          k = 0.3333 0.3333 0.0000 ( 13036 PWs)   bands (ev):

   -45.8551 -22.4889 -22.4791 -22.4785  -6.7166  -6.2542  -6.2160  -5.0582
    -5.0125  -4.9224  -4.7590  -4.7525   2.6716   5.9489   6.0847   6.9496
     7.0869   7.2643   7.8799   8.5180   9.3844   9.4056

          k = 0.3333 0.3333 0.2378 ( 13064 PWs)   bands (ev):

   -45.8548 -22.5072 -22.4783 -22.4783  -6.5939  -6.3028  -6.1818  -5.0220
    -5.0060  -4.8624  -4.7083  -4.6819   2.8537   5.5995   5.6627   5.9392
     6.6059   7.0668   8.3839   8.9904   9.0195   9.4006

          k = 0.3333 0.3333-0.4756 ( 13028 PWs)   bands (ev):

   -45.8546 -22.5260 -22.4774 -22.4774  -6.5324  -6.3477  -6.0762  -4.9997
    -4.9857  -4.7975  -4.6635  -4.6075   3.0203   5.2160   5.2355   5.7012
     6.3518   6.5130   7.6501   9.3556   9.3695   9.5311

          k = 0.3333-0.5000 0.0000 ( 13056 PWs)   bands (ev):

   -45.8548 -22.4962 -22.4876 -22.4779  -6.6063  -6.2324  -6.2176  -5.0510
    -4.9911  -4.8605  -4.7919  -4.7187   2.5044   5.6144   6.1200   6.7798
     7.3016   7.4044   7.4992   8.4933   9.0783   9.5722

          k = 0.3333-0.5000 0.2378 ( 13056 PWs)   bands (ev):

   -45.8545 -22.5062 -22.4952 -22.4774  -6.4869  -6.2651  -6.2380  -5.0140
    -4.9806  -4.7724  -4.7111  -4.6493   2.7972   5.4972   5.5740   5.6824
     6.3892   7.1407   7.9041   8.9869   9.0179   9.5529

          k = 0.3333-0.5000-0.4756 ( 13040 PWs)   bands (ev):

   -45.8542 -22.5249 -22.4943 -22.4766  -6.4812  -6.3090  -6.1142  -4.9859
    -4.9631  -4.7091  -4.6301  -4.5547   3.1662   4.9602   5.1462   5.4568
     6.1408   6.5282   6.8807   9.4553   9.5247   9.6824

          k =-0.5000-0.5000 0.0000 ( 13048 PWs)   bands (ev):

   -45.8545 -22.4952 -22.4952 -22.4862  -6.5562  -6.1959  -6.1959  -5.0414
    -4.9493  -4.8094  -4.8094  -4.6715   2.3352   5.4593   5.9625   6.9989
     6.9989   7.5183   7.5183   8.2479   8.5810   9.8295

          k =-0.5000-0.5000 0.2378 ( 13040 PWs)   bands (ev):

   -45.8542 -22.5052 -22.4943 -22.4943  -6.3661  -6.2810  -6.2810  -5.0032
    -4.9474  -4.6709  -4.6709  -4.6375   2.7451   5.4128   5.6164   5.6164
     5.9687   7.0815   7.2556   9.0187   9.0187   9.8140

          k =-0.5000-0.5000-0.4756 ( 13064 PWs)   bands (ev):

   -45.8539 -22.5240 -22.4935 -22.4935  -6.3545  -6.3545  -6.1720  -4.9651
    -4.9456  -4.5925  -4.5420  -4.5420   3.4109   4.9825   4.9825   5.2900
     5.8875   5.9748   6.2462   9.6932   9.6932   9.7986

     highest occupied level (ev):    10.3557

!    total energy              =    -380.57490448 Ry
     estimated scf accuracy    <          1.1E-09 Ry

     The total energy is the sum of the following terms:
     one-electron contribution =     -84.09039890 Ry
     hartree contribution      =      71.17262875 Ry
     xc contribution           =    -102.54297488 Ry
     ewald contribution        =    -265.11415945 Ry

     convergence has been achieved in  16 iterations

     negative rho (up, down):  1.577E-02 0.000E+00

     Forces acting on atoms (cartesian axes, Ry/au):

     atom    1 type  1   force =     0.00000000    0.00000000   -0.00774371
     atom    2 type  2   force =     0.00000000    0.00000000   -0.01235685
     atom    3 type  3   force =     0.00000000    0.00000000    0.02042402
     atom    4 type  3   force =     0.00000000    0.00000000   -0.00016173
     atom    5 type  3   force =     0.00000000    0.00000000   -0.00016173

     Total force =     0.025097     Total SCF correction =     0.000029


     Computing stress (Cartesian axis) and pressure


     negative rho (up, down):  1.577E-02 0.000E+00
          total   stress  (Ry/bohr**3)                   (kbar)     P=      -63.52
  -0.00042043   0.00000000   0.00000000          -61.85        0.00        0.00
   0.00000000  -0.00042043   0.00000000            0.00      -61.85        0.00
   0.00000000   0.00000000  -0.00045452            0.00        0.00      -66.86


     BFGS Geometry Optimization
     Energy error            =      0.0E+00 Ry
     Gradient error          =      2.0E-02 Ry/Bohr

     number of scf cycles    =   1
     number of bfgs steps    =   0

     energy             new  =    -380.5749044814 Ry

     new trust radius        =       0.0204240238 bohr
     new conv_thr            =       0.0000000100 Ry


ATOMIC_POSITIONS (crystal)
Pb               0.0000000000        0.0000000000        1.0054230457
Ti               0.5000000000        0.5000000000        0.5388288277
O                0.5000000000        0.5000000000        0.1012163810
O                0.5000000000        0.0000000000        0.6109080168
O                0.0000000000        0.5000000000        0.6109080168



     Writing config-only to output data dir ./pto_150.save/ :
     XML data file
     NEW-OLD atomic charge density approx. for the potential

     negative rho (up, down):  1.577E-02 0.000E+00

     total cpu time spent up to now is       64.0 secs

     Self-consistent Calculation

     iteration #  1     ecut=   150.00 Ry     beta= 0.70
     CG style diagonalization
     c_bands:  3 eigenvalues not converged
     c_bands:  1 eigenvalues not converged
     c_bands:  1 eigenvalues not converged
     c_bands:  1 eigenvalues not converged
     ethr =  1.00E-06,  avg # of iterations =  6.8

     negative rho (up, down):  1.575E-02 0.000E+00

     total cpu time spent up to now is       69.4 secs

     total energy              =    -380.57526052 Ry
     estimated scf accuracy    <       0.00024075 Ry

     iteration #  2     ecut=   150.00 Ry     beta= 0.70
     CG style diagonalization
     ethr =  5.47E-07,  avg # of iterations =  4.7

     negative rho (up, down):  1.576E-02 0.000E+00

     total cpu time spent up to now is       73.0 secs

     total energy              =    -380.57526288 Ry
     estimated scf accuracy    <       0.00063875 Ry

     iteration #  3     ecut=   150.00 Ry     beta= 0.70
     CG style diagonalization
     ethr =  5.47E-07,  avg # of iterations =  4.4

     negative rho (up, down):  1.576E-02 0.000E+00

     total cpu time spent up to now is       76.3 secs

     total energy              =    -380.57538941 Ry
     estimated scf accuracy    <       0.00004576 Ry

     iteration #  4     ecut=   150.00 Ry     beta= 0.70
     CG style diagonalization
     ethr =  1.04E-07,  avg # of iterations =  3.8

     negative rho (up, down):  1.575E-02 0.000E+00

     total cpu time spent up to now is       79.3 secs

     total energy              =    -380.57539980 Ry
     estimated scf accuracy    <       0.00000601 Ry

     iteration #  5     ecut=   150.00 Ry     beta= 0.70
     CG style diagonalization
     ethr =  1.37E-08,  avg # of iterations =  4.4

     negative rho (up, down):  1.575E-02 0.000E+00

     total cpu time spent up to now is       82.7 secs

     total energy              =    -380.57540322 Ry
     estimated scf accuracy    <       0.00000084 Ry

     iteration #  6     ecut=   150.00 Ry     beta= 0.70
     CG style diagonalization
     ethr =  1.91E-09,  avg # of iterations =  4.3

     negative rho (up, down):  1.575E-02 0.000E+00

     total cpu time spent up to now is       86.0 secs

     total energy              =    -380.57540357 Ry
     estimated scf accuracy    <       0.00000032 Ry

     iteration #  7     ecut=   150.00 Ry     beta= 0.70
     CG style diagonalization
     ethr =  7.23E-10,  avg # of iterations =  4.0

     negative rho (up, down):  1.575E-02 0.000E+00

     total cpu time spent up to now is       89.1 secs

     total energy              =    -380.57540366 Ry
     estimated scf accuracy    <       0.00000008 Ry

     iteration #  8     ecut=   150.00 Ry     beta= 0.70
     CG style diagonalization
     ethr =  1.73E-10,  avg # of iterations =  4.5

     negative rho (up, down):  1.575E-02 0.000E+00

     total cpu time spent up to now is       92.6 secs

     End of self-consistent calculation

          k = 0.0000 0.0000 0.0000 ( 13095 PWs)   bands (ev):

   -45.8217 -22.4798 -22.3946 -22.3946  -7.5093  -6.4266  -6.2105  -5.0300
    -5.0300  -4.9968  -4.8782  -4.7640   4.2142   6.3112   6.3112   6.6558
     8.2060   8.2060   8.4923   8.7213   8.9482   8.9482

          k = 0.0000 0.0000 0.2378 ( 13054 PWs)   bands (ev):

   -45.8214 -22.4994 -22.3938 -22.3938  -7.3135  -6.3675  -6.1551  -5.0451
    -5.0451  -4.9956  -4.8705  -4.8354   3.4479   6.3709   6.3709   6.8031
     7.9649   7.9649   8.4078   8.8088   9.0511   9.0511

          k = 0.0000 0.0000-0.4756 ( 13046 PWs)   bands (ev):

   -45.8211 -22.5188 -22.3931 -22.3931  -7.0987  -6.3024  -6.1088  -5.0602
    -5.0602  -4.9943  -4.9128  -4.8646   2.9430   6.1609   6.4145   6.4145
     7.8035   7.8035   8.3271   9.1210   9.1210  10.0013

          k = 0.0000 0.1667 0.0000 ( 13083 PWs)   bands (ev):

   -45.8214 -22.4791 -22.4118 -22.3939  -7.3748  -6.3978  -6.1826  -5.0512
    -5.0286  -5.0096  -4.8812  -4.7548   3.7905   6.3531   6.4209   6.6850
     8.1538   8.2312   8.4836   8.5763   8.6505   9.0146

          k = 0.0000 0.1667 0.2378 ( 13068 PWs)   bands (ev):

   -45.8211 -22.4985 -22.4110 -22.3931  -7.1947  -6.3547  -6.1219  -5.0489
    -5.0442  -5.0088  -4.8787  -4.7914   3.2410   6.1546   6.4883   6.9005
     7.6415   7.9584   8.2699   8.6762   8.7221   9.3647

          k = 0.0000 0.1667-0.4756 ( 13072 PWs)   bands (ev):

   -45.8208 -22.5178 -22.4101 -22.3923  -7.0068  -6.3057  -6.0611  -5.0597
    -5.0440  -5.0080  -4.8862  -4.8251   2.8201   5.8455   6.5345   6.5891
     7.4554   7.8066   8.3443   8.7302   8.7992   9.9344

          k = 0.0000 0.3333 0.0000 ( 13037 PWs)   bands (ev):

   -45.8207 -22.4776 -22.4461 -22.3925  -7.0819  -6.3366  -6.1411  -5.0839
    -5.0349  -5.0257  -4.8749  -4.7637   3.2166   5.9886   6.6703   6.7091
     7.8507   7.8834   8.3360   8.3463   8.7398   9.6004

          k = 0.0000 0.3333 0.2378 ( 13057 PWs)   bands (ev):

   -45.8205 -22.4967 -22.4450 -22.3917  -6.9641  -6.2987  -6.0608  -5.0539
    -5.0425  -5.0349  -4.8725  -4.7368   2.8910   5.8673   6.5587   6.7979
     7.3040   7.7340   7.8598   8.3754   8.9217   9.6749

          k = 0.0000 0.3333-0.4756 ( 13080 PWs)   bands (ev):

   -45.8202 -22.5158 -22.4440 -22.3908  -6.8766  -6.2359  -5.9537  -5.0588
    -5.0352  -5.0155  -4.9095  -4.6877   2.6009   5.5568   6.3286   6.8382
     7.1967   7.3778   7.6796   8.4024   9.2928   9.5283

          k = 0.0000-0.5000 0.0000 ( 13028 PWs)   bands (ev):

   -45.8204 -22.4766 -22.4632 -22.3918  -6.9190  -6.2903  -6.1452  -5.0985
    -5.0474  -5.0244  -4.8447  -4.8006   3.0083   5.6343   6.9429   6.9805
     7.3609   7.4750   8.2682   8.3725   8.7744  10.3429

          k = 0.0000-0.5000 0.2378 ( 13068 PWs)   bands (ev):

   -45.8201 -22.4957 -22.4621 -22.3909  -6.8636  -6.2195  -6.0563  -5.0658
    -5.0480  -5.0414  -4.8415  -4.7329   2.7495   5.6018   6.5854   6.8488
     7.1750   7.3022   7.9696   8.3504   8.9233   9.8449

          k = 0.0000-0.5000-0.4756 ( 13016 PWs)   bands (ev):

   -45.8199 -22.5147 -22.4609 -22.3901  -6.8472  -6.1434  -5.9041  -5.0583
    -5.0486  -5.0256  -4.8945  -4.6318   2.5107   5.4174   6.0407   6.9144
     7.1416   7.3856   7.3877   8.3362   9.1438   9.6267

          k = 0.1667 0.1667 0.0000 ( 13048 PWs)   bands (ev):

   -45.8210 -22.4784 -22.4112 -22.4109  -7.2434  -6.3680  -6.1755  -5.0565
    -5.0431  -5.0111  -4.8594  -4.7459   3.4962   6.3008   6.5254   6.7211
     7.7169   7.8501   8.5067   8.5716   8.8928   9.2238

          k = 0.1667 0.1667 0.2378 ( 13066 PWs)   bands (ev):

   -45.8208 -22.4977 -22.4103 -22.4101  -7.0742  -6.3440  -6.1159  -5.0591
    -5.0384  -5.0041  -4.8513  -4.7601   3.1301   6.1020   6.1829   6.8543
     7.5380   7.5502   8.3347   8.7434   8.9694   9.3148

          k = 0.1667 0.1667-0.4756 ( 13078 PWs)   bands (ev):

   -45.8205 -22.5169 -22.4094 -22.4093  -6.9044  -6.3199  -6.0467  -5.0705
    -5.0206  -4.9796  -4.8596  -4.7794   2.7959   5.8988   5.9038   6.5973
     7.4494   7.4730   8.2386   8.8138   9.0266   9.6426

          k = 0.1667 0.3333 0.0000 ( 13041 PWs)   bands (ev):

   -45.8204 -22.4768 -22.4452 -22.4095  -6.9604  -6.3078  -6.1749  -5.0782
    -5.0332  -4.9948  -4.8346  -4.7539   3.0288   5.9961   6.5370   6.8310
     7.2082   7.7550   8.0634   8.7068   8.8927   9.6719

          k = 0.1667 0.3333 0.2378 ( 13062 PWs)   bands (ev):

   -45.8201 -22.4959 -22.4442 -22.4087  -6.8398  -6.3016  -6.1088  -5.0569
    -5.0336  -4.9719  -4.8169  -4.7129   2.8991   5.8335   6.0003   6.4934
     6.9241   7.5742   8.3975   8.6828   9.0151   9.4030

          k = 0.1667 0.3333-0.4756 ( 13080 PWs)   bands (ev):

   -45.8199 -22.5149 -22.4432 -22.4078  -6.7550  -6.2811  -6.0075  -5.0543
    -5.0112  -4.9328  -4.8290  -4.6620   2.7318   5.4992   5.9189   6.2267
     6.4403   7.4365   8.4808   8.7429   8.9225   9.4316

          k = 0.1667-0.5000 0.0000 ( 13036 PWs)   bands (ev):

   -45.8201 -22.4759 -22.4623 -22.4087  -6.8050  -6.2636  -6.1983  -5.0810
    -5.0260  -4.9739  -4.8115  -4.7908   2.8423   5.6510   6.6767   6.8628
     7.2000   7.4730   7.9087   8.7792   8.8597   9.9689

          k = 0.1667-0.5000 0.2378 ( 13058 PWs)   bands (ev):

   -45.8198 -22.4949 -22.4612 -22.4079  -6.7390  -6.2328  -6.1313  -5.0554
    -5.0210  -4.9514  -4.7953  -4.7070   2.7917   5.6073   5.9093   6.2710
     6.8730   7.7139   8.1800   8.6855   9.0191   9.3636

          k = 0.1667-0.5000-0.4756 ( 13044 PWs)   bands (ev):

   -45.8196 -22.5139 -22.4601 -22.4071  -6.7251  -6.2034  -5.9928  -5.0494
    -4.9834  -4.9292  -4.8102  -4.6070   2.7010   5.3831   5.7833   5.8903
     6.3077   7.5511   8.2964   8.6358   8.6654   9.6375

          k = 0.3333 0.3333 0.0000 ( 13036 PWs)   bands (ev):

   -45.8198 -22.4753 -22.4435 -22.4433  -6.7224  -6.2511  -6.2231  -5.0600
    -5.0159  -4.9249  -4.7588  -4.7567   2.6701   5.9550   6.1063   6.9331
     7.0872   7.2156   7.9030   8.5050   9.3877   9.3953

          k = 0.3333 0.3333 0.2378 ( 13064 PWs)   bands (ev):

   -45.8195 -22.4942 -22.4426 -22.4424  -6.5937  -6.2996  -6.1941  -5.0239
    -5.0098  -4.8673  -4.7134  -4.6793   2.8508   5.5932   5.6597   5.9459
     6.6173   7.0654   8.3805   8.9788   8.9949   9.4021

          k = 0.3333 0.3333-0.4756 ( 13028 PWs)   bands (ev):

   -45.8192 -22.5131 -22.4417 -22.4416  -6.5277  -6.3444  -6.0919  -5.0038
    -4.9878  -4.8056  -4.6669  -4.6048   3.0144   5.2068   5.2336   5.7044
     6.3555   6.5350   7.6484   9.3284   9.3758   9.5103

          k = 0.3333-0.5000 0.0000 ( 13056 PWs)   bands (ev):

   -45.8195 -22.4743 -22.4604 -22.4425  -6.6167  -6.2351  -6.2153  -5.0528
    -4.9944  -4.8613  -4.7905  -4.7258   2.5027   5.6274   6.1423   6.7528
     7.2616   7.4147   7.5019   8.4891   9.0785   9.5784

          k = 0.3333-0.5000 0.2378 ( 13056 PWs)   bands (ev):

   -45.8192 -22.4933 -22.4594 -22.4417  -6.4886  -6.2628  -6.2483  -5.0160
    -4.9844  -4.7794  -4.7094  -4.6520   2.7946   5.4908   5.5836   5.6809
     6.4016   7.1370   7.9096   8.9699   8.9964   9.5574

          k = 0.3333-0.5000-0.4756 ( 13040 PWs)   bands (ev):

   -45.8189 -22.5122 -22.4585 -22.4408  -6.4774  -6.3067  -6.1285  -4.9891
    -4.9659  -4.7214  -4.6283  -4.5545   3.1613   4.9596   5.1332   5.4694
     6.1510   6.5410   6.8833   9.4304   9.5316   9.6604

          k =-0.5000-0.5000 0.0000 ( 13048 PWs)   bands (ev):

   -45.8191 -22.4733 -22.4594 -22.4594  -6.5714  -6.1941  -6.1941  -5.0431
    -4.9534  -4.8063  -4.8063  -4.6838   2.3330   5.4702   5.9918   6.9652
     6.9652   7.5253   7.5253   8.2423   8.5939   9.8365

          k =-0.5000-0.5000 0.2378 ( 13040 PWs)   bands (ev):

   -45.8189 -22.4923 -22.4585 -22.4585  -6.3804  -6.2789  -6.2789  -5.0051
    -4.9516  -4.6682  -4.6682  -4.6516   2.7421   5.4249   5.6051   5.6051
     5.9980   7.0772   7.2663   9.0013   9.0013   9.8211

          k =-0.5000-0.5000-0.4756 ( 13064 PWs)   bands (ev):

   -45.8186 -22.5112 -22.4576 -22.4576  -6.3523  -6.3523  -6.1848  -4.9670
    -4.9498  -4.6090  -4.5397  -4.5397   3.4046   4.9739   4.9739   5.3035
     5.9002   6.0043   6.2420   9.6720   9.6720   9.8057

     highest occupied level (ev):    10.3429

!    total energy              =    -380.57540369 Ry
     estimated scf accuracy    <          7.0E-09 Ry

     The total energy is the sum of the following terms:
     one-electron contribution =     -84.30653150 Ry
     hartree contribution      =      71.29010882 Ry
     xc contribution           =    -102.55281738 Ry
     ewald contribution        =    -265.00616363 Ry

     convergence has been achieved in   8 iterations

     negative rho (up, down):  1.575E-02 0.000E+00

     Forces acting on atoms (cartesian axes, Ry/au):

     atom    1 type  1   force =     0.00000000    0.00000000   -0.00861688
     atom    2 type  2   force =     0.00000000    0.00000000   -0.00504759
     atom    3 type  3   force =     0.00000000    0.00000000    0.01143341
     atom    4 type  3   force =     0.00000000    0.00000000    0.00111553
     atom    5 type  3   force =     0.00000000    0.00000000    0.00111553

     Total force =     0.015262     Total SCF correction =     0.000183


     Computing stress (Cartesian axis) and pressure


     negative rho (up, down):  1.575E-02 0.000E+00
          total   stress  (Ry/bohr**3)                   (kbar)     P=      -58.15
  -0.00040882   0.00000000   0.00000000          -60.14        0.00        0.00
   0.00000000  -0.00040882   0.00000000            0.00      -60.14        0.00
   0.00000000   0.00000000  -0.00036819            0.00        0.00      -54.16

     Energy error            =      5.0E-04 Ry
     Gradient error          =      1.1E-02 Ry/Bohr

     number of scf cycles    =   2
     number of bfgs steps    =   1

     energy             old  =    -380.5749044814 Ry
     energy             new  =    -380.5754036948 Ry

     CASE: energy            _new < energy            _old

     new trust radius        =       0.0224664262 bohr
     new conv_thr            =       0.0000000005 Ry


ATOMIC_POSITIONS (crystal)
Pb               0.0000000000        0.0000000000        1.0033908113
Ti               0.5000000000        0.5000000000        0.5374818114
O                0.5000000000        0.5000000000        0.1041160690
O                0.5000000000        0.0000000000        0.6111477982
O                0.0000000000        0.5000000000        0.6111477982



     Writing config-only to output data dir ./pto_150.save/ :
     XML data file
     NEW-OLD atomic charge density approx. for the potential

     negative rho (up, down):  1.580E-02 0.000E+00

     total cpu time spent up to now is       98.3 secs

     Self-consistent Calculation

     iteration #  1     ecut=   150.00 Ry     beta= 0.70
     CG style diagonalization
     c_bands:  1 eigenvalues not converged
     c_bands:  1 eigenvalues not converged
     c_bands:  1 eigenvalues not converged
     c_bands:  1 eigenvalues not converged
     c_bands:  1 eigenvalues not converged
     ethr =  1.00E-06,  avg # of iterations =  7.0

     negative rho (up, down):  1.576E-02 0.000E+00

     total cpu time spent up to now is      103.8 secs

     total energy              =    -380.57552958 Ry
     estimated scf accuracy    <       0.00024048 Ry

     iteration #  2     ecut=   150.00 Ry     beta= 0.70
     CG style diagonalization
     ethr =  5.47E-07,  avg # of iterations =  4.7

     negative rho (up, down):  1.577E-02 0.000E+00

     total cpu time spent up to now is      107.4 secs

     total energy              =    -380.57556276 Ry
     estimated scf accuracy    <       0.00061179 Ry

     iteration #  3     ecut=   150.00 Ry     beta= 0.70
     CG style diagonalization
     ethr =  5.47E-07,  avg # of iterations =  4.3

     negative rho (up, down):  1.577E-02 0.000E+00

     total cpu time spent up to now is      110.7 secs

     total energy              =    -380.57568956 Ry
     estimated scf accuracy    <       0.00004734 Ry

     iteration #  4     ecut=   150.00 Ry     beta= 0.70
     CG style diagonalization
     ethr =  1.08E-07,  avg # of iterations =  3.7

     negative rho (up, down):  1.577E-02 0.000E+00

     total cpu time spent up to now is      113.7 secs

     total energy              =    -380.57569944 Ry
     estimated scf accuracy    <       0.00000584 Ry

     iteration #  5     ecut=   150.00 Ry     beta= 0.70
     CG style diagonalization
     ethr =  1.33E-08,  avg # of iterations =  4.4

     negative rho (up, down):  1.577E-02 0.000E+00

     total cpu time spent up to now is      117.0 secs

     total energy              =    -380.57570300 Ry
     estimated scf accuracy    <       0.00000087 Ry

     iteration #  6     ecut=   150.00 Ry     beta= 0.70
     CG style diagonalization
     ethr =  1.98E-09,  avg # of iterations =  4.4

     negative rho (up, down):  1.577E-02 0.000E+00

     total cpu time spent up to now is      120.5 secs

     total energy              =    -380.57570341 Ry
     estimated scf accuracy    <       0.00000035 Ry

     iteration #  7     ecut=   150.00 Ry     beta= 0.70
     CG style diagonalization
     ethr =  7.89E-10,  avg # of iterations =  4.0

     negative rho (up, down):  1.577E-02 0.000E+00

     total cpu time spent up to now is      123.6 secs

     total energy              =    -380.57570351 Ry
     estimated scf accuracy    <       0.00000007 Ry

     iteration #  8     ecut=   150.00 Ry     beta= 0.70
     CG style diagonalization
     ethr =  1.59E-10,  avg # of iterations =  4.9

     negative rho (up, down):  1.577E-02 0.000E+00

     total cpu time spent up to now is      127.3 secs

     total energy              =    -380.57570356 Ry
     estimated scf accuracy    <          7.7E-09 Ry

     iteration #  9     ecut=   150.00 Ry     beta= 0.70
     CG style diagonalization
     ethr =  1.76E-11,  avg # of iterations =  5.7

     negative rho (up, down):  1.577E-02 0.000E+00

     total cpu time spent up to now is      131.5 secs

     End of self-consistent calculation

          k = 0.0000 0.0000 0.0000 ( 13095 PWs)   bands (ev):

   -45.7864 -22.4688 -22.3590 -22.3590  -7.5123  -6.4289  -6.2190  -5.0290
    -5.0290  -4.9968  -4.8838  -4.7551   4.2049   6.3092   6.3092   6.6961
     8.1378   8.1378   8.4901   8.6619   8.9494   8.9494

          k = 0.0000 0.0000 0.2378 ( 13054 PWs)   bands (ev):

   -45.7861 -22.4885 -22.3582 -22.3582  -7.3149  -6.3704  -6.1652  -5.0441
    -5.0441  -4.9955  -4.8755  -4.8258   3.4362   6.3585   6.3585   6.8235
     7.9218   7.9218   8.4052   8.7902   9.0492   9.0492

          k = 0.0000 0.0000-0.4756 ( 13046 PWs)   bands (ev):

   -45.7859 -22.5080 -22.3574 -22.3574  -7.0979  -6.3061  -6.1212  -5.0591
    -5.0591  -4.9943  -4.9024  -4.8689   2.9247   6.1776   6.3887   6.3887
     7.7831   7.7831   8.3242   9.1183   9.1183  10.0028

          k = 0.0000 0.1667 0.0000 ( 13083 PWs)   bands (ev):

   -45.7861 -22.4681 -22.3762 -22.3582  -7.3783  -6.4009  -6.1928  -5.0507
    -5.0276  -5.0095  -4.8838  -4.7457   3.7862   6.3514   6.4196   6.6994
     8.1214   8.1629   8.4746   8.5777   8.6216   8.9933

          k = 0.0000 0.1667 0.2378 ( 13068 PWs)   bands (ev):

   -45.7858 -22.4876 -22.3754 -22.3574  -7.1965  -6.3584  -6.1337  -5.0476
    -5.0432  -5.0087  -4.8815  -4.7821   3.2335   6.1421   6.4768   6.9136
     7.6170   7.9166   8.2628   8.6582   8.7188   9.3620

          k = 0.0000 0.1667-0.4756 ( 13072 PWs)   bands (ev):

   -45.7855 -22.5070 -22.3745 -22.3567  -7.0065  -6.3100  -6.0749  -5.0586
    -5.0420  -5.0079  -4.8882  -4.8163   2.8074   5.8306   6.5095   6.5981
     7.4427   7.7856   8.3419   8.7114   8.7974   9.9425

          k = 0.0000 0.3333 0.0000 ( 13037 PWs)   bands (ev):

   -45.7854 -22.4666 -22.4106 -22.3568  -7.0860  -6.3417  -6.1554  -5.0827
    -5.0347  -5.0247  -4.8714  -4.7555   3.2154   5.9919   6.6665   6.7095
     7.8418   7.8852   8.2634   8.3430   8.7004   9.5928

          k = 0.0000 0.3333 0.2378 ( 13057 PWs)   bands (ev):

   -45.7852 -22.4858 -22.4095 -22.3560  -6.9662  -6.3048  -6.0761  -5.0522
    -5.0414  -5.0347  -4.8707  -4.7274   2.8895   5.8610   6.5568   6.7892
     7.2920   7.7138   7.8576   8.3456   8.9027   9.6720

          k = 0.0000 0.3333-0.4756 ( 13080 PWs)   bands (ev):

   -45.7849 -22.5050 -22.4085 -22.3552  -6.8770  -6.2424  -5.9706  -5.0577
    -5.0350  -5.0130  -4.9074  -4.6792   2.5982   5.5354   6.3391   6.8148
     7.1846   7.3859   7.6654   8.3902   9.2578   9.5426

          k = 0.0000-0.5000 0.0000 ( 13028 PWs)   bands (ev):

   -45.7851 -22.4657 -22.4277 -22.3561  -6.9231  -6.2954  -6.1633  -5.0962
    -5.0472  -5.0233  -4.8340  -4.7973   3.0074   5.6454   6.9216   6.9825
     7.3687   7.4782   8.2632   8.2950   8.7335  10.3337

          k = 0.0000-0.5000 0.2378 ( 13068 PWs)   bands (ev):

   -45.7848 -22.4848 -22.4266 -22.3553  -6.8655  -6.2257  -6.0753  -5.0632
    -5.0478  -5.0403  -4.8376  -4.7238   2.7500   5.6077   6.5774   6.8318
     7.1767   7.2831   7.9671   8.3069   8.9119   9.8345

          k = 0.0000-0.5000-0.4756 ( 13016 PWs)   bands (ev):

   -45.7846 -22.5039 -22.4254 -22.3544  -6.8478  -6.1511  -5.9235  -5.0572
    -5.0484  -5.0225  -4.8899  -4.6238   2.5124   5.4046   6.0408   6.8979
     7.1104   7.3871   7.4036   8.3139   9.1437   9.6012

          k = 0.1667 0.1667 0.0000 ( 13048 PWs)   bands (ev):

   -45.7858 -22.4674 -22.3756 -22.3753  -7.2475  -6.3717  -6.1867  -5.0558
    -5.0423  -5.0106  -4.8608  -4.7366   3.4928   6.3044   6.5254   6.7209
     7.6661   7.8426   8.4713   8.5720   8.8919   9.1828

          k = 0.1667 0.1667 0.2378 ( 13066 PWs)   bands (ev):

   -45.7855 -22.4868 -22.3747 -22.3745  -7.0766  -6.3479  -6.1287  -5.0583
    -5.0372  -5.0035  -4.8533  -4.7506   3.1240   6.0914   6.1730   6.8560
     7.5218   7.5441   8.2942   8.7345   8.9623   9.3132

          k = 0.1667 0.1667-0.4756 ( 13078 PWs)   bands (ev):

   -45.7852 -22.5061 -22.3738 -22.3736  -6.9049  -6.3240  -6.0613  -5.0698
    -5.0199  -4.9779  -4.8621  -4.7696   2.7855   5.8848   5.8874   6.6049
     7.4336   7.4736   8.2105   8.8044   9.0166   9.6518

          k = 0.1667 0.3333 0.0000 ( 13041 PWs)   bands (ev):

   -45.7851 -22.4658 -22.4097 -22.3739  -6.9658  -6.3135  -6.1878  -5.0765
    -5.0322  -4.9945  -4.8326  -4.7449   3.0260   6.0020   6.5291   6.8345
     7.2007   7.7035   8.0650   8.6893   8.8800   9.6531

          k = 0.1667 0.3333 0.2378 ( 13062 PWs)   bands (ev):

   -45.7848 -22.4850 -22.4087 -22.3731  -6.8430  -6.3075  -6.1228  -5.0556
    -5.0321  -4.9726  -4.8153  -4.7039   2.8958   5.8267   5.9906   6.4944
     6.9170   7.5700   8.3769   8.6631   8.9995   9.3994

          k = 0.1667 0.3333-0.4756 ( 13080 PWs)   bands (ev):

   -45.7846 -22.5041 -22.4077 -22.3722  -6.7564  -6.2866  -6.0225  -5.0538
    -5.0102  -4.9338  -4.8268  -4.6537   2.7273   5.4791   5.9095   6.2292
     6.4439   7.4409   8.4461   8.7389   8.9259   9.4132

          k = 0.1667-0.5000 0.0000 ( 13036 PWs)   bands (ev):

   -45.7848 -22.4649 -22.4268 -22.3731  -6.8108  -6.2695  -6.2131  -5.0789
    -5.0248  -4.9747  -4.8031  -4.7860   2.8393   5.6623   6.6522   6.8702
     7.2075   7.4783   7.8434   8.7713   8.8359   9.9655

          k = 0.1667-0.5000 0.2378 ( 13058 PWs)   bands (ev):

   -45.7845 -22.4840 -22.4257 -22.3723  -6.7422  -6.2392  -6.1467  -5.0540
    -5.0192  -4.9542  -4.7902  -4.6988   2.7895   5.6129   5.8998   6.2615
     6.8682   7.7058   8.1746   8.6529   9.0145   9.3517

          k = 0.1667-0.5000-0.4756 ( 13044 PWs)   bands (ev):

   -45.7843 -22.5030 -22.4246 -22.3714  -6.7269  -6.2102  -6.0078  -5.0488
    -4.9813  -4.9338  -4.8043  -4.5996   2.7000   5.3669   5.7737   5.8923
     6.3081   7.5579   8.2944   8.6053   8.6680   9.6123

          k = 0.3333 0.3333 0.0000 ( 13036 PWs)   bands (ev):

   -45.7845 -22.4642 -22.4081 -22.4078  -6.7308  -6.2580  -6.2336  -5.0577
    -5.0149  -4.9224  -4.7600  -4.7469   2.6639   5.9557   6.1234   6.9098
     7.0897   7.1698   7.9204   8.4913   9.3825   9.3890

          k = 0.3333 0.3333 0.2378 ( 13064 PWs)   bands (ev):

   -45.7842 -22.4833 -22.4071 -22.4069  -6.5994  -6.3055  -6.2057  -5.0215
    -5.0094  -4.8684  -4.7135  -4.6702   2.8434   5.5830   5.6539   5.9483
     6.6271   7.0636   8.3783   8.9634   8.9716   9.3956

          k = 0.3333 0.3333-0.4756 ( 13028 PWs)   bands (ev):

   -45.7839 -22.5023 -22.4061 -22.4060  -6.5314  -6.3495  -6.1035  -5.0038
    -4.9857  -4.8110  -4.6655  -4.5964   3.0049   5.1968   5.2237   5.7053
     6.3580   6.5541   7.6549   9.2992   9.3730   9.4868

          k = 0.3333-0.5000 0.0000 ( 13056 PWs)   bands (ev):

   -45.7842 -22.4632 -22.4249 -22.4070  -6.6267  -6.2447  -6.2230  -5.0504
    -4.9934  -4.8565  -4.7823  -4.7274   2.4946   5.6352   6.1604   6.7249
     7.2193   7.4214   7.5059   8.4832   9.0837   9.5759

          k = 0.3333-0.5000 0.2378 ( 13056 PWs)   bands (ev):

   -45.7839 -22.4823 -22.4239 -22.4062  -6.4952  -6.2695  -6.2586  -5.0137
    -4.9838  -4.7835  -4.7019  -4.6484   2.7849   5.4826   5.5871   5.6783
     6.4121   7.1329   7.9210   8.9515   8.9724   9.5533

          k = 0.3333-0.5000-0.4756 ( 13040 PWs)   bands (ev):

   -45.7836 -22.5013 -22.4229 -22.4053  -6.4816  -6.3126  -6.1384  -4.9882
    -4.9645  -4.7313  -4.6217  -4.5489   3.1487   4.9539   5.1193   5.4788
     6.1586   6.5514   6.8985   9.4030   9.5289   9.6361

          k =-0.5000-0.5000 0.0000 ( 13048 PWs)   bands (ev):

   -45.7838 -22.4623 -22.4239 -22.4239  -6.5826  -6.2028  -6.2028  -5.0407
    -4.9532  -4.7954  -4.7954  -4.6932   2.3223   5.4762   6.0171   6.9322
     6.9322   7.5297   7.5297   8.2375   8.6109   9.8342

          k =-0.5000-0.5000 0.2378 ( 13040 PWs)   bands (ev):

   -45.7836 -22.4814 -22.4230 -22.4230  -6.3902  -6.2858  -6.2858  -5.0027
    -4.9513  -4.6631  -4.6596  -4.6596   2.7280   5.4323   5.5941   5.5941
     6.0234   7.0729   7.2859   8.9817   8.9817   9.8188

          k =-0.5000-0.5000-0.4756 ( 13064 PWs)   bands (ev):

   -45.7833 -22.5003 -22.4221 -22.4221  -6.3579  -6.3579  -6.1928  -4.9648
    -4.9495  -4.6232  -4.5328  -4.5328   3.3793   4.9663   4.9663   5.3139
     5.9310   6.0297   6.2362   9.6486   9.6486   9.8035

     highest occupied level (ev):    10.3337

!    total energy              =    -380.57570357 Ry
     estimated scf accuracy    <          4.1E-10 Ry

     The total energy is the sum of the following terms:
     one-electron contribution =     -84.64583454 Ry
     hartree contribution      =      71.46900619 Ry
     xc contribution           =    -102.56507500 Ry
     ewald contribution        =    -264.83380022 Ry

     convergence has been achieved in   9 iterations

     negative rho (up, down):  1.577E-02 0.000E+00

     Forces acting on atoms (cartesian axes, Ry/au):

     atom    1 type  1   force =     0.00000000    0.00000000   -0.00857287
     atom    2 type  2   force =     0.00000000    0.00000000    0.00274975
     atom    3 type  3   force =     0.00000000    0.00000000    0.00128185
     atom    4 type  3   force =     0.00000000    0.00000000    0.00227063
     atom    5 type  3   force =     0.00000000    0.00000000    0.00227063

     Total force =     0.009644     Total SCF correction =     0.000080


     Computing stress (Cartesian axis) and pressure


     negative rho (up, down):  1.577E-02 0.000E+00
          total   stress  (Ry/bohr**3)                   (kbar)     P=      -51.74
  -0.00039282   0.00000000   0.00000000          -57.79        0.00        0.00
   0.00000000  -0.00039282   0.00000000            0.00      -57.79        0.00
   0.00000000   0.00000000  -0.00026962            0.00        0.00      -39.66

     Energy error            =      3.0E-04 Ry
     Gradient error          =      8.6E-03 Ry/Bohr

     number of scf cycles    =   3
     number of bfgs steps    =   2

     energy             old  =    -380.5754036948 Ry
     energy             new  =    -380.5757035716 Ry

     CASE: energy            _new < energy            _old

     new trust radius        =       0.0189689182 bohr
     new conv_thr            =       0.0000000003 Ry


ATOMIC_POSITIONS (crystal)
Pb               0.0000000000        0.0000000000        1.0009425383
Ti               0.5000000000        0.5000000000        0.5372202952
O                0.5000000000        0.5000000000        0.1058413551
O                0.5000000000        0.0000000000        0.6116400497
O                0.0000000000        0.5000000000        0.6116400497



     Writing config-only to output data dir ./pto_150.save/ :
     XML data file
     NEW-OLD atomic charge density approx. for the potential

     negative rho (up, down):  1.575E-02 0.000E+00

     total cpu time spent up to now is      137.3 secs

     Self-consistent Calculation

     iteration #  1     ecut=   150.00 Ry     beta= 0.70
     CG style diagonalization
     ethr =  1.00E-06,  avg # of iterations =  5.6

     negative rho (up, down):  1.571E-02 0.000E+00

     total cpu time spent up to now is      141.9 secs

     total energy              =    -380.57574922 Ry
     estimated scf accuracy    <       0.00005584 Ry

     iteration #  2     ecut=   150.00 Ry     beta= 0.70
     CG style diagonalization
     ethr =  1.27E-07,  avg # of iterations =  4.8

     negative rho (up, down):  1.572E-02 0.000E+00

     total cpu time spent up to now is      145.5 secs

     total energy              =    -380.57581361 Ry
     estimated scf accuracy    <       0.00011275 Ry

     iteration #  3     ecut=   150.00 Ry     beta= 0.70
     CG style diagonalization
     ethr =  1.27E-07,  avg # of iterations =  4.4

     negative rho (up, down):  1.571E-02 0.000E+00

     total cpu time spent up to now is      148.9 secs

     total energy              =    -380.57584353 Ry
     estimated scf accuracy    <       0.00001727 Ry

     iteration #  4     ecut=   150.00 Ry     beta= 0.70
     CG style diagonalization
     ethr =  3.92E-08,  avg # of iterations =  3.7

     negative rho (up, down):  1.571E-02 0.000E+00

     total cpu time spent up to now is      151.8 secs

     total energy              =    -380.57584738 Ry
     estimated scf accuracy    <       0.00000183 Ry

     iteration #  5     ecut=   150.00 Ry     beta= 0.70
     CG style diagonalization
     ethr =  4.16E-09,  avg # of iterations =  4.4

     negative rho (up, down):  1.571E-02 0.000E+00

     total cpu time spent up to now is      155.2 secs

     total energy              =    -380.57584863 Ry
     estimated scf accuracy    <       0.00000014 Ry

     iteration #  6     ecut=   150.00 Ry     beta= 0.70
     CG style diagonalization
     ethr =  3.13E-10,  avg # of iterations =  5.2

     negative rho (up, down):  1.571E-02 0.000E+00

     total cpu time spent up to now is      159.1 secs

     total energy              =    -380.57584875 Ry
     estimated scf accuracy    <       0.00000014 Ry

     iteration #  7     ecut=   150.00 Ry     beta= 0.70
     CG style diagonalization
     ethr =  3.07E-10,  avg # of iterations =  3.9

     negative rho (up, down):  1.571E-02 0.000E+00

     total cpu time spent up to now is      162.2 secs

     total energy              =    -380.57584878 Ry
     estimated scf accuracy    <       0.00000004 Ry

     iteration #  8     ecut=   150.00 Ry     beta= 0.70
     CG style diagonalization
     ethr =  8.00E-11,  avg # of iterations =  4.3

     negative rho (up, down):  1.571E-02 0.000E+00

     total cpu time spent up to now is      165.5 secs

     total energy              =    -380.57584880 Ry
     estimated scf accuracy    <          1.8E-09 Ry

     iteration #  9     ecut=   150.00 Ry     beta= 0.70
     CG style diagonalization
     ethr =  4.09E-12,  avg # of iterations =  7.2

     negative rho (up, down):  1.571E-02 0.000E+00

     total cpu time spent up to now is      170.7 secs

     total energy              =    -380.57584880 Ry
     estimated scf accuracy    <          7.7E-10 Ry

     iteration # 10     ecut=   150.00 Ry     beta= 0.70
     CG style diagonalization
     ethr =  1.74E-12,  avg # of iterations =  4.4

     negative rho (up, down):  1.571E-02 0.000E+00

     total cpu time spent up to now is      174.1 secs

     End of self-consistent calculation

          k = 0.0000 0.0000 0.0000 ( 13095 PWs)   bands (ev):

   -45.7731 -22.4666 -22.3460 -22.3460  -7.5225  -6.4433  -6.2198  -5.0232
    -5.0232  -4.9899  -4.8837  -4.7408   4.2014   6.3000   6.3000   6.7297
     8.1086   8.1086   8.4836   8.6331   8.9382   8.9382

          k = 0.0000 0.0000 0.2378 ( 13054 PWs)   bands (ev):

   -45.7728 -22.4862 -22.3452 -22.3452  -7.3265  -6.3861  -6.1655  -5.0382
    -5.0382  -4.9886  -4.8742  -4.8101   3.4353   6.3444   6.3444   6.8405
     7.9031   7.9031   8.3986   8.7816   9.0363   9.0363

          k = 0.0000 0.0000-0.4756 ( 13046 PWs)   bands (ev):

   -45.7725 -22.5058 -22.3444 -22.3444  -7.1117  -6.3234  -6.1204  -5.0532
    -5.0532  -4.9874  -4.8850  -4.8662   2.9219   6.1903   6.3687   6.3687
     7.7741   7.7741   8.3175   9.1042   9.1042  10.0009

          k = 0.0000 0.1667 0.0000 ( 13083 PWs)   bands (ev):

   -45.7727 -22.4658 -22.3633 -22.3453  -7.3886  -6.4159  -6.1955  -5.0450
    -5.0218  -5.0025  -4.8808  -4.7311   3.7854   6.3440   6.4102   6.7105
     8.1105   8.1333   8.4645   8.5675   8.6017   8.9812

          k = 0.0000 0.1667 0.2378 ( 13068 PWs)   bands (ev):

   -45.7725 -22.4854 -22.3624 -22.3445  -7.2083  -6.3742  -6.1356  -5.0410
    -5.0373  -5.0017  -4.8783  -4.7670   3.2342   6.1301   6.4627   6.9213
     7.6048   7.8973   8.2520   8.6462   8.7070   9.3588

          k = 0.0000 0.1667-0.4756 ( 13072 PWs)   bands (ev):

   -45.7722 -22.5048 -22.3616 -22.3437  -7.0203  -6.3268  -6.0756  -5.0527
    -5.0344  -5.0010  -4.8837  -4.8015   2.8071   5.8209   6.4897   6.6002
     7.4351   7.7751   8.3268   8.6995   8.7853   9.9472

          k = 0.0000 0.3333 0.0000 ( 13037 PWs)   bands (ev):

   -45.7721 -22.4642 -22.3977 -22.3438  -7.0966  -6.3576  -6.1626  -5.0762
    -5.0277  -5.0188  -4.8625  -4.7414   3.2167   5.9853   6.6636   6.6996
     7.8311   7.8788   8.2290   8.3343   8.6784   9.5969

          k = 0.0000 0.3333 0.2378 ( 13057 PWs)   bands (ev):

   -45.7718 -22.4835 -22.3967 -22.3430  -6.9783  -6.3209  -6.0816  -5.0449
    -5.0355  -5.0277  -4.8632  -4.7129   2.8929   5.8503   6.5532   6.7757
     7.2771   7.6982   7.8548   8.3281   8.8892   9.6756

          k = 0.0000 0.3333-0.4756 ( 13080 PWs)   bands (ev):

   -45.7715 -22.5027 -22.3956 -22.3422  -6.8901  -6.2600  -5.9742  -5.0518
    -5.0280  -5.0048  -4.8990  -4.6661   2.6025   5.5204   6.3400   6.7961
     7.1675   7.3838   7.6518   8.3785   9.2436   9.5515

          k = 0.0000-0.5000 0.0000 ( 13028 PWs)   bands (ev):

   -45.7718 -22.4634 -22.4149 -22.3431  -6.9340  -6.3109  -6.1739  -5.0886
    -5.0401  -5.0174  -4.8172  -4.7887   3.0092   5.6421   6.9082   6.9707
     7.3657   7.4745   8.2530   8.2585   8.7107  10.3355

          k = 0.0000-0.5000 0.2378 ( 13068 PWs)   bands (ev):

   -45.7715 -22.4825 -22.4137 -22.3423  -6.8779  -6.2429  -6.0821  -5.0552
    -5.0408  -5.0344  -4.8280  -4.7095   2.7545   5.6020   6.5700   6.8135
     7.1638   7.2701   7.9628   8.2849   8.9011   9.8384

          k = 0.0000-0.5000-0.4756 ( 13016 PWs)   bands (ev):

   -45.7712 -22.5016 -22.4126 -22.3414  -6.8605  -6.1702  -5.9281  -5.0513
    -5.0414  -5.0140  -4.8789  -4.6116   2.5191   5.3920   6.0365   6.8734
     7.0927   7.3727   7.4089   8.3004   9.1536   9.5872

          k = 0.1667 0.1667 0.0000 ( 13048 PWs)   bands (ev):

   -45.7724 -22.4651 -22.3627 -22.3623  -7.2579  -6.3872  -6.1909  -5.0499
    -5.0363  -5.0036  -4.8562  -4.7217   3.4911   6.2984   6.5195   6.7218
     7.6444   7.8309   8.4570   8.5667   8.8798   9.1668

          k = 0.1667 0.1667 0.2378 ( 13066 PWs)   bands (ev):

   -45.7721 -22.4845 -22.3618 -22.3615  -7.0885  -6.3638  -6.1316  -5.0520
    -5.0304  -4.9968  -4.8491  -4.7357   3.1241   6.0808   6.1617   6.8558
     7.5133   7.5332   8.2753   8.7231   8.9492   9.3142

          k = 0.1667 0.1667-0.4756 ( 13078 PWs)   bands (ev):

   -45.7719 -22.5038 -22.3609 -22.3607  -6.9189  -6.3403  -6.0622  -5.0634
    -5.0129  -4.9713  -4.8577  -4.7544   2.7853   5.8718   5.8795   6.6018
     7.4148   7.4712   8.1985   8.7919   9.0024   9.6588

          k = 0.1667 0.3333 0.0000 ( 13041 PWs)   bands (ev):

   -45.7718 -22.4635 -22.3968 -22.3610  -6.9760  -6.3301  -6.1953  -5.0695
    -5.0259  -4.9877  -4.8244  -4.7303   3.0231   5.9966   6.5205   6.8326
     7.1895   7.6826   8.0606   8.6769   8.8647   9.6501

          k = 0.1667 0.3333 0.2378 ( 13062 PWs)   bands (ev):

   -45.7715 -22.4827 -22.3958 -22.3601  -6.8551  -6.3235  -6.1276  -5.0488
    -5.0253  -4.9666  -4.8079  -4.6897   2.8952   5.8168   5.9788   6.4903
     6.9106   7.5654   8.3605   8.6489   8.9860   9.4026

          k = 0.1667 0.3333-0.4756 ( 13080 PWs)   bands (ev):

   -45.7712 -22.5018 -22.3948 -22.3593  -6.7701  -6.3031  -6.0242  -5.0475
    -5.0033  -4.9285  -4.8184  -4.6408   2.7284   5.4659   5.8952   6.2280
     6.4373   7.4376   8.4309   8.7250   8.9320   9.4023

          k = 0.1667-0.5000 0.0000 ( 13036 PWs)   bands (ev):

   -45.7714 -22.4626 -22.4140 -22.3602  -6.8208  -6.2859  -6.2232  -5.0715
    -5.0184  -4.9684  -4.7879  -4.7758   2.8359   5.6593   6.6364   6.8655
     7.2046   7.4762   7.8174   8.7579   8.8200   9.9695

          k = 0.1667-0.5000 0.2378 ( 13058 PWs)   bands (ev):

   -45.7712 -22.4817 -22.4129 -22.3594  -6.7546  -6.2562  -6.1516  -5.0470
    -5.0123  -4.9495  -4.7798  -4.6854   2.7888   5.6074   5.8863   6.2534
     6.8636   7.6995   8.1632   8.6347   9.0042   9.3554

          k = 0.1667-0.5000-0.4756 ( 13044 PWs)   bands (ev):

   -45.7709 -22.5007 -22.4117 -22.3585  -6.7400  -6.2276  -6.0093  -5.0425
    -4.9742  -4.9302  -4.7932  -4.5880   2.7022   5.3540   5.7538   5.8892
     6.3068   7.5549   8.2994   8.5901   8.6620   9.5978

          k = 0.3333 0.3333 0.0000 ( 13036 PWs)   bands (ev):

   -45.7711 -22.4618 -22.3952 -22.3949  -6.7381  -6.2762  -6.2443  -5.0504
    -5.0079  -4.9139  -4.7533  -4.7315   2.6539   5.9480   6.1239   6.8985
     7.0865   7.1559   7.9190   8.4847   9.3671   9.3927

          k = 0.3333 0.3333 0.2378 ( 13064 PWs)   bands (ev):

   -45.7708 -22.4810 -22.3943 -22.3940  -6.6106  -6.3219  -6.2103  -5.0141
    -5.0029  -4.8632  -4.7064  -4.6565   2.8333   5.5737   5.6492   5.9424
     6.6285   7.0628   8.3819   8.9515   8.9621   9.3803

          k = 0.3333 0.3333-0.4756 ( 13028 PWs)   bands (ev):

   -45.7706 -22.5000 -22.3933 -22.3931  -6.5457  -6.3644  -6.1025  -4.9976
    -4.9784  -4.8088  -4.6581  -4.5842   2.9957   5.1923   5.2079   5.7021
     6.3570   6.5577   7.6717   9.2834   9.3581   9.4727

          k = 0.3333-0.5000 0.0000 ( 13056 PWs)   bands (ev):

   -45.7708 -22.4609 -22.4121 -22.3942  -6.6304  -6.2599  -6.2415  -5.0430
    -4.9863  -4.8460  -4.7686  -4.7201   2.4815   5.6307   6.1611   6.7157
     7.2067   7.4165   7.5015   8.4790   9.0933   9.5615

          k = 0.3333-0.5000 0.2378 ( 13056 PWs)   bands (ev):

   -45.7705 -22.4800 -22.4111 -22.3933  -6.5051  -6.2862  -6.2640  -5.0064
    -4.9771  -4.7803  -4.6899  -4.6382   2.7698   5.4776   5.5816   5.6752
     6.4125   7.1314   7.9359   8.9414   8.9582   9.5382

          k = 0.3333-0.5000-0.4756 ( 13040 PWs)   bands (ev):

   -45.7703 -22.4990 -22.4101 -22.3924  -6.4956  -6.3278  -6.1363  -4.9815
    -4.9574  -4.7318  -4.6114  -4.5390   3.1312   4.9447   5.1133   5.4779
     6.1580   6.5518   6.9252   9.3883   9.5135   9.6228

          k =-0.5000-0.5000 0.0000 ( 13048 PWs)   bands (ev):

   -45.7705 -22.4600 -22.4111 -22.4111  -6.5817  -6.2224  -6.2224  -5.0333
    -4.9464  -4.7791  -4.7791  -4.6932   2.3046   5.4709   6.0215   6.9253
     6.9253   7.5227   7.5227   8.2371   8.6248   9.8190

          k =-0.5000-0.5000 0.2378 ( 13040 PWs)   bands (ev):

   -45.7702 -22.4791 -22.4102 -22.4102  -6.3882  -6.3024  -6.3024  -4.9954
    -4.9445  -4.6645  -4.6468  -4.6468   2.7049   5.4283   5.5916   5.5916
     6.0278   7.0712   7.3084   8.9702   8.9702   9.8037

          k =-0.5000-0.5000-0.4756 ( 13064 PWs)   bands (ev):

   -45.7699 -22.4980 -22.4093 -22.4093  -6.3724  -6.3724  -6.1894  -4.9574
    -4.9427  -4.6263  -4.5227  -4.5227   3.3395   4.9657   4.9657   5.3132
     5.9719   6.0341   6.2315   9.6360   9.6360   9.7885

     highest occupied level (ev):    10.3355

!    total energy              =    -380.57584880 Ry
     estimated scf accuracy    <          6.1E-11 Ry

     The total energy is the sum of the following terms:
     one-electron contribution =     -84.96143067 Ry
     hartree contribution      =      71.63025618 Ry
     xc contribution           =    -102.57345683 Ry
     ewald contribution        =    -264.67121748 Ry

     convergence has been achieved in  10 iterations

     negative rho (up, down):  1.571E-02 0.000E+00

     Forces acting on atoms (cartesian axes, Ry/au):

     atom    1 type  1   force =     0.00000000    0.00000000   -0.00718611
     atom    2 type  2   force =     0.00000000    0.00000000    0.00541193
     atom    3 type  3   force =     0.00000000    0.00000000   -0.00358599
     atom    4 type  3   force =     0.00000000    0.00000000    0.00268009
     atom    5 type  3   force =     0.00000000    0.00000000    0.00268009

     Total force =     0.010400     Total SCF correction =     0.000018


     Computing stress (Cartesian axis) and pressure


     negative rho (up, down):  1.571E-02 0.000E+00
          total   stress  (Ry/bohr**3)                   (kbar)     P=      -47.39
  -0.00037643   0.00000000   0.00000000          -55.37        0.00        0.00
   0.00000000  -0.00037643   0.00000000            0.00      -55.37        0.00
   0.00000000   0.00000000  -0.00021353            0.00        0.00      -31.41

     Energy error            =      1.5E-04 Ry
     Gradient error          =      7.2E-03 Ry/Bohr

     number of scf cycles    =   4
     number of bfgs steps    =   3

     energy             old  =    -380.5757035716 Ry
     energy             new  =    -380.5758488036 Ry

     CASE: energy            _new < energy            _old

     new trust radius        =       0.0208658100 bohr
     new conv_thr            =       0.0000000001 Ry


ATOMIC_POSITIONS (crystal)
Pb               0.0000000000        0.0000000000        0.9982494380
Ti               0.5000000000        0.5000000000        0.5374951394
O                0.5000000000        0.5000000000        0.1069086534
O                0.5000000000        0.0000000000        0.6123155286
O                0.0000000000        0.5000000000        0.6123155286



     Writing config-only to output data dir ./pto_150.save/ :
     XML data file
     NEW-OLD atomic charge density approx. for the potential

     negative rho (up, down):  1.583E-02 0.000E+00

     total cpu time spent up to now is      179.9 secs

     Self-consistent Calculation

     iteration #  1     ecut=   150.00 Ry     beta= 0.70
     CG style diagonalization
     ethr =  1.00E-06,  avg # of iterations =  5.5

     Threshold (ethr) on eigenvalues was too large:
     Diagonalizing with lowered threshold

     CG style diagonalization
     c_bands:  1 eigenvalues not converged
     c_bands:  2 eigenvalues not converged
     c_bands:  1 eigenvalues not converged
     c_bands:  2 eigenvalues not converged
     c_bands:  1 eigenvalues not converged
     c_bands:  1 eigenvalues not converged
     ethr =  4.32E-08,  avg # of iterations =  6.0

     negative rho (up, down):  1.580E-02 0.000E+00

     total cpu time spent up to now is      188.9 secs

     total energy              =    -380.57590147 Ry
     estimated scf accuracy    <       0.00002067 Ry

     iteration #  2     ecut=   150.00 Ry     beta= 0.70
     CG style diagonalization
     ethr =  4.70E-08,  avg # of iterations =  4.3

     negative rho (up, down):  1.580E-02 0.000E+00

     total cpu time spent up to now is      192.2 secs

     total energy              =    -380.57596578 Ry
     estimated scf accuracy    <       0.00001316 Ry

     iteration #  3     ecut=   150.00 Ry     beta= 0.70
     CG style diagonalization
     ethr =  2.99E-08,  avg # of iterations =  4.3

     negative rho (up, down):  1.579E-02 0.000E+00

     total cpu time spent up to now is      195.5 secs

     total energy              =    -380.57597497 Ry
     estimated scf accuracy    <       0.00001100 Ry

     iteration #  4     ecut=   150.00 Ry     beta= 0.70
     CG style diagonalization
     ethr =  2.50E-08,  avg # of iterations =  3.6

     negative rho (up, down):  1.579E-02 0.000E+00

     total cpu time spent up to now is      198.3 secs

     total energy              =    -380.57597724 Ry
     estimated scf accuracy    <       0.00000014 Ry

     iteration #  5     ecut=   150.00 Ry     beta= 0.70
     CG style diagonalization
     ethr =  3.10E-10,  avg # of iterations =  5.8

     negative rho (up, down):  1.579E-02 0.000E+00

     total cpu time spent up to now is      202.6 secs

     total energy              =    -380.57597758 Ry
     estimated scf accuracy    <       0.00000020 Ry

     iteration #  6     ecut=   150.00 Ry     beta= 0.70
     CG style diagonalization
     ethr =  3.10E-10,  avg # of iterations =  3.9

     negative rho (up, down):  1.579E-02 0.000E+00

     total cpu time spent up to now is      205.6 secs

     total energy              =    -380.57597761 Ry
     estimated scf accuracy    <       0.00000003 Ry

     iteration #  7     ecut=   150.00 Ry     beta= 0.70
     CG style diagonalization
     ethr =  7.29E-11,  avg # of iterations =  4.1

     negative rho (up, down):  1.579E-02 0.000E+00

     total cpu time spent up to now is      208.8 secs

     total energy              =    -380.57597762 Ry
     estimated scf accuracy    <       0.00000001 Ry

     iteration #  8     ecut=   150.00 Ry     beta= 0.70
     CG style diagonalization
     ethr =  2.53E-11,  avg # of iterations =  4.6

     negative rho (up, down):  1.579E-02 0.000E+00

     total cpu time spent up to now is      212.3 secs

     total energy              =    -380.57597763 Ry
     estimated scf accuracy    <          8.1E-10 Ry

     iteration #  9     ecut=   150.00 Ry     beta= 0.70
     CG style diagonalization
     ethr =  1.83E-12,  avg # of iterations =  6.7

     negative rho (up, down):  1.579E-02 0.000E+00

     total cpu time spent up to now is      217.3 secs

     total energy              =    -380.57597763 Ry
     estimated scf accuracy    <          2.2E-10 Ry

     iteration # 10     ecut=   150.00 Ry     beta= 0.70
     CG style diagonalization
     ethr =  4.92E-13,  avg # of iterations =  5.1

     negative rho (up, down):  1.579E-02 0.000E+00

     total cpu time spent up to now is      221.1 secs

     End of self-consistent calculation

          k = 0.0000 0.0000 0.0000 ( 13095 PWs)   bands (ev):

   -45.7720 -22.4686 -22.3458 -22.3458  -7.5375  -6.4648  -6.2165  -5.0143
    -5.0143  -4.9788  -4.8801  -4.7228   4.2015   6.2860   6.2860   6.7600
     8.1005   8.1005   8.4742   8.6208   8.9195   8.9195

          k = 0.0000 0.0000 0.2378 ( 13054 PWs)   bands (ev):

   -45.7717 -22.4882 -22.3451 -22.3451  -7.3445  -6.4093  -6.1605  -5.0293
    -5.0293  -4.9775  -4.8692  -4.7904   3.4407   6.3285   6.3285   6.8558
     7.8978   7.8978   8.3893   8.7785   9.0167   9.0167

          k = 0.0000 0.0000-0.4756 ( 13046 PWs)   bands (ev):

   -45.7715 -22.5078 -22.3443 -22.3443  -7.1341  -6.3488  -6.1123  -5.0443
    -5.0443  -4.9762  -4.8630  -4.8594   2.9279   6.2009   6.3508   6.3508
     7.7717   7.7717   8.3082   9.0832   9.0832   9.9970

          k = 0.0000 0.1667 0.0000 ( 13083 PWs)   bands (ev):

   -45.7717 -22.4678 -22.3632 -22.3451  -7.4036  -6.4378  -6.1941  -5.0362
    -5.0129  -4.9914  -4.8744  -4.7128   3.7866   6.3329   6.3957   6.7204
     8.1117   8.1249   8.4524   8.5500   8.5879   8.9730

          k = 0.0000 0.1667 0.2378 ( 13068 PWs)   bands (ev):

   -45.7714 -22.4874 -22.3623 -22.3443  -7.2263  -6.3971  -6.1323  -5.0311
    -5.0284  -4.9906  -4.8714  -4.7482   3.2398   6.1176   6.4465   6.9263
     7.5997   7.8904   8.2389   8.6367   8.6898   9.3555

          k = 0.0000 0.1667-0.4756 ( 13072 PWs)   bands (ev):

   -45.7711 -22.5068 -22.3614 -22.3435  -7.0425  -6.3512  -6.0691  -5.0438
    -5.0235  -4.9899  -4.8753  -4.7825   2.8139   5.8136   6.4718   6.5983
     7.4310   7.7706   8.3042   8.6909   8.7670   9.9507

          k = 0.0000 0.3333 0.0000 ( 13037 PWs)   bands (ev):

   -45.7710 -22.4663 -22.3977 -22.3437  -7.1116  -6.3801  -6.1661  -5.0661
    -5.0166  -5.0099  -4.8504  -4.7234   3.2194   5.9733   6.6622   6.6835
     7.8197   7.8681   8.2144   8.3214   8.6660   9.6075

          k = 0.0000 0.3333 0.2378 ( 13057 PWs)   bands (ev):

   -45.7708 -22.4855 -22.3966 -22.3429  -6.9966  -6.3434  -6.0819  -5.0342
    -5.0265  -5.0166  -4.8521  -4.6948   2.8990   5.8369   6.5490   6.7589
     7.2609   7.6856   7.8514   8.3161   8.8785   9.6830

          k = 0.0000 0.3333-0.4756 ( 13080 PWs)   bands (ev):

   -45.7705 -22.5047 -22.3955 -22.3420  -6.9109  -6.2845  -5.9706  -5.0428
    -5.0169  -4.9931  -4.8866  -4.6499   2.6110   5.5085   6.3362   6.7792
     7.1468   7.3767   7.6384   8.3669   9.2405   9.5582

          k = 0.0000-0.5000 0.0000 ( 13028 PWs)   bands (ev):

   -45.7707 -22.4654 -22.4149 -22.3430  -6.9495  -6.3330  -6.1803  -5.0778
    -5.0289  -5.0085  -4.7963  -4.7767   3.0125   5.6311   6.9007   6.9510
     7.3564   7.4664   8.2390   8.2438   8.6974  10.3437

          k = 0.0000-0.5000 0.2378 ( 13068 PWs)   bands (ev):

   -45.7704 -22.4845 -22.4137 -22.3421  -6.8966  -6.2668  -6.0824  -5.0439
    -5.0296  -5.0255  -4.8147  -4.6919   2.7613   5.5901   6.5628   6.7948
     7.1422   7.2601   7.9571   8.2740   8.8909   9.8501

          k = 0.0000-0.5000-0.4756 ( 13016 PWs)   bands (ev):

   -45.7702 -22.5036 -22.4125 -22.3413  -6.8803  -6.1965  -5.9250  -5.0423
    -5.0303  -5.0023  -4.8640  -4.5965   2.5287   5.3798   6.0294   6.8443
     7.0819   7.3491   7.4083   8.2918   9.1713   9.5778

          k = 0.1667 0.1667 0.0000 ( 13048 PWs)   bands (ev):

   -45.7714 -22.4671 -22.3626 -22.3622  -7.2725  -6.4099  -6.1911  -5.0406
    -5.0270  -4.9928  -4.8480  -4.7032   3.4903   6.2866   6.5097   6.7241
     7.6387   7.8169   8.4537   8.5580   8.8609   9.1646

          k = 0.1667 0.1667 0.2378 ( 13066 PWs)   bands (ev):

   -45.7711 -22.4865 -22.3617 -22.3614  -7.1064  -6.3870  -6.1290  -5.0423
    -5.0200  -4.9864  -4.8411  -4.7171   3.1276   6.0698   6.1492   6.8546
     7.5093   7.5198   8.2680   8.7096   8.9323   9.3173

          k = 0.1667 0.1667-0.4756 ( 13078 PWs)   bands (ev):

   -45.7708 -22.5058 -22.3608 -22.3606  -6.9409  -6.3639  -6.0559  -5.0536
    -5.0019  -4.9615  -4.8493  -4.7355   2.7910   5.8617   5.8728   6.5929
     7.3941   7.4678   8.1952   8.7768   8.9855   9.6653

          k = 0.1667 0.3333 0.0000 ( 13041 PWs)   bands (ev):

   -45.7707 -22.4655 -22.3968 -22.3609  -6.9898  -6.3534  -6.1999  -5.0592
    -5.0163  -4.9767  -4.8124  -4.7118   3.0200   5.9848   6.5114   6.8283
     7.1756   7.6793   8.0526   8.6668   8.8478   9.6560

          k = 0.1667 0.3333 0.2378 ( 13062 PWs)   bands (ev):

   -45.7704 -22.4847 -22.3958 -22.3600  -6.8730  -6.3460  -6.1273  -5.0385
    -5.0151  -4.9567  -4.7967  -4.6720   2.8960   5.8050   5.9659   6.4830
     6.9047   7.5613   8.3473   8.6361   8.9737   9.4096

          k = 0.1667 0.3333-0.4756 ( 13080 PWs)   bands (ev):

   -45.7702 -22.5038 -22.3947 -22.3591  -6.7910  -6.3262  -6.0188  -5.0377
    -4.9927  -4.9193  -4.8064  -4.6249   2.7326   5.4559   5.8776   6.2250
     6.4254   7.4305   8.4265   8.7048   8.9411   9.3947

          k = 0.1667-0.5000 0.0000 ( 13036 PWs)   bands (ev):

   -45.7704 -22.4646 -22.4139 -22.3601  -6.8341  -6.3090  -6.2306  -5.0609
    -5.0087  -4.9579  -4.7686  -4.7621   2.8320   5.6486   6.6261   6.8533
     7.1963   7.4699   7.8127   8.7406   8.8087   9.9780

          k = 0.1667-0.5000 0.2378 ( 13058 PWs)   bands (ev):

   -45.7701 -22.4837 -22.4128 -22.3592  -6.7728  -6.2798  -6.1507  -5.0367
    -5.0021  -4.9402  -4.7661  -4.6685   2.7886   5.5960   5.8709   6.2460
     6.8587   7.6948   8.1487   8.6236   8.9912   9.3671

          k = 0.1667-0.5000-0.4756 ( 13044 PWs)   bands (ev):

   -45.7698 -22.5027 -22.4117 -22.3584  -6.7600  -6.2517  -6.0038  -5.0327
    -4.9640  -4.9218  -4.7789  -4.5735   2.7062   5.3431   5.7281   5.8828
     6.3048   7.5468   8.3073   8.5829   8.6531   9.5887

          k = 0.3333 0.3333 0.0000 ( 13036 PWs)   bands (ev):

   -45.7701 -22.4639 -22.3952 -22.3948  -6.7461  -6.3013  -6.2547  -5.0399
    -4.9973  -4.9016  -4.7420  -4.7124   2.6412   5.9356   6.1153   6.8951
     7.0796   7.1599   7.9075   8.4824   9.3455   9.4022

          k = 0.3333 0.3333 0.2378 ( 13064 PWs)   bands (ev):

   -45.7698 -22.4830 -22.3942 -22.3940  -6.6260  -6.3448  -6.2107  -5.0035
    -4.9927  -4.8539  -4.6952  -4.6396   2.8211   5.5652   5.6453   5.9313
     6.6258   7.0630   8.3899   8.9414   8.9596   9.3594

          k = 0.3333 0.3333-0.4756 ( 13028 PWs)   bands (ev):

   -45.7695 -22.5019 -22.3932 -22.3931  -6.5667  -6.3855  -6.0949  -4.9876
    -4.9678  -4.8021  -4.6472  -4.5693   2.9861   5.1891   5.1910   5.6959
     6.3547   6.5533   7.6957   9.2745   9.3359   9.4638

          k = 0.3333-0.5000 0.0000 ( 13056 PWs)   bands (ev):

   -45.7697 -22.4629 -22.4120 -22.3941  -6.6319  -6.2777  -6.2668  -5.0324
    -4.9754  -4.8320  -4.7514  -4.7074   2.4648   5.6196   6.1523   6.7175
     7.2117   7.4054   7.4916   8.4763   9.1056   9.5402

          k = 0.3333-0.5000 0.2378 ( 13056 PWs)   bands (ev):

   -45.7695 -22.4820 -22.4110 -22.3932  -6.5186  -6.3092  -6.2656  -4.9959
    -4.9667  -4.7725  -4.6750  -4.6239   2.7509   5.4749   5.5717   5.6714
     6.4074   7.1319   7.9537   8.9358   8.9491   9.5165

          k = 0.3333-0.5000-0.4756 ( 13040 PWs)   bands (ev):

   -45.7692 -22.5010 -22.4101 -22.3923  -6.5157  -6.3488  -6.1278  -4.9712
    -4.9470  -4.7268  -4.5987  -4.5262   3.1101   4.9345   5.1119   5.4710
     6.1534   6.5474   6.9591   9.3803   9.4904   9.6153

          k =-0.5000-0.5000 0.0000 ( 13048 PWs)   bands (ev):

   -45.7694 -22.4620 -22.4111 -22.4111  -6.5743  -6.2487  -6.2487  -5.0227
    -4.9356  -4.7592  -4.7592  -4.6878   2.2823   5.4595   6.0148   6.9338
     6.9338   7.5087   7.5087   8.2395   8.6379   9.7961

          k =-0.5000-0.5000 0.2378 ( 13040 PWs)   bands (ev):

   -45.7691 -22.4811 -22.4102 -22.4102  -6.3799  -6.3252  -6.3252  -4.9848
    -4.9338  -4.6601  -4.6312  -4.6312   2.6759   5.4179   5.5943   5.5943
     6.0211   7.0715   7.3334   8.9629   8.9629   9.7810

          k =-0.5000-0.5000-0.4756 ( 13064 PWs)   bands (ev):

   -45.7689 -22.5000 -22.4092 -22.4092  -6.3924  -6.3924  -6.1798  -4.9469
    -4.9320  -4.6233  -4.5104  -4.5104   3.2910   4.9695   4.9695   5.3059
     6.0192   6.0274   6.2281   9.6294   9.6294   9.7660

     highest occupied level (ev):    10.3437

!    total energy              =    -380.57597763 Ry
     estimated scf accuracy    <          5.8E-12 Ry

     The total energy is the sum of the following terms:
     one-electron contribution =     -85.26505441 Ry
     hartree contribution      =      71.78222878 Ry
     xc contribution           =    -102.57965115 Ry
     ewald contribution        =    -264.51350084 Ry

     convergence has been achieved in  10 iterations

     negative rho (up, down):  1.579E-02 0.000E+00

     Forces acting on atoms (cartesian axes, Ry/au):

     atom    1 type  1   force =     0.00000000    0.00000000   -0.00493754
     atom    2 type  2   force =     0.00000000    0.00000000    0.00489115
     atom    3 type  3   force =     0.00000000    0.00000000   -0.00511364
     atom    4 type  3   force =     0.00000000    0.00000000    0.00258002
     atom    5 type  3   force =     0.00000000    0.00000000    0.00258002

     Total force =     0.009368     Total SCF correction =     0.000007


     Computing stress (Cartesian axis) and pressure


     negative rho (up, down):  1.579E-02 0.000E+00
          total   stress  (Ry/bohr**3)                   (kbar)     P=      -44.31
  -0.00036029   0.00000000   0.00000000          -53.00        0.00        0.00
   0.00000000  -0.00036029   0.00000000            0.00      -53.00        0.00
   0.00000000   0.00000000  -0.00018312            0.00        0.00      -26.94

     Energy error            =      1.3E-04 Ry
     Gradient error          =      5.1E-03 Ry/Bohr

     number of scf cycles    =   5
     number of bfgs steps    =   4

     energy             old  =    -380.5758488036 Ry
     energy             new  =    -380.5759776306 Ry

     CASE: energy            _new < energy            _old

     new trust radius        =       0.0312987150 bohr
     new conv_thr            =       0.0000000001 Ry


ATOMIC_POSITIONS (crystal)
Pb               0.0000000000        0.0000000000        0.9942097876
Ti               0.5000000000        0.5000000000        0.5382733612
O                0.5000000000        0.5000000000        0.1077143201
O                0.5000000000        0.0000000000        0.6135434096
O                0.0000000000        0.5000000000        0.6135434096



     Writing config-only to output data dir ./pto_150.save/ :
     XML data file
     NEW-OLD atomic charge density approx. for the potential

     negative rho (up, down):  1.588E-02 0.000E+00

     total cpu time spent up to now is      226.9 secs

     Self-consistent Calculation

     iteration #  1     ecut=   150.00 Ry     beta= 0.70
     CG style diagonalization
     c_bands:  1 eigenvalues not converged
     c_bands:  1 eigenvalues not converged
     c_bands:  1 eigenvalues not converged
     c_bands:  1 eigenvalues not converged
     ethr =  1.00E-06,  avg # of iterations =  6.9

     negative rho (up, down):  1.585E-02 0.000E+00

     total cpu time spent up to now is      232.3 secs

     total energy              =    -380.57590835 Ry
     estimated scf accuracy    <       0.00004560 Ry

     iteration #  2     ecut=   150.00 Ry     beta= 0.70
     CG style diagonalization
     ethr =  1.04E-07,  avg # of iterations =  4.6

     negative rho (up, down):  1.583E-02 0.000E+00

     total cpu time spent up to now is      235.8 secs

     total energy              =    -380.57607108 Ry
     estimated scf accuracy    <       0.00003398 Ry

     iteration #  3     ecut=   150.00 Ry     beta= 0.70
     CG style diagonalization
     ethr =  7.72E-08,  avg # of iterations =  4.3

     negative rho (up, down):  1.582E-02 0.000E+00

     total cpu time spent up to now is      239.1 secs

     total energy              =    -380.57609376 Ry
     estimated scf accuracy    <       0.00001979 Ry

     iteration #  4     ecut=   150.00 Ry     beta= 0.70
     CG style diagonalization
     ethr =  4.50E-08,  avg # of iterations =  3.6

     negative rho (up, down):  1.582E-02 0.000E+00

     total cpu time spent up to now is      241.9 secs

     total energy              =    -380.57609853 Ry
     estimated scf accuracy    <       0.00000099 Ry

     iteration #  5     ecut=   150.00 Ry     beta= 0.70
     CG style diagonalization
     ethr =  2.25E-09,  avg # of iterations =  4.8

     negative rho (up, down):  1.582E-02 0.000E+00

     total cpu time spent up to now is      245.6 secs

     total energy              =    -380.57609953 Ry
     estimated scf accuracy    <       0.00000043 Ry

     iteration #  6     ecut=   150.00 Ry     beta= 0.70
     CG style diagonalization
     ethr =  9.72E-10,  avg # of iterations =  4.3

     negative rho (up, down):  1.582E-02 0.000E+00

     total cpu time spent up to now is      248.9 secs

     total energy              =    -380.57609970 Ry
     estimated scf accuracy    <       0.00000006 Ry

     iteration #  7     ecut=   150.00 Ry     beta= 0.70
     CG style diagonalization
     ethr =  1.46E-10,  avg # of iterations =  5.2

     negative rho (up, down):  1.582E-02 0.000E+00

     total cpu time spent up to now is      252.8 secs

     total energy              =    -380.57609978 Ry
     estimated scf accuracy    <       0.00000001 Ry

     iteration #  8     ecut=   150.00 Ry     beta= 0.70
     CG style diagonalization
     ethr =  2.45E-11,  avg # of iterations =  5.6

     negative rho (up, down):  1.582E-02 0.000E+00

     total cpu time spent up to now is      257.0 secs

     total energy              =    -380.57609979 Ry
     estimated scf accuracy    <          1.4E-09 Ry

     iteration #  9     ecut=   150.00 Ry     beta= 0.70
     CG style diagonalization
     ethr =  3.29E-12,  avg # of iterations =  6.4

     negative rho (up, down):  1.582E-02 0.000E+00

     total cpu time spent up to now is      261.7 secs

     End of self-consistent calculation

          k = 0.0000 0.0000 0.0000 ( 13095 PWs)   bands (ev):

   -45.7825 -22.4756 -22.3581 -22.3581  -7.5645  -6.5026  -6.2076  -4.9985
    -4.9985  -4.9586  -4.8714  -4.6927   4.2056   6.2603   6.2603   6.8000
     8.1077   8.1077   8.4571   8.6183   8.8850   8.8850

          k = 0.0000 0.0000 0.2378 ( 13054 PWs)   bands (ev):

   -45.7822 -22.4953 -22.3574 -22.3574  -7.3770  -6.4498  -6.1482  -5.0136
    -5.0136  -4.9573  -4.8581  -4.7575   3.4549   6.3022   6.3022   6.8758
     7.9032   7.9032   8.3724   8.7795   8.9819   8.9819

          k = 0.0000 0.0000-0.4756 ( 13046 PWs)   bands (ev):

   -45.7820 -22.5148 -22.3566 -22.3566  -7.1747  -6.3927  -6.0944  -5.0285
    -5.0285  -4.9561  -4.8455  -4.8265   2.9455   6.2137   6.3245   6.3245
     7.7761   7.7761   8.2915   9.0464   9.0464   9.9900

          k = 0.0000 0.1667 0.0000 ( 13083 PWs)   bands (ev):

   -45.7822 -22.4749 -22.3755 -22.3574  -7.4303  -6.4764  -6.1881  -5.0201
    -4.9971  -4.9712  -4.8618  -4.6823   3.7906   6.3126   6.3690   6.7341
     8.1238   8.1322   8.4321   8.5172   8.5733   8.9660

          k = 0.0000 0.1667 0.2378 ( 13068 PWs)   bands (ev):

   -45.7819 -22.4944 -22.3746 -22.3566  -7.2588  -6.4373  -6.1224  -5.0135
    -5.0126  -4.9704  -4.8579  -4.7167   3.2524   6.0979   6.4195   6.9313
     7.5985   7.8924   8.2180   8.6249   8.6601   9.3517

          k = 0.0000 0.1667-0.4756 ( 13072 PWs)   bands (ev):

   -45.7816 -22.5137 -22.3738 -22.3558  -7.0825  -6.3936  -6.0533  -5.0280
    -5.0045  -4.9697  -4.8595  -4.7507   2.8308   5.8037   6.4453   6.5917
     7.4292   7.7711   8.2648   8.6810   8.7353   9.9553

          k = 0.0000 0.3333 0.0000 ( 13037 PWs)   bands (ev):

   -45.7815 -22.4733 -22.4100 -22.3560  -7.1385  -6.4191  -6.1669  -5.0482
    -4.9965  -4.9940  -4.8297  -4.6932   3.2240   5.9511   6.6537   6.6631
     7.8032   7.8472   8.2120   8.2978   8.6571   9.6291

          k = 0.0000 0.3333 0.2378 ( 13057 PWs)   bands (ev):

   -45.7813 -22.4925 -22.4090 -22.3552  -7.0294  -6.3826  -6.0768  -5.0151
    -5.0107  -4.9964  -4.8326  -4.6649   2.9104   5.8151   6.5427   6.7301
     7.2371   7.6695   7.8456   8.3053   8.8659   9.6976

          k = 0.0000 0.3333-0.4756 ( 13080 PWs)   bands (ev):

   -45.7810 -22.5117 -22.4079 -22.3543  -6.9480  -6.3270  -5.9589  -5.0270
    -4.9967  -4.9727  -4.8650  -4.6229   2.6271   5.4932   6.3278   6.7542
     7.1122   7.3633   7.6195   8.3520   9.2451   9.5678

          k = 0.0000-0.5000 0.0000 ( 13028 PWs)   bands (ev):

   -45.7812 -22.4724 -22.4273 -22.3553  -6.9774  -6.3716  -6.1846  -5.0587
    -5.0087  -4.9927  -4.7625  -4.7557   3.0181   5.6089   6.8982   6.9150
     7.3370   7.4492   8.2139   8.2428   8.6873  10.3619

          k = 0.0000-0.5000 0.2378 ( 13068 PWs)   bands (ev):

   -45.7809 -22.4915 -22.4261 -22.3544  -6.9300  -6.3085  -6.0767  -5.0241
    -5.0097  -5.0094  -4.7918  -4.6630   2.7731   5.5678   6.5530   6.7687
     7.1032   7.2465   7.9474   8.2697   8.8775   9.8743

          k = 0.0000-0.5000-0.4756 ( 13016 PWs)   bands (ev):

   -45.7807 -22.5105 -22.4249 -22.3536  -6.9156  -6.2418  -5.9139  -5.0265
    -5.0101  -4.9819  -4.8383  -4.5717   2.5453   5.3622   6.0181   6.7988
     7.0705   7.3064   7.4019   8.2857   9.2056   9.5682

          k = 0.1667 0.1667 0.0000 ( 13048 PWs)   bands (ev):

   -45.7819 -22.4741 -22.3749 -22.3745  -7.2987  -6.4494  -6.1876  -5.0240
    -5.0104  -4.9733  -4.8326  -4.6724   3.4898   6.2631   6.4914   6.7289
     7.6450   7.7946   8.4588   8.5422   8.8279   9.1743

          k = 0.1667 0.1667 0.2378 ( 13066 PWs)   bands (ev):

   -45.7816 -22.4935 -22.3740 -22.3737  -7.1387  -6.4273  -6.1202  -5.0251
    -5.0016  -4.9676  -4.8260  -4.6863   3.1361   6.0520   6.1292   6.8516
     7.4982   7.5090   8.2681   8.6867   8.9055   9.3246

          k = 0.1667 0.1667-0.4756 ( 13078 PWs)   bands (ev):

   -45.7813 -22.5128 -22.3731 -22.3729  -6.9807  -6.4051  -6.0404  -5.0361
    -4.9821  -4.9443  -4.8332  -4.7042   2.8050   5.8480   5.8626   6.5758
     7.3618   7.4635   8.1993   8.7508   8.9599   9.6751

          k = 0.1667 0.3333 0.0000 ( 13041 PWs)   bands (ev):

   -45.7812 -22.4725 -22.4091 -22.3732  -7.0145  -6.3937  -6.2028  -5.0410
    -4.9993  -4.9570  -4.7914  -4.6811   3.0146   5.9623   6.4969   6.8210
     7.1535   7.6912   8.0382   8.6539   8.8226   9.6728

          k = 0.1667 0.3333 0.2378 ( 13062 PWs)   bands (ev):

   -45.7809 -22.4917 -22.4081 -22.3723  -6.9050  -6.3853  -6.1217  -5.0203
    -4.9970  -4.9383  -4.7770  -4.6428   2.8979   5.7861   5.9462   6.4689
     6.8974   7.5570   8.3311   8.6188   8.9572   9.4241

          k = 0.1667 0.3333-0.4756 ( 13080 PWs)   bands (ev):

   -45.7807 -22.5108 -22.4071 -22.3715  -6.8283  -6.3665  -6.0048  -5.0203
    -4.9739  -4.9023  -4.7855  -4.5984   2.7414   5.4437   5.8484   6.2191
     6.4049   7.4175   8.4293   8.6696   8.9592   9.3866

          k = 0.1667-0.5000 0.0000 ( 13036 PWs)   bands (ev):

   -45.7809 -22.4716 -22.4263 -22.3724  -6.8582  -6.3491  -6.2372  -5.0423
    -4.9915  -4.9385  -4.7389  -4.7366   2.8253   5.6269   6.6168   6.8280
     7.1812   7.4573   7.8259   8.7111   8.7972   9.9951

          k = 0.1667-0.5000 0.2378 ( 13058 PWs)   bands (ev):

   -45.7806 -22.4907 -22.4252 -22.3715  -6.8054  -6.3207  -6.1437  -5.0184
    -4.9842  -4.9224  -4.7428  -4.6406   2.7885   5.5749   5.8476   6.2352
     6.8509   7.6909   8.1254   8.6139   8.9709   9.3912

          k = 0.1667-0.5000-0.4756 ( 13044 PWs)   bands (ev):

   -45.7804 -22.5097 -22.4241 -22.3707  -6.7953  -6.2933  -5.9897  -5.0154
    -4.9459  -4.9050  -4.7547  -4.5495   2.7133   5.3289   5.6867   5.8707
     6.3013   7.5317   8.3166   8.5797   8.6430   9.5805

          k = 0.3333 0.3333 0.0000 ( 13036 PWs)   bands (ev):

   -45.7806 -22.4709 -22.4075 -22.4072  -6.7611  -6.3442  -6.2674  -5.0216
    -4.9785  -4.8801  -4.7210  -4.6810   2.6198   5.9132   6.0946   6.8960
     7.0689   7.1821   7.8829   8.4841   9.3086   9.4219

          k = 0.3333 0.3333 0.2378 ( 13064 PWs)   bands (ev):

   -45.7803 -22.4900 -22.4065 -22.4063  -6.6544  -6.3843  -6.2062  -4.9849
    -4.9743  -4.8364  -4.6750  -4.6117   2.8008   5.5543   5.6397   5.9106
     6.6200   7.0651   8.4063   8.9282   8.9628   9.3245

          k = 0.3333 0.3333-0.4756 ( 13028 PWs)   bands (ev):

   -45.7800 -22.5089 -22.4056 -22.4054  -6.6036  -6.4221  -6.0781  -4.9696
    -4.9493  -4.7879  -4.6281  -4.5447   2.9707   5.1606   5.1919   5.6829
     6.3516   6.5414   7.7379   9.2680   9.2962   9.4561

          k = 0.3333-0.5000 0.0000 ( 13056 PWs)   bands (ev):

   -45.7802 -22.4700 -22.4244 -22.4064  -6.6353  -6.3099  -6.3034  -5.0139
    -4.9562  -4.8087  -4.7229  -4.6835   2.4367   5.5980   6.1312   6.7302
     7.2342   7.3851   7.4737   8.4748   9.1264   9.5030

          k = 0.3333-0.5000 0.2378 ( 13056 PWs)   bands (ev):

   -45.7800 -22.4890 -22.4234 -22.4056  -6.5449  -6.3488  -6.2620  -4.9773
    -4.9480  -4.7569  -4.6504  -4.5994   2.7193   5.4741   5.5532   5.6654
     6.3965   7.1354   7.9831   8.9319   8.9410   9.4789

          k = 0.3333-0.5000-0.4756 ( 13040 PWs)   bands (ev):

   -45.7797 -22.5079 -22.4224 -22.4047  -6.5508  -6.3854  -6.1100  -4.9528
    -4.9285  -4.7142  -4.5776  -4.5047   3.0750   4.9206   5.1141   5.4547
     6.1442   6.5385   7.0153   9.3747   9.4500   9.6098

          k =-0.5000-0.5000 0.0000 ( 13048 PWs)   bands (ev):

   -45.7799 -22.4690 -22.4234 -22.4234  -6.5581  -6.2933  -6.2933  -5.0042
    -4.9163  -4.7271  -4.7271  -4.6747   2.2449   5.4379   5.9964   6.9593
     6.9593   7.4841   7.4841   8.2461   8.6573   9.7559

          k =-0.5000-0.5000 0.2378 ( 13040 PWs)   bands (ev):

   -45.7797 -22.4881 -22.4225 -22.4225  -6.3641  -6.3641  -6.3624  -4.9663
    -4.9145  -4.6481  -4.6056  -4.6056   2.6279   5.3971   5.6033   5.6033
     6.0026   7.0743   7.3730   8.9569   8.9569   9.7410

          k =-0.5000-0.5000-0.4756 ( 13064 PWs)   bands (ev):

   -45.7794 -22.5070 -22.4216 -22.4216  -6.4272  -6.4272  -6.1607  -4.9284
    -4.9126  -4.6128  -4.4900  -4.4900   3.2131   4.9797   4.9797   5.2887
     6.0089   6.0936   6.2259   9.6252   9.6252   9.7262

     highest occupied level (ev):    10.3619

!    total energy              =    -380.57609979 Ry
     estimated scf accuracy    <          1.1E-10 Ry

     The total energy is the sum of the following terms:
     one-electron contribution =     -85.69175546 Ry
     hartree contribution      =      71.99266585 Ry
     xc contribution           =    -102.58643243 Ry
     ewald contribution        =    -264.29057776 Ry

     convergence has been achieved in   9 iterations

     negative rho (up, down):  1.582E-02 0.000E+00

     Forces acting on atoms (cartesian axes, Ry/au):

     atom    1 type  1   force =     0.00000000    0.00000000   -0.00082188
     atom    2 type  2   force =     0.00000000    0.00000000    0.00117772
     atom    3 type  3   force =     0.00000000    0.00000000   -0.00378369
     atom    4 type  3   force =     0.00000000    0.00000000    0.00171392
     atom    5 type  3   force =     0.00000000    0.00000000    0.00171392

     Total force =     0.004717     Total SCF correction =     0.000059


     Computing stress (Cartesian axis) and pressure


     negative rho (up, down):  1.582E-02 0.000E+00
          total   stress  (Ry/bohr**3)                   (kbar)     P=      -41.11
  -0.00033696   0.00000000   0.00000000          -49.57        0.00        0.00
   0.00000000  -0.00033696   0.00000000            0.00      -49.57        0.00
   0.00000000   0.00000000  -0.00016456            0.00        0.00      -24.21

     Energy error            =      1.2E-04 Ry
     Gradient error          =      3.8E-03 Ry/Bohr

     number of scf cycles    =   6
     number of bfgs steps    =   5

     energy             old  =    -380.5759776306 Ry
     energy             new  =    -380.5760997929 Ry

     CASE: energy            _new < energy            _old

     new trust radius        =       0.0063069897 bohr
     new conv_thr            =       0.0000000001 Ry


ATOMIC_POSITIONS (crystal)
Pb               0.0000000000        0.0000000000        0.9933957595
Ti               0.5000000000        0.5000000000        0.5384972950
O                0.5000000000        0.5000000000        0.1073936028
O                0.5000000000        0.0000000000        0.6139988154
O                0.0000000000        0.5000000000        0.6139988154



     Writing config-only to output data dir ./pto_150.save/ :
     XML data file
     NEW-OLD atomic charge density approx. for the potential

     negative rho (up, down):  1.586E-02 0.000E+00

     total cpu time spent up to now is      267.4 secs

     Self-consistent Calculation

     iteration #  1     ecut=   150.00 Ry     beta= 0.70
     CG style diagonalization
     ethr =  1.00E-06,  avg # of iterations =  4.0

     Threshold (ethr) on eigenvalues was too large:
     Diagonalizing with lowered threshold

     CG style diagonalization
     c_bands:  1 eigenvalues not converged
     c_bands:  2 eigenvalues not converged
     c_bands:  1 eigenvalues not converged
     c_bands:  1 eigenvalues not converged
     c_bands:  2 eigenvalues not converged
     c_bands:  1 eigenvalues not converged
     c_bands:  1 eigenvalues not converged
     c_bands:  1 eigenvalues not converged
     c_bands:  2 eigenvalues not converged
     c_bands:  1 eigenvalues not converged
     ethr =  2.59E-08,  avg # of iterations =  6.3

     negative rho (up, down):  1.585E-02 0.000E+00

     total cpu time spent up to now is      275.6 secs

     total energy              =    -380.57610562 Ry
     estimated scf accuracy    <       0.00001189 Ry

     iteration #  2     ecut=   150.00 Ry     beta= 0.70
     CG style diagonalization
     ethr =  2.70E-08,  avg # of iterations =  4.7

     negative rho (up, down):  1.585E-02 0.000E+00

     total cpu time spent up to now is      279.1 secs

     total energy              =    -380.57611122 Ry
     estimated scf accuracy    <       0.00003061 Ry

     iteration #  3     ecut=   150.00 Ry     beta= 0.70
     CG style diagonalization
     ethr =  2.70E-08,  avg # of iterations =  4.2

     negative rho (up, down):  1.585E-02 0.000E+00

     total cpu time spent up to now is      282.4 secs

     total energy              =    -380.57611787 Ry
     estimated scf accuracy    <       0.00000215 Ry

     iteration #  4     ecut=   150.00 Ry     beta= 0.70
     CG style diagonalization
     ethr =  4.90E-09,  avg # of iterations =  3.7

     negative rho (up, down):  1.585E-02 0.000E+00

     total cpu time spent up to now is      285.2 secs

     total energy              =    -380.57611836 Ry
     estimated scf accuracy    <       0.00000027 Ry

     iteration #  5     ecut=   150.00 Ry     beta= 0.70
     CG style diagonalization
     ethr =  6.06E-10,  avg # of iterations =  4.3

     negative rho (up, down):  1.585E-02 0.000E+00

     total cpu time spent up to now is      288.5 secs

     total energy              =    -380.57611849 Ry
     estimated scf accuracy    <       0.00000004 Ry

     iteration #  6     ecut=   150.00 Ry     beta= 0.70
     CG style diagonalization
     ethr =  9.86E-11,  avg # of iterations =  4.5

     negative rho (up, down):  1.585E-02 0.000E+00

     total cpu time spent up to now is      292.0 secs

     total energy              =    -380.57611852 Ry
     estimated scf accuracy    <          8.2E-09 Ry

     iteration #  7     ecut=   150.00 Ry     beta= 0.70
     CG style diagonalization
     ethr =  1.86E-11,  avg # of iterations =  4.5

     negative rho (up, down):  1.585E-02 0.000E+00

     total cpu time spent up to now is      295.4 secs

     total energy              =    -380.57611852 Ry
     estimated scf accuracy    <          1.6E-09 Ry

     iteration #  8     ecut=   150.00 Ry     beta= 0.70
     CG style diagonalization
     ethr =  3.66E-12,  avg # of iterations =  5.0

     negative rho (up, down):  1.585E-02 0.000E+00

     total cpu time spent up to now is      299.2 secs

     total energy              =    -380.57611853 Ry
     estimated scf accuracy    <          4.6E-10 Ry

     iteration #  9     ecut=   150.00 Ry     beta= 0.70
     CG style diagonalization
     ethr =  1.05E-12,  avg # of iterations =  4.8

     negative rho (up, down):  1.585E-02 0.000E+00

     total cpu time spent up to now is      302.8 secs

     End of self-consistent calculation

          k = 0.0000 0.0000 0.0000 ( 13095 PWs)   bands (ev):

   -45.7907 -22.4793 -22.3668 -22.3668  -7.5720  -6.5123  -6.2039  -4.9936
    -4.9936  -4.9522  -4.8675  -4.6844   4.2092   6.2523   6.2523   6.8048
     8.1171   8.1171   8.4515   8.6251   8.8748   8.8748

          k = 0.0000 0.0000 0.2378 ( 13054 PWs)   bands (ev):

   -45.7905 -22.4989 -22.3660 -22.3660  -7.3862  -6.4602  -6.1436  -5.0087
    -5.0087  -4.9509  -4.8536  -4.7484   3.4612   6.2943   6.2943   6.8780
     7.9106   7.9106   8.3669   8.7824   8.9723   8.9723

          k = 0.0000 0.0000-0.4756 ( 13046 PWs)   bands (ev):

   -45.7902 -22.5183 -22.3652 -22.3652  -7.1861  -6.4040  -6.0883  -5.0236
    -5.0236  -4.9497  -4.8404  -4.8167   2.9534   6.2145   6.3171   6.3171
     7.7823   7.7823   8.2861   9.0365   9.0365   9.9884

          k = 0.0000 0.1667 0.0000 ( 13083 PWs)   bands (ev):

   -45.7904 -22.4785 -22.3841 -22.3661  -7.4378  -6.4864  -6.1850  -5.0150
    -4.9922  -4.9648  -4.8573  -4.6740   3.7928   6.3070   6.3608   6.7356
     8.1307   8.1421   8.4267   8.5072   8.5724   8.9676

          k = 0.0000 0.1667 0.2378 ( 13068 PWs)   bands (ev):

   -45.7901 -22.4980 -22.3833 -22.3653  -7.2679  -6.4477  -6.1181  -5.0080
    -5.0077  -4.9641  -4.8531  -4.7080   3.2575   6.0928   6.4114   6.9307
     7.6016   7.8985   8.2136   8.6228   8.6524   9.3517

          k = 0.0000 0.1667-0.4756 ( 13072 PWs)   bands (ev):

   -45.7899 -22.5173 -22.3824 -22.3645  -7.0936  -6.4046  -6.0475  -5.0231
    -4.9988  -4.9633  -4.8541  -4.7419   2.8376   5.8013   6.4379   6.5879
     7.4321   7.7760   8.2542   8.6795   8.7270   9.9568

          k = 0.0000 0.3333 0.0000 ( 13037 PWs)   bands (ev):

   -45.7897 -22.4770 -22.4186 -22.3646  -7.1460  -6.4294  -6.1651  -5.0427
    -4.9903  -4.9889  -4.8237  -4.6849   3.2254   5.9452   6.6449   6.6654
     7.8014   7.8402   8.2196   8.2905   8.6592   9.6359

          k = 0.0000 0.3333 0.2378 ( 13057 PWs)   bands (ev):

   -45.7895 -22.4962 -22.4176 -22.3638  -7.0384  -6.3930  -6.0735  -5.0093
    -5.0058  -4.9901  -4.8267  -4.6569   2.9141   5.8099   6.5420   6.7218
     7.2336   7.6668   7.8440   8.3069   8.8648   9.7022

          k = 0.0000 0.3333-0.4756 ( 13080 PWs)   bands (ev):

   -45.7892 -22.5153 -22.4165 -22.3630  -6.9581  -6.3383  -5.9539  -5.0221
    -4.9903  -4.9666  -4.8584  -4.6156   2.6324   5.4906   6.3264   6.7473
     7.1047   7.3584   7.6166   8.3512   9.2501   9.5703

          k = 0.0000-0.5000 0.0000 ( 13028 PWs)   bands (ev):

   -45.7894 -22.4761 -22.4359 -22.3639  -6.9851  -6.3822  -6.1832  -5.0530
    -5.0024  -4.9878  -4.7536  -4.7496   3.0196   5.6030   6.9035   6.9053
     7.3309   7.4424   8.2064   8.2514   8.6892  10.3682

          k = 0.0000-0.5000 0.2378 ( 13068 PWs)   bands (ev):

   -45.7892 -22.4952 -22.4347 -22.3631  -6.9390  -6.3197  -6.0729  -5.0182
    -5.0048  -5.0031  -4.7852  -4.6553   2.7765   5.5621   6.5520   6.7651
     7.0927   7.2424   7.9448   8.2750   8.8757   9.8822

          k = 0.0000-0.5000-0.4756 ( 13016 PWs)   bands (ev):

   -45.7889 -22.5141 -22.4335 -22.3622  -6.9249  -6.2539  -5.9090  -5.0216
    -5.0037  -4.9760  -4.8310  -4.5649   2.5502   5.3586   6.0172   6.7890
     7.0679   7.2950   7.3979   8.2891   9.2169   9.5681

          k = 0.1667 0.1667 0.0000 ( 13048 PWs)   bands (ev):

   -45.7901 -22.4778 -22.3835 -22.3832  -7.3061  -6.4596  -6.1850  -5.0188
    -5.0052  -4.9672  -4.8274  -4.6640   3.4904   6.2552   6.4869   6.7295
     7.6529   7.7895   8.4645   8.5372   8.8198   9.1820

          k = 0.1667 0.1667 0.2378 ( 13066 PWs)   bands (ev):

   -45.7898 -22.4971 -22.3826 -22.3824  -7.1478  -6.4377  -6.1161  -5.0198
    -4.9960  -4.9617  -4.8209  -4.6779   3.1397   6.0467   6.1244   6.8499
     7.4932   7.5126   8.2733   8.6802   8.8996   9.3280

          k = 0.1667 0.1667-0.4756 ( 13078 PWs)   bands (ev):

   -45.7895 -22.5164 -22.3817 -22.3815  -6.9917  -6.4157  -6.0347  -5.0306
    -4.9759  -4.9391  -4.8277  -4.6957   2.8107   5.8446   5.8599   6.5708
     7.3537   7.4648   8.2051   8.7435   8.9545   9.6782

          k = 0.1667 0.3333 0.0000 ( 13041 PWs)   bands (ev):

   -45.7894 -22.4762 -22.4177 -22.3818  -7.0215  -6.4042  -6.2016  -5.0355
    -4.9940  -4.9507  -4.7852  -4.6727   3.0135   5.9560   6.4930   6.8199
     7.1483   7.7014   8.0351   8.6519   8.8177   9.6798

          k = 0.1667 0.3333 0.2378 ( 13062 PWs)   bands (ev):

   -45.7892 -22.4953 -22.4167 -22.3810  -6.9139  -6.3956  -6.1184  -5.0147
    -4.9914  -4.9323  -4.7710  -4.6349   2.8990   5.7816   5.9422   6.4644
     6.8970   7.5580   8.3299   8.6163   8.9545   9.4290

          k = 0.1667 0.3333-0.4756 ( 13080 PWs)   bands (ev):

   -45.7889 -22.5144 -22.4157 -22.3801  -6.8385  -6.3771  -5.9995  -5.0149
    -4.9680  -4.8967  -4.7792  -4.5911   2.7448   5.4419   5.8414   6.2170
     6.4004   7.4147   8.4344   8.6607   8.9652   9.3861

          k = 0.1667-0.5000 0.0000 ( 13036 PWs)   bands (ev):

   -45.7891 -22.4753 -22.4349 -22.3810  -6.8650  -6.3599  -6.2368  -5.0367
    -4.9862  -4.9321  -4.7322  -4.7279   2.8237   5.6211   6.6177   6.8188
     7.1786   7.4540   7.8375   8.7032   8.7972  10.0006

          k = 0.1667-0.5000 0.2378 ( 13058 PWs)   bands (ev):

   -45.7888 -22.4943 -22.4338 -22.3802  -6.8142  -6.3317  -6.1400  -5.0129
    -4.9788  -4.9163  -4.7361  -4.6330   2.7888   5.5695   5.8434   6.2329
     6.8490   7.6928   8.1210   8.6147   8.9665   9.3987

          k = 0.1667-0.5000-0.4756 ( 13044 PWs)   bands (ev):

   -45.7886 -22.5133 -22.4327 -22.3793  -6.8047  -6.3045  -5.9845  -5.0100
    -4.9404  -4.8990  -4.7479  -4.5429   2.7157   5.3267   5.6772   5.8679
     6.3002   7.5284   8.3192   8.5823   8.6417   9.5812

          k = 0.3333 0.3333 0.0000 ( 13036 PWs)   bands (ev):

   -45.7888 -22.4746 -22.4161 -22.4158  -6.7655  -6.3555  -6.2691  -5.0161
    -4.9727  -4.8736  -4.7144  -4.6726   2.6146   5.9072   6.0875   6.8979
     7.0685   7.1940   7.8758   8.4876   9.2991   9.4285

          k = 0.3333 0.3333 0.2378 ( 13064 PWs)   bands (ev):

   -45.7885 -22.4936 -22.4151 -22.4149  -6.6625  -6.3948  -6.2033  -4.9793
    -4.9686  -4.8305  -4.6687  -4.6042   2.7961   5.5531   5.6386   5.9045
     6.6197   7.0670   8.4130   8.9265   8.9660   9.3159

          k = 0.3333 0.3333-0.4756 ( 13028 PWs)   bands (ev):

   -45.7882 -22.5125 -22.4142 -22.4140  -6.6137  -6.4318  -6.0725  -4.9639
    -4.9437  -4.7824  -4.6222  -4.5381   2.9677   5.1549   5.1932   5.6776
     6.3525   6.5385   7.7502   9.2695   9.2855   9.4568

          k = 0.3333-0.5000 0.0000 ( 13056 PWs)   bands (ev):

   -45.7885 -22.4736 -22.4330 -22.4151  -6.6365  -6.3213  -6.3085  -5.0084
    -4.9503  -4.8017  -4.7152  -4.6761   2.4299   5.5923   6.1243   6.7366
     7.2446   7.3812   7.4705   8.4764   9.1320   9.4932

          k = 0.3333-0.5000 0.2378 ( 13056 PWs)   bands (ev):

   -45.7882 -22.4926 -22.4320 -22.4142  -6.5525  -6.3593  -6.2594  -4.9718
    -4.9422  -4.7510  -4.6437  -4.5924   2.7117   5.4757   5.5481   5.6642
     6.3943   7.1382   7.9910   8.9332   8.9419   9.4691

          k = 0.3333-0.5000-0.4756 ( 13040 PWs)   bands (ev):

   -45.7879 -22.5115 -22.4311 -22.4133  -6.5602  -6.3952  -6.1044  -4.9471
    -4.9229  -4.7087  -4.5718  -4.4987   3.0667   4.9186   5.1166   5.4483
     6.1426   6.5376   7.0297   9.3762   9.4393   9.6111

          k =-0.5000-0.5000 0.0000 ( 13048 PWs)   bands (ev):

   -45.7881 -22.4727 -22.4320 -22.4320  -6.5528  -6.3051  -6.3051  -4.9987
    -4.9102  -4.7187  -4.7187  -4.6690   2.2359   5.4323   5.9907   6.9690
     6.9690   7.4793   7.4793   8.2494   8.6619   9.7451

          k =-0.5000-0.5000 0.2378 ( 13040 PWs)   bands (ev):

   -45.7879 -22.4917 -22.4311 -22.4311  -6.3745  -6.3745  -6.3569  -4.9608
    -4.9084  -4.6425  -4.5988  -4.5988   2.6164   5.3910   5.6077   5.6077
     5.9969   7.0766   7.3824   8.9581   8.9581   9.7303

          k =-0.5000-0.5000-0.4756 ( 13064 PWs)   bands (ev):

   -45.7876 -22.5106 -22.4302 -22.4302  -6.4365  -6.4365  -6.1550  -4.9229
    -4.9065  -4.6072  -4.4845  -4.4845   3.1947   4.9843   4.9843   5.2822
     6.0032   6.1112   6.2280   9.6269   9.6269   9.7155

     highest occupied level (ev):    10.3682

!    total energy              =    -380.57611853 Ry
     estimated scf accuracy    <          5.3E-12 Ry

     The total energy is the sum of the following terms:
     one-electron contribution =     -85.75629682 Ry
     hartree contribution      =      72.02300762 Ry
     xc contribution           =    -102.58646634 Ry
     ewald contribution        =    -264.25636298 Ry

     convergence has been achieved in   9 iterations

     negative rho (up, down):  1.585E-02 0.000E+00

     Forces acting on atoms (cartesian axes, Ry/au):

     atom    1 type  1   force =     0.00000000    0.00000000    0.00026071
     atom    2 type  2   force =     0.00000000    0.00000000   -0.00076516
     atom    3 type  3   force =     0.00000000    0.00000000   -0.00159341
     atom    4 type  3   force =     0.00000000    0.00000000    0.00104893
     atom    5 type  3   force =     0.00000000    0.00000000    0.00104893

     Total force =     0.002322     Total SCF correction =     0.000010


     Computing stress (Cartesian axis) and pressure


     negative rho (up, down):  1.585E-02 0.000E+00
          total   stress  (Ry/bohr**3)                   (kbar)     P=      -41.27
  -0.00033380   0.00000000   0.00000000          -49.10        0.00        0.00
   0.00000000  -0.00033380   0.00000000            0.00      -49.10        0.00
   0.00000000   0.00000000  -0.00017398            0.00        0.00      -25.59

     Energy error            =      1.9E-05 Ry
     Gradient error          =      1.6E-03 Ry/Bohr

     number of scf cycles    =   7
     number of bfgs steps    =   6

     energy             old  =    -380.5760997929 Ry
     energy             new  =    -380.5761185258 Ry

     CASE: energy            _new < energy            _old

     new trust radius        =       0.0032285877 bohr
     new conv_thr            =            1.0E-10 Ry


ATOMIC_POSITIONS (crystal)
Pb               0.0000000000        0.0000000000        0.9933939356
Ti               0.5000000000        0.5000000000        0.5384110923
O                0.5000000000        0.5000000000        0.1069768967
O                0.5000000000        0.0000000000        0.6142511817
O                0.0000000000        0.5000000000        0.6142511817



     Writing config-only to output data dir ./pto_150.save/ :
     XML data file
     NEW-OLD atomic charge density approx. for the potential

     negative rho (up, down):  1.585E-02 0.000E+00

     total cpu time spent up to now is      308.6 secs

     Self-consistent Calculation

     iteration #  1     ecut=   150.00 Ry     beta= 0.70
     CG style diagonalization
     ethr =  1.00E-06,  avg # of iterations =  2.7

     Threshold (ethr) on eigenvalues was too large:
     Diagonalizing with lowered threshold

     CG style diagonalization
     c_bands:  1 eigenvalues not converged
     c_bands:  1 eigenvalues not converged
     c_bands:  1 eigenvalues not converged
     c_bands:  1 eigenvalues not converged
     c_bands:  1 eigenvalues not converged
     c_bands:  1 eigenvalues not converged
     c_bands:  1 eigenvalues not converged
     ethr =  5.84E-09,  avg # of iterations =  5.9

     negative rho (up, down):  1.585E-02 0.000E+00

     total cpu time spent up to now is      315.6 secs

     total energy              =    -380.57612282 Ry
     estimated scf accuracy    <       0.00000447 Ry

     iteration #  2     ecut=   150.00 Ry     beta= 0.70
     CG style diagonalization
     ethr =  1.01E-08,  avg # of iterations =  4.6

     negative rho (up, down):  1.585E-02 0.000E+00

     total cpu time spent up to now is      319.1 secs

     total energy              =    -380.57612223 Ry
     estimated scf accuracy    <       0.00001553 Ry

     iteration #  3     ecut=   150.00 Ry     beta= 0.70
     CG style diagonalization
     ethr =  1.01E-08,  avg # of iterations =  4.3

     negative rho (up, down):  1.585E-02 0.000E+00

     total cpu time spent up to now is      322.5 secs

     total energy              =    -380.57612502 Ry
     estimated scf accuracy    <       0.00000052 Ry

     iteration #  4     ecut=   150.00 Ry     beta= 0.70
     CG style diagonalization
     ethr =  1.19E-09,  avg # of iterations =  3.7

     negative rho (up, down):  1.585E-02 0.000E+00

     total cpu time spent up to now is      325.3 secs

     total energy              =    -380.57612511 Ry
     estimated scf accuracy    <       0.00000009 Ry

     iteration #  5     ecut=   150.00 Ry     beta= 0.70
     CG style diagonalization
     ethr =  2.16E-10,  avg # of iterations =  4.0

     negative rho (up, down):  1.585E-02 0.000E+00

     total cpu time spent up to now is      328.4 secs

     total energy              =    -380.57612514 Ry
     estimated scf accuracy    <       0.00000001 Ry

     iteration #  6     ecut=   150.00 Ry     beta= 0.70
     CG style diagonalization
     ethr =  2.66E-11,  avg # of iterations =  3.9

     negative rho (up, down):  1.585E-02 0.000E+00

     total cpu time spent up to now is      331.5 secs

     total energy              =    -380.57612514 Ry
     estimated scf accuracy    <          9.4E-10 Ry

     iteration #  7     ecut=   150.00 Ry     beta= 0.70
     CG style diagonalization
     ethr =  2.14E-12,  avg # of iterations =  4.9

     negative rho (up, down):  1.585E-02 0.000E+00

     total cpu time spent up to now is      335.2 secs

     total energy              =    -380.57612515 Ry
     estimated scf accuracy    <          2.8E-10 Ry

     iteration #  8     ecut=   150.00 Ry     beta= 0.70
     CG style diagonalization
     ethr =  6.34E-13,  avg # of iterations =  4.5

     negative rho (up, down):  1.585E-02 0.000E+00

     total cpu time spent up to now is      338.6 secs

     End of self-consistent calculation

          k = 0.0000 0.0000 0.0000 ( 13095 PWs)   bands (ev):

   -45.7948 -22.4810 -22.3708 -22.3708  -7.5736  -6.5134  -6.2026  -4.9919
    -4.9919  -4.9499  -4.8656  -4.6819   4.2119   6.2497   6.2497   6.8024
     8.1205   8.1205   8.4491   8.6291   8.8724   8.8724

          k = 0.0000 0.0000 0.2378 ( 13054 PWs)   bands (ev):

   -45.7945 -22.5006 -22.3700 -22.3700  -7.3879  -6.4614  -6.1422  -5.0069
    -5.0069  -4.9487  -4.8516  -4.7458   3.4640   6.2910   6.2910   6.8765
     7.9144   7.9144   8.3646   8.7842   8.9705   8.9705

          k = 0.0000 0.0000-0.4756 ( 13046 PWs)   bands (ev):

   -45.7943 -22.5200 -22.3693 -22.3693  -7.1881  -6.4052  -6.0868  -5.0218
    -5.0218  -4.9474  -4.8382  -4.8139   2.9566   6.2133   6.3131   6.3131
     7.7870   7.7870   8.2838   9.0348   9.0348   9.9886

          k = 0.0000 0.1667 0.0000 ( 13083 PWs)   bands (ev):

   -45.7945 -22.4803 -22.3881 -22.3701  -7.4394  -6.4875  -6.1837  -5.0131
    -4.9904  -4.9626  -4.8554  -4.6715   3.7943   6.3061   6.3583   6.7340
     8.1335   8.1458   8.4249   8.5045   8.5730   8.9693

          k = 0.0000 0.1667 0.2378 ( 13068 PWs)   bands (ev):

   -45.7942 -22.4997 -22.3873 -22.3693  -7.2697  -6.4489  -6.1168  -5.0062
    -5.0059  -4.9618  -4.8511  -4.7056   3.2595   6.0910   6.4082   6.9293
     7.6039   7.9018   8.2138   8.6221   8.6513   9.3526

          k = 0.0000 0.1667-0.4756 ( 13072 PWs)   bands (ev):

   -45.7939 -22.5190 -22.3864 -22.3685  -7.0956  -6.4059  -6.0461  -5.0213
    -4.9968  -4.9611  -4.8520  -4.7394   2.8401   5.7998   6.4340   6.5859
     7.4354   7.7802   8.2524   8.6788   8.7260   9.9583

          k = 0.0000 0.3333 0.0000 ( 13037 PWs)   bands (ev):

   -45.7938 -22.4787 -22.4226 -22.3687  -7.1475  -6.4310  -6.1640  -5.0408
    -4.9882  -4.9870  -4.8218  -4.6826   3.2260   5.9449   6.6428   6.6675
     7.8036   7.8383   8.2227   8.2882   8.6607   9.6374

          k = 0.0000 0.3333 0.2378 ( 13057 PWs)   bands (ev):

   -45.7936 -22.4979 -22.4215 -22.3678  -7.0400  -6.3947  -6.0723  -5.0074
    -5.0040  -4.9879  -4.8247  -4.6546   2.9153   5.8095   6.5427   6.7190
     7.2354   7.6665   7.8434   8.3095   8.8654   9.7035

          k = 0.0000 0.3333-0.4756 ( 13080 PWs)   bands (ev):

   -45.7933 -22.5170 -22.4205 -22.3670  -6.9596  -6.3404  -5.9526  -5.0203
    -4.9881  -4.9646  -4.8563  -4.6134   2.6341   5.4900   6.3284   6.7438
     7.1046   7.3568   7.6175   8.3535   9.2518   9.5719

          k = 0.0000-0.5000 0.0000 ( 13028 PWs)   bands (ev):

   -45.7935 -22.4778 -22.4398 -22.3680  -6.9865  -6.3843  -6.1820  -5.0512
    -5.0002  -4.9861  -4.7513  -4.7476   3.0199   5.6036   6.9040   6.9089
     7.3299   7.4393   8.2040   8.2552   8.6907  10.3699

          k = 0.0000-0.5000 0.2378 ( 13068 PWs)   bands (ev):

   -45.7932 -22.4969 -22.4386 -22.3671  -6.9404  -6.3220  -6.0716  -5.0163
    -5.0030  -5.0009  -4.7831  -4.6531   2.7775   5.5623   6.5532   6.7668
     7.0914   7.2394   7.9442   8.2791   8.8764   9.8841

          k = 0.0000-0.5000-0.4756 ( 13016 PWs)   bands (ev):

   -45.7930 -22.5158 -22.4375 -22.3663  -6.9261  -6.2563  -5.9078  -5.0198
    -5.0015  -4.9741  -4.8288  -4.5628   2.5517   5.3582   6.0199   6.7887
     7.0648   7.2936   7.3962   8.2935   9.2207   9.5689

          k = 0.1667 0.1667 0.0000 ( 13048 PWs)   bands (ev):

   -45.7942 -22.4795 -22.3876 -22.3872  -7.3077  -6.4609  -6.1838  -5.0169
    -5.0034  -4.9650  -4.8255  -4.6615   3.4913   6.2526   6.4867   6.7283
     7.6564   7.7889   8.4673   8.5354   8.8195   9.1850

          k = 0.1667 0.1667 0.2378 ( 13066 PWs)   bands (ev):

   -45.7939 -22.4989 -22.3866 -22.3864  -7.1496  -6.4391  -6.1148  -5.0179
    -4.9940  -4.9596  -4.8189  -4.6754   3.1412   6.0444   6.1236   6.8484
     7.4928   7.5159   8.2763   8.6785   8.8990   9.3300

          k = 0.1667 0.1667-0.4756 ( 13078 PWs)   bands (ev):

   -45.7936 -22.5181 -22.3857 -22.3856  -6.9937  -6.4171  -6.0333  -5.0287
    -4.9738  -4.9372  -4.8256  -4.6933   2.8128   5.8425   5.8584   6.5703
     7.3517   7.4679   8.2085   8.7419   8.9536   9.6802

          k = 0.1667 0.3333 0.0000 ( 13041 PWs)   bands (ev):

   -45.7935 -22.4779 -22.4217 -22.3858  -7.0230  -6.4059  -6.2007  -5.0337
    -4.9921  -4.9485  -4.7832  -4.6704   3.0137   5.9555   6.4918   6.8212
     7.1474   7.7060   8.0360   8.6517   8.8177   9.6819

          k = 0.1667 0.3333 0.2378 ( 13062 PWs)   bands (ev):

   -45.7932 -22.4970 -22.4207 -22.3850  -6.9156  -6.3973  -6.1172  -5.0127
    -4.9896  -4.9301  -4.7690  -4.6326   2.8998   5.7812   5.9421   6.4628
     6.8981   7.5602   8.3318   8.6164   8.9546   9.4304

          k = 0.1667 0.3333-0.4756 ( 13080 PWs)   bands (ev):

   -45.7930 -22.5161 -22.4197 -22.3841  -6.8402  -6.3790  -5.9982  -5.0129
    -4.9661  -4.8946  -4.7771  -4.5890   2.7462   5.4415   5.8404   6.2161
     6.4013   7.4157   8.4374   8.6595   8.9672   9.3864

          k = 0.1667-0.5000 0.0000 ( 13036 PWs)   bands (ev):

   -45.7932 -22.4770 -22.4389 -22.3850  -6.8664  -6.3621  -6.2359  -5.0348
    -4.9844  -4.9298  -4.7302  -4.7257   2.8237   5.6217   6.6195   6.8153
     7.1806   7.4545   7.8423   8.7014   8.7983  10.0021

          k = 0.1667-0.5000 0.2378 ( 13058 PWs)   bands (ev):

   -45.7929 -22.4960 -22.4378 -22.3842  -6.8157  -6.3339  -6.1389  -5.0110
    -4.9770  -4.9140  -4.7341  -4.6309   2.7893   5.5697   5.8441   6.2324
     6.8486   7.6957   8.1222   8.6155   8.9664   9.4000

          k = 0.1667-0.5000-0.4756 ( 13044 PWs)   bands (ev):

   -45.7927 -22.5150 -22.4367 -22.3833  -6.8060  -6.3067  -5.9834  -5.0081
    -4.9386  -4.8967  -4.7459  -4.5408   2.7169   5.3267   5.6767   5.8685
     6.2999   7.5297   8.3211   8.5836   8.6418   9.5820

          k = 0.3333 0.3333 0.0000 ( 13036 PWs)   bands (ev):

   -45.7929 -22.4763 -22.4201 -22.4198  -6.7667  -6.3574  -6.2689  -5.0142
    -4.9706  -4.8713  -4.7121  -4.6702   2.6143   5.9065   6.0865   6.8985
     7.0707   7.1981   7.8760   8.4903   9.2976   9.4303

          k = 0.3333 0.3333 0.2378 ( 13064 PWs)   bands (ev):

   -45.7926 -22.4953 -22.4191 -22.4189  -6.6642  -6.3966  -6.2025  -4.9775
    -4.9665  -4.8282  -4.6665  -4.6021   2.7959   5.5539   5.6385   5.9034
     6.6223   7.0687   8.4166   8.9270   8.9669   9.3146

          k = 0.3333 0.3333-0.4756 ( 13028 PWs)   bands (ev):

   -45.7923 -22.5142 -22.4181 -22.4180  -6.6156  -6.4334  -6.0715  -4.9618
    -4.9418  -4.7801  -4.6202  -4.5361   2.9680   5.1551   5.1938   5.6749
     6.3549   6.5405   7.7538   9.2706   9.2836   9.4575

          k = 0.3333-0.5000 0.0000 ( 13056 PWs)   bands (ev):

   -45.7925 -22.4753 -22.4370 -22.4190  -6.6371  -6.3236  -6.3091  -5.0066
    -4.9482  -4.7993  -4.7131  -4.6737   2.4293   5.5925   6.1236   6.7384
     7.2472   7.3830   7.4723   8.4781   9.1335   9.4916

          k = 0.3333-0.5000 0.2378 ( 13056 PWs)   bands (ev):

   -45.7923 -22.4943 -22.4360 -22.4182  -6.5541  -6.3614  -6.2587  -4.9699
    -4.9402  -4.7485  -4.6418  -4.5903   2.7111   5.4773   5.5479   5.6643
     6.3960   7.1404   7.9934   8.9343   8.9431   9.4675

          k = 0.3333-0.5000-0.4756 ( 13040 PWs)   bands (ev):

   -45.7920 -22.5132 -22.4350 -22.4173  -6.5619  -6.3971  -6.1035  -4.9451
    -4.9209  -4.7061  -4.5701  -4.4968   3.0662   4.9193   5.1180   5.4460
     6.1443   6.5404   7.0327   9.3771   9.4377   9.6122

          k =-0.5000-0.5000 0.0000 ( 13048 PWs)   bands (ev):

   -45.7922 -22.4744 -22.4360 -22.4360  -6.5519  -6.3074  -6.3074  -4.9969
    -4.9081  -4.7165  -4.7165  -4.6664   2.2350   5.4324   5.9917   6.9707
     6.9707   7.4812   7.4812   8.2511   8.6635   9.7434

          k =-0.5000-0.5000 0.2378 ( 13040 PWs)   bands (ev):

   -45.7920 -22.4934 -22.4351 -22.4351  -6.3765  -6.3765  -6.3561  -4.9589
    -4.9062  -4.6398  -4.5970  -4.5970   2.6151   5.3904   5.6098   5.6098
     5.9980   7.0783   7.3843   8.9595   8.9595   9.7286

          k =-0.5000-0.5000-0.4756 ( 13064 PWs)   bands (ev):

   -45.7917 -22.5123 -22.4342 -22.4342  -6.4383  -6.4383  -6.1542  -4.9210
    -4.9044  -4.6044  -4.4830  -4.4830   3.1925   4.9865   4.9865   5.2800
     6.0043   6.1141   6.2311   9.6279   9.6279   9.7138

     highest occupied level (ev):    10.3699

!    total energy              =    -380.57612515 Ry
     estimated scf accuracy    <          9.1E-12 Ry

     The total energy is the sum of the following terms:
     one-electron contribution =     -85.73847378 Ry
     hartree contribution      =      72.01345333 Ry
     xc contribution           =    -102.58557507 Ry
     ewald contribution        =    -264.26552963 Ry

     convergence has been achieved in   8 iterations

     negative rho (up, down):  1.585E-02 0.000E+00

     Forces acting on atoms (cartesian axes, Ry/au):

     atom    1 type  1   force =     0.00000000    0.00000000    0.00033204
     atom    2 type  2   force =     0.00000000    0.00000000   -0.00125773
     atom    3 type  3   force =     0.00000000    0.00000000   -0.00017336
     atom    4 type  3   force =     0.00000000    0.00000000    0.00054953
     atom    5 type  3   force =     0.00000000    0.00000000    0.00054953

     Total force =     0.001525     Total SCF correction =     0.000011


     Computing stress (Cartesian axis) and pressure


     negative rho (up, down):  1.585E-02 0.000E+00
          total   stress  (Ry/bohr**3)                   (kbar)     P=      -41.83
  -0.00033561   0.00000000   0.00000000          -49.37        0.00        0.00
   0.00000000  -0.00033561   0.00000000            0.00      -49.37        0.00
   0.00000000   0.00000000  -0.00018192            0.00        0.00      -26.76

     Energy error            =      6.6E-06 Ry
     Gradient error          =      1.3E-03 Ry/Bohr

     number of scf cycles    =   8
     number of bfgs steps    =   7

     energy             old  =    -380.5761185258 Ry
     energy             new  =    -380.5761251455 Ry

     CASE: energy            _new < energy            _old

     new trust radius        =       0.0020339242 bohr
     new conv_thr            =            1.0E-10 Ry


ATOMIC_POSITIONS (crystal)
Pb               0.0000000000        0.0000000000        0.9934781964
Ti               0.5000000000        0.5000000000        0.5381735486
O                0.5000000000        0.5000000000        0.1067143829
O                0.5000000000        0.0000000000        0.6144590801
O                0.0000000000        0.5000000000        0.6144590801



     Writing config-only to output data dir ./pto_150.save/ :
     XML data file
     NEW-OLD atomic charge density approx. for the potential

     negative rho (up, down):  1.584E-02 0.000E+00

     total cpu time spent up to now is      344.4 secs

     Self-consistent Calculation

     iteration #  1     ecut=   150.00 Ry     beta= 0.70
     CG style diagonalization
     ethr =  1.00E-06,  avg # of iterations =  3.1

     Threshold (ethr) on eigenvalues was too large:
     Diagonalizing with lowered threshold

     CG style diagonalization
     c_bands:  1 eigenvalues not converged
     c_bands:  1 eigenvalues not converged
     c_bands:  1 eigenvalues not converged
     c_bands:  3 eigenvalues not converged
     c_bands:  3 eigenvalues not converged
     c_bands:  1 eigenvalues not converged
     c_bands:  1 eigenvalues not converged
     c_bands:  1 eigenvalues not converged
     c_bands:  1 eigenvalues not converged
     ethr =  2.15E-09,  avg # of iterations =  7.6

     negative rho (up, down):  1.584E-02 0.000E+00

     total cpu time spent up to now is      352.8 secs

     total energy              =    -380.57612728 Ry
     estimated scf accuracy    <       0.00000116 Ry

     iteration #  2     ecut=   150.00 Ry     beta= 0.70
     CG style diagonalization
     ethr =  2.63E-09,  avg # of iterations =  4.6

     negative rho (up, down):  1.584E-02 0.000E+00

     total cpu time spent up to now is      356.3 secs

     total energy              =    -380.57612720 Ry
     estimated scf accuracy    <       0.00000393 Ry

     iteration #  3     ecut=   150.00 Ry     beta= 0.70
     CG style diagonalization
     ethr =  2.63E-09,  avg # of iterations =  4.2

     negative rho (up, down):  1.584E-02 0.000E+00

     total cpu time spent up to now is      359.5 secs

     total energy              =    -380.57612783 Ry
     estimated scf accuracy    <       0.00000012 Ry

     iteration #  4     ecut=   150.00 Ry     beta= 0.70
     CG style diagonalization
     ethr =  2.66E-10,  avg # of iterations =  3.8

     negative rho (up, down):  1.584E-02 0.000E+00

     total cpu time spent up to now is      362.5 secs

     total energy              =    -380.57612786 Ry
     estimated scf accuracy    <       0.00000002 Ry

     iteration #  5     ecut=   150.00 Ry     beta= 0.70
     CG style diagonalization
     ethr =  4.34E-11,  avg # of iterations =  4.5

     negative rho (up, down):  1.584E-02 0.000E+00

     total cpu time spent up to now is      365.9 secs

     total energy              =    -380.57612787 Ry
     estimated scf accuracy    <          4.7E-09 Ry

     iteration #  6     ecut=   150.00 Ry     beta= 0.70
     CG style diagonalization
     ethr =  1.07E-11,  avg # of iterations =  4.2

     negative rho (up, down):  1.584E-02 0.000E+00

     total cpu time spent up to now is      369.1 secs

     total energy              =    -380.57612787 Ry
     estimated scf accuracy    <          7.7E-10 Ry

     iteration #  7     ecut=   150.00 Ry     beta= 0.70
     CG style diagonalization
     ethr =  1.76E-12,  avg # of iterations =  4.9

     negative rho (up, down):  1.584E-02 0.000E+00

     total cpu time spent up to now is      372.8 secs

     total energy              =    -380.57612787 Ry
     estimated scf accuracy    <          2.4E-10 Ry

     iteration #  8     ecut=   150.00 Ry     beta= 0.70
     CG style diagonalization
     ethr =  5.50E-13,  avg # of iterations =  4.5

     negative rho (up, down):  1.584E-02 0.000E+00

     total cpu time spent up to now is      376.3 secs

     End of self-consistent calculation

          k = 0.0000 0.0000 0.0000 ( 13095 PWs)   bands (ev):

   -45.7957 -22.4816 -22.3715 -22.3715  -7.5738  -6.5124  -6.2024  -4.9909
    -4.9909  -4.9488  -4.8645  -4.6803   4.2139   6.2484   6.2484   6.8006
     8.1181   8.1181   8.4475   8.6287   8.8720   8.8720

          k = 0.0000 0.0000 0.2378 ( 13054 PWs)   bands (ev):

   -45.7954 -22.5012 -22.3707 -22.3707  -7.3879  -6.4604  -6.1423  -5.0059
    -5.0059  -4.9475  -4.8505  -4.7443   3.4652   6.2883   6.2883   6.8752
     7.9146   7.9146   8.3629   8.7847   8.9705   8.9705

          k = 0.0000 0.0000-0.4756 ( 13046 PWs)   bands (ev):

   -45.7951 -22.5207 -22.3699 -22.3699  -7.1877  -6.4043  -6.0872  -5.0209
    -5.0209  -4.9462  -4.8371  -4.8124   2.9575   6.2125   6.3086   6.3086
     7.7899   7.7899   8.2821   9.0350   9.0350   9.9895

          k = 0.0000 0.1667 0.0000 ( 13083 PWs)   bands (ev):

   -45.7954 -22.4809 -22.3888 -22.3707  -7.4397  -6.4867  -6.1835  -5.0121
    -4.9895  -4.9614  -4.8544  -4.6700   3.7954   6.3063   6.3572   6.7325
     8.1334   8.1438   8.4236   8.5040   8.5723   8.9697

          k = 0.0000 0.1667 0.2378 ( 13068 PWs)   bands (ev):

   -45.7951 -22.5003 -22.3879 -22.3699  -7.2697  -6.4481  -6.1169  -5.0051
    -5.0050  -4.9607  -4.8501  -4.7041   3.2603   6.0895   6.4057   6.9284
     7.6044   7.9018   8.2147   8.6205   8.6515   9.3535

          k = 0.0000 0.1667-0.4756 ( 13072 PWs)   bands (ev):

   -45.7948 -22.5197 -22.3870 -22.3692  -7.0953  -6.4052  -6.0466  -5.0204
    -4.9958  -4.9599  -4.8509  -4.7380   2.8408   5.7975   6.4297   6.5849
     7.4377   7.7827   8.2527   8.6771   8.7267   9.9601

          k = 0.0000 0.3333 0.0000 ( 13037 PWs)   bands (ev):

   -45.7947 -22.4793 -22.4232 -22.3693  -7.1478  -6.4307  -6.1639  -5.0398
    -4.9871  -4.9860  -4.8208  -4.6812   3.2263   5.9462   6.6425   6.6691
     7.8060   7.8379   8.2204   8.2871   8.6598   9.6369

          k = 0.0000 0.3333 0.2378 ( 13057 PWs)   bands (ev):

   -45.7944 -22.4985 -22.4221 -22.3685  -7.0399  -6.3945  -6.0726  -5.0063
    -5.0030  -4.9867  -4.8237  -4.6532   2.9158   5.8098   6.5437   6.7172
     7.2376   7.6655   7.8431   8.3105   8.8652   9.7036

          k = 0.0000 0.3333-0.4756 ( 13080 PWs)   bands (ev):

   -45.7942 -22.5176 -22.4211 -22.3677  -6.9590  -6.3404  -5.9533  -5.0193
    -4.9870  -4.9635  -4.8552  -4.6121   2.6348   5.4886   6.3316   6.7399
     7.1055   7.3566   7.6183   8.3558   9.2504   9.5742

          k = 0.0000-0.5000 0.0000 ( 13028 PWs)   bands (ev):

   -45.7944 -22.4784 -22.4404 -22.3686  -6.9866  -6.3846  -6.1819  -5.0502
    -4.9991  -4.9851  -4.7501  -4.7465   3.0200   5.6064   6.9050   6.9127
     7.3307   7.4374   8.2028   8.2531   8.6897  10.3699

          k = 0.0000-0.5000 0.2378 ( 13068 PWs)   bands (ev):

   -45.7941 -22.4975 -22.4392 -22.3678  -6.9399  -6.3224  -6.0721  -5.0153
    -5.0020  -4.9997  -4.7820  -4.6519   2.7780   5.5642   6.5544   6.7687
     7.0925   7.2355   7.9438   8.2802   8.8770   9.8840

          k = 0.0000-0.5000-0.4756 ( 13016 PWs)   bands (ev):

   -45.7938 -22.5164 -22.4380 -22.3669  -6.9252  -6.2568  -5.9086  -5.0188
    -5.0004  -4.9730  -4.8276  -4.5616   2.5525   5.3578   6.0234   6.7896
     7.0600   7.2948   7.3961   8.2965   9.2223   9.5685

          k = 0.1667 0.1667 0.0000 ( 13048 PWs)   bands (ev):

   -45.7950 -22.4801 -22.3882 -22.3878  -7.3081  -6.4603  -6.1836  -5.0159
    -5.0024  -4.9639  -4.8244  -4.6601   3.4921   6.2517   6.4875   6.7267
     7.6557   7.7890   8.4673   8.5343   8.8211   9.1842

          k = 0.1667 0.1667 0.2378 ( 13066 PWs)   bands (ev):

   -45.7948 -22.4995 -22.3873 -22.3870  -7.1497  -6.4384  -6.1150  -5.0169
    -4.9930  -4.9585  -4.8178  -4.6740   3.1419   6.0422   6.1231   6.8471
     7.4932   7.5180   8.2764   8.6775   8.8993   9.3315

          k = 0.1667 0.1667-0.4756 ( 13078 PWs)   bands (ev):

   -45.7945 -22.5187 -22.3863 -22.3862  -6.9935  -6.4165  -6.0338  -5.0277
    -4.9727  -4.9362  -4.8245  -4.6918   2.8135   5.8397   5.8566   6.5714
     7.3503   7.4714   8.2096   8.7413   8.9531   9.6824

          k = 0.1667 0.3333 0.0000 ( 13041 PWs)   bands (ev):

   -45.7944 -22.4785 -22.4223 -22.3864  -7.0235  -6.4057  -6.2006  -5.0326
    -4.9911  -4.9473  -4.7821  -4.6690   3.0141   5.9567   6.4908   6.8231
     7.1472   7.7060   8.0379   8.6510   8.8180   9.6817

          k = 0.1667 0.3333 0.2378 ( 13062 PWs)   bands (ev):

   -45.7941 -22.4977 -22.4213 -22.3856  -6.9157  -6.3972  -6.1175  -5.0117
    -4.9885  -4.9290  -4.7679  -4.6313   2.9003   5.7813   5.9425   6.4621
     6.8992   7.5623   8.3332   8.6159   8.9543   9.4308

          k = 0.1667 0.3333-0.4756 ( 13080 PWs)   bands (ev):

   -45.7938 -22.5167 -22.4203 -22.3847  -6.8398  -6.3789  -5.9989  -5.0119
    -4.9650  -4.8935  -4.7760  -4.5877   2.7468   5.4404   5.8403   6.2155
     6.4038   7.4178   8.4378   8.6599   8.9682   9.3860

          k = 0.1667-0.5000 0.0000 ( 13036 PWs)   bands (ev):

   -45.7941 -22.4776 -22.4394 -22.3857  -6.8667  -6.3624  -6.2358  -5.0338
    -4.9834  -4.9286  -4.7291  -4.7245   2.8239   5.6244   6.6200   6.8138
     7.1839   7.4562   7.8413   8.7008   8.7981  10.0024

          k = 0.1667-0.5000 0.2378 ( 13058 PWs)   bands (ev):

   -45.7938 -22.4967 -22.4383 -22.3848  -6.8155  -6.3343  -6.1393  -5.0099
    -4.9760  -4.9129  -4.7330  -4.6297   2.7898   5.5716   5.8453   6.2319
     6.8483   7.6981   8.1242   8.6143   8.9669   9.3992

          k = 0.1667-0.5000-0.4756 ( 13044 PWs)   bands (ev):

   -45.7935 -22.5156 -22.4372 -22.3840  -6.8055  -6.3071  -5.9842  -5.0071
    -4.9376  -4.8956  -4.7448  -4.5396   2.7176   5.3263   5.6778   5.8700
     6.2997   7.5323   8.3227   8.5828   8.6425   9.5815

          k = 0.3333 0.3333 0.0000 ( 13036 PWs)   bands (ev):

   -45.7937 -22.4769 -22.4206 -22.4204  -6.7675  -6.3575  -6.2689  -5.0132
    -4.9696  -4.8701  -4.7110  -4.6689   2.6147   5.9071   6.0881   6.8978
     7.0733   7.1975   7.8790   8.4918   9.2977   9.4305

          k = 0.3333 0.3333 0.2378 ( 13064 PWs)   bands (ev):

   -45.7935 -22.4959 -22.4197 -22.4195  -6.6647  -6.3965  -6.2029  -4.9765
    -4.9655  -4.8271  -4.6654  -4.6009   2.7964   5.5545   5.6384   5.9037
     6.6261   7.0700   8.4190   8.9271   8.9658   9.3147

          k = 0.3333 0.3333-0.4756 ( 13028 PWs)   bands (ev):

   -45.7932 -22.5148 -22.4187 -22.4186  -6.6156  -6.4334  -6.0722  -4.9608
    -4.9408  -4.7790  -4.6191  -4.5350   2.9685   5.1561   5.1937   5.6730
     6.3578   6.5447   7.7556   9.2698   9.2839   9.4566

          k = 0.3333-0.5000 0.0000 ( 13056 PWs)   bands (ev):

   -45.7934 -22.4760 -22.4375 -22.4196  -6.6379  -6.3239  -6.3092  -5.0056
    -4.9471  -4.7981  -4.7119  -4.6725   2.4297   5.5945   6.1256   6.7373
     7.2456   7.3865   7.4752   8.4793   9.1342   9.4920

          k = 0.3333-0.5000 0.2378 ( 13056 PWs)   bands (ev):

   -45.7931 -22.4950 -22.4366 -22.4187  -6.5544  -6.3617  -6.2592  -4.9689
    -4.9391  -4.7474  -4.6407  -4.5891   2.7115   5.4783   5.5491   5.6646
     6.3992   7.1420   7.9951   8.9340   8.9429   9.4678

          k = 0.3333-0.5000-0.4756 ( 13040 PWs)   bands (ev):

   -45.7929 -22.5138 -22.4356 -22.4179  -6.5618  -6.3974  -6.1043  -4.9440
    -4.9199  -4.7050  -4.5692  -4.4957   3.0668   4.9204   5.1183   5.4453
     6.1472   6.5445   7.0338   9.3761   9.4382   9.6115

          k =-0.5000-0.5000 0.0000 ( 13048 PWs)   bands (ev):

   -45.7931 -22.4750 -22.4366 -22.4366  -6.5528  -6.3078  -6.3078  -4.9958
    -4.9069  -4.7153  -4.7153  -4.6652   2.2355   5.4343   5.9959   6.9685
     6.9685   7.4847   7.4847   8.2519   8.6654   9.7438

          k =-0.5000-0.5000 0.2378 ( 13040 PWs)   bands (ev):

   -45.7928 -22.4940 -22.4357 -22.4357  -6.3768  -6.3768  -6.3569  -4.9579
    -4.9051  -4.6385  -4.5959  -4.5959   2.6155   5.3917   5.6106   5.6106
     6.0022   7.0796   7.3855   8.9596   8.9596   9.7290

          k =-0.5000-0.5000-0.4756 ( 13064 PWs)   bands (ev):

   -45.7926 -22.5129 -22.4348 -22.4348  -6.4385  -6.4385  -6.1550  -4.9200
    -4.9033  -4.6032  -4.4820  -4.4820   3.1930   4.9877   4.9877   5.2796
     6.0085   6.1150   6.2339   9.6273   9.6273   9.7142

     highest occupied level (ev):    10.3699

!    total energy              =    -380.57612787 Ry
     estimated scf accuracy    <          9.7E-12 Ry

     The total energy is the sum of the following terms:
     one-electron contribution =     -85.72162779 Ry
     hartree contribution      =      72.00528195 Ry
     xc contribution           =    -102.58523264 Ry
     ewald contribution        =    -264.27454940 Ry

     convergence has been achieved in   8 iterations

     negative rho (up, down):  1.584E-02 0.000E+00

     Forces acting on atoms (cartesian axes, Ry/au):

     atom    1 type  1   force =     0.00000000    0.00000000    0.00015937
     atom    2 type  2   force =     0.00000000    0.00000000   -0.00086000
     atom    3 type  3   force =     0.00000000    0.00000000    0.00037591
     atom    4 type  3   force =     0.00000000    0.00000000    0.00016236
     atom    5 type  3   force =     0.00000000    0.00000000    0.00016236

     Total force =     0.000979     Total SCF correction =     0.000007


     Computing stress (Cartesian axis) and pressure


     negative rho (up, down):  1.584E-02 0.000E+00
          total   stress  (Ry/bohr**3)                   (kbar)     P=      -42.07
  -0.00033752   0.00000000   0.00000000          -49.65        0.00        0.00
   0.00000000  -0.00033752   0.00000000            0.00      -49.65        0.00
   0.00000000   0.00000000  -0.00018301            0.00        0.00      -26.92

     Energy error            =      2.7E-06 Ry
     Gradient error          =      8.6E-04 Ry/Bohr

     bfgs converged in   9 scf cycles and   8 bfgs steps
     (criteria: energy <  1.0E-04 Ry, force <  1.0E-03 Ry/Bohr)

     End of BFGS Geometry Optimization

     Final energy             =    -380.5761278746 Ry

     File ./pto_150.bfgs deleted, as requested
Begin final coordinates

ATOMIC_POSITIONS (crystal)
Pb               0.0000000000        0.0000000000        0.9934781964
Ti               0.5000000000        0.5000000000        0.5381735486
O                0.5000000000        0.5000000000        0.1067143829
O                0.5000000000        0.0000000000        0.6144590801
O                0.0000000000        0.5000000000        0.6144590801
End final coordinates



     Writing all to output data dir ./pto_150.save/ :
     XML data file, charge density, pseudopotentials, collected wavefunctions
 
     init_run     :      1.06s CPU      1.20s WALL (       1 calls)
     electrons    :    312.94s CPU    329.08s WALL (       9 calls)
     update_pot   :      0.13s CPU      0.14s WALL (       8 calls)
     forces       :      4.15s CPU      4.68s WALL (       9 calls)
     stress       :     42.62s CPU     44.17s WALL (       9 calls)

     Called by init_run:
     wfcinit      :      0.56s CPU      0.59s WALL (       1 calls)
     potinit      :      0.02s CPU      0.03s WALL (       1 calls)
     hinit0       :      0.19s CPU      0.22s WALL (       1 calls)

     Called by electrons:
     c_bands      :    254.28s CPU    260.26s WALL (      91 calls)
     sum_band     :     40.62s CPU     45.87s WALL (      91 calls)
     v_of_rho     :      0.66s CPU      0.66s WALL (      96 calls)
     newd         :     18.35s CPU     23.44s WALL (      96 calls)
     mix_rho      :      0.43s CPU      0.44s WALL (      91 calls)

     Called by c_bands:
     init_us_2    :      2.98s CPU      3.06s WALL (    6030 calls)
     init_us_2:cp :      2.97s CPU      3.04s WALL (    6030 calls)
     ccgdiagg     :    227.49s CPU    232.97s WALL (    2730 calls)
     wfcrot       :     25.30s CPU     25.73s WALL (    2370 calls)

     Called by *cgdiagg:
     h_psi        :    155.60s CPU    159.20s WALL (  232986 calls)
     s_psi        :     38.30s CPU     39.32s WALL (  463602 calls)

     Called by h_psi:
     h_psi:calbec :     23.00s CPU     23.55s WALL (  232986 calls)
     vloc_psi     :    110.25s CPU    112.79s WALL (  232986 calls)
     add_vuspsi   :     19.74s CPU     20.26s WALL (  232986 calls)
     hs_1psi      :    154.57s CPU    158.26s WALL (  230616 calls)
     s_1psi       :     41.44s CPU     42.40s WALL (  230616 calls)

     General routines
     calbec       :     45.75s CPU     46.94s WALL (  467682 calls)
     fft          :      0.89s CPU      0.91s WALL (     642 calls)
     ffts         :      0.05s CPU      0.05s WALL (     187 calls)
     fftw         :     84.57s CPU     86.35s WALL (  626112 calls)
     interpolate  :      0.18s CPU      0.18s WALL (      96 calls)
 
     Parallel routines
 
     PWSCF        :   6m 2.77s CPU   6m22.31s WALL

 
   This run was terminated on:   0:45:55  13Nov2025            

=------------------------------------------------------------------------------=
   JOB DONE.
=------------------------------------------------------------------------------=
TACC:  Shutdown complete. Exiting. 
