TACC:  Starting up job 2388127 
TACC:  Starting parallel tasks... 

     Program PWSCF v.7.3 starts on 19Sep2025 at 17:29:38 

     This program is part of the open-source Quantum ESPRESSO suite
     for quantum simulation of materials; please cite
         "P. Giannozzi et al., J. Phys.:Condens. Matter 21 395502 (2009);
         "P. Giannozzi et al., J. Phys.:Condens. Matter 29 465901 (2017);
         "P. Giannozzi et al., J. Chem. Phys. 152 154105 (2020);
          URL http://www.quantum-espresso.org", 
     in publications or presentations arising from this work. More details at
     http://www.quantum-espresso.org/quote

     Parallel version (MPI & OpenMP), running on      10 processor cores
     Number of MPI processes:                10
     Threads/MPI process:                     1

     MPI processes distributed on     1 nodes
     186942 MiB available memory on the printing compute node when the environment starts
 
     Waiting for input...
     Reading input from standard input
Warning: card &CELL ignored
Warning: card  CELL_DYNAMICS = 'BFGS', ignored
Warning: card  PRESS=0.D0, ignored
Warning: card / ignored
     Message from routine read_cards :
     DEPRECATED: no units specified in ATOMIC_POSITIONS card
     Message from routine read_cards :
     ATOMIC_POSITIONS: units set to alat

     Current dimensions of program PWSCF are:
     Max number of different atomic species (ntypx) = 10
     Max number of k-points (npk) =  40000
     Max angular momentum in pseudopotentials (lmaxx) =  4
 
     R & G space division:  proc/nbgrp/npool/nimage =      10
     Subspace diagonalization in iterative solution of the eigenvalue problem:
     a serial algorithm will be used

 
     Parallelization info
     --------------------
     sticks:   dense  smooth     PW     G-vecs:    dense   smooth      PW
     Min         430     173     49                21291     5381     837
     Max         431     175     50                21292     5382     840
     Sum        4309    1733    497               212911    53811    8385
 
     Using Slab Decomposition
 


     bravais-lattice index     =            1
     lattice parameter (alat)  =       7.3573  a.u.
     unit-cell volume          =     398.2496 (a.u.)^3
     number of atoms/cell      =            5
     number of atomic types    =            3
     number of electrons       =        40.00
     number of Kohn-Sham states=           20
     kinetic-energy cutoff     =     100.0000  Ry
     charge density cutoff     =    1000.0000  Ry
     scf convergence threshold =      1.0E-08
     mixing beta               =       0.7000
     number of iterations used =            8  plain     mixing
     Exchange-correlation= SLA  PZ   NOGX NOGC
                           (   1   1   0   0   0   0   0)

     celldm(1)=   7.357300  celldm(2)=   0.000000  celldm(3)=   0.000000
     celldm(4)=   0.000000  celldm(5)=   0.000000  celldm(6)=   0.000000

     crystal axes: (cart. coord. in units of alat)
               a(1) = (   1.000000   0.000000   0.000000 )  
               a(2) = (   0.000000   1.000000   0.000000 )  
               a(3) = (   0.000000   0.000000   1.000000 )  

     reciprocal axes: (cart. coord. in units 2 pi/alat)
               b(1) = (  1.000000  0.000000  0.000000 )  
               b(2) = (  0.000000  1.000000  0.000000 )  
               b(3) = (  0.000000  0.000000  1.000000 )  


     PseudoPot. # 1 for Ca read from file:
     /scratch/11018/zhc/assisgnment1/CaTiO3/Ca_LDA.UPF
     MD5 check sum: d2d4e7693e10d071152e9eeb7dd009f3
     Pseudo is Ultrasoft + core correction, Zval = 10.0
     Generated by new atomic code, or converted to UPF format
     Using radial grid of  845 points,  6 beta functions with: 
                l(1) =   0
                l(2) =   0
                l(3) =   1
                l(4) =   1
                l(5) =   2
                l(6) =   2
     Q(r) pseudized with  8 coefficients,  rinner =    1.500   1.500   1.500
                                                       1.500   1.500

     PseudoPot. # 2 for Ti read from file:
     /scratch/11018/zhc/assisgnment1/CaTiO3/Ti_LDA.UPF
     MD5 check sum: 0d9f225c038fe889ca2a701dcc8d72cb
     Pseudo is Ultrasoft + core correction, Zval = 12.0
     Generated by new atomic code, or converted to UPF format
     Using radial grid of  851 points,  6 beta functions with: 
                l(1) =   0
                l(2) =   0
                l(3) =   1
                l(4) =   1
                l(5) =   2
                l(6) =   2
     Q(r) pseudized with  6 coefficients,  rinner =    1.000   1.000   1.000
                                                       1.000   1.000

     PseudoPot. # 3 for O  read from file:
     /scratch/11018/zhc/assisgnment1/CaTiO3/O_LDA.UPF
     MD5 check sum: 194b818514d2a7dbb603bb78519a4f40
     Pseudo is Ultrasoft + core correction, Zval =  6.0
     Generated by new atomic code, or converted to UPF format
     Using radial grid of  737 points,  5 beta functions with: 
                l(1) =   0
                l(2) =   0
                l(3) =   1
                l(4) =   1
                l(5) =   2
     Q(r) pseudized with  8 coefficients,  rinner =    0.900   0.900   0.900
                                                       0.900   0.900

     atomic species   valence    mass     pseudopotential
     Ca               10.00    40.07800     Ca( 1.00)
     Ti               12.00    47.88000     Ti( 1.00)
     O                 6.00    16.00000     O ( 1.00)

      8 Sym. Ops. (no inversion) found



   Cartesian axes

     site n.     atom                  positions (alat units)
         1        Ca     tau(   1) = (   0.0000000   0.0000000   0.0500000  )
         2        Ti     tau(   2) = (   0.5000000   0.5000000   0.5000000  )
         3        O      tau(   3) = (   0.5000000   0.5000000   0.0000000  )
         4        O      tau(   4) = (   0.5000000   0.0000000   0.5000000  )
         5        O      tau(   5) = (   0.0000000   0.5000000   0.5000000  )

     number of k points=    40
                       cart. coord. in units 2pi/alat
        k(    1) = (   0.0000000   0.0000000   0.0000000), wk =   0.0092593
        k(    2) = (   0.0000000   0.0000000   0.1666667), wk =   0.0185185
        k(    3) = (   0.0000000   0.0000000   0.3333333), wk =   0.0185185
        k(    4) = (   0.0000000   0.0000000  -0.5000000), wk =   0.0092593
        k(    5) = (   0.0000000   0.1666667   0.1666667), wk =   0.0740741
        k(    6) = (   0.0000000   0.1666667   0.3333333), wk =   0.0740741
        k(    7) = (   0.0000000   0.1666667  -0.5000000), wk =   0.0370370
        k(    8) = (   0.0000000   0.3333333   0.3333333), wk =   0.0740741
        k(    9) = (   0.0000000   0.3333333  -0.5000000), wk =   0.0370370
        k(   10) = (   0.0000000  -0.5000000  -0.5000000), wk =   0.0185185
        k(   11) = (   0.1666667   0.1666667   0.1666667), wk =   0.0740741
        k(   12) = (   0.1666667   0.1666667   0.3333333), wk =   0.0740741
        k(   13) = (   0.1666667   0.1666667  -0.5000000), wk =   0.0370370
        k(   14) = (   0.1666667   0.3333333   0.3333333), wk =   0.1481481
        k(   15) = (   0.1666667   0.3333333  -0.5000000), wk =   0.0740741
        k(   16) = (   0.1666667  -0.5000000  -0.5000000), wk =   0.0370370
        k(   17) = (   0.3333333   0.3333333   0.3333333), wk =   0.0740741
        k(   18) = (   0.3333333   0.3333333  -0.5000000), wk =   0.0370370
        k(   19) = (   0.3333333  -0.5000000  -0.5000000), wk =   0.0370370
        k(   20) = (  -0.5000000  -0.5000000  -0.5000000), wk =   0.0092593
        k(   21) = (   0.1666667   0.0000000   0.0000000), wk =   0.0370370
        k(   22) = (   0.3333333   0.0000000   0.0000000), wk =   0.0370370
        k(   23) = (  -0.5000000   0.0000000   0.0000000), wk =   0.0185185
        k(   24) = (   0.1666667  -0.1666667   0.0000000), wk =   0.0370370
        k(   25) = (   0.3333333  -0.1666667   0.0000000), wk =   0.0740741
        k(   26) = (   0.0000000   0.3333333   0.1666667), wk =   0.0740741
        k(   27) = (  -0.5000000  -0.1666667   0.0000000), wk =   0.0370370
        k(   28) = (   0.0000000  -0.5000000   0.1666667), wk =   0.0370370
        k(   29) = (   0.3333333  -0.3333333   0.0000000), wk =   0.0370370
        k(   30) = (  -0.5000000  -0.3333333   0.0000000), wk =   0.0370370
        k(   31) = (   0.0000000  -0.5000000   0.3333333), wk =   0.0370370
        k(   32) = (  -0.5000000   0.5000000   0.0000000), wk =   0.0092593
        k(   33) = (   0.3333333  -0.1666667   0.1666667), wk =   0.1481481
        k(   34) = (  -0.5000000  -0.1666667   0.1666667), wk =   0.0740741
        k(   35) = (   0.3333333  -0.3333333   0.1666667), wk =   0.0740741
        k(   36) = (  -0.5000000  -0.3333333   0.1666667), wk =   0.0740741
        k(   37) = (  -0.1666667  -0.5000000   0.3333333), wk =   0.0740741
        k(   38) = (  -0.5000000   0.5000000   0.1666667), wk =   0.0185185
        k(   39) = (  -0.5000000  -0.3333333   0.3333333), wk =   0.0740741
        k(   40) = (  -0.5000000   0.5000000   0.3333333), wk =   0.0185185

     Dense  grid:   212911 G-vectors     FFT dimensions: (  75,  75,  75)

     Smooth grid:    53811 G-vectors     FFT dimensions: (  48,  48,  48)

     Estimated max dynamical RAM per process >      95.21 MB

     Estimated total dynamical RAM >     952.10 MB

     Check: negative core charge=   -0.000001

     Initial potential from superposition of free atoms

     starting charge      38.9952, renormalised to      40.0000

     negative rho (up, down):  8.541E-04 0.000E+00
     Starting wfcs are   32 randomized atomic wfcs

     total cpu time spent up to now is        1.1 secs

     Self-consistent Calculation

     iteration #  1     ecut=   100.00 Ry     beta= 0.70
     CG style diagonalization
     ethr =  1.00E-02,  avg # of iterations =  2.2

     negative rho (up, down):  1.119E-03 0.000E+00

     total cpu time spent up to now is        2.4 secs

     total energy              =    -291.29613316 Ry
     estimated scf accuracy    <       0.83452766 Ry

     iteration #  2     ecut=   100.00 Ry     beta= 0.70
     CG style diagonalization
     ethr =  2.09E-03,  avg # of iterations =  5.2

     negative rho (up, down):  6.404E-04 0.000E+00

     total cpu time spent up to now is        4.7 secs

     total energy              =    -290.53457115 Ry
     estimated scf accuracy    <       7.06170048 Ry

     iteration #  3     ecut=   100.00 Ry     beta= 0.70
     CG style diagonalization
     ethr =  2.09E-03,  avg # of iterations =  4.6

     negative rho (up, down):  7.413E-04 0.000E+00

     total cpu time spent up to now is        6.8 secs

     total energy              =    -291.72783020 Ry
     estimated scf accuracy    <       0.17931489 Ry

     iteration #  4     ecut=   100.00 Ry     beta= 0.70
     CG style diagonalization
     ethr =  4.48E-04,  avg # of iterations =  3.6

     negative rho (up, down):  8.127E-04 0.000E+00

     total cpu time spent up to now is        8.4 secs

     total energy              =    -291.74209209 Ry
     estimated scf accuracy    <       0.05932386 Ry

     iteration #  5     ecut=   100.00 Ry     beta= 0.70
     CG style diagonalization
     ethr =  1.48E-04,  avg # of iterations =  3.6

     negative rho (up, down):  8.417E-04 0.000E+00

     total cpu time spent up to now is       10.0 secs

     total energy              =    -291.75132905 Ry
     estimated scf accuracy    <       0.00227896 Ry

     iteration #  6     ecut=   100.00 Ry     beta= 0.70
     CG style diagonalization
     ethr =  5.70E-06,  avg # of iterations =  4.1

     negative rho (up, down):  8.612E-04 0.000E+00

     total cpu time spent up to now is       11.8 secs

     total energy              =    -291.75277466 Ry
     estimated scf accuracy    <       0.00023166 Ry

     iteration #  7     ecut=   100.00 Ry     beta= 0.70
     CG style diagonalization
     ethr =  5.79E-07,  avg # of iterations =  4.4

     negative rho (up, down):  8.542E-04 0.000E+00

     total cpu time spent up to now is       13.8 secs

     total energy              =    -291.75279770 Ry
     estimated scf accuracy    <       0.00068752 Ry

     iteration #  8     ecut=   100.00 Ry     beta= 0.70
     CG style diagonalization
     ethr =  5.79E-07,  avg # of iterations =  3.8

     negative rho (up, down):  8.516E-04 0.000E+00

     total cpu time spent up to now is       15.5 secs

     total energy              =    -291.75282860 Ry
     estimated scf accuracy    <       0.00008861 Ry

     iteration #  9     ecut=   100.00 Ry     beta= 0.70
     CG style diagonalization
     ethr =  2.22E-07,  avg # of iterations =  3.6

     negative rho (up, down):  8.507E-04 0.000E+00

     total cpu time spent up to now is       17.1 secs

     total energy              =    -291.75284278 Ry
     estimated scf accuracy    <       0.00000163 Ry

     iteration # 10     ecut=   100.00 Ry     beta= 0.70
     CG style diagonalization
     ethr =  4.08E-09,  avg # of iterations =  4.7

     negative rho (up, down):  8.510E-04 0.000E+00

     total cpu time spent up to now is       19.2 secs

     total energy              =    -291.75284507 Ry
     estimated scf accuracy    <       0.00000134 Ry

     iteration # 11     ecut=   100.00 Ry     beta= 0.70
     CG style diagonalization
     ethr =  3.35E-09,  avg # of iterations =  3.3

     negative rho (up, down):  8.512E-04 0.000E+00

     total cpu time spent up to now is       20.7 secs

     total energy              =    -291.75284515 Ry
     estimated scf accuracy    <       0.00000023 Ry

     iteration # 12     ecut=   100.00 Ry     beta= 0.70
     CG style diagonalization
     ethr =  5.82E-10,  avg # of iterations =  3.8

     negative rho (up, down):  8.512E-04 0.000E+00

     total cpu time spent up to now is       22.4 secs

     total energy              =    -291.75284523 Ry
     estimated scf accuracy    <       0.00000001 Ry

     iteration # 13     ecut=   100.00 Ry     beta= 0.70
     CG style diagonalization
     ethr =  2.61E-11,  avg # of iterations =  4.0

     negative rho (up, down):  8.511E-04 0.000E+00

     total cpu time spent up to now is       24.2 secs

     End of self-consistent calculation

          k = 0.0000 0.0000 0.0000 (  6763 PWs)   bands (ev):

   -47.1760 -30.1514 -23.7718 -23.7718 -23.7630 -11.3742 -11.3523 -11.3523
    -8.5675  -7.4903  -7.4405   5.5457   5.5503   5.5503   7.4448   7.4510
     7.4510   8.1755   8.1755   8.1909

          k = 0.0000 0.0000 0.1667 (  6751 PWs)   bands (ev):

   -47.1757 -30.1499 -23.7811 -23.7709 -23.7709 -11.4357 -11.3495 -11.3495
    -8.4102  -7.4803  -7.3635   5.2483   5.5657   5.5657   7.1061   7.1061
     7.2281   7.3856   8.0349   8.0349

          k = 0.0000 0.0000 0.3333 (  6736 PWs)   bands (ev):

   -47.1751 -30.1470 -23.8169 -23.7692 -23.7692 -11.5503 -11.3440 -11.3440
    -8.0942  -7.4603  -7.2004   4.5994   5.6464   5.6464   6.2927   6.4668
     6.4668   6.8481   7.9127   7.9127

          k = 0.0000 0.0000-0.5000 (  6696 PWs)   bands (ev):

   -47.1748 -30.1455 -23.8346 -23.7684 -23.7684 -11.6040 -11.3412 -11.3412
    -7.9368  -7.4501  -7.1107   4.2361   5.7856   5.7856   5.9006   6.0919
     6.0919   6.6781   7.8716   7.8716

          k = 0.0000 0.1667 0.1667 (  6753 PWs)   bands (ev):

   -47.1754 -30.1484 -23.7892 -23.7804 -23.7701 -11.4392 -11.3926 -11.3467
    -8.2657  -7.4308  -7.3313   5.0709   5.4186   5.5778   6.4000   6.8682
     7.2682   7.3776   7.7057   7.8125

          k = 0.0000 0.1667 0.3333 (  6717 PWs)   bands (ev):

   -47.1748 -30.1454 -23.8163 -23.7876 -23.7684 -11.5303 -11.3862 -11.3408
    -7.9923  -7.4038  -7.1679   4.5532   5.1694   5.6470   5.6488   6.3593
     6.6105   7.3217   7.5934   7.6087

          k = 0.0000 0.1667-0.5000 (  6714 PWs)   bands (ev):

   -47.1745 -30.1438 -23.8341 -23.7869 -23.7676 -11.5771 -11.3795 -11.3379
    -7.8652  -7.3877  -7.0698   4.2326   4.9121   5.5037   5.7799   6.0187
     6.3903   7.3152   7.5076   7.5320

          k = 0.0000 0.3333 0.3333 (  6716 PWs)   bands (ev):

   -47.1742 -30.1421 -23.8241 -23.8152 -23.7667 -11.5004 -11.4582 -11.3345
    -7.8500  -7.2233  -7.0894   4.2456   4.7156   4.7834   5.6785   6.0852
     6.6679   6.8391   7.1982   8.1878

          k = 0.0000 0.3333-0.5000 (  6726 PWs)   bands (ev):

   -47.1739 -30.1405 -23.8332 -23.8236 -23.7659 -11.5233 -11.4541 -11.3313
    -7.8138  -7.1504  -6.9872   4.0834   4.2021   4.6993   5.7615   5.8779
     6.6080   6.8016   7.0585   8.3275

          k = 0.0000-0.5000-0.5000 (  6728 PWs)   bands (ev):

   -47.1736 -30.1389 -23.8417 -23.8328 -23.7651 -11.4940 -11.4929 -11.3280
    -7.8173  -6.9886  -6.9470   3.7852   4.0564   4.3687   5.7474   5.8101
     6.6868   6.7152   6.8779   8.5828

          k = 0.1667 0.1667 0.1667 (  6736 PWs)   bands (ev):

   -47.1751 -30.1468 -23.7885 -23.7882 -23.7796 -11.4408 -11.3870 -11.3840
    -8.1276  -7.3648  -7.3259   4.9088   5.4038   5.4081   6.3005   6.3051
     6.7709   7.6104   7.6503   7.7275

          k = 0.1667 0.1667 0.3333 (  6720 PWs)   bands (ev):

   -47.1745 -30.1438 -23.8157 -23.7869 -23.7867 -11.5128 -11.3870 -11.3723
    -7.8710  -7.3620  -7.1526   4.5073   5.0816   5.3237   5.5296   5.7884
     6.5954   7.4071   7.5466   7.7387

          k = 0.1667 0.1667-0.5000 (  6736 PWs)   bands (ev):

   -47.1742 -30.1422 -23.8335 -23.7862 -23.7858 -11.5537 -11.3806 -11.3664
    -7.7535  -7.3606  -7.0447   4.2315   4.8033   5.2164   5.3114   5.6799
     6.6542   7.2603   7.5193   7.6602

          k = 0.1667 0.3333 0.3333 (  6716 PWs)   bands (ev):

   -47.1739 -30.1406 -23.8233 -23.8143 -23.7851 -11.4864 -11.4469 -11.3665
    -7.6919  -7.2129  -7.1040   4.2690   4.7468   4.7879   5.1955   5.4430
     6.1409   7.4448   7.5159   8.2062

          k = 0.1667 0.3333-0.5000 (  6734 PWs)   bands (ev):

   -47.1736 -30.1390 -23.8323 -23.8226 -23.7843 -11.5069 -11.4437 -11.3611
    -7.6478  -7.1680  -6.9936   4.1776   4.2053   4.6937   5.1404   5.2934
     6.1379   7.4383   7.4618   8.3438

          k = 0.1667-0.5000-0.5000 (  6696 PWs)   bands (ev):

   -47.1733 -30.1374 -23.8407 -23.8317 -23.7834 -11.4808 -11.4800 -11.3558
    -7.6443  -7.0089  -6.9683   3.9098   4.0642   4.3732   5.1229   5.1638
     6.0900   7.4244   7.4770   8.6000

          k = 0.3333 0.3333 0.3333 (  6737 PWs)   bands (ev):

   -47.1733 -30.1374 -23.8217 -23.8215 -23.8126 -11.4626 -11.4272 -11.4225
    -7.3938  -7.1566  -7.1286   4.2375   4.6819   4.6895   4.8453   4.9022
     4.9275   7.9844   8.0334   8.3146

          k = 0.3333 0.3333-0.5000 (  6720 PWs)   bands (ev):

   -47.1730 -30.1359 -23.8305 -23.8209 -23.8205 -11.4740 -11.4266 -11.4162
    -7.3251  -7.1715  -7.0055   4.1832   4.3105   4.5272   4.5735   4.8408
     4.9200   8.0509   8.2121   8.4394

          k = 0.3333-0.5000-0.5000 (  6728 PWs)   bands (ev):

   -47.1727 -30.1344 -23.8388 -23.8296 -23.8198 -11.4542 -11.4539 -11.4107
    -7.2730  -7.0502  -7.0114   4.0493   4.1671   4.3820   4.4998   4.5285
     4.8247   8.2668   8.3261   8.6352

          k =-0.5000-0.5000-0.5000 (  6776 PWs)   bands (ev):

   -47.1724 -30.1329 -23.8378 -23.8378 -23.8285 -11.4408 -11.4408 -11.4378
    -7.0712  -7.0712  -7.0343   3.9322   4.2766   4.3005   4.3005   4.3702
     4.3913   8.5962   8.6517   8.6517

          k = 0.1667 0.0000 0.0000 (  6751 PWs)   bands (ev):

   -47.1757 -30.1499 -23.7899 -23.7709 -23.7622 -11.4209 -11.3660 -11.3496
    -8.4063  -7.4525  -7.3936   5.2418   5.5645   5.5662   7.0870   7.0970
     7.2458   7.3806   8.0559   8.0634

          k = 0.3333 0.0000 0.0000 (  6736 PWs)   bands (ev):

   -47.1751 -30.1469 -23.8258 -23.7692 -23.7606 -11.5407 -11.3576 -11.3442
    -8.0800  -7.4318  -7.2389   4.5738   5.6514   5.6570   6.2914   6.4326
     6.4490   6.9019   7.9487   7.9501

          k =-0.5000 0.0000 0.0000 (  6696 PWs)   bands (ev):

   -47.1748 -30.1454 -23.8436 -23.7683 -23.7598 -11.5970 -11.3531 -11.3415
    -7.9157  -7.4237  -7.1531   4.2033   5.8230   5.8496   5.8989   6.0234
     6.0243   6.7462   7.9106   7.9113

          k = 0.1667-0.1667 0.0000 (  6753 PWs)   bands (ev):

   -47.1754 -30.1483 -23.7894 -23.7889 -23.7614 -11.4301 -11.3898 -11.3601
    -8.2613  -7.3987  -7.3662   5.0576   5.4191   5.5792   6.3916   6.8760
     7.3029   7.4023   7.6545   7.8338

          k = 0.3333-0.1667 0.0000 (  6717 PWs)   bands (ev):

   -47.1748 -30.1453 -23.8253 -23.7877 -23.7598 -11.5215 -11.3886 -11.3512
    -7.9753  -7.3790  -7.2054   4.5245   5.1417   5.6267   5.7017   6.3604
     6.6474   7.3661   7.5590   7.6318

          k = 0.0000 0.3333 0.1667 (  6717 PWs)   bands (ev):

   -47.1748 -30.1453 -23.8253 -23.7789 -23.7684 -11.5224 -11.3967 -11.3410
    -7.9835  -7.3773  -7.2005   4.5308   5.1569   5.6513   5.6906   6.3346
     6.5892   7.3551   7.6169   7.6273

          k =-0.5000-0.1667 0.0000 (  6714 PWs)   bands (ev):

   -47.1745 -30.1437 -23.8432 -23.7869 -23.7590 -11.5707 -11.3823 -11.3466
    -7.8395  -7.3681  -7.1097   4.1969   4.8820   5.5204   5.8424   5.9817
     6.4312   7.3644   7.4620   7.5706

          k = 0.0000-0.5000 0.1667 (  6714 PWs)   bands (ev):

   -47.1745 -30.1438 -23.8431 -23.7782 -23.7675 -11.5712 -11.3889 -11.3382
    -7.8525  -7.3550  -7.1115   4.1985   4.9049   5.5568   5.8220   5.9518
     6.3696   7.3538   7.5302   7.5612

          k = 0.3333-0.3333 0.0000 (  6716 PWs)   bands (ev):

   -47.1742 -30.1420 -23.8245 -23.8240 -23.7581 -11.4939 -11.4595 -11.3433
    -7.8236  -7.2218  -7.1126   4.2248   4.6983   4.7631   5.7066   6.1027
     6.7106   6.8729   7.2285   8.1138

          k =-0.5000-0.3333 0.0000 (  6726 PWs)   bands (ev):

   -47.1739 -30.1403 -23.8424 -23.8237 -23.7573 -11.5182 -11.4560 -11.3391
    -7.7810  -7.1402  -7.0242   4.0697   4.1596   4.6994   5.8179   5.8643
     6.6321   6.8533   7.0965   8.2550

          k = 0.0000-0.5000 0.3333 (  6726 PWs)   bands (ev):

   -47.1739 -30.1405 -23.8422 -23.8147 -23.7659 -11.5197 -11.4588 -11.3314
    -7.8119  -7.1091  -7.0293   4.0826   4.1682   4.7367   5.8139   5.8160
     6.5841   6.8351   7.0689   8.3336

          k =-0.5000 0.5000 0.0000 (  6728 PWs)   bands (ev):

   -47.1736 -30.1386 -23.8420 -23.8420 -23.7565 -11.4921 -11.4921 -11.3352
    -7.7825  -6.9820  -6.9820   3.7770   4.0263   4.3527   5.8008   5.8008
     6.7329   6.7329   6.9161   8.5045

          k = 0.3333-0.1667 0.1667 (  6720 PWs)   bands (ev):

   -47.1745 -30.1437 -23.8246 -23.7868 -23.7781 -11.5054 -11.3967 -11.3726
    -7.8594  -7.3367  -7.1868   4.4823   5.0662   5.3144   5.5469   5.8155
     6.6217   7.3777   7.5956   7.7305

          k =-0.5000-0.1667 0.1667 (  6736 PWs)   bands (ev):

   -47.1742 -30.1421 -23.8426 -23.7861 -23.7773 -11.5482 -11.3904 -11.3658
    -7.7354  -7.3355  -7.0840   4.1950   4.7799   5.2063   5.3514   5.7110
     6.6868   7.2271   7.5742   7.6515

          k = 0.3333-0.3333 0.1667 (  6716 PWs)   bands (ev):

   -47.1739 -30.1405 -23.8235 -23.8232 -23.7764 -11.4808 -11.4488 -11.3725
    -7.6683  -7.2103  -7.1271   4.2492   4.7377   4.7625   5.2154   5.4562
     6.1801   7.4951   7.5253   8.1427

          k =-0.5000-0.3333 0.1667 (  6734 PWs)   bands (ev):

   -47.1736 -30.1388 -23.8415 -23.8228 -23.7756 -11.5023 -11.4466 -11.3664
    -7.6154  -7.1593  -7.0303   4.1604   4.1649   4.6968   5.1392   5.3333
     6.1787   7.4476   7.5168   8.2774

          k =-0.1667-0.5000 0.3333 (  6734 PWs)   bands (ev):

   -47.1736 -30.1390 -23.8414 -23.8137 -23.7843 -11.5032 -11.4489 -11.3608
    -7.6452  -7.1293  -7.0336   4.1713   4.1755   4.7307   5.1046   5.3315
     6.1443   7.3903   7.5128   8.3480

          k =-0.5000 0.5000 0.1667 (  6696 PWs)   bands (ev):

   -47.1733 -30.1372 -23.8409 -23.8409 -23.7747 -11.4794 -11.4794 -11.3611
    -7.6086  -7.0041  -7.0041   3.8983   4.0369   4.3571   5.1620   5.1620
     6.1291   7.4817   7.4817   8.5270

          k =-0.5000-0.3333 0.3333 (  6720 PWs)   bands (ev):

   -47.1730 -30.1359 -23.8397 -23.8208 -23.8117 -11.4703 -11.4357 -11.4120
    -7.3095  -7.1480  -7.0433   4.1532   4.2934   4.5179   4.5941   4.8550
     4.9492   8.1138   8.1737   8.4164

          k =-0.5000 0.5000 0.3333 (  6728 PWs)   bands (ev):

   -47.1727 -30.1343 -23.8388 -23.8388 -23.8107 -11.4538 -11.4538 -11.4124
    -7.2358  -7.0487  -7.0487   4.0302   4.1479   4.3658   4.5276   4.5276
     4.8590   8.3262   8.3262   8.5728

     highest occupied level (ev):     8.6517

!    total energy              =    -291.75284523 Ry
     estimated scf accuracy    <          7.8E-09 Ry

     The total energy is the sum of the following terms:
     one-electron contribution =     -94.04691015 Ry
     hartree contribution      =      66.23761252 Ry
     xc contribution           =     -51.22363124 Ry
     ewald contribution        =    -212.71991636 Ry

     convergence has been achieved in  13 iterations

     negative rho (up, down):  8.511E-04 0.000E+00

     Forces acting on atoms (cartesian axes, Ry/au):

     atom    1 type  1   force =     0.00000000    0.00000000   -0.00155429
     atom    2 type  2   force =     0.00000000    0.00000000    0.01673734
     atom    3 type  3   force =     0.00000000    0.00000000    0.00789228
     atom    4 type  3   force =     0.00000000    0.00000000   -0.01153766
     atom    5 type  3   force =     0.00000000    0.00000000   -0.01153766

     Total force =     0.024720     Total SCF correction =     0.000033


     Computing stress (Cartesian axis) and pressure


     negative rho (up, down):  8.511E-04 0.000E+00
          total   stress  (Ry/bohr**3)                   (kbar)     P=     -113.61
  -0.00077335   0.00000000   0.00000000         -113.76        0.00        0.00
   0.00000000  -0.00077335   0.00000000            0.00     -113.76        0.00
   0.00000000   0.00000000  -0.00077015            0.00        0.00     -113.29


     Writing all to output data dir ./CTO.save/ :
     XML data file, charge density, pseudopotentials, collected wavefunctions
 
     init_run     :      0.70s CPU      0.81s WALL (       1 calls)
     electrons    :     22.15s CPU     23.16s WALL (       1 calls)
     forces       :      0.28s CPU      0.31s WALL (       1 calls)
     stress       :      2.89s CPU      2.95s WALL (       1 calls)

     Called by init_run:
     wfcinit      :      0.39s CPU      0.42s WALL (       1 calls)
     potinit      :      0.02s CPU      0.02s WALL (       1 calls)
     hinit0       :      0.15s CPU      0.18s WALL (       1 calls)

     Called by electrons:
     c_bands      :     17.52s CPU     18.16s WALL (      13 calls)
     sum_band     :      3.13s CPU      3.29s WALL (      13 calls)
     v_of_rho     :      0.05s CPU      0.05s WALL (      14 calls)
     newd         :      1.49s CPU      1.69s WALL (      14 calls)
     mix_rho      :      0.04s CPU      0.04s WALL (      13 calls)

     Called by c_bands:
     init_us_2    :      0.30s CPU      0.31s WALL (    1160 calls)
     init_us_2:cp :      0.30s CPU      0.31s WALL (    1160 calls)
     ccgdiagg     :     15.10s CPU     15.66s WALL (     520 calls)
     wfcrot       :      2.55s CPU      2.64s WALL (     520 calls)

     Called by *cgdiagg:
     h_psi        :     11.00s CPU     11.39s WALL (   31690 calls)
     s_psi        :      1.98s CPU      2.06s WALL (   62860 calls)

     Called by h_psi:
     h_psi:calbec :      1.88s CPU      1.94s WALL (   31690 calls)
     vloc_psi     :      7.69s CPU      7.97s WALL (   31690 calls)
     add_vuspsi   :      1.13s CPU      1.17s WALL (   31690 calls)
     hs_1psi      :     10.01s CPU     10.37s WALL (   31170 calls)
     s_1psi       :      2.40s CPU      2.48s WALL (   31170 calls)

     General routines
     calbec       :      3.22s CPU      3.34s WALL (   63580 calls)
     fft          :      0.06s CPU      0.08s WALL (      90 calls)
     ffts         :      0.00s CPU      0.01s WALL (      27 calls)
     fftw         :      6.03s CPU      6.23s WALL (   94500 calls)
     interpolate  :      0.01s CPU      0.02s WALL (      14 calls)
 
     Parallel routines
 
     PWSCF        :     26.29s CPU     28.47s WALL

 
   This run was terminated on:  17:30: 7  19Sep2025            

=------------------------------------------------------------------------------=
   JOB DONE.
=------------------------------------------------------------------------------=
TACC:  Shutdown complete. Exiting. 
