TACC:  Starting up job 2560859 
TACC:  Starting parallel tasks... 

     Program PWSCF v.7.3 starts on 18Nov2025 at  0:20:16 

     This program is part of the open-source Quantum ESPRESSO suite
     for quantum simulation of materials; please cite
         "P. Giannozzi et al., J. Phys.:Condens. Matter 21 395502 (2009);
         "P. Giannozzi et al., J. Phys.:Condens. Matter 29 465901 (2017);
         "P. Giannozzi et al., J. Chem. Phys. 152 154105 (2020);
          URL http://www.quantum-espresso.org", 
     in publications or presentations arising from this work. More details at
     http://www.quantum-espresso.org/quote

     Parallel version (MPI & OpenMP), running on      10 processor cores
     Number of MPI processes:                10
     Threads/MPI process:                     1

     MPI processes distributed on     1 nodes
     183924 MiB available memory on the printing compute node when the environment starts
 
     Waiting for input...
     Reading input from standard input
Warning: card &CELL ignored
Warning: card  CELL_DYNAMICS = 'BFGS', ignored
Warning: card  PRESS=0.D0, ignored
Warning: card / ignored

     Current dimensions of program PWSCF are:
     Max number of different atomic species (ntypx) = 10
     Max number of k-points (npk) =  40000
     Max angular momentum in pseudopotentials (lmaxx) =  4
     Message from routine setup:
     using ibrav=0 with symmetry is DISCOURAGED, use correct ibrav instead
 
     R & G space division:  proc/nbgrp/npool/nimage =      10
     Subspace diagonalization in iterative solution of the eigenvalue problem:
     a serial algorithm will be used

 
     Parallelization info
     --------------------
     sticks:   dense  smooth     PW     G-vecs:    dense   smooth      PW
     Min         209      84     25                 7671     1944     321
     Max         210      85     26                 7676     1949     324
     Sum        2093     845    253                76731    19463    3231
 
     Using Slab Decomposition
 


     bravais-lattice index     =            0
     lattice parameter (alat)  =       7.2859  a.u.
     unit-cell volume          =     406.6759 (a.u.)^3
     number of atoms/cell      =            5
     number of atomic types    =            3
     number of electrons       =        44.00
     number of Kohn-Sham states=           22
     kinetic-energy cutoff     =      50.0000  Ry
     charge density cutoff     =     500.0000  Ry
     scf convergence threshold =      1.0E-08
     mixing beta               =       0.7000
     number of iterations used =            8  plain     mixing
     energy convergence thresh.=      1.0E-04
     force convergence thresh. =      1.0E-03
     Exchange-correlation= SLA  PZ   NOGX NOGC
                           (   1   1   0   0   0   0   0)
     nstep                     =           50


     celldm(1)=   7.285877  celldm(2)=   0.000000  celldm(3)=   0.000000
     celldm(4)=   0.000000  celldm(5)=   0.000000  celldm(6)=   0.000000

     crystal axes: (cart. coord. in units of alat)
               a(1) = (   1.000000   0.000000   0.000000 )  
               a(2) = (   0.000000   1.000000   0.000000 )  
               a(3) = (   0.000000   0.000000   1.051485 )  

     reciprocal axes: (cart. coord. in units 2 pi/alat)
               b(1) = (  1.000000  0.000000  0.000000 )  
               b(2) = (  0.000000  1.000000  0.000000 )  
               b(3) = (  0.000000  0.000000  0.951036 )  


     PseudoPot. # 1 for Pb read from file:
     /scratch/11018/zhc/assisgnment3/input_files/Pb_LDA.UPF
     MD5 check sum: 062a37469794d955244864f8fe2e5624
     Pseudo is Ultrasoft + core correction, Zval = 14.0
     Generated by new atomic code, or converted to UPF format
     Using radial grid of  899 points,  6 beta functions with: 
                l(1) =   0
                l(2) =   0
                l(3) =   1
                l(4) =   1
                l(5) =   2
                l(6) =   2
     Q(r) pseudized with  6 coefficients,  rinner =    1.000   1.000   1.000
                                                       1.000   1.000

     PseudoPot. # 2 for Ti read from file:
     /scratch/11018/zhc/assisgnment3/input_files/Ti_LDA.UPF
     MD5 check sum: 0d9f225c038fe889ca2a701dcc8d72cb
     Pseudo is Ultrasoft + core correction, Zval = 12.0
     Generated by new atomic code, or converted to UPF format
     Using radial grid of  851 points,  6 beta functions with: 
                l(1) =   0
                l(2) =   0
                l(3) =   1
                l(4) =   1
                l(5) =   2
                l(6) =   2
     Q(r) pseudized with  6 coefficients,  rinner =    1.000   1.000   1.000
                                                       1.000   1.000

     PseudoPot. # 3 for O  read from file:
     /scratch/11018/zhc/assisgnment3/input_files/O_LDA.UPF
     MD5 check sum: 194b818514d2a7dbb603bb78519a4f40
     Pseudo is Ultrasoft + core correction, Zval =  6.0
     Generated by new atomic code, or converted to UPF format
     Using radial grid of  737 points,  5 beta functions with: 
                l(1) =   0
                l(2) =   0
                l(3) =   1
                l(4) =   1
                l(5) =   2
     Q(r) pseudized with  8 coefficients,  rinner =    0.900   0.900   0.900
                                                       0.900   0.900

     atomic species   valence    mass     pseudopotential
     Pb               14.00   207.20000     Pb( 1.00)
     Ti               12.00    47.88000     Ti( 1.00)
     O                 6.00    16.00000     O ( 1.00)

      8 Sym. Ops. (no inversion) found



   Cartesian axes

     site n.     atom                  positions (alat units)
         1        Pb     tau(   1) = (   0.0000000   0.0000000   1.0569248  )
         2        Ti     tau(   2) = (   0.5000000   0.5000000   0.5673122  )
         3        O      tau(   3) = (   0.5000000   0.5000000   0.1046310  )
         4        O      tau(   4) = (   0.5000000   0.0000000   0.6430187  )
         5        O      tau(   5) = (   0.0000000   0.5000000   0.6430187  )

     number of k points=    30
                       cart. coord. in units 2pi/alat
        k(    1) = (   0.0000000   0.0000000   0.0000000), wk =   0.0138889
        k(    2) = (   0.0000000   0.0000000   0.2377591), wk =   0.0277778
        k(    3) = (   0.0000000   0.0000000  -0.4755181), wk =   0.0138889
        k(    4) = (   0.0000000   0.1666667   0.0000000), wk =   0.0555556
        k(    5) = (   0.0000000   0.1666667   0.2377591), wk =   0.1111111
        k(    6) = (   0.0000000   0.1666667  -0.4755181), wk =   0.0555556
        k(    7) = (   0.0000000   0.3333333   0.0000000), wk =   0.0555556
        k(    8) = (   0.0000000   0.3333333   0.2377591), wk =   0.1111111
        k(    9) = (   0.0000000   0.3333333  -0.4755181), wk =   0.0555556
        k(   10) = (   0.0000000  -0.5000000   0.0000000), wk =   0.0277778
        k(   11) = (   0.0000000  -0.5000000   0.2377591), wk =   0.0555556
        k(   12) = (   0.0000000  -0.5000000  -0.4755181), wk =   0.0277778
        k(   13) = (   0.1666667   0.1666667   0.0000000), wk =   0.0555556
        k(   14) = (   0.1666667   0.1666667   0.2377591), wk =   0.1111111
        k(   15) = (   0.1666667   0.1666667  -0.4755181), wk =   0.0555556
        k(   16) = (   0.1666667   0.3333333   0.0000000), wk =   0.1111111
        k(   17) = (   0.1666667   0.3333333   0.2377591), wk =   0.2222222
        k(   18) = (   0.1666667   0.3333333  -0.4755181), wk =   0.1111111
        k(   19) = (   0.1666667  -0.5000000   0.0000000), wk =   0.0555556
        k(   20) = (   0.1666667  -0.5000000   0.2377591), wk =   0.1111111
        k(   21) = (   0.1666667  -0.5000000  -0.4755181), wk =   0.0555556
        k(   22) = (   0.3333333   0.3333333   0.0000000), wk =   0.0555556
        k(   23) = (   0.3333333   0.3333333   0.2377591), wk =   0.1111111
        k(   24) = (   0.3333333   0.3333333  -0.4755181), wk =   0.0555556
        k(   25) = (   0.3333333  -0.5000000   0.0000000), wk =   0.0555556
        k(   26) = (   0.3333333  -0.5000000   0.2377591), wk =   0.1111111
        k(   27) = (   0.3333333  -0.5000000  -0.4755181), wk =   0.0555556
        k(   28) = (  -0.5000000  -0.5000000   0.0000000), wk =   0.0138889
        k(   29) = (  -0.5000000  -0.5000000   0.2377591), wk =   0.0277778
        k(   30) = (  -0.5000000  -0.5000000  -0.4755181), wk =   0.0138889

     Dense  grid:    76731 G-vectors     FFT dimensions: (  54,  54,  60)

     Smooth grid:    19463 G-vectors     FFT dimensions: (  36,  36,  36)

     Estimated max dynamical RAM per process >      36.53 MB

     Estimated total dynamical RAM >     365.28 MB

     Check: negative core charge=   -0.000004

     Initial potential from superposition of free atoms

     starting charge      42.9982, renormalised to      44.0000

     negative rho (up, down):  1.669E-02 0.000E+00
     Starting wfcs are   31 randomized atomic wfcs

     total cpu time spent up to now is        0.7 secs

     Self-consistent Calculation

     iteration #  1     ecut=    50.00 Ry     beta= 0.70
     CG style diagonalization
     ethr =  1.00E-02,  avg # of iterations =  2.2

     negative rho (up, down):  1.400E-02 0.000E+00

     total cpu time spent up to now is        1.2 secs

     total energy              =    -380.06458829 Ry
     estimated scf accuracy    <       1.01898229 Ry

     iteration #  2     ecut=    50.00 Ry     beta= 0.70
     CG style diagonalization
     ethr =  2.32E-03,  avg # of iterations =  4.8

     negative rho (up, down):  1.451E-02 0.000E+00

     total cpu time spent up to now is        2.2 secs

     total energy              =    -379.75828192 Ry
     estimated scf accuracy    <       3.89835954 Ry

     iteration #  3     ecut=    50.00 Ry     beta= 0.70
     CG style diagonalization
     ethr =  2.32E-03,  avg # of iterations =  4.3

     negative rho (up, down):  1.513E-02 0.000E+00

     total cpu time spent up to now is        3.0 secs

     total energy              =    -380.53656610 Ry
     estimated scf accuracy    <       0.31328318 Ry

     iteration #  4     ecut=    50.00 Ry     beta= 0.70
     CG style diagonalization
     ethr =  7.12E-04,  avg # of iterations =  3.5

     negative rho (up, down):  1.512E-02 0.000E+00

     total cpu time spent up to now is        3.7 secs

     total energy              =    -380.56015201 Ry
     estimated scf accuracy    <       0.04122814 Ry

     iteration #  5     ecut=    50.00 Ry     beta= 0.70
     CG style diagonalization
     ethr =  9.37E-05,  avg # of iterations =  3.9

     negative rho (up, down):  1.512E-02 0.000E+00

     total cpu time spent up to now is        4.4 secs

     total energy              =    -380.57166794 Ry
     estimated scf accuracy    <       0.00765165 Ry

     iteration #  6     ecut=    50.00 Ry     beta= 0.70
     CG style diagonalization
     ethr =  1.74E-05,  avg # of iterations =  3.8

     negative rho (up, down):  1.512E-02 0.000E+00

     total cpu time spent up to now is        5.2 secs

     total energy              =    -380.57363420 Ry
     estimated scf accuracy    <       0.00612821 Ry

     iteration #  7     ecut=    50.00 Ry     beta= 0.70
     CG style diagonalization
     ethr =  1.39E-05,  avg # of iterations =  3.2

     negative rho (up, down):  1.514E-02 0.000E+00

     total cpu time spent up to now is        5.8 secs

     total energy              =    -380.57361794 Ry
     estimated scf accuracy    <       0.00166467 Ry

     iteration #  8     ecut=    50.00 Ry     beta= 0.70
     CG style diagonalization
     ethr =  3.78E-06,  avg # of iterations =  3.6

     negative rho (up, down):  1.516E-02 0.000E+00

     total cpu time spent up to now is        6.5 secs

     total energy              =    -380.57399133 Ry
     estimated scf accuracy    <       0.00001046 Ry

     iteration #  9     ecut=    50.00 Ry     beta= 0.70
     CG style diagonalization
     c_bands:  1 eigenvalues not converged
     ethr =  2.38E-08,  avg # of iterations =  7.5

     negative rho (up, down):  1.520E-02 0.000E+00

     total cpu time spent up to now is        8.0 secs

     total energy              =    -380.57404862 Ry
     estimated scf accuracy    <       0.00003538 Ry

     iteration # 10     ecut=    50.00 Ry     beta= 0.70
     CG style diagonalization
     ethr =  2.38E-08,  avg # of iterations =  3.4

     negative rho (up, down):  1.530E-02 0.000E+00

     total cpu time spent up to now is        8.6 secs

     total energy              =    -380.57404194 Ry
     estimated scf accuracy    <       0.00001933 Ry

     iteration # 11     ecut=    50.00 Ry     beta= 0.70
     CG style diagonalization
     ethr =  2.38E-08,  avg # of iterations =  4.0

     negative rho (up, down):  1.529E-02 0.000E+00

     total cpu time spent up to now is        9.4 secs

     total energy              =    -380.57404629 Ry
     estimated scf accuracy    <       0.00000146 Ry

     iteration # 12     ecut=    50.00 Ry     beta= 0.70
     CG style diagonalization
     ethr =  3.33E-09,  avg # of iterations =  5.1

     negative rho (up, down):  1.530E-02 0.000E+00

     total cpu time spent up to now is       10.4 secs

     total energy              =    -380.57404734 Ry
     estimated scf accuracy    <       0.00000007 Ry

     iteration # 13     ecut=    50.00 Ry     beta= 0.70
     CG style diagonalization
     c_bands:  1 eigenvalues not converged
     ethr =  1.63E-10,  avg # of iterations =  9.9

     negative rho (up, down):  1.530E-02 0.000E+00

     total cpu time spent up to now is       12.3 secs

     total energy              =    -380.57404788 Ry
     estimated scf accuracy    <       0.00000008 Ry

     iteration # 14     ecut=    50.00 Ry     beta= 0.70
     CG style diagonalization
     ethr =  1.63E-10,  avg # of iterations =  4.3

     negative rho (up, down):  1.531E-02 0.000E+00

     total cpu time spent up to now is       13.2 secs

     total energy              =    -380.57404791 Ry
     estimated scf accuracy    <       0.00000002 Ry

     iteration # 15     ecut=    50.00 Ry     beta= 0.70
     CG style diagonalization
     ethr =  4.13E-11,  avg # of iterations =  4.8

     negative rho (up, down):  1.531E-02 0.000E+00

     total cpu time spent up to now is       14.1 secs

     End of self-consistent calculation

          k = 0.0000 0.0000 0.0000 (  2421 PWs)   bands (ev):

   -45.1809 -21.8598 -21.7773 -21.7773  -7.1720  -6.0209  -5.7631  -4.4217
    -4.4217  -4.3818  -4.2640  -4.1520   4.8310   6.7305   6.7305   7.1013
     8.7064   8.7064   8.9432   9.2820   9.4353   9.4353

          k = 0.0000 0.0000 0.2378 (  2437 PWs)   bands (ev):

   -45.1806 -21.8830 -21.7763 -21.7763  -6.9652  -5.9593  -5.6938  -4.4394
    -4.4394  -4.3803  -4.2522  -4.2287   3.9713   6.7854   6.7854   7.2996
     8.4534   8.4534   8.8603   9.3681   9.5538   9.5538

          k = 0.0000 0.0000-0.4755 (  2426 PWs)   bands (ev):

   -45.1802 -21.9061 -21.7754 -21.7754  -6.7404  -5.8919  -5.6312  -4.4569
    -4.4569  -4.3788  -4.3113  -4.2419   3.4293   6.6064   6.8196   6.8196
     8.2960   8.2960   8.7814   9.6297   9.6297  10.6416

          k = 0.0000 0.1667 0.0000 (  2423 PWs)   bands (ev):

   -45.1805 -21.8590 -21.7976 -21.7764  -7.0271  -5.9868  -5.7322  -4.4461
    -4.4202  -4.3966  -4.2671  -4.1402   4.3439   6.7935   6.8407   7.1338
     8.6624   8.7284   8.9413   9.0582   9.1631   9.5550

          k = 0.0000 0.1667 0.2378 (  2428 PWs)   bands (ev):

   -45.1802 -21.8820 -21.7966 -21.7755  -6.8367  -5.9412  -5.6572  -4.4446
    -4.4384  -4.3958  -4.2615  -4.1795   3.7383   6.5770   6.9067   7.3834
     8.1208   8.4357   8.7593   9.1545   9.2245   9.9252

          k = 0.0000 0.1667-0.4755 (  2426 PWs)   bands (ev):

   -45.1798 -21.9049 -21.7955 -21.7745  -6.6398  -5.8895  -5.5794  -4.4565
    -4.4409  -4.3949  -4.2664  -4.2145   3.2854   6.2602   6.9467   7.0307
     7.9254   8.2873   8.8262   9.2130   9.3058  10.5636

          k = 0.0000 0.3333 0.0000 (  2422 PWs)   bands (ev):

   -45.1797 -21.8573 -21.8379 -21.7747  -6.7125  -5.9128  -5.6864  -4.4833
    -4.4262  -4.4168  -4.2618  -4.1454   3.7169   6.4236   7.0879   7.1223
     8.3219   8.3510   8.7955   8.8477   9.2819  10.2074

          k = 0.0000 0.3333 0.2378 (  2423 PWs)   bands (ev):

   -45.1794 -21.8799 -21.8368 -21.7737  -6.5883  -5.8706  -5.5901  -4.4502
    -4.4365  -4.4263  -4.2550  -4.1189   3.3527   6.2943   6.9944   7.2214
     7.7552   8.1791   8.3333   8.9002   9.4171  10.2856

          k = 0.0000 0.3333-0.4755 (  2430 PWs)   bands (ev):

   -45.1791 -21.9024 -21.8355 -21.7727  -6.4962  -5.8034  -5.4632  -4.4557
    -4.4268  -4.4092  -4.2910  -4.0656   3.0336   5.9723   6.7565   7.2654
     7.6408   7.8072   8.1205   8.9310   9.8548  10.1137

          k = 0.0000-0.5000 0.0000 (  2436 PWs)   bands (ev):

   -45.1793 -21.8584 -21.8560 -21.7738  -6.5390  -5.8562  -5.6914  -4.4993
    -4.4407  -4.4153  -4.2352  -4.1780   3.4976   6.0398   7.3548   7.3652
     7.8250   7.9686   8.7168   8.8859   9.3127  11.0100

          k = 0.0000-0.5000 0.2378 (  2430 PWs)   bands (ev):

   -45.1790 -21.8786 -21.8570 -21.7728  -6.4805  -5.7805  -5.5838  -4.4626
    -4.4416  -4.4354  -4.2210  -4.1146   3.2013   6.0116   7.0251   7.2667
     7.5722   7.7705   8.4430   8.8787   9.4176  10.4890

          k = 0.0000-0.5000-0.4755 (  2432 PWs)   bands (ev):

   -45.1787 -21.9010 -21.8555 -21.7718  -6.4625  -5.6994  -5.4092  -4.4553
    -4.4425  -4.4180  -4.2763  -4.0038   2.9330   5.8316   6.4459   7.3266
     7.5915   7.7965   7.8200   8.8738   9.7863  10.1529

          k = 0.1667 0.1667 0.0000 (  2425 PWs)   bands (ev):

   -45.1801 -21.8581 -21.7969 -21.7965  -6.8846  -5.9517  -5.7235  -4.4520
    -4.4364  -4.4003  -4.2431  -4.1293   4.0136   6.7157   6.9670   7.1898
     8.1873   8.2998   9.0345   9.0702   9.3758   9.7896

          k = 0.1667 0.1667 0.2378 (  2423 PWs)   bands (ev):

   -45.1798 -21.8810 -21.7958 -21.7955  -6.7053  -5.9258  -5.6488  -4.4549
    -4.4314  -4.3941  -4.2325  -4.1450   3.6148   6.4941   6.6028   7.3273
     8.0171   8.0343   8.8417   9.2164   9.4544   9.8950

          k = 0.1667 0.1667-0.4755 (  2444 PWs)   bands (ev):

   -45.1795 -21.9038 -21.7947 -21.7945  -6.5269  -5.8997  -5.5616  -4.4678
    -4.4098  -4.3713  -4.2379  -4.1668   3.2525   6.2790   6.3289   7.0197
     7.9246   7.9605   8.7447   9.2917   9.5127  10.2608

          k = 0.1667 0.3333 0.0000 (  2426 PWs)   bands (ev):

   -45.1793 -21.8565 -21.8368 -21.7948  -6.5783  -5.8795  -5.7210  -4.4764
    -4.4253  -4.3845  -4.2184  -4.1346   3.5016   6.4213   6.9664   7.2634
     7.6467   8.2346   8.5395   9.2137   9.4018  10.2873

          k = 0.1667 0.3333 0.2378 (  2430 PWs)   bands (ev):

   -45.1790 -21.8790 -21.8358 -21.7938  -6.4504  -5.8703  -5.6389  -4.4519
    -4.4260  -4.3611  -4.1975  -4.0930   3.3568   6.2434   6.3748   6.9302
     7.3822   8.0725   8.8939   9.1728   9.5085   9.9967

          k = 0.1667 0.3333-0.4755 (  2426 PWs)   bands (ev):

   -45.1787 -21.9014 -21.8346 -21.7928  -6.3607  -5.8469  -5.5171  -4.4495
    -4.4003  -4.3199  -4.2102  -4.0384   3.1676   5.8909   6.3066   6.6317
     6.8724   7.9310   9.0016   9.2181   9.5013   9.9447

          k = 0.1667-0.5000 0.0000 (  2428 PWs)   bands (ev):

   -45.1790 -21.8572 -21.8551 -21.7939  -6.4108  -5.8256  -5.7469  -4.4794
    -4.4174  -4.3627  -4.1994  -4.1684   3.3023   6.0585   7.0834   7.3102
     7.6098   7.9551   8.4035   9.2477   9.3987  10.6183

          k = 0.1667-0.5000 0.2378 (  2430 PWs)   bands (ev):

   -45.1786 -21.8777 -21.8559 -21.7929  -6.3413  -5.7908  -5.6614  -4.4501
    -4.4124  -4.3392  -4.1745  -4.0869   3.2388   6.0162   6.2696   6.6775
     7.3430   8.2157   8.6604   9.1834   9.5167   9.9602

          k = 0.1667-0.5000-0.4755 (  2416 PWs)   bands (ev):

   -45.1783 -21.9001 -21.8545 -21.7919  -6.3260  -5.7574  -5.5004  -4.4441
    -4.3685  -4.3166  -4.1931  -3.9774   3.1279   5.7844   6.1385   6.2892
     6.7271   8.0440   8.8684   9.1320   9.1599  10.1622

          k = 0.3333 0.3333 0.0000 (  2438 PWs)   bands (ev):

   -45.1786 -21.8548 -21.8347 -21.8346  -6.3129  -5.8126  -5.7722  -4.4562
    -4.4057  -4.3123  -4.1371  -4.1364   3.0967   6.4057   6.5011   7.3713
     7.5238   7.6715   8.3368   9.0592   9.8785  10.0171

          k = 0.3333 0.3333 0.2378 (  2428 PWs)   bands (ev):

   -45.1783 -21.8769 -21.8338 -21.8337  -6.1756  -5.8610  -5.7278  -4.4142
    -4.3987  -4.2517  -4.0888  -4.0565   3.2857   5.9528   6.0242   6.4021
     7.0456   7.5483   8.9574   9.4708   9.5147   9.8944

          k = 0.3333 0.3333-0.4755 (  2428 PWs)   bands (ev):

   -45.1779 -21.8992 -21.8327 -21.8326  -6.1056  -5.9059  -5.6037  -4.3916
    -4.3724  -4.1860  -4.0391  -3.9782   3.4510   5.5495   5.5695   6.1491
     6.8014   6.9614   8.2074   9.8484   9.8644  10.0274

          k = 0.3333-0.5000 0.0000 (  2454 PWs)   bands (ev):

   -45.1782 -21.8549 -21.8534 -21.8336  -6.1929  -5.7881  -5.7693  -4.4477
    -4.3817  -4.2471  -4.1714  -4.1012   2.9103   6.0516   6.5468   7.1833
     7.7148   7.8338   7.9563   9.0274   9.6980  10.0837

          k = 0.3333-0.5000 0.2378 (  2430 PWs)   bands (ev):

   -45.1779 -21.8757 -21.8537 -21.8327  -6.0574  -5.8158  -5.7865  -4.4049
    -4.3699  -4.1570  -4.0879  -4.0256   3.2121   5.8454   5.9963   6.0650
     6.8277   7.6197   8.4826   9.4695   9.4981  10.0537

          k = 0.3333-0.5000-0.4755 (  2420 PWs)   bands (ev):

   -45.1775 -21.8980 -21.8525 -21.8317  -6.0470  -5.8593  -5.6421  -4.3743
    -4.3476  -4.0940  -4.0032  -3.9214   3.5916   5.2808   5.4773   5.9045
     6.5618   6.9764   7.4211   9.9498  10.0259  10.1864

          k =-0.5000-0.5000 0.0000 (  2480 PWs)   bands (ev):

   -45.1778 -21.8537 -21.8537 -21.8520  -6.1368  -5.7440  -5.7440  -4.4368
    -4.3337  -4.1929  -4.1929  -4.0502   2.7177   5.9002   6.3785   7.3969
     7.3969   7.9518   7.9518   8.7945   9.2190  10.3447

          k =-0.5000-0.5000 0.2378 (  2432 PWs)   bands (ev):

   -45.1775 -21.8745 -21.8526 -21.8526  -5.9224  -5.8300  -5.8300  -4.3925
    -4.3315  -4.0465  -4.0465  -4.0157   3.1343   5.8570   5.9695   5.9695
     6.3851   7.5610   7.8263   9.4989   9.4989  10.3271

          k =-0.5000-0.5000-0.4755 (  2400 PWs)   bands (ev):

   -45.1772 -21.8968 -21.8515 -21.8515  -5.9049  -5.9049  -5.7015  -4.3482
    -4.3293  -3.9697  -3.9085  -3.9085   3.8089   5.3097   5.3097   5.7388
     6.3918   6.4101   6.6670  10.1982  10.1982  10.3098

     highest occupied level (ev):    11.0100

!    total energy              =    -380.57404792 Ry
     estimated scf accuracy    <          1.3E-09 Ry

     The total energy is the sum of the following terms:
     one-electron contribution =     -79.77853665 Ry
     hartree contribution      =      69.95341252 Ry
     xc contribution           =    -102.67521281 Ry
     ewald contribution        =    -268.07371098 Ry

     convergence has been achieved in  15 iterations

     negative rho (up, down):  1.531E-02 0.000E+00

     Forces acting on atoms (cartesian axes, Ry/au):

     atom    1 type  1   force =     0.00000000    0.00000000    0.00001809
     atom    2 type  2   force =     0.00000000    0.00000000   -0.00062491
     atom    3 type  3   force =     0.00000000    0.00000000    0.00070012
     atom    4 type  3   force =     0.00000000    0.00000000   -0.00004665
     atom    5 type  3   force =     0.00000000    0.00000000   -0.00004665

     Total force =     0.000941     Total SCF correction =     0.000079


     Computing stress (Cartesian axis) and pressure


     negative rho (up, down):  1.531E-02 0.000E+00
          total   stress  (Ry/bohr**3)                   (kbar)     P=       -1.06
  -0.00000334   0.00000000   0.00000000           -0.49        0.00        0.00
   0.00000000  -0.00000334   0.00000000            0.00       -0.49        0.00
   0.00000000   0.00000000  -0.00001504            0.00        0.00       -2.21


     BFGS Geometry Optimization
     Energy error            =      0.0E+00 Ry
     Gradient error          =      7.0E-04 Ry/Bohr

     bfgs converged in   1 scf cycles and   0 bfgs steps
     (criteria: energy <  1.0E-04 Ry, force <  1.0E-03 Ry/Bohr)

     End of BFGS Geometry Optimization

     Final energy             =    -380.5740479187 Ry
Begin final coordinates

ATOMIC_POSITIONS (crystal)
Pb               0.0000000000        0.0000000000        1.0051738283
Ti               0.5000000000        0.5000000000        0.5395344294
O                0.5000000000        0.5000000000        0.0995079024
O                0.5000000000        0.0000000000        0.6115340639
O                0.0000000000        0.5000000000        0.6115340639
End final coordinates



     Writing all to output data dir ./pto_T3_eta0p002.save/ :
     XML data file, charge density, pseudopotentials, collected wavefunctions
 
     init_run     :      0.37s CPU      0.45s WALL (       1 calls)
     electrons    :     12.65s CPU     13.42s WALL (       1 calls)
     forces       :      0.10s CPU      0.11s WALL (       1 calls)
     stress       :      0.94s CPU      0.96s WALL (       1 calls)

     Called by init_run:
     wfcinit      :      0.16s CPU      0.18s WALL (       1 calls)
     potinit      :      0.01s CPU      0.01s WALL (       1 calls)
     hinit0       :      0.11s CPU      0.14s WALL (       1 calls)

     Called by electrons:
     c_bands      :     10.62s CPU     11.22s WALL (      15 calls)
     sum_band     :      1.37s CPU      1.44s WALL (      15 calls)
     v_of_rho     :      0.02s CPU      0.02s WALL (      16 calls)
     newd         :      0.64s CPU      0.73s WALL (      16 calls)
     mix_rho      :      0.02s CPU      0.02s WALL (      15 calls)

     Called by c_bands:
     init_us_2    :      0.09s CPU      0.10s WALL (     990 calls)
     init_us_2:cp :      0.09s CPU      0.10s WALL (     990 calls)
     ccgdiagg     :      9.41s CPU      9.95s WALL (     450 calls)
     wfcrot       :      1.28s CPU      1.35s WALL (     450 calls)

     Called by *cgdiagg:
     h_psi        :      6.12s CPU      6.46s WALL (   36237 calls)
     s_psi        :      0.94s CPU      1.00s WALL (   72024 calls)

     Called by h_psi:
     h_psi:calbec :      0.94s CPU      1.00s WALL (   36237 calls)
     vloc_psi     :      4.38s CPU      4.62s WALL (   36237 calls)
     add_vuspsi   :      0.52s CPU      0.55s WALL (   36237 calls)
     hs_1psi      :      5.77s CPU      6.09s WALL (   35787 calls)
     s_1psi       :      1.39s CPU      1.47s WALL (   35787 calls)

     General routines
     calbec       :      1.68s CPU      1.78s WALL (   72624 calls)
     fft          :      0.03s CPU      0.04s WALL (     102 calls)
     ffts         :      0.00s CPU      0.00s WALL (      31 calls)
     fftw         :      3.73s CPU      3.93s WALL (  101814 calls)
     interpolate  :      0.01s CPU      0.01s WALL (      16 calls)
 
     Parallel routines
 
     PWSCF        :     14.29s CPU     15.48s WALL

 
   This run was terminated on:   0:20:32  18Nov2025            

=------------------------------------------------------------------------------=
   JOB DONE.
=------------------------------------------------------------------------------=
TACC:  Shutdown complete. Exiting. 
