TACC:  Starting up job 2547124 
TACC:  Starting parallel tasks... 

     Program PWSCF v.7.3 starts on 13Nov2025 at  0:23:13 

     This program is part of the open-source Quantum ESPRESSO suite
     for quantum simulation of materials; please cite
         "P. Giannozzi et al., J. Phys.:Condens. Matter 21 395502 (2009);
         "P. Giannozzi et al., J. Phys.:Condens. Matter 29 465901 (2017);
         "P. Giannozzi et al., J. Chem. Phys. 152 154105 (2020);
          URL http://www.quantum-espresso.org", 
     in publications or presentations arising from this work. More details at
     http://www.quantum-espresso.org/quote

     Parallel version (MPI & OpenMP), running on      10 processor cores
     Number of MPI processes:                10
     Threads/MPI process:                     1

     MPI processes distributed on     1 nodes
     186685 MiB available memory on the printing compute node when the environment starts
 
     Waiting for input...
     Reading input from standard input
Warning: card &CELL ignored
Warning: card  CELL_DYNAMICS = 'BFGS', ignored
Warning: card  PRESS=0.D0, ignored
Warning: card / ignored

     Current dimensions of program PWSCF are:
     Max number of different atomic species (ntypx) = 10
     Max number of k-points (npk) =  40000
     Max angular momentum in pseudopotentials (lmaxx) =  4
     Message from routine setup:
     using ibrav=0 with symmetry is DISCOURAGED, use correct ibrav instead
 
     R & G space division:  proc/nbgrp/npool/nimage =      10
     Subspace diagonalization in iterative solution of the eigenvalue problem:
     a serial algorithm will be used

 
     Parallelization info
     --------------------
     sticks:   dense  smooth     PW     G-vecs:    dense   smooth      PW
     Min         562     224     63                33326     8426    1261
     Max         563     225     65                33331     8429    1262
     Sum        5621    2241    641               333269    84265   12613
 
     Using Slab Decomposition
 


     bravais-lattice index     =            0
     lattice parameter (alat)  =       7.3699  a.u.
     unit-cell volume          =     420.8329 (a.u.)^3
     number of atoms/cell      =            5
     number of atomic types    =            3
     number of electrons       =        44.00
     number of Kohn-Sham states=           22
     kinetic-energy cutoff     =     130.0000  Ry
     charge density cutoff     =    1300.0000  Ry
     scf convergence threshold =      1.0E-08
     mixing beta               =       0.7000
     number of iterations used =            8  plain     mixing
     energy convergence thresh.=      1.0E-04
     force convergence thresh. =      1.0E-03
     Exchange-correlation= SLA  PZ   NOGX NOGC
                           (   1   1   0   0   0   0   0)
     nstep                     =           50


     celldm(1)=   7.369932  celldm(2)=   0.000000  celldm(3)=   0.000000
     celldm(4)=   0.000000  celldm(5)=   0.000000  celldm(6)=   0.000000

     crystal axes: (cart. coord. in units of alat)
               a(1) = (   1.000000   0.000000   0.000000 )  
               a(2) = (   0.000000   1.000000   0.000000 )  
               a(3) = (   0.000000   0.000000   1.051282 )  

     reciprocal axes: (cart. coord. in units 2 pi/alat)
               b(1) = (  1.000000  0.000000  0.000000 )  
               b(2) = (  0.000000  1.000000  0.000000 )  
               b(3) = (  0.000000  0.000000  0.951220 )  


     PseudoPot. # 1 for Pb read from file:
     /scratch/11018/zhc/assisgnment3/input_files/Pb_LDA.UPF
     MD5 check sum: 062a37469794d955244864f8fe2e5624
     Pseudo is Ultrasoft + core correction, Zval = 14.0
     Generated by new atomic code, or converted to UPF format
     Using radial grid of  899 points,  6 beta functions with: 
                l(1) =   0
                l(2) =   0
                l(3) =   1
                l(4) =   1
                l(5) =   2
                l(6) =   2
     Q(r) pseudized with  6 coefficients,  rinner =    1.000   1.000   1.000
                                                       1.000   1.000

     PseudoPot. # 2 for Ti read from file:
     /scratch/11018/zhc/assisgnment3/input_files/Ti_LDA.UPF
     MD5 check sum: 0d9f225c038fe889ca2a701dcc8d72cb
     Pseudo is Ultrasoft + core correction, Zval = 12.0
     Generated by new atomic code, or converted to UPF format
     Using radial grid of  851 points,  6 beta functions with: 
                l(1) =   0
                l(2) =   0
                l(3) =   1
                l(4) =   1
                l(5) =   2
                l(6) =   2
     Q(r) pseudized with  6 coefficients,  rinner =    1.000   1.000   1.000
                                                       1.000   1.000

     PseudoPot. # 3 for O  read from file:
     /scratch/11018/zhc/assisgnment3/input_files/O_LDA.UPF
     MD5 check sum: 194b818514d2a7dbb603bb78519a4f40
     Pseudo is Ultrasoft + core correction, Zval =  6.0
     Generated by new atomic code, or converted to UPF format
     Using radial grid of  737 points,  5 beta functions with: 
                l(1) =   0
                l(2) =   0
                l(3) =   1
                l(4) =   1
                l(5) =   2
     Q(r) pseudized with  8 coefficients,  rinner =    0.900   0.900   0.900
                                                       0.900   0.900

     atomic species   valence    mass     pseudopotential
     Pb               14.00   207.20000     Pb( 1.00)
     Ti               12.00    47.88000     Ti( 1.00)
     O                 6.00    16.00000     O ( 1.00)

      8 Sym. Ops. (no inversion) found



   Cartesian axes

     site n.     atom                  positions (alat units)
         1        Pb     tau(   1) = (   0.0000000   0.0000000   1.0580339  )
         2        Ti     tau(   2) = (   0.5000000   0.5000000   0.5681377  )
         3        O      tau(   3) = (   0.5000000   0.5000000   0.1036357  )
         4        O      tau(   4) = (   0.5000000   0.0000000   0.6422586  )
         5        O      tau(   5) = (   0.0000000   0.5000000   0.6422586  )

     number of k points=    30
                       cart. coord. in units 2pi/alat
        k(    1) = (   0.0000000   0.0000000   0.0000000), wk =   0.0138889
        k(    2) = (   0.0000000   0.0000000   0.2378049), wk =   0.0277778
        k(    3) = (   0.0000000   0.0000000  -0.4756098), wk =   0.0138889
        k(    4) = (   0.0000000   0.1666667   0.0000000), wk =   0.0555556
        k(    5) = (   0.0000000   0.1666667   0.2378049), wk =   0.1111111
        k(    6) = (   0.0000000   0.1666667  -0.4756098), wk =   0.0555556
        k(    7) = (   0.0000000   0.3333333   0.0000000), wk =   0.0555556
        k(    8) = (   0.0000000   0.3333333   0.2378049), wk =   0.1111111
        k(    9) = (   0.0000000   0.3333333  -0.4756098), wk =   0.0555556
        k(   10) = (   0.0000000  -0.5000000   0.0000000), wk =   0.0277778
        k(   11) = (   0.0000000  -0.5000000   0.2378049), wk =   0.0555556
        k(   12) = (   0.0000000  -0.5000000  -0.4756098), wk =   0.0277778
        k(   13) = (   0.1666667   0.1666667   0.0000000), wk =   0.0555556
        k(   14) = (   0.1666667   0.1666667   0.2378049), wk =   0.1111111
        k(   15) = (   0.1666667   0.1666667  -0.4756098), wk =   0.0555556
        k(   16) = (   0.1666667   0.3333333   0.0000000), wk =   0.1111111
        k(   17) = (   0.1666667   0.3333333   0.2378049), wk =   0.2222222
        k(   18) = (   0.1666667   0.3333333  -0.4756098), wk =   0.1111111
        k(   19) = (   0.1666667  -0.5000000   0.0000000), wk =   0.0555556
        k(   20) = (   0.1666667  -0.5000000   0.2378049), wk =   0.1111111
        k(   21) = (   0.1666667  -0.5000000  -0.4756098), wk =   0.0555556
        k(   22) = (   0.3333333   0.3333333   0.0000000), wk =   0.0555556
        k(   23) = (   0.3333333   0.3333333   0.2378049), wk =   0.1111111
        k(   24) = (   0.3333333   0.3333333  -0.4756098), wk =   0.0555556
        k(   25) = (   0.3333333  -0.5000000   0.0000000), wk =   0.0555556
        k(   26) = (   0.3333333  -0.5000000   0.2378049), wk =   0.1111111
        k(   27) = (   0.3333333  -0.5000000  -0.4756098), wk =   0.0555556
        k(   28) = (  -0.5000000  -0.5000000   0.0000000), wk =   0.0138889
        k(   29) = (  -0.5000000  -0.5000000   0.2378049), wk =   0.0277778
        k(   30) = (  -0.5000000  -0.5000000  -0.4756098), wk =   0.0138889

     Dense  grid:   333269 G-vectors     FFT dimensions: (  90,  90,  90)

     Smooth grid:    84265 G-vectors     FFT dimensions: (  54,  54,  60)

     Estimated max dynamical RAM per process >     143.76 MB

     Estimated total dynamical RAM >       1.40 GB

     Initial potential from superposition of free atoms

     starting charge      42.9982, renormalised to      44.0000

     negative rho (up, down):  1.723E-02 0.000E+00
     Starting wfcs are   31 randomized atomic wfcs

     total cpu time spent up to now is        1.3 secs

     Self-consistent Calculation

     iteration #  1     ecut=   130.00 Ry     beta= 0.70
     CG style diagonalization
     ethr =  1.00E-02,  avg # of iterations =  2.1

     negative rho (up, down):  1.451E-02 0.000E+00

     total cpu time spent up to now is        3.2 secs

     total energy              =    -380.04463592 Ry
     estimated scf accuracy    <       1.03955600 Ry

     iteration #  2     ecut=   130.00 Ry     beta= 0.70
     CG style diagonalization
     ethr =  2.36E-03,  avg # of iterations =  4.9

     negative rho (up, down):  1.471E-02 0.000E+00

     total cpu time spent up to now is        6.5 secs

     total energy              =    -379.61558700 Ry
     estimated scf accuracy    <       4.81363749 Ry

     iteration #  3     ecut=   130.00 Ry     beta= 0.70
     CG style diagonalization
     ethr =  2.36E-03,  avg # of iterations =  4.5

     negative rho (up, down):  1.549E-02 0.000E+00

     total cpu time spent up to now is        9.5 secs

     total energy              =    -380.53601160 Ry
     estimated scf accuracy    <       0.30091126 Ry

     iteration #  4     ecut=   130.00 Ry     beta= 0.70
     CG style diagonalization
     ethr =  6.84E-04,  avg # of iterations =  3.5

     negative rho (up, down):  1.564E-02 0.000E+00

     total cpu time spent up to now is       11.9 secs

     total energy              =    -380.55214072 Ry
     estimated scf accuracy    <       0.07419425 Ry

     iteration #  5     ecut=   130.00 Ry     beta= 0.70
     CG style diagonalization
     ethr =  1.69E-04,  avg # of iterations =  3.7

     negative rho (up, down):  1.564E-02 0.000E+00

     total cpu time spent up to now is       14.5 secs

     total energy              =    -380.57180908 Ry
     estimated scf accuracy    <       0.00375811 Ry

     iteration #  6     ecut=   130.00 Ry     beta= 0.70
     CG style diagonalization
     ethr =  8.54E-06,  avg # of iterations =  4.4

     negative rho (up, down):  1.561E-02 0.000E+00

     total cpu time spent up to now is       17.5 secs

     total energy              =    -380.57483092 Ry
     estimated scf accuracy    <       0.00977248 Ry

     iteration #  7     ecut=   130.00 Ry     beta= 0.70
     CG style diagonalization
     ethr =  8.54E-06,  avg # of iterations =  3.3

     negative rho (up, down):  1.559E-02 0.000E+00

     total cpu time spent up to now is       19.8 secs

     total energy              =    -380.57371929 Ry
     estimated scf accuracy    <       0.00449934 Ry

     iteration #  8     ecut=   130.00 Ry     beta= 0.70
     CG style diagonalization
     ethr =  8.54E-06,  avg # of iterations =  3.6

     negative rho (up, down):  1.561E-02 0.000E+00

     total cpu time spent up to now is       22.3 secs

     total energy              =    -380.57454766 Ry
     estimated scf accuracy    <       0.00001027 Ry

     iteration #  9     ecut=   130.00 Ry     beta= 0.70
     CG style diagonalization
     c_bands:  1 eigenvalues not converged
     ethr =  2.33E-08,  avg # of iterations =  7.9

     negative rho (up, down):  1.565E-02 0.000E+00

     total cpu time spent up to now is       27.4 secs

     total energy              =    -380.57461536 Ry
     estimated scf accuracy    <       0.00001305 Ry

     iteration # 10     ecut=   130.00 Ry     beta= 0.70
     CG style diagonalization
     ethr =  2.33E-08,  avg # of iterations =  3.4

     negative rho (up, down):  1.572E-02 0.000E+00

     total cpu time spent up to now is       29.7 secs

     total energy              =    -380.57461289 Ry
     estimated scf accuracy    <       0.00000917 Ry

     iteration # 11     ecut=   130.00 Ry     beta= 0.70
     CG style diagonalization
     ethr =  2.09E-08,  avg # of iterations =  3.7

     negative rho (up, down):  1.573E-02 0.000E+00

     total cpu time spent up to now is       32.3 secs

     total energy              =    -380.57461482 Ry
     estimated scf accuracy    <       0.00000014 Ry

     iteration # 12     ecut=   130.00 Ry     beta= 0.70
     CG style diagonalization
     c_bands:  1 eigenvalues not converged
     ethr =  3.28E-10,  avg # of iterations = 10.8

     negative rho (up, down):  1.573E-02 0.000E+00

     total cpu time spent up to now is       39.2 secs

     total energy              =    -380.57461630 Ry
     estimated scf accuracy    <       0.00000015 Ry

     iteration # 13     ecut=   130.00 Ry     beta= 0.70
     CG style diagonalization
     ethr =  3.28E-10,  avg # of iterations =  3.9

     negative rho (up, down):  1.574E-02 0.000E+00

     total cpu time spent up to now is       41.8 secs

     total energy              =    -380.57461631 Ry
     estimated scf accuracy    <       0.00000005 Ry

     iteration # 14     ecut=   130.00 Ry     beta= 0.70
     CG style diagonalization
     ethr =  1.13E-10,  avg # of iterations =  4.7

     negative rho (up, down):  1.574E-02 0.000E+00

     total cpu time spent up to now is       45.0 secs

     total energy              =    -380.57461634 Ry
     estimated scf accuracy    <       0.00000001 Ry

     iteration # 15     ecut=   130.00 Ry     beta= 0.70
     CG style diagonalization
     ethr =  3.19E-11,  avg # of iterations =  5.6

     negative rho (up, down):  1.574E-02 0.000E+00

     total cpu time spent up to now is       48.7 secs

     End of self-consistent calculation

          k = 0.0000 0.0000 0.0000 ( 10517 PWs)   bands (ev):

   -45.8570 -22.4927 -22.4306 -22.4306  -7.5124  -6.4331  -6.1998  -5.0273
    -5.0273  -4.9923  -4.8707  -4.7661   4.2241   6.3075   6.3075   6.6260
     8.2744   8.2744   8.4908   8.7787   8.9394   8.9394

          k = 0.0000 0.0000 0.2378 ( 10560 PWs)   bands (ev):

   -45.8568 -22.5122 -22.4298 -22.4298  -7.3195  -6.3742  -6.1420  -5.0425
    -5.0425  -4.9910  -4.8630  -4.8374   3.4622   6.3768   6.3768   6.7880
     8.0078   8.0078   8.4068   8.8273   9.0455   9.0455

          k = 0.0000 0.0000-0.4756 ( 10516 PWs)   bands (ev):

   -45.8565 -22.5316 -22.4290 -22.4290  -7.1089  -6.3093  -6.0922  -5.0575
    -5.0575  -4.9898  -4.9145  -4.8572   2.9644   6.1478   6.4332   6.4332
     7.8240   7.8240   8.3265   9.1155   9.1155   9.9982

          k = 0.0000 0.1667 0.0000 ( 10543 PWs)   bands (ev):

   -45.8567 -22.4920 -22.4477 -22.4298  -7.3775  -6.4037  -6.1709  -5.0480
    -5.0259  -5.0051  -4.8757  -4.7569   3.7956   6.3508   6.4164   6.6729
     8.1859   8.2981   8.4911   8.5693   8.6705   9.0378

          k = 0.0000 0.1667 0.2378 ( 10546 PWs)   bands (ev):

   -45.8565 -22.5114 -22.4469 -22.4291  -7.2004  -6.3606  -6.1078  -5.0460
    -5.0416  -5.0043  -4.8729  -4.7935   3.2508   6.1627   6.4930   6.8883
     7.6640   7.9986   8.2716   8.6923   8.7196   9.3659

          k = 0.0000 0.1667-0.4756 ( 10524 PWs)   bands (ev):

   -45.8562 -22.5306 -22.4460 -22.4283  -7.0164  -6.3116  -6.0436  -5.0571
    -5.0415  -5.0035  -4.8806  -4.8266   2.8358   5.8585   6.5524   6.5784
     7.4664   7.8268   8.3377   8.7468   8.7940   9.9272

          k = 0.0000 0.3333 0.0000 ( 10543 PWs)   bands (ev):

   -45.8561 -22.4909 -22.4815 -22.4284  -7.0839  -6.3407  -6.1270  -5.0810
    -5.0305  -5.0231  -4.8735  -4.7651   3.2187   5.9803   6.6725   6.7022
     7.8543   7.8756   8.3454   8.4079   8.7754   9.6132

          k = 0.0000 0.3333 0.2378 ( 10532 PWs)   bands (ev):

   -45.8558 -22.5097 -22.4808 -22.4276  -6.9696  -6.3018  -6.0442  -5.0511
    -5.0398  -5.0305  -4.8699  -4.7392   2.8949   5.8682   6.5586   6.7994
     7.3090   7.7474   7.8606   8.4048   8.9365   9.6815

          k = 0.0000 0.3333-0.4756 ( 10540 PWs)   bands (ev):

   -45.8555 -22.5286 -22.4799 -22.4268  -6.8849  -6.2393  -5.9339  -5.0562
    -5.0307  -5.0131  -4.9066  -4.6901   2.6069   5.5743   6.3161   6.8543
     7.2006   7.3656   7.6887   8.4116   9.3278   9.5157

          k = 0.0000-0.5000 0.0000 ( 10518 PWs)   bands (ev):

   -45.8558 -22.4991 -22.4896 -22.4277  -6.9213  -6.2940  -6.1285  -5.0964
    -5.0431  -5.0218  -4.8472  -4.7992   3.0106   5.6180   6.9600   6.9703
     7.3495   7.4682   8.2685   8.4483   8.8114  10.3557

          k = 0.0000-0.5000 0.2378 ( 10552 PWs)   bands (ev):

   -45.8555 -22.5086 -22.4979 -22.4269  -6.8695  -6.2228  -6.0360  -5.0639
    -5.0436  -5.0388  -4.8402  -4.7353   2.7516   5.5902   6.5913   6.8578
     7.1643   7.3160   7.9698   8.3932   8.9296   9.8615

          k = 0.0000-0.5000-0.4756 ( 10560 PWs)   bands (ev):

   -45.8552 -22.5275 -22.4968 -22.4261  -6.8548  -6.1463  -5.8819  -5.0558
    -5.0442  -5.0240  -4.8932  -4.6341   2.5125   5.4244   6.0396   6.9190
     7.1684   7.3704   7.3743   8.3568   9.1469   9.6527

          k = 0.1667 0.1667 0.0000 ( 10547 PWs)   bands (ev):

   -45.8564 -22.4914 -22.4471 -22.4468  -7.2452  -6.3735  -6.1635  -5.0534
    -5.0400  -5.0073  -4.8544  -4.7481   3.4994   6.2923   6.5219   6.7210
     7.7668   7.8509   8.5440   8.5672   8.8866   9.2655

          k = 0.1667 0.1667 0.2378 ( 10536 PWs)   bands (ev):

   -45.8561 -22.5106 -22.4462 -22.4460  -7.0791  -6.3496  -6.1010  -5.0560
    -5.0355  -5.0005  -4.8459  -4.7624   3.1377   6.1078   6.1884   6.8514
     7.5502   7.5526   8.3746   8.7464   8.9712   9.3174

          k = 0.1667 0.1667-0.4756 ( 10532 PWs)   bands (ev):

   -45.8559 -22.5297 -22.4453 -22.4452  -6.9132  -6.3256  -6.0284  -5.0670
    -5.0167  -4.9775  -4.8534  -4.7819   2.8089   5.9085   5.9188   6.5852
     7.4559   7.4704   8.2674   8.8166   9.0313   9.6352

          k = 0.1667 0.3333 0.0000 ( 10525 PWs)   bands (ev):

   -45.8558 -22.4902 -22.4806 -22.4454  -6.9606  -6.3118  -6.1628  -5.0757
    -5.0303  -4.9906  -4.8316  -4.7557   3.0304   5.9849   6.5403   6.8249
     7.2112   7.8042   8.0605   8.7212   8.8990   9.6941

          k = 0.1667 0.3333 0.2378 ( 10536 PWs)   bands (ev):

   -45.8555 -22.5089 -22.4800 -22.4446  -6.8439  -6.3050  -6.0935  -5.0539
    -5.0309  -4.9671  -4.8137  -4.7152   2.9028   5.8351   6.0046   6.4891
     6.9294   7.5759   8.4100   8.7014   9.0258   9.4108

          k = 0.1667 0.3333-0.4756 ( 10544 PWs)   bands (ev):

   -45.8552 -22.5278 -22.4791 -22.4438  -6.7622  -6.2848  -5.9891  -5.0508
    -5.0081  -4.9282  -4.8261  -4.6642   2.7381   5.5160   5.9213   6.2222
     6.4315   7.4286   8.5141   8.7396   8.9209   9.4491

          k = 0.1667-0.5000 0.0000 ( 10512 PWs)   bands (ev):

   -45.8554 -22.4981 -22.4889 -22.4446  -6.8044  -6.2669  -6.1857  -5.0789
    -5.0232  -4.9687  -4.8123  -4.7903   2.8440   5.6345   6.6961   6.8503
     7.1890   7.4648   7.9754   8.7807   8.8787   9.9759

          k = 0.1667-0.5000 0.2378 ( 10542 PWs)   bands (ev):

   -45.8552 -22.5078 -22.4970 -22.4438  -6.7432  -6.2359  -6.1144  -5.0527
    -5.0187  -4.9445  -4.7951  -4.7086   2.7939   5.5961   5.9119   6.2776
     6.8763   7.7192   8.1787   8.7162   9.0171   9.3825

          k = 0.1667-0.5000-0.4756 ( 10548 PWs)   bands (ev):

   -45.8549 -22.5267 -22.4960 -22.4430  -6.7317  -6.2061  -5.9744  -5.0460
    -4.9813  -4.9209  -4.8105  -4.6089   2.7035   5.3939   5.7822   5.8873
     6.3057   7.5400   8.3015   8.6575   8.6650   9.6607

          k = 0.3333 0.3333 0.0000 ( 10499 PWs)   bands (ev):

   -45.8551 -22.4890 -22.4792 -22.4786  -6.7168  -6.2543  -6.2162  -5.0582
    -5.0125  -4.9223  -4.7590  -4.7526   2.6716   5.9490   6.0847   6.9496
     7.0869   7.2643   7.8799   8.5180   9.3845   9.4056

          k = 0.3333 0.3333 0.2378 ( 10531 PWs)   bands (ev):

   -45.8549 -22.5073 -22.4783 -22.4783  -6.5941  -6.3030  -6.1819  -5.0219
    -5.0059  -4.8624  -4.7083  -4.6819   2.8538   5.5995   5.6627   5.9392
     6.6059   7.0669   8.3840   8.9905   9.0195   9.4007

          k = 0.3333 0.3333-0.4756 ( 10512 PWs)   bands (ev):

   -45.8546 -22.5260 -22.4775 -22.4775  -6.5325  -6.3479  -6.0763  -4.9997
    -4.9856  -4.7975  -4.6635  -4.6075   3.0204   5.2160   5.2355   5.7012
     6.3518   6.5130   7.6501   9.3556   9.3695   9.5311

          k = 0.3333-0.5000 0.0000 ( 10498 PWs)   bands (ev):

   -45.8548 -22.4962 -22.4876 -22.4780  -6.6065  -6.2326  -6.2178  -5.0510
    -4.9910  -4.8605  -4.7919  -4.7187   2.5045   5.6144   6.1200   6.7798
     7.3016   7.4044   7.4992   8.4934   9.0783   9.5722

          k = 0.3333-0.5000 0.2378 ( 10512 PWs)   bands (ev):

   -45.8546 -22.5062 -22.4953 -22.4775  -6.4871  -6.2653  -6.2381  -5.0139
    -4.9806  -4.7724  -4.7111  -4.6493   2.7973   5.4972   5.5740   5.6825
     6.3892   7.1408   7.9041   8.9870   9.0179   9.5529

          k = 0.3333-0.5000-0.4756 ( 10552 PWs)   bands (ev):

   -45.8543 -22.5250 -22.4943 -22.4767  -6.4813  -6.3091  -6.1143  -4.9858
    -4.9631  -4.7091  -4.6301  -4.5548   3.1662   4.9603   5.1462   5.4568
     6.1408   6.5282   6.8808   9.4554   9.5248   9.6825

          k =-0.5000-0.5000 0.0000 ( 10540 PWs)   bands (ev):

   -45.8545 -22.4953 -22.4953 -22.4863  -6.5563  -6.1960  -6.1960  -5.0413
    -4.9492  -4.8094  -4.8094  -4.6715   2.3352   5.4593   5.9625   6.9989
     6.9989   7.5183   7.5183   8.2479   8.5810   9.8296

          k =-0.5000-0.5000 0.2378 ( 10512 PWs)   bands (ev):

   -45.8542 -22.5052 -22.4944 -22.4944  -6.3663  -6.2811  -6.2811  -5.0032
    -4.9474  -4.6709  -4.6709  -4.6375   2.7451   5.4129   5.6165   5.6165
     5.9686   7.0815   7.2556   9.0188   9.0188   9.8141

          k =-0.5000-0.5000-0.4756 ( 10536 PWs)   bands (ev):

   -45.8540 -22.5240 -22.4935 -22.4935  -6.3547  -6.3547  -6.1722  -4.9651
    -4.9456  -4.5926  -4.5420  -4.5420   3.4109   4.9825   4.9825   5.2900
     5.8876   5.9748   6.2463   9.6933   9.6933   9.7987

     highest occupied level (ev):    10.3557

!    total energy              =    -380.57461635 Ry
     estimated scf accuracy    <          3.4E-10 Ry

     The total energy is the sum of the following terms:
     one-electron contribution =     -84.09004877 Ry
     hartree contribution      =      71.17252608 Ry
     xc contribution           =    -102.54293421 Ry
     ewald contribution        =    -265.11415945 Ry

     convergence has been achieved in  15 iterations

     negative rho (up, down):  1.574E-02 0.000E+00

     Forces acting on atoms (cartesian axes, Ry/au):

     atom    1 type  1   force =     0.00000000    0.00000000   -0.00774607
     atom    2 type  2   force =     0.00000000    0.00000000   -0.01235651
     atom    3 type  3   force =     0.00000000    0.00000000    0.02042386
     atom    4 type  3   force =     0.00000000    0.00000000   -0.00016064
     atom    5 type  3   force =     0.00000000    0.00000000   -0.00016064

     Total force =     0.025097     Total SCF correction =     0.000030


     Computing stress (Cartesian axis) and pressure


     negative rho (up, down):  1.574E-02 0.000E+00
          total   stress  (Ry/bohr**3)                   (kbar)     P=      -63.91
  -0.00042308   0.00000000   0.00000000          -62.24        0.00        0.00
   0.00000000  -0.00042308   0.00000000            0.00      -62.24        0.00
   0.00000000   0.00000000  -0.00045725            0.00        0.00      -67.26


     BFGS Geometry Optimization
     Energy error            =      0.0E+00 Ry
     Gradient error          =      2.0E-02 Ry/Bohr

     number of scf cycles    =   1
     number of bfgs steps    =   0

     energy             new  =    -380.5746163518 Ry

     new trust radius        =       0.0204238609 bohr
     new conv_thr            =       0.0000000100 Ry


ATOMIC_POSITIONS (crystal)
Pb               0.0000000000        0.0000000000        1.0054227412
Ti               0.5000000000        0.5000000000        0.5388288721
O                0.5000000000        0.5000000000        0.1012163600
O                0.5000000000        0.0000000000        0.6109081574
O                0.0000000000        0.5000000000        0.6109081574



     Writing config-only to output data dir ./pto_130.save/ :
     XML data file
     NEW-OLD atomic charge density approx. for the potential

     negative rho (up, down):  1.577E-02 0.000E+00

     total cpu time spent up to now is       53.4 secs

     Self-consistent Calculation

     iteration #  1     ecut=   130.00 Ry     beta= 0.70
     CG style diagonalization
     c_bands:  2 eigenvalues not converged
     c_bands:  1 eigenvalues not converged
     c_bands:  1 eigenvalues not converged
     c_bands:  1 eigenvalues not converged
     ethr =  1.00E-06,  avg # of iterations =  6.8

     negative rho (up, down):  1.574E-02 0.000E+00

     total cpu time spent up to now is       58.1 secs

     total energy              =    -380.57497671 Ry
     estimated scf accuracy    <       0.00024015 Ry

     iteration #  2     ecut=   130.00 Ry     beta= 0.70
     CG style diagonalization
     ethr =  5.46E-07,  avg # of iterations =  4.7

     negative rho (up, down):  1.575E-02 0.000E+00

     total cpu time spent up to now is       61.3 secs

     total energy              =    -380.57497374 Ry
     estimated scf accuracy    <       0.00063950 Ry

     iteration #  3     ecut=   130.00 Ry     beta= 0.70
     CG style diagonalization
     ethr =  5.46E-07,  avg # of iterations =  4.4

     negative rho (up, down):  1.575E-02 0.000E+00

     total cpu time spent up to now is       64.3 secs

     total energy              =    -380.57509983 Ry
     estimated scf accuracy    <       0.00004596 Ry

     iteration #  4     ecut=   130.00 Ry     beta= 0.70
     CG style diagonalization
     ethr =  1.04E-07,  avg # of iterations =  3.8

     negative rho (up, down):  1.575E-02 0.000E+00

     total cpu time spent up to now is       66.9 secs

     total energy              =    -380.57511017 Ry
     estimated scf accuracy    <       0.00000608 Ry

     iteration #  5     ecut=   130.00 Ry     beta= 0.70
     CG style diagonalization
     ethr =  1.38E-08,  avg # of iterations =  4.4

     negative rho (up, down):  1.575E-02 0.000E+00

     total cpu time spent up to now is       69.8 secs

     total energy              =    -380.57511363 Ry
     estimated scf accuracy    <       0.00000082 Ry

     iteration #  6     ecut=   130.00 Ry     beta= 0.70
     CG style diagonalization
     ethr =  1.86E-09,  avg # of iterations =  4.4

     negative rho (up, down):  1.575E-02 0.000E+00

     total cpu time spent up to now is       72.8 secs

     total energy              =    -380.57511401 Ry
     estimated scf accuracy    <       0.00000031 Ry

     iteration #  7     ecut=   130.00 Ry     beta= 0.70
     CG style diagonalization
     ethr =  7.13E-10,  avg # of iterations =  4.0

     negative rho (up, down):  1.575E-02 0.000E+00

     total cpu time spent up to now is       75.5 secs

     total energy              =    -380.57511409 Ry
     estimated scf accuracy    <       0.00000007 Ry

     iteration #  8     ecut=   130.00 Ry     beta= 0.70
     CG style diagonalization
     ethr =  1.66E-10,  avg # of iterations =  4.6

     negative rho (up, down):  1.575E-02 0.000E+00

     total cpu time spent up to now is       78.6 secs

     End of self-consistent calculation

          k = 0.0000 0.0000 0.0000 ( 10517 PWs)   bands (ev):

   -45.8217 -22.4798 -22.3946 -22.3946  -7.5094  -6.4267  -6.2106  -5.0299
    -5.0299  -4.9968  -4.8782  -4.7640   4.2143   6.3112   6.3112   6.6558
     8.2061   8.2061   8.4923   8.7214   8.9482   8.9482

          k = 0.0000 0.0000 0.2378 ( 10560 PWs)   bands (ev):

   -45.8214 -22.4994 -22.3938 -22.3938  -7.3137  -6.3676  -6.1552  -5.0451
    -5.0451  -4.9955  -4.8705  -4.8354   3.4480   6.3710   6.3710   6.8032
     7.9650   7.9650   8.4078   8.8089   9.0512   9.0512

          k = 0.0000 0.0000-0.4756 ( 10516 PWs)   bands (ev):

   -45.8211 -22.5188 -22.3930 -22.3930  -7.0989  -6.3026  -6.1090  -5.0601
    -5.0601  -4.9943  -4.9128  -4.8646   2.9430   6.1610   6.4145   6.4145
     7.8036   7.8036   8.3272   9.1211   9.1211  10.0014

          k = 0.0000 0.1667 0.0000 ( 10543 PWs)   bands (ev):

   -45.8213 -22.4791 -22.4118 -22.3939  -7.3750  -6.3979  -6.1827  -5.0511
    -5.0286  -5.0095  -4.8811  -4.7548   3.7906   6.3531   6.4210   6.6851
     8.1539   8.2312   8.4837   8.5764   8.6506   9.0147

          k = 0.0000 0.1667 0.2378 ( 10546 PWs)   bands (ev):

   -45.8211 -22.4985 -22.4110 -22.3931  -7.1949  -6.3549  -6.1221  -5.0488
    -5.0442  -5.0087  -4.8787  -4.7914   3.2410   6.1547   6.4883   6.9006
     7.6415   7.9585   8.2699   8.6763   8.7222   9.3648

          k = 0.0000 0.1667-0.4756 ( 10524 PWs)   bands (ev):

   -45.8208 -22.5178 -22.4101 -22.3923  -7.0070  -6.3059  -6.0613  -5.0597
    -5.0440  -5.0080  -4.8862  -4.8251   2.8201   5.8456   6.5346   6.5892
     7.4555   7.8067   8.3444   8.7303   8.7993   9.9345

          k = 0.0000 0.3333 0.0000 ( 10543 PWs)   bands (ev):

   -45.8207 -22.4776 -22.4460 -22.3925  -7.0820  -6.3367  -6.1413  -5.0839
    -5.0349  -5.0257  -4.8749  -4.7637   3.2166   5.9886   6.6704   6.7092
     7.8507   7.8834   8.3360   8.3463   8.7399   9.6005

          k = 0.0000 0.3333 0.2378 ( 10532 PWs)   bands (ev):

   -45.8204 -22.4967 -22.4450 -22.3916  -6.9643  -6.2989  -6.0609  -5.0538
    -5.0424  -5.0349  -4.8725  -4.7368   2.8911   5.8674   6.5587   6.7980
     7.3040   7.7340   7.8598   8.3755   8.9217   9.6749

          k = 0.0000 0.3333-0.4756 ( 10540 PWs)   bands (ev):

   -45.8202 -22.5158 -22.4440 -22.3908  -6.8767  -6.2360  -5.9538  -5.0588
    -5.0351  -5.0154  -4.9095  -4.6877   2.6009   5.5568   6.3286   6.8383
     7.1967   7.3778   7.6796   8.4025   9.2929   9.5283

          k = 0.0000-0.5000 0.0000 ( 10518 PWs)   bands (ev):

   -45.8204 -22.4766 -22.4632 -22.3917  -6.9192  -6.2905  -6.1454  -5.0984
    -5.0474  -5.0244  -4.8447  -4.8006   3.0084   5.6343   6.9430   6.9805
     7.3610   7.4751   8.2683   8.3725   8.7745  10.3430

          k = 0.0000-0.5000 0.2378 ( 10552 PWs)   bands (ev):

   -45.8201 -22.4957 -22.4621 -22.3909  -6.8638  -6.2196  -6.0565  -5.0658
    -5.0480  -5.0414  -4.8415  -4.7329   2.7495   5.6018   6.5855   6.8489
     7.1750   7.3022   7.9696   8.3505   8.9234   9.8450

          k = 0.0000-0.5000-0.4756 ( 10560 PWs)   bands (ev):

   -45.8198 -22.5147 -22.4609 -22.3901  -6.8473  -6.1436  -5.9042  -5.0583
    -5.0486  -5.0256  -4.8945  -4.6318   2.5107   5.4175   6.0407   6.9144
     7.1417   7.3856   7.3877   8.3362   9.1438   9.6268

          k = 0.1667 0.1667 0.0000 ( 10547 PWs)   bands (ev):

   -45.8210 -22.4783 -22.4112 -22.4109  -7.2436  -6.3681  -6.1757  -5.0565
    -5.0430  -5.0111  -4.8594  -4.7459   3.4962   6.3009   6.5254   6.7212
     7.7169   7.8501   8.5068   8.5717   8.8928   9.2239

          k = 0.1667 0.1667 0.2378 ( 10536 PWs)   bands (ev):

   -45.8208 -22.4977 -22.4103 -22.4101  -7.0743  -6.3442  -6.1160  -5.0591
    -5.0384  -5.0041  -4.8513  -4.7601   3.1301   6.1020   6.1830   6.8544
     7.5380   7.5502   8.3348   8.7434   8.9695   9.3149

          k = 0.1667 0.1667-0.4756 ( 10532 PWs)   bands (ev):

   -45.8205 -22.5169 -22.4094 -22.4093  -6.9046  -6.3200  -6.0468  -5.0704
    -5.0205  -4.9796  -4.8596  -4.7794   2.7959   5.8988   5.9038   6.5973
     7.4495   7.4730   8.2387   8.8139   9.0267   9.6427

          k = 0.1667 0.3333 0.0000 ( 10525 PWs)   bands (ev):

   -45.8204 -22.4768 -22.4451 -22.4095  -6.9606  -6.3080  -6.1750  -5.0781
    -5.0332  -4.9948  -4.8346  -4.7539   3.0288   5.9961   6.5370   6.8311
     7.2082   7.7551   8.0635   8.7069   8.8928   9.6719

          k = 0.1667 0.3333 0.2378 ( 10536 PWs)   bands (ev):

   -45.8201 -22.4959 -22.4442 -22.4087  -6.8399  -6.3018  -6.1089  -5.0568
    -5.0335  -4.9719  -4.8169  -4.7129   2.8992   5.8335   6.0004   6.4935
     6.9242   7.5743   8.3975   8.6828   9.0152   9.4031

          k = 0.1667 0.3333-0.4756 ( 10544 PWs)   bands (ev):

   -45.8198 -22.5149 -22.4432 -22.4078  -6.7551  -6.2812  -6.0076  -5.0543
    -5.0112  -4.9328  -4.8289  -4.6620   2.7318   5.4992   5.9190   6.2267
     6.4403   7.4366   8.4809   8.7430   8.9226   9.4317

          k = 0.1667-0.5000 0.0000 ( 10512 PWs)   bands (ev):

   -45.8201 -22.4759 -22.4623 -22.4087  -6.8052  -6.2638  -6.1985  -5.0810
    -5.0259  -4.9739  -4.8115  -4.7908   2.8424   5.6510   6.6768   6.8628
     7.2001   7.4731   7.9087   8.7792   8.8598   9.9690

          k = 0.1667-0.5000 0.2378 ( 10542 PWs)   bands (ev):

   -45.8198 -22.4949 -22.4612 -22.4079  -6.7391  -6.2330  -6.1315  -5.0554
    -5.0210  -4.9513  -4.7953  -4.7070   2.7917   5.6073   5.9093   6.2710
     6.8730   7.7140   8.1800   8.6856   9.0191   9.3636

          k = 0.1667-0.5000-0.4756 ( 10548 PWs)   bands (ev):

   -45.8195 -22.5139 -22.4601 -22.4071  -6.7253  -6.2035  -5.9930  -5.0494
    -4.9833  -4.9292  -4.8102  -4.6070   2.7010   5.3831   5.7833   5.8904
     6.3078   7.5511   8.2965   8.6358   8.6654   9.6375

          k = 0.3333 0.3333 0.0000 ( 10499 PWs)   bands (ev):

   -45.8197 -22.4753 -22.4434 -22.4433  -6.7226  -6.2512  -6.2232  -5.0600
    -5.0158  -4.9248  -4.7588  -4.7567   2.6702   5.9550   6.1063   6.9331
     7.0873   7.2157   7.9031   8.5051   9.3878   9.3954

          k = 0.3333 0.3333 0.2378 ( 10531 PWs)   bands (ev):

   -45.8195 -22.4942 -22.4426 -22.4424  -6.5939  -6.2998  -6.1943  -5.0238
    -5.0097  -4.8672  -4.7134  -4.6793   2.8509   5.5933   5.6597   5.9460
     6.6173   7.0654   8.3805   8.9788   8.9950   9.4021

          k = 0.3333 0.3333-0.4756 ( 10512 PWs)   bands (ev):

   -45.8192 -22.5131 -22.4416 -22.4415  -6.5278  -6.3446  -6.0920  -5.0038
    -4.9877  -4.8056  -4.6669  -4.6048   3.0144   5.2069   5.2337   5.7044
     6.3555   6.5350   7.6485   9.3285   9.3759   9.5104

          k = 0.3333-0.5000 0.0000 ( 10498 PWs)   bands (ev):

   -45.8194 -22.4743 -22.4604 -22.4425  -6.6168  -6.2353  -6.2155  -5.0527
    -4.9944  -4.8613  -4.7905  -4.7258   2.5027   5.6274   6.1424   6.7528
     7.2616   7.4148   7.5019   8.4892   9.0785   9.5785

          k = 0.3333-0.5000 0.2378 ( 10512 PWs)   bands (ev):

   -45.8192 -22.4933 -22.4594 -22.4417  -6.4888  -6.2630  -6.2484  -5.0159
    -4.9843  -4.7794  -4.7094  -4.6520   2.7946   5.4909   5.5837   5.6809
     6.4016   7.1370   7.9097   8.9699   8.9965   9.5575

          k = 0.3333-0.5000-0.4756 ( 10552 PWs)   bands (ev):

   -45.8189 -22.5121 -22.4584 -22.4408  -6.4775  -6.3068  -6.1287  -4.9891
    -4.9659  -4.7214  -4.6283  -4.5545   3.1614   4.9596   5.1332   5.4694
     6.1511   6.5410   6.8833   9.4305   9.5317   9.6604

          k =-0.5000-0.5000 0.0000 ( 10540 PWs)   bands (ev):

   -45.8191 -22.4733 -22.4594 -22.4594  -6.5716  -6.1942  -6.1942  -5.0431
    -4.9534  -4.8063  -4.8063  -4.6838   2.3330   5.4703   5.9918   6.9653
     6.9653   7.5254   7.5254   8.2424   8.5939   9.8366

          k =-0.5000-0.5000 0.2378 ( 10512 PWs)   bands (ev):

   -45.8188 -22.4923 -22.4585 -22.4585  -6.3805  -6.2791  -6.2791  -5.0051
    -4.9515  -4.6683  -4.6683  -4.6516   2.7421   5.4249   5.6052   5.6052
     5.9981   7.0772   7.2663   9.0013   9.0013   9.8211

          k =-0.5000-0.5000-0.4756 ( 10536 PWs)   bands (ev):

   -45.8186 -22.5112 -22.4576 -22.4576  -6.3525  -6.3525  -6.1849  -4.9670
    -4.9497  -4.6090  -4.5398  -4.5398   3.4046   4.9740   4.9740   5.3036
     5.9002   6.0043   6.2420   9.6721   9.6721   9.8057

     highest occupied level (ev):    10.3430

!    total energy              =    -380.57511413 Ry
     estimated scf accuracy    <          7.9E-09 Ry

     The total energy is the sum of the following terms:
     one-electron contribution =     -84.30610338 Ry
     hartree contribution      =      71.28988524 Ry
     xc contribution           =    -102.55274571 Ry
     ewald contribution        =    -265.00615028 Ry

     convergence has been achieved in   8 iterations

     negative rho (up, down):  1.575E-02 0.000E+00

     Forces acting on atoms (cartesian axes, Ry/au):

     atom    1 type  1   force =     0.00000000    0.00000000   -0.00860928
     atom    2 type  2   force =     0.00000000    0.00000000   -0.00505053
     atom    3 type  3   force =     0.00000000    0.00000000    0.01143130
     atom    4 type  3   force =     0.00000000    0.00000000    0.00111425
     atom    5 type  3   force =     0.00000000    0.00000000    0.00111425

     Total force =     0.015257     Total SCF correction =     0.000162


     Computing stress (Cartesian axis) and pressure


     negative rho (up, down):  1.575E-02 0.000E+00
          total   stress  (Ry/bohr**3)                   (kbar)     P=      -58.60
  -0.00041191   0.00000000   0.00000000          -60.59        0.00        0.00
   0.00000000  -0.00041191   0.00000000            0.00      -60.59        0.00
   0.00000000   0.00000000  -0.00037134            0.00        0.00      -54.63

     Energy error            =      5.0E-04 Ry
     Gradient error          =      1.1E-02 Ry/Bohr

     number of scf cycles    =   2
     number of bfgs steps    =   1

     energy             old  =    -380.5746163518 Ry
     energy             new  =    -380.5751141296 Ry

     CASE: energy            _new < energy            _old

     new trust radius        =       0.0224662470 bohr
     new conv_thr            =       0.0000000005 Ry


ATOMIC_POSITIONS (crystal)
Pb               0.0000000000        0.0000000000        1.0033912651
Ti               0.5000000000        0.5000000000        0.5374812544
O                0.5000000000        0.5000000000        0.1041160248
O                0.5000000000        0.0000000000        0.6111478718
O                0.0000000000        0.5000000000        0.6111478718



     Writing config-only to output data dir ./pto_130.save/ :
     XML data file
     NEW-OLD atomic charge density approx. for the potential

     negative rho (up, down):  1.574E-02 0.000E+00

     total cpu time spent up to now is       83.3 secs

     Self-consistent Calculation

     iteration #  1     ecut=   130.00 Ry     beta= 0.70
     CG style diagonalization
     c_bands:  1 eigenvalues not converged
     c_bands:  1 eigenvalues not converged
     c_bands:  1 eigenvalues not converged
     c_bands:  1 eigenvalues not converged
     c_bands:  1 eigenvalues not converged
     ethr =  1.00E-06,  avg # of iterations =  7.0

     negative rho (up, down):  1.570E-02 0.000E+00

     total cpu time spent up to now is       88.2 secs

     total energy              =    -380.57526262 Ry
     estimated scf accuracy    <       0.00024052 Ry

     iteration #  2     ecut=   130.00 Ry     beta= 0.70
     CG style diagonalization
     ethr =  5.47E-07,  avg # of iterations =  4.7

     negative rho (up, down):  1.571E-02 0.000E+00

     total cpu time spent up to now is       91.3 secs

     total energy              =    -380.57527362 Ry
     estimated scf accuracy    <       0.00061754 Ry

     iteration #  3     ecut=   130.00 Ry     beta= 0.70
     CG style diagonalization
     ethr =  5.47E-07,  avg # of iterations =  4.3

     negative rho (up, down):  1.571E-02 0.000E+00

     total cpu time spent up to now is       94.2 secs

     total energy              =    -380.57539972 Ry
     estimated scf accuracy    <       0.00004735 Ry

     iteration #  4     ecut=   130.00 Ry     beta= 0.70
     CG style diagonalization
     ethr =  1.08E-07,  avg # of iterations =  3.7

     negative rho (up, down):  1.570E-02 0.000E+00

     total cpu time spent up to now is       96.8 secs

     total energy              =    -380.57540982 Ry
     estimated scf accuracy    <       0.00000603 Ry

     iteration #  5     ecut=   130.00 Ry     beta= 0.70
     CG style diagonalization
     ethr =  1.37E-08,  avg # of iterations =  4.4

     negative rho (up, down):  1.570E-02 0.000E+00

     total cpu time spent up to now is       99.8 secs

     total energy              =    -380.57541334 Ry
     estimated scf accuracy    <       0.00000086 Ry

     iteration #  6     ecut=   130.00 Ry     beta= 0.70
     CG style diagonalization
     ethr =  1.95E-09,  avg # of iterations =  4.5

     negative rho (up, down):  1.570E-02 0.000E+00

     total cpu time spent up to now is      102.8 secs

     total energy              =    -380.57541377 Ry
     estimated scf accuracy    <       0.00000034 Ry

     iteration #  7     ecut=   130.00 Ry     beta= 0.70
     CG style diagonalization
     ethr =  7.77E-10,  avg # of iterations =  4.1

     negative rho (up, down):  1.570E-02 0.000E+00

     total cpu time spent up to now is      105.6 secs

     total energy              =    -380.57541387 Ry
     estimated scf accuracy    <       0.00000007 Ry

     iteration #  8     ecut=   130.00 Ry     beta= 0.70
     CG style diagonalization
     ethr =  1.51E-10,  avg # of iterations =  4.9

     negative rho (up, down):  1.570E-02 0.000E+00

     total cpu time spent up to now is      108.9 secs

     total energy              =    -380.57541392 Ry
     estimated scf accuracy    <          6.0E-09 Ry

     iteration #  9     ecut=   130.00 Ry     beta= 0.70
     CG style diagonalization
     ethr =  1.36E-11,  avg # of iterations =  6.1

     negative rho (up, down):  1.570E-02 0.000E+00

     total cpu time spent up to now is      112.8 secs

     End of self-consistent calculation

          k = 0.0000 0.0000 0.0000 ( 10517 PWs)   bands (ev):

   -45.7864 -22.4688 -22.3589 -22.3589  -7.5124  -6.4291  -6.2191  -5.0290
    -5.0290  -4.9968  -4.8838  -4.7551   4.2049   6.3093   6.3093   6.6961
     8.1378   8.1378   8.4901   8.6620   8.9495   8.9495

          k = 0.0000 0.0000 0.2378 ( 10560 PWs)   bands (ev):

   -45.7861 -22.4885 -22.3581 -22.3581  -7.3151  -6.3706  -6.1654  -5.0441
    -5.0441  -4.9955  -4.8755  -4.8258   3.4363   6.3586   6.3586   6.8235
     7.9219   7.9219   8.4053   8.7902   9.0493   9.0493

          k = 0.0000 0.0000-0.4756 ( 10516 PWs)   bands (ev):

   -45.7858 -22.5080 -22.3574 -22.3574  -7.0981  -6.3062  -6.1214  -5.0591
    -5.0591  -4.9942  -4.9024  -4.8689   2.9247   6.1777   6.3887   6.3887
     7.7832   7.7832   8.3242   9.1184   9.1184  10.0029

          k = 0.0000 0.1667 0.0000 ( 10543 PWs)   bands (ev):

   -45.7861 -22.4681 -22.3762 -22.3582  -7.3784  -6.4011  -6.1929  -5.0507
    -5.0276  -5.0094  -4.8838  -4.7457   3.7862   6.3514   6.4196   6.6994
     8.1214   8.1629   8.4747   8.5777   8.6217   8.9934

          k = 0.0000 0.1667 0.2378 ( 10546 PWs)   bands (ev):

   -45.7858 -22.4876 -22.3753 -22.3574  -7.1967  -6.3586  -6.1338  -5.0476
    -5.0432  -5.0086  -4.8815  -4.7821   3.2335   6.1421   6.4768   6.9136
     7.6170   7.9166   8.2629   8.6582   8.7189   9.3621

          k = 0.0000 0.1667-0.4756 ( 10524 PWs)   bands (ev):

   -45.7855 -22.5070 -22.3745 -22.3566  -7.0067  -6.3101  -6.0751  -5.0586
    -5.0419  -5.0079  -4.8882  -4.8163   2.8075   5.8306   6.5096   6.5982
     7.4427   7.7857   8.3420   8.7114   8.7974   9.9425

          k = 0.0000 0.3333 0.0000 ( 10543 PWs)   bands (ev):

   -45.7854 -22.4665 -22.4106 -22.3568  -7.0861  -6.3418  -6.1556  -5.0827
    -5.0347  -5.0247  -4.8714  -4.7555   3.2154   5.9919   6.6665   6.7095
     7.8419   7.8853   8.2634   8.3431   8.7004   9.5929

          k = 0.0000 0.3333 0.2378 ( 10532 PWs)   bands (ev):

   -45.7851 -22.4858 -22.4095 -22.3560  -6.9664  -6.3050  -6.0762  -5.0522
    -5.0414  -5.0347  -4.8707  -4.7274   2.8895   5.8610   6.5568   6.7893
     7.2921   7.7138   7.8577   8.3457   8.9028   9.6720

          k = 0.0000 0.3333-0.4756 ( 10540 PWs)   bands (ev):

   -45.7849 -22.5049 -22.4084 -22.3551  -6.8771  -6.2426  -5.9708  -5.0577
    -5.0350  -5.0130  -4.9074  -4.6792   2.5982   5.5354   6.3391   6.8149
     7.1847   7.3859   7.6654   8.3902   9.2579   9.5427

          k = 0.0000-0.5000 0.0000 ( 10518 PWs)   bands (ev):

   -45.7851 -22.4656 -22.4277 -22.3561  -6.9233  -6.2956  -6.1635  -5.0961
    -5.0471  -5.0233  -4.8340  -4.7973   3.0074   5.6454   6.9216   6.9825
     7.3688   7.4783   8.2632   8.2951   8.7336  10.3338

          k = 0.0000-0.5000 0.2378 ( 10552 PWs)   bands (ev):

   -45.7848 -22.4848 -22.4265 -22.3552  -6.8657  -6.2259  -6.0755  -5.0632
    -5.0478  -5.0403  -4.8376  -4.7238   2.7500   5.6078   6.5774   6.8319
     7.1768   7.2832   7.9672   8.3070   8.9120   9.8346

          k = 0.0000-0.5000-0.4756 ( 10560 PWs)   bands (ev):

   -45.7845 -22.5038 -22.4254 -22.3544  -6.8480  -6.1512  -5.9237  -5.0572
    -5.0484  -5.0224  -4.8899  -4.6238   2.5125   5.4046   6.0408   6.8980
     7.1104   7.3872   7.4036   8.3139   9.1438   9.6013

          k = 0.1667 0.1667 0.0000 ( 10547 PWs)   bands (ev):

   -45.7857 -22.4673 -22.3756 -22.3752  -7.2477  -6.3718  -6.1869  -5.0558
    -5.0423  -5.0105  -4.8608  -4.7366   3.4928   6.3044   6.5255   6.7209
     7.6661   7.8427   8.4714   8.5721   8.8920   9.1829

          k = 0.1667 0.1667 0.2378 ( 10536 PWs)   bands (ev):

   -45.7855 -22.4868 -22.3747 -22.3744  -7.0768  -6.3481  -6.1289  -5.0583
    -5.0372  -5.0034  -4.8533  -4.7506   3.1240   6.0914   6.1730   6.8561
     7.5219   7.5441   8.2942   8.7346   8.9624   9.3132

          k = 0.1667 0.1667-0.4756 ( 10532 PWs)   bands (ev):

   -45.7852 -22.5060 -22.3738 -22.3736  -6.9050  -6.3241  -6.0614  -5.0698
    -5.0199  -4.9778  -4.8620  -4.7696   2.7855   5.8848   5.8874   6.6049
     7.4337   7.4736   8.2106   8.8045   9.0167   9.6519

          k = 0.1667 0.3333 0.0000 ( 10525 PWs)   bands (ev):

   -45.7851 -22.4658 -22.4097 -22.3739  -6.9660  -6.3136  -6.1879  -5.0764
    -5.0322  -4.9945  -4.8326  -4.7449   3.0260   6.0020   6.5292   6.8345
     7.2007   7.7035   8.0651   8.6894   8.8801   9.6532

          k = 0.1667 0.3333 0.2378 ( 10536 PWs)   bands (ev):

   -45.7848 -22.4850 -22.4087 -22.3730  -6.8432  -6.3076  -6.1229  -5.0556
    -5.0321  -4.9725  -4.8153  -4.7039   2.8959   5.8268   5.9906   6.4944
     6.9170   7.5701   8.3769   8.6632   8.9995   9.3994

          k = 0.1667 0.3333-0.4756 ( 10544 PWs)   bands (ev):

   -45.7845 -22.5041 -22.4076 -22.3722  -6.7566  -6.2868  -6.0226  -5.0538
    -5.0101  -4.9337  -4.8268  -4.6537   2.7273   5.4792   5.9096   6.2292
     6.4439   7.4409   8.4461   8.7390   8.9260   9.4133

          k = 0.1667-0.5000 0.0000 ( 10512 PWs)   bands (ev):

   -45.7848 -22.4649 -22.4268 -22.3731  -6.8110  -6.2696  -6.2132  -5.0788
    -5.0248  -4.9747  -4.8031  -4.7860   2.8393   5.6624   6.6522   6.8702
     7.2076   7.4784   7.8435   8.7713   8.8360   9.9656

          k = 0.1667-0.5000 0.2378 ( 10542 PWs)   bands (ev):

   -45.7845 -22.4840 -22.4257 -22.3723  -6.7423  -6.2394  -6.1469  -5.0539
    -5.0191  -4.9542  -4.7902  -4.6988   2.7895   5.6129   5.8999   6.2615
     6.8682   7.7059   8.1746   8.6530   9.0146   9.3518

          k = 0.1667-0.5000-0.4756 ( 10548 PWs)   bands (ev):

   -45.7842 -22.5030 -22.4246 -22.3714  -6.7270  -6.2104  -6.0079  -5.0487
    -4.9813  -4.9338  -4.8043  -4.5996   2.7000   5.3669   5.7737   5.8924
     6.3081   7.5579   8.2945   8.6053   8.6680   9.6123

          k = 0.3333 0.3333 0.0000 ( 10499 PWs)   bands (ev):

   -45.7844 -22.4641 -22.4080 -22.4077  -6.7310  -6.2581  -6.2338  -5.0577
    -5.0148  -4.9224  -4.7600  -4.7469   2.6639   5.9558   6.1234   6.9099
     7.0898   7.1698   7.9205   8.4914   9.3826   9.3891

          k = 0.3333 0.3333 0.2378 ( 10531 PWs)   bands (ev):

   -45.7842 -22.4832 -22.4071 -22.4069  -6.5996  -6.3056  -6.2059  -5.0215
    -5.0093  -4.8684  -4.7135  -4.6702   2.8434   5.5830   5.6540   5.9484
     6.6271   7.0637   8.3784   8.9634   8.9717   9.3957

          k = 0.3333 0.3333-0.4756 ( 10512 PWs)   bands (ev):

   -45.7839 -22.5022 -22.4061 -22.4060  -6.5315  -6.3496  -6.1036  -5.0037
    -4.9856  -4.8110  -4.6655  -4.5964   3.0050   5.1968   5.2238   5.7054
     6.3580   6.5541   7.6549   9.2993   9.3730   9.4869

          k = 0.3333-0.5000 0.0000 ( 10498 PWs)   bands (ev):

   -45.7841 -22.4632 -22.4249 -22.4070  -6.6268  -6.2449  -6.2231  -5.0503
    -4.9934  -4.8565  -4.7823  -4.7274   2.4947   5.6352   6.1604   6.7250
     7.2193   7.4214   7.5060   8.4833   9.0837   9.5760

          k = 0.3333-0.5000 0.2378 ( 10512 PWs)   bands (ev):

   -45.7839 -22.4823 -22.4239 -22.4061  -6.4953  -6.2696  -6.2587  -5.0137
    -4.9838  -4.7835  -4.7019  -4.6484   2.7849   5.4827   5.5871   5.6783
     6.4121   7.1330   7.9211   8.9516   8.9725   9.5534

          k = 0.3333-0.5000-0.4756 ( 10552 PWs)   bands (ev):

   -45.7836 -22.5012 -22.4229 -22.4053  -6.4817  -6.3127  -6.1386  -4.9882
    -4.9644  -4.7313  -4.6217  -4.5490   3.1487   4.9539   5.1193   5.4788
     6.1587   6.5514   6.8986   9.4031   9.5290   9.6362

          k =-0.5000-0.5000 0.0000 ( 10540 PWs)   bands (ev):

   -45.7838 -22.4623 -22.4239 -22.4239  -6.5828  -6.2029  -6.2029  -5.0407
    -4.9531  -4.7954  -4.7954  -4.6932   2.3224   5.4762   6.0172   6.9322
     6.9322   7.5298   7.5298   8.2376   8.6110   9.8342

          k =-0.5000-0.5000 0.2378 ( 10512 PWs)   bands (ev):

   -45.7835 -22.4814 -22.4230 -22.4230  -6.3904  -6.2860  -6.2860  -5.0027
    -4.9513  -4.6631  -4.6596  -4.6596   2.7280   5.4324   5.5941   5.5941
     6.0235   7.0729   7.2860   8.9818   8.9818   9.8189

          k =-0.5000-0.5000-0.4756 ( 10536 PWs)   bands (ev):

   -45.7833 -22.5003 -22.4221 -22.4221  -6.3581  -6.3581  -6.1929  -4.9647
    -4.9495  -4.6232  -4.5328  -4.5328   3.3793   4.9663   4.9663   5.3140
     5.9311   6.0298   6.2362   9.6487   9.6487   9.8036

     highest occupied level (ev):    10.3338

!    total energy              =    -380.57541393 Ry
     estimated scf accuracy    <          4.6E-10 Ry

     The total energy is the sum of the following terms:
     one-electron contribution =     -84.64531659 Ry
     hartree contribution      =      71.46871639 Ry
     xc contribution           =    -102.56499547 Ry
     ewald contribution        =    -264.83381825 Ry

     convergence has been achieved in   9 iterations

     negative rho (up, down):  1.570E-02 0.000E+00

     Forces acting on atoms (cartesian axes, Ry/au):

     atom    1 type  1   force =     0.00000000    0.00000000   -0.00857590
     atom    2 type  2   force =     0.00000000    0.00000000    0.00275109
     atom    3 type  3   force =     0.00000000    0.00000000    0.00128236
     atom    4 type  3   force =     0.00000000    0.00000000    0.00227123
     atom    5 type  3   force =     0.00000000    0.00000000    0.00227123

     Total force =     0.009648     Total SCF correction =     0.000061


     Computing stress (Cartesian axis) and pressure


     negative rho (up, down):  1.570E-02 0.000E+00
          total   stress  (Ry/bohr**3)                   (kbar)     P=      -52.22
  -0.00039605   0.00000000   0.00000000          -58.26        0.00        0.00
   0.00000000  -0.00039605   0.00000000            0.00      -58.26        0.00
   0.00000000   0.00000000  -0.00027289            0.00        0.00      -40.14

     Energy error            =      3.0E-04 Ry
     Gradient error          =      8.6E-03 Ry/Bohr

     number of scf cycles    =   3
     number of bfgs steps    =   2

     energy             old  =    -380.5751141296 Ry
     energy             new  =    -380.5754139303 Ry

     CASE: energy            _new < energy            _old

     new trust radius        =       0.0189890539 bohr
     new conv_thr            =       0.0000000003 Ry


ATOMIC_POSITIONS (crystal)
Pb               0.0000000000        0.0000000000        1.0009403933
Ti               0.5000000000        0.5000000000        0.5372190066
O                0.5000000000        0.5000000000        0.1058436932
O                0.5000000000        0.0000000000        0.6116405974
O                0.0000000000        0.5000000000        0.6116405974



     Writing config-only to output data dir ./pto_130.save/ :
     XML data file
     NEW-OLD atomic charge density approx. for the potential

     negative rho (up, down):  1.579E-02 0.000E+00

     total cpu time spent up to now is      117.5 secs

     Self-consistent Calculation

     iteration #  1     ecut=   130.00 Ry     beta= 0.70
     CG style diagonalization
     ethr =  1.00E-06,  avg # of iterations =  5.6

     negative rho (up, down):  1.575E-02 0.000E+00

     total cpu time spent up to now is      121.5 secs

     total energy              =    -380.57549136 Ry
     estimated scf accuracy    <       0.00005592 Ry

     iteration #  2     ecut=   130.00 Ry     beta= 0.70
     CG style diagonalization
     ethr =  1.27E-07,  avg # of iterations =  4.8

     negative rho (up, down):  1.575E-02 0.000E+00

     total cpu time spent up to now is      124.8 secs

     total energy              =    -380.57552651 Ry
     estimated scf accuracy    <       0.00011442 Ry

     iteration #  3     ecut=   130.00 Ry     beta= 0.70
     CG style diagonalization
     ethr =  1.27E-07,  avg # of iterations =  4.4

     negative rho (up, down):  1.575E-02 0.000E+00

     total cpu time spent up to now is      127.7 secs

     total energy              =    -380.57555407 Ry
     estimated scf accuracy    <       0.00001693 Ry

     iteration #  4     ecut=   130.00 Ry     beta= 0.70
     CG style diagonalization
     ethr =  3.85E-08,  avg # of iterations =  3.7

     negative rho (up, down):  1.574E-02 0.000E+00

     total cpu time spent up to now is      130.3 secs

     total energy              =    -380.57555773 Ry
     estimated scf accuracy    <       0.00000181 Ry

     iteration #  5     ecut=   130.00 Ry     beta= 0.70
     CG style diagonalization
     ethr =  4.10E-09,  avg # of iterations =  4.5

     negative rho (up, down):  1.574E-02 0.000E+00

     total cpu time spent up to now is      133.3 secs

     total energy              =    -380.57555896 Ry
     estimated scf accuracy    <       0.00000014 Ry

     iteration #  6     ecut=   130.00 Ry     beta= 0.70
     CG style diagonalization
     ethr =  3.28E-10,  avg # of iterations =  5.2

     negative rho (up, down):  1.574E-02 0.000E+00

     total cpu time spent up to now is      136.7 secs

     total energy              =    -380.57555909 Ry
     estimated scf accuracy    <       0.00000013 Ry

     iteration #  7     ecut=   130.00 Ry     beta= 0.70
     CG style diagonalization
     ethr =  3.06E-10,  avg # of iterations =  3.9

     negative rho (up, down):  1.574E-02 0.000E+00

     total cpu time spent up to now is      139.4 secs

     total energy              =    -380.57555911 Ry
     estimated scf accuracy    <       0.00000004 Ry

     iteration #  8     ecut=   130.00 Ry     beta= 0.70
     CG style diagonalization
     ethr =  8.86E-11,  avg # of iterations =  4.2

     negative rho (up, down):  1.574E-02 0.000E+00

     total cpu time spent up to now is      142.3 secs

     total energy              =    -380.57555913 Ry
     estimated scf accuracy    <          1.9E-09 Ry

     iteration #  9     ecut=   130.00 Ry     beta= 0.70
     CG style diagonalization
     ethr =  4.28E-12,  avg # of iterations =  7.1

     negative rho (up, down):  1.574E-02 0.000E+00

     total cpu time spent up to now is      146.9 secs

     total energy              =    -380.57555913 Ry
     estimated scf accuracy    <          7.2E-10 Ry

     iteration # 10     ecut=   130.00 Ry     beta= 0.70
     CG style diagonalization
     ethr =  1.63E-12,  avg # of iterations =  4.4

     negative rho (up, down):  1.574E-02 0.000E+00

     total cpu time spent up to now is      149.9 secs

     End of self-consistent calculation

          k = 0.0000 0.0000 0.0000 ( 10517 PWs)   bands (ev):

   -45.7730 -22.4665 -22.3459 -22.3459  -7.5227  -6.4434  -6.2200  -5.0231
    -5.0231  -4.9898  -4.8837  -4.7408   4.2014   6.3000   6.3000   6.7298
     8.1086   8.1086   8.4837   8.6332   8.9383   8.9383

          k = 0.0000 0.0000 0.2378 ( 10560 PWs)   bands (ev):

   -45.7727 -22.4862 -22.3451 -22.3451  -7.3267  -6.3862  -6.1657  -5.0382
    -5.0382  -4.9886  -4.8742  -4.8101   3.4353   6.3444   6.3444   6.8405
     7.9031   7.9031   8.3987   8.7816   9.0364   9.0364

          k = 0.0000 0.0000-0.4756 ( 10516 PWs)   bands (ev):

   -45.7724 -22.5057 -22.3444 -22.3444  -7.1118  -6.3236  -6.1205  -5.0531
    -5.0531  -4.9873  -4.8849  -4.8662   2.9219   6.1904   6.3687   6.3687
     7.7741   7.7741   8.3175   9.1043   9.1043  10.0010

          k = 0.0000 0.1667 0.0000 ( 10543 PWs)   bands (ev):

   -45.7727 -22.4658 -22.3632 -22.3452  -7.3888  -6.4160  -6.1956  -5.0450
    -5.0217  -5.0025  -4.8808  -4.7311   3.7854   6.3440   6.4102   6.7105
     8.1105   8.1333   8.4646   8.5676   8.6017   8.9813

          k = 0.0000 0.1667 0.2378 ( 10546 PWs)   bands (ev):

   -45.7724 -22.4853 -22.3624 -22.3444  -7.2085  -6.3743  -6.1358  -5.0410
    -5.0373  -5.0017  -4.8782  -4.7670   3.2343   6.1301   6.4627   6.9213
     7.6049   7.8973   8.2520   8.6462   8.7071   9.3589

          k = 0.0000 0.1667-0.4756 ( 10524 PWs)   bands (ev):

   -45.7721 -22.5047 -22.3615 -22.3436  -7.0205  -6.3270  -6.0757  -5.0527
    -5.0344  -5.0009  -4.8837  -4.8015   2.8071   5.8210   6.4897   6.6002
     7.4352   7.7751   8.3269   8.6996   8.7853   9.9473

          k = 0.0000 0.3333 0.0000 ( 10543 PWs)   bands (ev):

   -45.7720 -22.4642 -22.3977 -22.3438  -7.0967  -6.3577  -6.1628  -5.0761
    -5.0277  -5.0188  -4.8625  -4.7414   3.2167   5.9854   6.6636   6.6996
     7.8312   7.8789   8.2290   8.3343   8.6785   9.5970

          k = 0.0000 0.3333 0.2378 ( 10532 PWs)   bands (ev):

   -45.7717 -22.4835 -22.3966 -22.3430  -6.9785  -6.3211  -6.0818  -5.0449
    -5.0354  -5.0277  -4.8632  -4.7129   2.8929   5.8503   6.5532   6.7757
     7.2772   7.6982   7.8548   8.3281   8.8892   9.6757

          k = 0.0000 0.3333-0.4756 ( 10540 PWs)   bands (ev):

   -45.7715 -22.5026 -22.3955 -22.3421  -6.8903  -6.2602  -5.9744  -5.0517
    -5.0280  -5.0048  -4.8989  -4.6661   2.6025   5.5204   6.3401   6.7961
     7.1676   7.3838   7.6518   8.3785   9.2437   9.5516

          k = 0.0000-0.5000 0.0000 ( 10518 PWs)   bands (ev):

   -45.7717 -22.4633 -22.4149 -22.3431  -6.9342  -6.3111  -6.1740  -5.0886
    -5.0401  -5.0174  -4.8171  -4.7886   3.0092   5.6422   6.9082   6.9708
     7.3658   7.4745   8.2531   8.2585   8.7107  10.3356

          k = 0.0000-0.5000 0.2378 ( 10552 PWs)   bands (ev):

   -45.7714 -22.4825 -22.4137 -22.3422  -6.8780  -6.2430  -6.0822  -5.0552
    -5.0407  -5.0344  -4.8279  -4.7095   2.7545   5.6021   6.5700   6.8135
     7.1638   7.2701   7.9628   8.2849   8.9011   9.8385

          k = 0.0000-0.5000-0.4756 ( 10560 PWs)   bands (ev):

   -45.7711 -22.5015 -22.4125 -22.3414  -6.8607  -6.1704  -5.9283  -5.0512
    -5.0414  -5.0140  -4.8789  -4.6116   2.5191   5.3920   6.0365   6.8734
     7.0927   7.3728   7.4090   8.3005   9.1537   9.5872

          k = 0.1667 0.1667 0.0000 ( 10547 PWs)   bands (ev):

   -45.7723 -22.4650 -22.3627 -22.3623  -7.2581  -6.3874  -6.1910  -5.0498
    -5.0362  -5.0036  -4.8562  -4.7217   3.4911   6.2984   6.5196   6.7219
     7.6444   7.8309   8.4570   8.5668   8.8798   9.1669

          k = 0.1667 0.1667 0.2378 ( 10536 PWs)   bands (ev):

   -45.7721 -22.4845 -22.3617 -22.3615  -7.0887  -6.3640  -6.1317  -5.0520
    -5.0303  -4.9967  -4.8491  -4.7357   3.1241   6.0808   6.1618   6.8558
     7.5133   7.5332   8.2754   8.7232   8.9493   9.3143

          k = 0.1667 0.1667-0.4756 ( 10532 PWs)   bands (ev):

   -45.7718 -22.5038 -22.3608 -22.3606  -6.9190  -6.3404  -6.0624  -5.0634
    -5.0128  -4.9712  -4.8577  -4.7544   2.7853   5.8719   5.8795   6.6018
     7.4148   7.4713   8.1985   8.7919   9.0025   9.6589

          k = 0.1667 0.3333 0.0000 ( 10525 PWs)   bands (ev):

   -45.7717 -22.4634 -22.3968 -22.3609  -6.9762  -6.3302  -6.1955  -5.0695
    -5.0259  -4.9876  -4.8244  -4.7302   3.0231   5.9966   6.5205   6.8326
     7.1895   7.6826   8.0607   8.6769   8.8648   9.6502

          k = 0.1667 0.3333 0.2378 ( 10536 PWs)   bands (ev):

   -45.7714 -22.4827 -22.3958 -22.3601  -6.8553  -6.3237  -6.1277  -5.0487
    -5.0252  -4.9666  -4.8078  -4.6897   2.8952   5.8168   5.9789   6.4903
     6.9106   7.5655   8.3605   8.6489   8.9861   9.4026

          k = 0.1667 0.3333-0.4756 ( 10544 PWs)   bands (ev):

   -45.7711 -22.5018 -22.3947 -22.3592  -6.7702  -6.3032  -6.0243  -5.0475
    -5.0032  -4.9284  -4.8184  -4.6408   2.7284   5.4659   5.8952   6.2280
     6.4374   7.4377   8.4309   8.7251   8.9320   9.4023

          k = 0.1667-0.5000 0.0000 ( 10512 PWs)   bands (ev):

   -45.7714 -22.4625 -22.4139 -22.3602  -6.8210  -6.2861  -6.2234  -5.0715
    -5.0183  -4.9684  -4.7879  -4.7757   2.8359   5.6594   6.6364   6.8655
     7.2047   7.4762   7.8174   8.7579   8.8201   9.9696

          k = 0.1667-0.5000 0.2378 ( 10542 PWs)   bands (ev):

   -45.7711 -22.4817 -22.4128 -22.3593  -6.7547  -6.2563  -6.1518  -5.0470
    -5.0122  -4.9495  -4.7798  -4.6854   2.7888   5.6074   5.8863   6.2535
     6.8636   7.6995   8.1632   8.6347   9.0043   9.3555

          k = 0.1667-0.5000-0.4756 ( 10548 PWs)   bands (ev):

   -45.7708 -22.5007 -22.4117 -22.3584  -6.7402  -6.2278  -6.0095  -5.0424
    -4.9742  -4.9302  -4.7932  -4.5880   2.7023   5.3540   5.7538   5.8893
     6.3068   7.5549   8.2995   8.5901   8.6621   9.5979

          k = 0.3333 0.3333 0.0000 ( 10499 PWs)   bands (ev):

   -45.7710 -22.4618 -22.3952 -22.3948  -6.7383  -6.2763  -6.2444  -5.0504
    -5.0079  -4.9139  -4.7533  -4.7315   2.6539   5.9481   6.1240   6.8986
     7.0866   7.1559   7.9190   8.4847   9.3672   9.3927

          k = 0.3333 0.3333 0.2378 ( 10531 PWs)   bands (ev):

   -45.7708 -22.4809 -22.3942 -22.3940  -6.6107  -6.3221  -6.2104  -5.0141
    -5.0028  -4.8631  -4.7064  -4.6565   2.8333   5.5737   5.6492   5.9424
     6.6285   7.0629   8.3820   8.9516   8.9621   9.3803

          k = 0.3333 0.3333-0.4756 ( 10512 PWs)   bands (ev):

   -45.7705 -22.4999 -22.3932 -22.3931  -6.5459  -6.3646  -6.1027  -4.9975
    -4.9783  -4.8088  -4.6581  -4.5842   2.9957   5.1923   5.2079   5.7022
     6.3571   6.5577   7.6718   9.2834   9.3582   9.4728

          k = 0.3333-0.5000 0.0000 ( 10498 PWs)   bands (ev):

   -45.7707 -22.4609 -22.4120 -22.3941  -6.6306  -6.2600  -6.2417  -5.0429
    -4.9862  -4.8459  -4.7686  -4.7201   2.4815   5.6308   6.1612   6.7157
     7.2067   7.4166   7.5016   8.4791   9.0933   9.5616

          k = 0.3333-0.5000 0.2378 ( 10512 PWs)   bands (ev):

   -45.7705 -22.4800 -22.4110 -22.3932  -6.5052  -6.2864  -6.2641  -5.0064
    -4.9771  -4.7802  -4.6899  -4.6382   2.7698   5.4776   5.5816   5.6752
     6.4125   7.1315   7.9360   8.9415   8.9582   9.5383

          k = 0.3333-0.5000-0.4756 ( 10552 PWs)   bands (ev):

   -45.7702 -22.4989 -22.4100 -22.3923  -6.4958  -6.3279  -6.1365  -4.9815
    -4.9574  -4.7318  -4.6114  -4.5390   3.1312   4.9447   5.1133   5.4780
     6.1581   6.5519   6.9253   9.3883   9.5135   9.6229

          k =-0.5000-0.5000 0.0000 ( 10540 PWs)   bands (ev):

   -45.7704 -22.4600 -22.4110 -22.4110  -6.5818  -6.2226  -6.2226  -5.0332
    -4.9463  -4.7790  -4.7790  -4.6932   2.3046   5.4710   6.0216   6.9253
     6.9253   7.5227   7.5227   8.2371   8.6249   9.8191

          k =-0.5000-0.5000 0.2378 ( 10512 PWs)   bands (ev):

   -45.7701 -22.4790 -22.4101 -22.4101  -6.3884  -6.3026  -6.3026  -4.9953
    -4.9445  -4.6645  -4.6468  -4.6468   2.7049   5.4284   5.5916   5.5916
     6.0279   7.0713   7.3085   8.9702   8.9702   9.8038

          k =-0.5000-0.5000-0.4756 ( 10536 PWs)   bands (ev):

   -45.7699 -22.4980 -22.4092 -22.4092  -6.3725  -6.3725  -6.1895  -4.9574
    -4.9427  -4.6264  -4.5227  -4.5227   3.3395   4.9657   4.9657   5.3133
     5.9720   6.0342   6.2316   9.6361   9.6361   9.7886

     highest occupied level (ev):    10.3356

!    total energy              =    -380.57555913 Ry
     estimated scf accuracy    <          8.7E-11 Ry

     The total energy is the sum of the following terms:
     one-electron contribution =     -84.96129229 Ry
     hartree contribution      =      71.63016818 Ry
     xc contribution           =    -102.57339317 Ry
     ewald contribution        =    -264.67104186 Ry

     convergence has been achieved in  10 iterations

     negative rho (up, down):  1.574E-02 0.000E+00

     Forces acting on atoms (cartesian axes, Ry/au):

     atom    1 type  1   force =     0.00000000    0.00000000   -0.00717987
     atom    2 type  2   force =     0.00000000    0.00000000    0.00541695
     atom    3 type  3   force =     0.00000000    0.00000000   -0.00359682
     atom    4 type  3   force =     0.00000000    0.00000000    0.00267987
     atom    5 type  3   force =     0.00000000    0.00000000    0.00267987

     Total force =     0.010402     Total SCF correction =     0.000024


     Computing stress (Cartesian axis) and pressure


     negative rho (up, down):  1.574E-02 0.000E+00
          total   stress  (Ry/bohr**3)                   (kbar)     P=      -47.86
  -0.00037963   0.00000000   0.00000000          -55.85        0.00        0.00
   0.00000000  -0.00037963   0.00000000            0.00      -55.85        0.00
   0.00000000   0.00000000  -0.00021670            0.00        0.00      -31.88

     Energy error            =      1.5E-04 Ry
     Gradient error          =      7.2E-03 Ry/Bohr

     number of scf cycles    =   4
     number of bfgs steps    =   3

     energy             old  =    -380.5754139303 Ry
     energy             new  =    -380.5755591348 Ry

     CASE: energy            _new < energy            _old

     new trust radius        =       0.0208879592 bohr
     new conv_thr            =       0.0000000001 Ry


ATOMIC_POSITIONS (crystal)
Pb               0.0000000000        0.0000000000        0.9982444343
Ti               0.5000000000        0.5000000000        0.5374956858
O                0.5000000000        0.5000000000        0.1069097927
O                0.5000000000        0.0000000000        0.6123171876
O                0.0000000000        0.5000000000        0.6123171876



     Writing config-only to output data dir ./pto_130.save/ :
     XML data file
     NEW-OLD atomic charge density approx. for the potential

     negative rho (up, down):  1.578E-02 0.000E+00

     total cpu time spent up to now is      154.6 secs

     Self-consistent Calculation

     iteration #  1     ecut=   130.00 Ry     beta= 0.70
     CG style diagonalization
     ethr =  1.00E-06,  avg # of iterations =  5.5

     Threshold (ethr) on eigenvalues was too large:
     Diagonalizing with lowered threshold

     CG style diagonalization
     c_bands:  1 eigenvalues not converged
     c_bands:  2 eigenvalues not converged
     c_bands:  1 eigenvalues not converged
     c_bands:  1 eigenvalues not converged
     c_bands:  1 eigenvalues not converged
     c_bands:  1 eigenvalues not converged
     c_bands:  2 eigenvalues not converged
     c_bands:  1 eigenvalues not converged
     c_bands:  1 eigenvalues not converged
     ethr =  4.32E-08,  avg # of iterations =  6.1

     negative rho (up, down):  1.575E-02 0.000E+00

     total cpu time spent up to now is      162.6 secs

     total energy              =    -380.57565140 Ry
     estimated scf accuracy    <       0.00002057 Ry

     iteration #  2     ecut=   130.00 Ry     beta= 0.70
     CG style diagonalization
     ethr =  4.67E-08,  avg # of iterations =  4.3

     negative rho (up, down):  1.574E-02 0.000E+00

     total cpu time spent up to now is      165.5 secs

     total energy              =    -380.57568026 Ry
     estimated scf accuracy    <       0.00001380 Ry

     iteration #  3     ecut=   130.00 Ry     beta= 0.70
     CG style diagonalization
     ethr =  3.14E-08,  avg # of iterations =  4.3

     negative rho (up, down):  1.573E-02 0.000E+00

     total cpu time spent up to now is      168.4 secs

     total energy              =    -380.57568648 Ry
     estimated scf accuracy    <       0.00001015 Ry

     iteration #  4     ecut=   130.00 Ry     beta= 0.70
     CG style diagonalization
     ethr =  2.31E-08,  avg # of iterations =  3.5

     negative rho (up, down):  1.573E-02 0.000E+00

     total cpu time spent up to now is      170.8 secs

     total energy              =    -380.57568824 Ry
     estimated scf accuracy    <       0.00000013 Ry

     iteration #  5     ecut=   130.00 Ry     beta= 0.70
     CG style diagonalization
     ethr =  3.00E-10,  avg # of iterations =  5.8

     negative rho (up, down):  1.573E-02 0.000E+00

     total cpu time spent up to now is      174.6 secs

     total energy              =    -380.57568853 Ry
     estimated scf accuracy    <       0.00000021 Ry

     iteration #  6     ecut=   130.00 Ry     beta= 0.70
     CG style diagonalization
     ethr =  3.00E-10,  avg # of iterations =  3.9

     negative rho (up, down):  1.573E-02 0.000E+00

     total cpu time spent up to now is      177.3 secs

     total energy              =    -380.57568856 Ry
     estimated scf accuracy    <       0.00000002 Ry

     iteration #  7     ecut=   130.00 Ry     beta= 0.70
     CG style diagonalization
     ethr =  5.66E-11,  avg # of iterations =  4.4

     negative rho (up, down):  1.573E-02 0.000E+00

     total cpu time spent up to now is      180.3 secs

     total energy              =    -380.57568857 Ry
     estimated scf accuracy    <          6.7E-09 Ry

     iteration #  8     ecut=   130.00 Ry     beta= 0.70
     CG style diagonalization
     ethr =  1.53E-11,  avg # of iterations =  4.8

     negative rho (up, down):  1.573E-02 0.000E+00

     total cpu time spent up to now is      183.5 secs

     total energy              =    -380.57568858 Ry
     estimated scf accuracy    <          6.1E-10 Ry

     iteration #  9     ecut=   130.00 Ry     beta= 0.70
     CG style diagonalization
     ethr =  1.38E-12,  avg # of iterations =  6.6

     negative rho (up, down):  1.573E-02 0.000E+00

     total cpu time spent up to now is      187.8 secs

     End of self-consistent calculation

          k = 0.0000 0.0000 0.0000 ( 10517 PWs)   bands (ev):

   -45.7719 -22.4685 -22.3458 -22.3458  -7.5378  -6.4650  -6.2166  -5.0142
    -5.0142  -4.9787  -4.8801  -4.7228   4.2015   6.2860   6.2860   6.7601
     8.1005   8.1005   8.4742   8.6209   8.9195   8.9195

          k = 0.0000 0.0000 0.2378 ( 10560 PWs)   bands (ev):

   -45.7717 -22.4882 -22.3450 -22.3450  -7.3447  -6.4095  -6.1606  -5.0293
    -5.0293  -4.9774  -4.8692  -4.7904   3.4407   6.3285   6.3285   6.8559
     7.8979   7.8979   8.3893   8.7785   9.0167   9.0167

          k = 0.0000 0.0000-0.4756 ( 10516 PWs)   bands (ev):

   -45.7714 -22.5077 -22.3442 -22.3442  -7.1343  -6.3490  -6.1125  -5.0442
    -5.0442  -4.9762  -4.8629  -4.8594   2.9279   6.2009   6.3508   6.3508
     7.7717   7.7717   8.3082   9.0832   9.0832   9.9971

          k = 0.0000 0.1667 0.0000 ( 10543 PWs)   bands (ev):

   -45.7716 -22.4678 -22.3632 -22.3451  -7.4038  -6.4381  -6.1943  -5.0361
    -5.0128  -4.9913  -4.8744  -4.7128   3.7867   6.3329   6.3957   6.7204
     8.1118   8.1250   8.4524   8.5500   8.5880   8.9730

          k = 0.0000 0.1667 0.2378 ( 10546 PWs)   bands (ev):

   -45.7713 -22.4873 -22.3623 -22.3443  -7.2265  -6.3974  -6.1324  -5.0310
    -5.0283  -4.9906  -4.8714  -4.7481   3.2398   6.1176   6.4465   6.9264
     7.5997   7.8905   8.2389   8.6368   8.6898   9.3555

          k = 0.0000 0.1667-0.4756 ( 10524 PWs)   bands (ev):

   -45.7711 -22.5067 -22.3614 -22.3435  -7.0427  -6.3514  -6.0692  -5.0437
    -5.0234  -4.9898  -4.8753  -4.7825   2.8140   5.8136   6.4718   6.5984
     7.4311   7.7706   8.3042   8.6909   8.7670   9.9507

          k = 0.0000 0.3333 0.0000 ( 10543 PWs)   bands (ev):

   -45.7710 -22.4662 -22.3976 -22.3437  -7.1118  -6.3803  -6.1662  -5.0661
    -5.0165  -5.0098  -4.8503  -4.7234   3.2194   5.9733   6.6623   6.6835
     7.8197   7.8681   8.2144   8.3214   8.6661   9.6076

          k = 0.0000 0.3333 0.2378 ( 10532 PWs)   bands (ev):

   -45.7707 -22.4855 -22.3966 -22.3428  -6.9968  -6.3436  -6.0820  -5.0341
    -5.0265  -5.0165  -4.8521  -4.6948   2.8991   5.8369   6.5490   6.7589
     7.2609   7.6857   7.8514   8.3162   8.8785   9.6831

          k = 0.0000 0.3333-0.4756 ( 10540 PWs)   bands (ev):

   -45.7704 -22.5046 -22.3955 -22.3420  -6.9111  -6.2847  -5.9707  -5.0428
    -5.0168  -4.9930  -4.8866  -4.6499   2.6110   5.5085   6.3362   6.7792
     7.1467   7.3767   7.6384   8.3670   9.2406   9.5583

          k = 0.0000-0.5000 0.0000 ( 10518 PWs)   bands (ev):

   -45.7706 -22.4653 -22.4148 -22.3429  -6.9497  -6.3332  -6.1804  -5.0777
    -5.0289  -5.0085  -4.7963  -4.7766   3.0126   5.6311   6.9007   6.9509
     7.3564   7.4665   8.2390   8.2439   8.6975  10.3438

          k = 0.0000-0.5000 0.2378 ( 10552 PWs)   bands (ev):

   -45.7704 -22.4845 -22.4137 -22.3421  -6.8968  -6.2671  -6.0825  -5.0438
    -5.0295  -5.0254  -4.8147  -4.6919   2.7614   5.5901   6.5628   6.7948
     7.1422   7.2601   7.9571   8.2741   8.8910   9.8502

          k = 0.0000-0.5000-0.4756 ( 10560 PWs)   bands (ev):

   -45.7701 -22.5035 -22.4125 -22.3413  -6.8805  -6.1968  -5.9252  -5.0423
    -5.0302  -5.0022  -4.8639  -4.5965   2.5287   5.3798   6.0294   6.8442
     7.0820   7.3490   7.4084   8.2919   9.1714   9.5779

          k = 0.1667 0.1667 0.0000 ( 10547 PWs)   bands (ev):

   -45.7713 -22.4670 -22.3626 -22.3622  -7.2727  -6.4101  -6.1913  -5.0406
    -5.0269  -4.9927  -4.8480  -4.7032   3.4903   6.2866   6.5097   6.7241
     7.6387   7.8169   8.4537   8.5580   8.8609   9.1647

          k = 0.1667 0.1667 0.2378 ( 10536 PWs)   bands (ev):

   -45.7710 -22.4865 -22.3616 -22.3614  -7.1066  -6.3872  -6.1292  -5.0423
    -5.0199  -4.9863  -4.8411  -4.7171   3.1277   6.0698   6.1492   6.8546
     7.5094   7.5198   8.2681   8.7097   8.9323   9.3173

          k = 0.1667 0.1667-0.4756 ( 10532 PWs)   bands (ev):

   -45.7708 -22.5058 -22.3607 -22.3605  -6.9412  -6.3641  -6.0560  -5.0535
    -5.0018  -4.9615  -4.8493  -4.7355   2.7911   5.8617   5.8728   6.5930
     7.3941   7.4679   8.1953   8.7768   8.9855   9.6654

          k = 0.1667 0.3333 0.0000 ( 10525 PWs)   bands (ev):

   -45.7706 -22.4654 -22.3967 -22.3608  -6.9900  -6.3536  -6.2000  -5.0592
    -5.0163  -4.9767  -4.8123  -4.7118   3.0200   5.9848   6.5114   6.8284
     7.1757   7.6794   8.0526   8.6669   8.8478   9.6561

          k = 0.1667 0.3333 0.2378 ( 10536 PWs)   bands (ev):

   -45.7704 -22.4847 -22.3957 -22.3600  -6.8732  -6.3462  -6.1275  -5.0384
    -5.0150  -4.9566  -4.7967  -4.6720   2.8960   5.8050   5.9659   6.4830
     6.9048   7.5613   8.3473   8.6361   8.9737   9.4097

          k = 0.1667 0.3333-0.4756 ( 10544 PWs)   bands (ev):

   -45.7701 -22.5037 -22.3947 -22.3591  -6.7912  -6.3264  -6.0189  -5.0377
    -4.9927  -4.9193  -4.8064  -4.6249   2.7326   5.4559   5.8776   6.2251
     6.4254   7.4305   8.4266   8.7048   8.9412   9.3948

          k = 0.1667-0.5000 0.0000 ( 10512 PWs)   bands (ev):

   -45.7703 -22.4645 -22.4139 -22.3601  -6.8343  -6.3092  -6.2308  -5.0609
    -5.0086  -4.9578  -4.7685  -4.7621   2.8321   5.6486   6.6261   6.8533
     7.1963   7.4700   7.8128   8.7406   8.8088   9.9781

          k = 0.1667-0.5000 0.2378 ( 10542 PWs)   bands (ev):

   -45.7701 -22.4837 -22.4128 -22.3592  -6.7730  -6.2800  -6.1508  -5.0366
    -5.0021  -4.9402  -4.7660  -4.6685   2.7887   5.5960   5.8709   6.2460
     6.8587   7.6948   8.1487   8.6237   8.9913   9.3672

          k = 0.1667-0.5000-0.4756 ( 10548 PWs)   bands (ev):

   -45.7698 -22.5027 -22.4117 -22.3583  -6.7602  -6.2519  -6.0039  -5.0327
    -4.9639  -4.9218  -4.7788  -4.5735   2.7063   5.3431   5.7281   5.8828
     6.3048   7.5469   8.3073   8.5829   8.6531   9.5888

          k = 0.3333 0.3333 0.0000 ( 10499 PWs)   bands (ev):

   -45.7700 -22.4638 -22.3951 -22.3948  -6.7463  -6.3015  -6.2548  -5.0399
    -4.9972  -4.9015  -4.7420  -4.7123   2.6412   5.9356   6.1153   6.8952
     7.0796   7.1599   7.9075   8.4825   9.3456   9.4023

          k = 0.3333 0.3333 0.2378 ( 10531 PWs)   bands (ev):

   -45.7697 -22.4829 -22.3941 -22.3939  -6.6262  -6.3450  -6.2108  -5.0034
    -4.9926  -4.8538  -4.6952  -4.6395   2.8211   5.5652   5.6453   5.9314
     6.6259   7.0631   8.3899   8.9415   8.9597   9.3594

          k = 0.3333 0.3333-0.4756 ( 10512 PWs)   bands (ev):

   -45.7695 -22.5019 -22.3932 -22.3930  -6.5669  -6.3857  -6.0950  -4.9875
    -4.9678  -4.8021  -4.6472  -4.5693   2.9861   5.1891   5.1910   5.6960
     6.3548   6.5534   7.6958   9.2746   9.3359   9.4639

          k = 0.3333-0.5000 0.0000 ( 10498 PWs)   bands (ev):

   -45.7697 -22.4629 -22.4120 -22.3941  -6.6321  -6.2779  -6.2670  -5.0323
    -4.9754  -4.8319  -4.7513  -4.7074   2.4648   5.6196   6.1523   6.7176
     7.2118   7.4054   7.4917   8.4764   9.1057   9.5402

          k = 0.3333-0.5000 0.2378 ( 10512 PWs)   bands (ev):

   -45.7694 -22.4820 -22.4110 -22.3932  -6.5188  -6.3094  -6.2657  -4.9958
    -4.9666  -4.7725  -4.6750  -4.6239   2.7509   5.4750   5.5717   5.6714
     6.4075   7.1320   7.9538   8.9358   8.9491   9.5165

          k = 0.3333-0.5000-0.4756 ( 10552 PWs)   bands (ev):

   -45.7691 -22.5009 -22.4100 -22.3923  -6.5159  -6.3490  -6.1279  -4.9711
    -4.9469  -4.7268  -4.5987  -4.5262   3.1101   4.9345   5.1119   5.4710
     6.1534   6.5475   6.9593   9.3803   9.4904   9.6154

          k =-0.5000-0.5000 0.0000 ( 10540 PWs)   bands (ev):

   -45.7694 -22.4620 -22.4110 -22.4110  -6.5744  -6.2490  -6.2490  -5.0227
    -4.9356  -4.7592  -4.7592  -4.6878   2.2823   5.4595   6.0148   6.9338
     6.9338   7.5087   7.5087   8.2396   8.6379   9.7961

          k =-0.5000-0.5000 0.2378 ( 10512 PWs)   bands (ev):

   -45.7691 -22.4810 -22.4101 -22.4101  -6.3800  -6.3253  -6.3253  -4.9848
    -4.9337  -4.6601  -4.6311  -4.6311   2.6759   5.4179   5.5943   5.5943
     6.0211   7.0716   7.3335   8.9630   8.9630   9.7810

          k =-0.5000-0.5000-0.4756 ( 10536 PWs)   bands (ev):

   -45.7688 -22.5000 -22.4092 -22.4092  -6.3926  -6.3926  -6.1799  -4.9468
    -4.9319  -4.6233  -4.5104  -4.5104   3.2909   4.9696   4.9696   5.3059
     6.0194   6.0274   6.2282   9.6295   9.6295   9.7660

     highest occupied level (ev):    10.3438

!    total energy              =    -380.57568858 Ry
     estimated scf accuracy    <          1.1E-10 Ry

     The total energy is the sum of the following terms:
     one-electron contribution =     -85.26509559 Ry
     hartree contribution      =      71.78222484 Ry
     xc contribution           =    -102.57959241 Ry
     ewald contribution        =    -264.51322542 Ry

     convergence has been achieved in   9 iterations

     negative rho (up, down):  1.573E-02 0.000E+00

     Forces acting on atoms (cartesian axes, Ry/au):

     atom    1 type  1   force =     0.00000000    0.00000000   -0.00492542
     atom    2 type  2   force =     0.00000000    0.00000000    0.00488553
     atom    3 type  3   force =     0.00000000    0.00000000   -0.00511537
     atom    4 type  3   force =     0.00000000    0.00000000    0.00257763
     atom    5 type  3   force =     0.00000000    0.00000000    0.00257763

     Total force =     0.009359     Total SCF correction =     0.000021


     Computing stress (Cartesian axis) and pressure


     negative rho (up, down):  1.573E-02 0.000E+00
          total   stress  (Ry/bohr**3)                   (kbar)     P=      -44.78
  -0.00036349   0.00000000   0.00000000          -53.47        0.00        0.00
   0.00000000  -0.00036349   0.00000000            0.00      -53.47        0.00
   0.00000000   0.00000000  -0.00018634            0.00        0.00      -27.41

     Energy error            =      1.3E-04 Ry
     Gradient error          =      5.1E-03 Ry/Bohr

     number of scf cycles    =   5
     number of bfgs steps    =   4

     energy             old  =    -380.5755591348 Ry
     energy             new  =    -380.5756885811 Ry

     CASE: energy            _new < energy            _old

     new trust radius        =       0.0313319389 bohr
     new conv_thr            =       0.0000000001 Ry


ATOMIC_POSITIONS (crystal)
Pb               0.0000000000        0.0000000000        0.9942004957
Ti               0.5000000000        0.5000000000        0.5382770748
O                0.5000000000        0.5000000000        0.1077117225
O                0.5000000000        0.0000000000        0.6135474975
O                0.0000000000        0.5000000000        0.6135474975



     Writing config-only to output data dir ./pto_130.save/ :
     XML data file
     NEW-OLD atomic charge density approx. for the potential

     negative rho (up, down):  1.587E-02 0.000E+00

     total cpu time spent up to now is      192.5 secs

     Self-consistent Calculation

     iteration #  1     ecut=   130.00 Ry     beta= 0.70
     CG style diagonalization
     c_bands:  1 eigenvalues not converged
     c_bands:  1 eigenvalues not converged
     c_bands:  1 eigenvalues not converged
     ethr =  1.00E-06,  avg # of iterations =  6.9

     negative rho (up, down):  1.583E-02 0.000E+00

     total cpu time spent up to now is      197.2 secs

     total energy              =    -380.57570464 Ry
     estimated scf accuracy    <       0.00004504 Ry

     iteration #  2     ecut=   130.00 Ry     beta= 0.70
     CG style diagonalization
     ethr =  1.02E-07,  avg # of iterations =  4.6

     negative rho (up, down):  1.581E-02 0.000E+00

     total cpu time spent up to now is      200.3 secs

     total energy              =    -380.57579024 Ry
     estimated scf accuracy    <       0.00003247 Ry

     iteration #  3     ecut=   130.00 Ry     beta= 0.70
     CG style diagonalization
     ethr =  7.38E-08,  avg # of iterations =  4.3

     negative rho (up, down):  1.580E-02 0.000E+00

     total cpu time spent up to now is      203.2 secs

     total energy              =    -380.57580569 Ry
     estimated scf accuracy    <       0.00001824 Ry

     iteration #  4     ecut=   130.00 Ry     beta= 0.70
     CG style diagonalization
     ethr =  4.15E-08,  avg # of iterations =  3.6

     negative rho (up, down):  1.580E-02 0.000E+00

     total cpu time spent up to now is      205.7 secs

     total energy              =    -380.57580968 Ry
     estimated scf accuracy    <       0.00000104 Ry

     iteration #  5     ecut=   130.00 Ry     beta= 0.70
     CG style diagonalization
     ethr =  2.37E-09,  avg # of iterations =  4.8

     negative rho (up, down):  1.580E-02 0.000E+00

     total cpu time spent up to now is      208.9 secs

     total energy              =    -380.57581061 Ry
     estimated scf accuracy    <       0.00000028 Ry

     iteration #  6     ecut=   130.00 Ry     beta= 0.70
     CG style diagonalization
     ethr =  6.36E-10,  avg # of iterations =  4.6

     negative rho (up, down):  1.580E-02 0.000E+00

     total cpu time spent up to now is      212.0 secs

     total energy              =    -380.57581077 Ry
     estimated scf accuracy    <       0.00000006 Ry

     iteration #  7     ecut=   130.00 Ry     beta= 0.70
     CG style diagonalization
     ethr =  1.28E-10,  avg # of iterations =  5.1

     negative rho (up, down):  1.580E-02 0.000E+00

     total cpu time spent up to now is      215.4 secs

     total energy              =    -380.57581082 Ry
     estimated scf accuracy    <          9.0E-09 Ry

     iteration #  8     ecut=   130.00 Ry     beta= 0.70
     CG style diagonalization
     ethr =  2.05E-11,  avg # of iterations =  5.8

     negative rho (up, down):  1.580E-02 0.000E+00

     total cpu time spent up to now is      219.2 secs

     total energy              =    -380.57581084 Ry
     estimated scf accuracy    <          1.6E-09 Ry

     iteration #  9     ecut=   130.00 Ry     beta= 0.70
     CG style diagonalization
     ethr =  3.64E-12,  avg # of iterations =  5.7

     negative rho (up, down):  1.580E-02 0.000E+00

     total cpu time spent up to now is      223.0 secs

     End of self-consistent calculation

          k = 0.0000 0.0000 0.0000 ( 10517 PWs)   bands (ev):

   -45.7826 -22.4756 -22.3582 -22.3582  -7.5647  -6.5029  -6.2078  -4.9984
    -4.9984  -4.9585  -4.8713  -4.6926   4.2057   6.2603   6.2603   6.8001
     8.1079   8.1079   8.4571   8.6185   8.8849   8.8849

          k = 0.0000 0.0000 0.2378 ( 10560 PWs)   bands (ev):

   -45.7823 -22.4953 -22.3574 -22.3574  -7.3773  -6.4501  -6.1484  -5.0135
    -5.0135  -4.9572  -4.8580  -4.7574   3.4550   6.3022   6.3022   6.8759
     7.9033   7.9033   8.3724   8.7796   8.9818   8.9818

          k = 0.0000 0.0000-0.4756 ( 10516 PWs)   bands (ev):

   -45.7820 -22.5147 -22.3566 -22.3566  -7.1750  -6.3930  -6.0945  -5.0284
    -5.0284  -4.9559  -4.8454  -4.8264   2.9456   6.2137   6.3245   6.3245
     7.7762   7.7762   8.2915   9.0464   9.0464   9.9901

          k = 0.0000 0.1667 0.0000 ( 10543 PWs)   bands (ev):

   -45.7822 -22.4749 -22.3756 -22.3575  -7.4306  -6.4767  -6.1883  -5.0200
    -4.9970  -4.9711  -4.8618  -4.6823   3.7906   6.3125   6.3689   6.7342
     8.1240   8.1324   8.4321   8.5171   8.5734   8.9661

          k = 0.0000 0.1667 0.2378 ( 10546 PWs)   bands (ev):

   -45.7820 -22.4944 -22.3747 -22.3567  -7.2591  -6.4376  -6.1225  -5.0134
    -5.0125  -4.9703  -4.8579  -4.7166   3.2525   6.0979   6.4194   6.9313
     7.5986   7.8925   8.2180   8.6249   8.6601   9.3517

          k = 0.0000 0.1667-0.4756 ( 10524 PWs)   bands (ev):

   -45.7817 -22.5137 -22.3738 -22.3559  -7.0828  -6.3939  -6.0534  -5.0279
    -5.0044  -4.9696  -4.8594  -4.7506   2.8308   5.8037   6.4453   6.5917
     7.4293   7.7712   8.2647   8.6810   8.7352   9.9553

          k = 0.0000 0.3333 0.0000 ( 10543 PWs)   bands (ev):

   -45.7816 -22.4733 -22.4101 -22.3560  -7.1387  -6.4194  -6.1671  -5.0481
    -4.9964  -4.9939  -4.8297  -4.6931   3.2240   5.9510   6.6536   6.6632
     7.8032   7.8471   8.2121   8.2978   8.6572   9.6292

          k = 0.0000 0.3333 0.2378 ( 10532 PWs)   bands (ev):

   -45.7813 -22.4925 -22.4090 -22.3552  -7.0297  -6.3829  -6.0770  -5.0150
    -5.0106  -4.9963  -4.8325  -4.6649   2.9105   5.8151   6.5427   6.7301
     7.2371   7.6695   7.8456   8.3053   8.8659   9.6977

          k = 0.0000 0.3333-0.4756 ( 10540 PWs)   bands (ev):

   -45.7810 -22.5116 -22.4080 -22.3544  -6.9483  -6.3273  -5.9590  -5.0269
    -4.9966  -4.9726  -4.8649  -4.6229   2.6272   5.4932   6.3278   6.7542
     7.1122   7.3633   7.6195   8.3520   9.2452   9.5679

          k = 0.0000-0.5000 0.0000 ( 10518 PWs)   bands (ev):

   -45.7812 -22.4724 -22.4273 -22.3553  -6.9777  -6.3719  -6.1848  -5.0586
    -5.0086  -4.9926  -4.7624  -4.7557   3.0181   5.6088   6.8983   6.9149
     7.3369   7.4492   8.2139   8.2430   8.6874  10.3620

          k = 0.0000-0.5000 0.2378 ( 10552 PWs)   bands (ev):

   -45.7810 -22.4915 -22.4261 -22.3545  -6.9303  -6.3088  -6.0768  -5.0240
    -5.0096  -5.0093  -4.7918  -4.6629   2.7731   5.5678   6.5530   6.7687
     7.1032   7.2465   7.9474   8.2698   8.8775   9.8744

          k = 0.0000-0.5000-0.4756 ( 10560 PWs)   bands (ev):

   -45.7807 -22.5105 -22.4250 -22.3536  -6.9158  -6.2421  -5.9140  -5.0264
    -5.0100  -4.9819  -4.8382  -4.5716   2.5454   5.3622   6.0181   6.7987
     7.0705   7.3063   7.4018   8.2858   9.2057   9.5683

          k = 0.1667 0.1667 0.0000 ( 10547 PWs)   bands (ev):

   -45.7819 -22.4741 -22.3750 -22.3746  -7.2990  -6.4496  -6.1878  -5.0239
    -5.0103  -4.9732  -4.8325  -4.6723   3.4898   6.2631   6.4914   6.7290
     7.6451   7.7946   8.4590   8.5422   8.8279   9.1745

          k = 0.1667 0.1667 0.2378 ( 10536 PWs)   bands (ev):

   -45.7816 -22.4935 -22.3740 -22.3738  -7.1390  -6.4276  -6.1203  -5.0250
    -5.0015  -4.9675  -4.8260  -4.6862   3.1362   6.0520   6.1292   6.8516
     7.4982   7.5091   8.2682   8.6867   8.9055   9.3246

          k = 0.1667 0.1667-0.4756 ( 10532 PWs)   bands (ev):

   -45.7814 -22.5128 -22.3731 -22.3730  -6.9810  -6.4053  -6.0405  -5.0360
    -4.9820  -4.9443  -4.8332  -4.7041   2.8051   5.8480   5.8626   6.5757
     7.3617   7.4636   8.1995   8.7507   8.9599   9.6752

          k = 0.1667 0.3333 0.0000 ( 10525 PWs)   bands (ev):

   -45.7812 -22.4725 -22.4092 -22.3732  -7.0147  -6.3939  -6.2029  -5.0409
    -4.9992  -4.9569  -4.7914  -4.6810   3.0146   5.9623   6.4969   6.8210
     7.1534   7.6914   8.0382   8.6540   8.8226   9.6730

          k = 0.1667 0.3333 0.2378 ( 10536 PWs)   bands (ev):

   -45.7810 -22.4917 -22.4082 -22.3724  -6.9053  -6.3855  -6.1218  -5.0202
    -4.9969  -4.9382  -4.7769  -4.6427   2.8979   5.7861   5.9462   6.4689
     6.8974   7.5571   8.3312   8.6188   8.9572   9.4242

          k = 0.1667 0.3333-0.4756 ( 10544 PWs)   bands (ev):

   -45.7807 -22.5108 -22.4072 -22.3715  -6.8286  -6.3667  -6.0048  -5.0202
    -4.9738  -4.9022  -4.7854  -4.5983   2.7415   5.4438   5.8484   6.2191
     6.4049   7.4175   8.4294   8.6695   8.9593   9.3867

          k = 0.1667-0.5000 0.0000 ( 10512 PWs)   bands (ev):

   -45.7809 -22.4716 -22.4264 -22.3724  -6.8585  -6.3494  -6.2374  -5.0422
    -4.9914  -4.9384  -4.7388  -4.7365   2.8253   5.6268   6.6168   6.8279
     7.1812   7.4573   7.8261   8.7111   8.7973   9.9953

          k = 0.1667-0.5000 0.2378 ( 10542 PWs)   bands (ev):

   -45.7807 -22.4907 -22.4253 -22.3716  -6.8056  -6.3210  -6.1438  -5.0183
    -4.9842  -4.9223  -4.7427  -4.6406   2.7885   5.5749   5.8476   6.2352
     6.8509   7.6910   8.1254   8.6140   8.9709   9.3913

          k = 0.1667-0.5000-0.4756 ( 10548 PWs)   bands (ev):

   -45.7804 -22.5097 -22.4241 -22.3707  -6.7956  -6.2936  -5.9898  -5.0153
    -4.9458  -4.9049  -4.7546  -4.5494   2.7133   5.3289   5.6866   5.8707
     6.3013   7.5317   8.3167   8.5798   8.6430   9.5806

          k = 0.3333 0.3333 0.0000 ( 10499 PWs)   bands (ev):

   -45.7806 -22.4709 -22.4075 -22.4072  -6.7613  -6.3445  -6.2676  -5.0215
    -4.9784  -4.8800  -4.7210  -4.6809   2.6197   5.9132   6.0945   6.8960
     7.0690   7.1823   7.8828   8.4842   9.3086   9.4221

          k = 0.3333 0.3333 0.2378 ( 10531 PWs)   bands (ev):

   -45.7803 -22.4900 -22.4066 -22.4064  -6.6546  -6.3846  -6.2063  -4.9848
    -4.9742  -4.8363  -4.6749  -4.6116   2.8008   5.5543   5.6397   5.9106
     6.6200   7.0652   8.4064   8.9282   8.9629   9.3245

          k = 0.3333 0.3333-0.4756 ( 10512 PWs)   bands (ev):

   -45.7801 -22.5089 -22.4056 -22.4055  -6.6039  -6.4223  -6.0782  -4.9695
    -4.9492  -4.7878  -4.6280  -4.5446   2.9707   5.1606   5.1919   5.6829
     6.3516   6.5414   7.7381   9.2681   9.2962   9.4562

          k = 0.3333-0.5000 0.0000 ( 10498 PWs)   bands (ev):

   -45.7803 -22.4700 -22.4244 -22.4065  -6.6354  -6.3101  -6.3036  -5.0138
    -4.9561  -4.8086  -4.7228  -4.6835   2.4367   5.5980   6.1312   6.7303
     7.2343   7.3851   7.4737   8.4749   9.1265   9.5030

          k = 0.3333-0.5000 0.2378 ( 10512 PWs)   bands (ev):

   -45.7800 -22.4890 -22.4235 -22.4056  -6.5451  -6.3490  -6.2621  -4.9772
    -4.9479  -4.7568  -4.6503  -4.5994   2.7192   5.4742   5.5531   5.6655
     6.3965   7.1354   7.9832   8.9320   8.9411   9.4789

          k = 0.3333-0.5000-0.4756 ( 10552 PWs)   bands (ev):

   -45.7797 -22.5079 -22.4225 -22.4047  -6.5511  -6.3857  -6.1101  -4.9527
    -4.9284  -4.7142  -4.5775  -4.5047   3.0749   4.9206   5.1141   5.4546
     6.1442   6.5385   7.0155   9.3748   9.4500   9.6099

          k =-0.5000-0.5000 0.0000 ( 10540 PWs)   bands (ev):

   -45.7800 -22.4690 -22.4235 -22.4235  -6.5582  -6.2936  -6.2936  -5.0041
    -4.9162  -4.7270  -4.7270  -4.6747   2.2448   5.4379   5.9963   6.9594
     6.9594   7.4840   7.4840   8.2462   8.6574   9.7558

          k =-0.5000-0.5000 0.2378 ( 10512 PWs)   bands (ev):

   -45.7797 -22.4881 -22.4226 -22.4226  -6.3644  -6.3644  -6.3625  -4.9662
    -4.9144  -4.6481  -4.6056  -4.6056   2.6278   5.3971   5.6033   5.6033
     6.0026   7.0744   7.3731   8.9570   8.9570   9.7410

          k =-0.5000-0.5000-0.4756 ( 10536 PWs)   bands (ev):

   -45.7794 -22.5070 -22.4217 -22.4217  -6.4274  -6.4274  -6.1608  -4.9283
    -4.9125  -4.6127  -4.4900  -4.4900   3.2130   4.9797   4.9797   5.2887
     6.0089   6.0939   6.2259   9.6253   9.6253   9.7261

     highest occupied level (ev):    10.3620

!    total energy              =    -380.57581084 Ry
     estimated scf accuracy    <          1.1E-10 Ry

     The total energy is the sum of the following terms:
     one-electron contribution =     -85.69201292 Ry
     hartree contribution      =      71.99273840 Ry
     xc contribution           =    -102.58635971 Ry
     ewald contribution        =    -264.29017660 Ry

     convergence has been achieved in   9 iterations

     negative rho (up, down):  1.580E-02 0.000E+00

     Forces acting on atoms (cartesian axes, Ry/au):

     atom    1 type  1   force =     0.00000000    0.00000000   -0.00079864
     atom    2 type  2   force =     0.00000000    0.00000000    0.00114701
     atom    3 type  3   force =     0.00000000    0.00000000   -0.00376223
     atom    4 type  3   force =     0.00000000    0.00000000    0.00170693
     atom    5 type  3   force =     0.00000000    0.00000000    0.00170693

     Total force =     0.004683     Total SCF correction =     0.000068


     Computing stress (Cartesian axis) and pressure


     negative rho (up, down):  1.580E-02 0.000E+00
          total   stress  (Ry/bohr**3)                   (kbar)     P=      -41.60
  -0.00034017   0.00000000   0.00000000          -50.04        0.00        0.00
   0.00000000  -0.00034017   0.00000000            0.00      -50.04        0.00
   0.00000000   0.00000000  -0.00016799            0.00        0.00      -24.71

     Energy error            =      1.2E-04 Ry
     Gradient error          =      3.8E-03 Ry/Bohr

     number of scf cycles    =   6
     number of bfgs steps    =   5

     energy             old  =    -380.5756885811 Ry
     energy             new  =    -380.5758108395 Ry

     CASE: energy            _new < energy            _old

     new trust radius        =       0.0061398928 bohr
     new conv_thr            =       0.0000000001 Ry


ATOMIC_POSITIONS (crystal)
Pb               0.0000000000        0.0000000000        0.9934080344
Ti               0.5000000000        0.5000000000        0.5384958846
O                0.5000000000        0.5000000000        0.1073874418
O                0.5000000000        0.0000000000        0.6139964636
O                0.0000000000        0.5000000000        0.6139964636



     Writing config-only to output data dir ./pto_130.save/ :
     XML data file
     NEW-OLD atomic charge density approx. for the potential

     negative rho (up, down):  1.579E-02 0.000E+00

     total cpu time spent up to now is      227.7 secs

     Self-consistent Calculation

     iteration #  1     ecut=   130.00 Ry     beta= 0.70
     CG style diagonalization
     ethr =  1.00E-06,  avg # of iterations =  3.9

     Threshold (ethr) on eigenvalues was too large:
     Diagonalizing with lowered threshold

     CG style diagonalization
     c_bands:  1 eigenvalues not converged
     c_bands:  1 eigenvalues not converged
     c_bands:  1 eigenvalues not converged
     c_bands:  2 eigenvalues not converged
     c_bands:  1 eigenvalues not converged
     c_bands:  1 eigenvalues not converged
     c_bands:  1 eigenvalues not converged
     c_bands:  1 eigenvalues not converged
     c_bands:  2 eigenvalues not converged
     c_bands:  1 eigenvalues not converged
     ethr =  2.52E-08,  avg # of iterations =  6.3

     negative rho (up, down):  1.578E-02 0.000E+00

     total cpu time spent up to now is      234.8 secs

     total energy              =    -380.57582037 Ry
     estimated scf accuracy    <       0.00001165 Ry

     iteration #  2     ecut=   130.00 Ry     beta= 0.70
     CG style diagonalization
     ethr =  2.65E-08,  avg # of iterations =  4.6

     negative rho (up, down):  1.578E-02 0.000E+00

     total cpu time spent up to now is      238.0 secs

     total energy              =    -380.57582253 Ry
     estimated scf accuracy    <       0.00003002 Ry

     iteration #  3     ecut=   130.00 Ry     beta= 0.70
     CG style diagonalization
     ethr =  2.65E-08,  avg # of iterations =  4.2

     negative rho (up, down):  1.578E-02 0.000E+00

     total cpu time spent up to now is      240.8 secs

     total energy              =    -380.57582868 Ry
     estimated scf accuracy    <       0.00000213 Ry

     iteration #  4     ecut=   130.00 Ry     beta= 0.70
     CG style diagonalization
     ethr =  4.84E-09,  avg # of iterations =  3.6

     negative rho (up, down):  1.578E-02 0.000E+00

     total cpu time spent up to now is      243.3 secs

     total energy              =    -380.57582912 Ry
     estimated scf accuracy    <       0.00000026 Ry

     iteration #  5     ecut=   130.00 Ry     beta= 0.70
     CG style diagonalization
     ethr =  5.84E-10,  avg # of iterations =  4.3

     negative rho (up, down):  1.578E-02 0.000E+00

     total cpu time spent up to now is      246.2 secs

     total energy              =    -380.57582925 Ry
     estimated scf accuracy    <       0.00000004 Ry

     iteration #  6     ecut=   130.00 Ry     beta= 0.70
     CG style diagonalization
     ethr =  9.83E-11,  avg # of iterations =  4.5

     negative rho (up, down):  1.578E-02 0.000E+00

     total cpu time spent up to now is      249.3 secs

     total energy              =    -380.57582927 Ry
     estimated scf accuracy    <          8.5E-09 Ry

     iteration #  7     ecut=   130.00 Ry     beta= 0.70
     CG style diagonalization
     ethr =  1.93E-11,  avg # of iterations =  4.4

     negative rho (up, down):  1.578E-02 0.000E+00

     total cpu time spent up to now is      252.3 secs

     total energy              =    -380.57582928 Ry
     estimated scf accuracy    <          1.6E-09 Ry

     iteration #  8     ecut=   130.00 Ry     beta= 0.70
     CG style diagonalization
     ethr =  3.70E-12,  avg # of iterations =  5.0

     negative rho (up, down):  1.578E-02 0.000E+00

     total cpu time spent up to now is      255.6 secs

     total energy              =    -380.57582928 Ry
     estimated scf accuracy    <          4.5E-10 Ry

     iteration #  9     ecut=   130.00 Ry     beta= 0.70
     CG style diagonalization
     ethr =  1.03E-12,  avg # of iterations =  5.0

     negative rho (up, down):  1.578E-02 0.000E+00

     total cpu time spent up to now is      258.9 secs

     End of self-consistent calculation

          k = 0.0000 0.0000 0.0000 ( 10517 PWs)   bands (ev):

   -45.7907 -22.4793 -22.3668 -22.3668  -7.5721  -6.5124  -6.2041  -4.9936
    -4.9936  -4.9522  -4.8675  -4.6845   4.2092   6.2524   6.2524   6.8047
     8.1173   8.1173   8.4516   8.6253   8.8749   8.8749

          k = 0.0000 0.0000 0.2378 ( 10560 PWs)   bands (ev):

   -45.7904 -22.4989 -22.3660 -22.3660  -7.3862  -6.4603  -6.1437  -5.0087
    -5.0087  -4.9509  -4.8536  -4.7485   3.4612   6.2944   6.2944   6.8780
     7.9107   7.9107   8.3670   8.7825   8.9725   8.9725

          k = 0.0000 0.0000-0.4756 ( 10516 PWs)   bands (ev):

   -45.7902 -22.5183 -22.3652 -22.3652  -7.1861  -6.4040  -6.0884  -5.0236
    -5.0236  -4.9497  -4.8404  -4.8168   2.9534   6.2145   6.3173   6.3173
     7.7824   7.7824   8.2862   9.0367   9.0367   9.9885

          k = 0.0000 0.1667 0.0000 ( 10543 PWs)   bands (ev):

   -45.7904 -22.4785 -22.3841 -22.3661  -7.4379  -6.4864  -6.1851  -5.0150
    -4.9922  -4.9648  -4.8573  -4.6741   3.7928   6.3071   6.3609   6.7356
     8.1308   8.1422   8.4268   8.5073   8.5726   8.9677

          k = 0.0000 0.1667 0.2378 ( 10546 PWs)   bands (ev):

   -45.7901 -22.4980 -22.3833 -22.3653  -7.2680  -6.4477  -6.1183  -5.0080
    -5.0077  -4.9641  -4.8531  -4.7081   3.2575   6.0929   6.4115   6.9307
     7.6017   7.8986   8.2137   8.6230   8.6526   9.3518

          k = 0.0000 0.1667-0.4756 ( 10524 PWs)   bands (ev):

   -45.7898 -22.5173 -22.3824 -22.3645  -7.0937  -6.4046  -6.0477  -5.0231
    -4.9988  -4.9633  -4.8541  -4.7420   2.8376   5.8014   6.4380   6.5880
     7.4322   7.7761   8.2543   8.6797   8.7272   9.9569

          k = 0.0000 0.3333 0.0000 ( 10543 PWs)   bands (ev):

   -45.7897 -22.4769 -22.4186 -22.3646  -7.1461  -6.4294  -6.1653  -5.0427
    -4.9903  -4.9889  -4.8238  -4.6850   3.2254   5.9453   6.6450   6.6655
     7.8016   7.8404   8.2197   8.2906   8.6593   9.6360

          k = 0.0000 0.3333 0.2378 ( 10532 PWs)   bands (ev):

   -45.7895 -22.4961 -22.4176 -22.3638  -7.0385  -6.3930  -6.0736  -5.0093
    -5.0058  -4.9901  -4.8267  -4.6569   2.9141   5.8100   6.5420   6.7219
     7.2337   7.6669   7.8440   8.3071   8.8649   9.7023

          k = 0.0000 0.3333-0.4756 ( 10540 PWs)   bands (ev):

   -45.7892 -22.5152 -22.4165 -22.3630  -6.9582  -6.3384  -5.9541  -5.0221
    -4.9903  -4.9666  -4.8585  -4.6156   2.6324   5.4907   6.3265   6.7474
     7.1048   7.3584   7.6168   8.3513   9.2502   9.5703

          k = 0.0000-0.5000 0.0000 ( 10518 PWs)   bands (ev):

   -45.7894 -22.4760 -22.4359 -22.3639  -6.9852  -6.3822  -6.1834  -5.0531
    -5.0024  -4.9878  -4.7536  -4.7496   3.0196   5.6031   6.9036   6.9054
     7.3310   7.4425   8.2065   8.2515   8.6893  10.3683

          k = 0.0000-0.5000 0.2378 ( 10552 PWs)   bands (ev):

   -45.7891 -22.4951 -22.4347 -22.3631  -6.9391  -6.3198  -6.0731  -5.0182
    -5.0048  -5.0031  -4.7852  -4.6553   2.7765   5.5622   6.5521   6.7653
     7.0929   7.2425   7.9449   8.2751   8.8758   9.8822

          k = 0.0000-0.5000-0.4756 ( 10560 PWs)   bands (ev):

   -45.7889 -22.5141 -22.4335 -22.3622  -6.9250  -6.2539  -5.9092  -5.0216
    -5.0037  -4.9760  -4.8310  -4.5650   2.5502   5.3587   6.0173   6.7892
     7.0680   7.2951   7.3979   8.2893   9.2168   9.5683

          k = 0.1667 0.1667 0.0000 ( 10547 PWs)   bands (ev):

   -45.7901 -22.4778 -22.3835 -22.3832  -7.3062  -6.4596  -6.1852  -5.0188
    -5.0052  -4.9672  -4.8274  -4.6641   3.4905   6.2553   6.4870   6.7295
     7.6530   7.7896   8.4646   8.5373   8.8200   9.1821

          k = 0.1667 0.1667 0.2378 ( 10536 PWs)   bands (ev):

   -45.7898 -22.4971 -22.3826 -22.3824  -7.1479  -6.4378  -6.1163  -5.0198
    -4.9960  -4.9617  -4.8209  -4.6779   3.1397   6.0468   6.1245   6.8499
     7.4933   7.5127   8.2734   8.6804   8.8997   9.3281

          k = 0.1667 0.1667-0.4756 ( 10532 PWs)   bands (ev):

   -45.7895 -22.5164 -22.3817 -22.3815  -6.9918  -6.4157  -6.0348  -5.0306
    -4.9759  -4.9391  -4.8278  -4.6958   2.8107   5.8446   5.8600   6.5709
     7.3538   7.4649   8.2051   8.7437   8.9546   9.6783

          k = 0.1667 0.3333 0.0000 ( 10525 PWs)   bands (ev):

   -45.7894 -22.4762 -22.4177 -22.3818  -7.0216  -6.4043  -6.2018  -5.0355
    -4.9940  -4.9507  -4.7852  -4.6728   3.0135   5.9561   6.4931   6.8200
     7.1484   7.7015   8.0352   8.6520   8.8179   9.6799

          k = 0.1667 0.3333 0.2378 ( 10536 PWs)   bands (ev):

   -45.7891 -22.4953 -22.4167 -22.3809  -6.9140  -6.3957  -6.1185  -5.0147
    -4.9915  -4.9323  -4.7710  -4.6350   2.8991   5.7817   5.9423   6.4644
     6.8971   7.5581   8.3301   8.6164   8.9547   9.4291

          k = 0.1667 0.3333-0.4756 ( 10544 PWs)   bands (ev):

   -45.7889 -22.5143 -22.4157 -22.3801  -6.8385  -6.3772  -5.9996  -5.0149
    -4.9681  -4.8967  -4.7792  -4.5912   2.7448   5.4420   5.8415   6.2171
     6.4005   7.4148   8.4345   8.6608   8.9652   9.3862

          k = 0.1667-0.5000 0.0000 ( 10512 PWs)   bands (ev):

   -45.7891 -22.4752 -22.4349 -22.3810  -6.8651  -6.3600  -6.2369  -5.0367
    -4.9862  -4.9321  -4.7323  -4.7280   2.8238   5.6212   6.6178   6.8189
     7.1787   7.4541   7.8376   8.7033   8.7974  10.0007

          k = 0.1667-0.5000 0.2378 ( 10542 PWs)   bands (ev):

   -45.7888 -22.4943 -22.4338 -22.3802  -6.8143  -6.3318  -6.1402  -5.0129
    -4.9788  -4.9163  -4.7362  -4.6331   2.7888   5.5696   5.8435   6.2330
     6.8491   7.6929   8.1211   8.6148   8.9666   9.3987

          k = 0.1667-0.5000-0.4756 ( 10548 PWs)   bands (ev):

   -45.7886 -22.5133 -22.4327 -22.3793  -6.8048  -6.3045  -5.9846  -5.0100
    -4.9404  -4.8990  -4.7480  -4.5429   2.7157   5.3268   5.6774   5.8680
     6.3002   7.5285   8.3193   8.5824   8.6418   9.5813

          k = 0.3333 0.3333 0.0000 ( 10499 PWs)   bands (ev):

   -45.7888 -22.4745 -22.4161 -22.4158  -6.7656  -6.3555  -6.2692  -5.0161
    -4.9727  -4.8736  -4.7144  -4.6726   2.6147   5.9073   6.0876   6.8979
     7.0686   7.1940   7.8759   8.4877   9.2992   9.4286

          k = 0.3333 0.3333 0.2378 ( 10531 PWs)   bands (ev):

   -45.7885 -22.4936 -22.4151 -22.4149  -6.6625  -6.3948  -6.2035  -4.9794
    -4.9686  -4.8305  -4.6687  -4.6043   2.7962   5.5532   5.6386   5.9046
     6.6198   7.0671   8.4131   8.9266   8.9661   9.3161

          k = 0.3333 0.3333-0.4756 ( 10512 PWs)   bands (ev):

   -45.7882 -22.5125 -22.4142 -22.4140  -6.6137  -6.4318  -6.0727  -4.9639
    -4.9437  -4.7824  -4.6223  -4.5381   2.9678   5.1550   5.1932   5.6777
     6.3525   6.5386   7.7502   9.2696   9.2856   9.4569

          k = 0.3333-0.5000 0.0000 ( 10498 PWs)   bands (ev):

   -45.7884 -22.4736 -22.4330 -22.4150  -6.6366  -6.3213  -6.3086  -5.0084
    -4.9503  -4.8018  -4.7153  -4.6762   2.4300   5.5924   6.1243   6.7367
     7.2446   7.3813   7.4706   8.4765   9.1321   9.4934

          k = 0.3333-0.5000 0.2378 ( 10512 PWs)   bands (ev):

   -45.7882 -22.4926 -22.4320 -22.4142  -6.5526  -6.3593  -6.2595  -4.9718
    -4.9422  -4.7510  -4.6437  -4.5925   2.7119   5.4758   5.5482   5.6643
     6.3944   7.1382   7.9910   8.9333   8.9420   9.4693

          k = 0.3333-0.5000-0.4756 ( 10552 PWs)   bands (ev):

   -45.7879 -22.5115 -22.4310 -22.4133  -6.5603  -6.3952  -6.1046  -4.9471
    -4.9229  -4.7087  -4.5719  -4.4987   3.0669   4.9186   5.1167   5.4483
     6.1426   6.5377   7.0296   9.3763   9.4395   9.6113

          k =-0.5000-0.5000 0.0000 ( 10540 PWs)   bands (ev):

   -45.7881 -22.4726 -22.4320 -22.4320  -6.5530  -6.3051  -6.3051  -4.9987
    -4.9102  -4.7188  -4.7188  -4.6691   2.2361   5.4324   5.9907   6.9690
     6.9690   7.4795   7.4795   8.2495   8.6619   9.7453

          k =-0.5000-0.5000 0.2378 ( 10512 PWs)   bands (ev):

   -45.7879 -22.4916 -22.4311 -22.4311  -6.3745  -6.3745  -6.3571  -4.9608
    -4.9084  -4.6425  -4.5989  -4.5989   2.6165   5.3911   5.6078   5.6078
     5.9970   7.0767   7.3824   8.9582   8.9582   9.7305

          k =-0.5000-0.5000-0.4756 ( 10536 PWs)   bands (ev):

   -45.7876 -22.5105 -22.4302 -22.4302  -6.4365  -6.4365  -6.1552  -4.9229
    -4.9065  -4.6072  -4.4846  -4.4846   3.1950   4.9843   4.9843   5.2822
     6.0033   6.1110   6.2281   9.6270   9.6270   9.7157

     highest occupied level (ev):    10.3683

!    total energy              =    -380.57582928 Ry
     estimated scf accuracy    <          3.5E-11 Ry

     The total energy is the sum of the following terms:
     one-electron contribution =     -85.75427267 Ry
     hartree contribution      =      72.02196722 Ry
     xc contribution           =    -102.58635730 Ry
     ewald contribution        =    -264.25716653 Ry

     convergence has been achieved in   9 iterations

     negative rho (up, down):  1.578E-02 0.000E+00

     Forces acting on atoms (cartesian axes, Ry/au):

     atom    1 type  1   force =     0.00000000    0.00000000    0.00025210
     atom    2 type  2   force =     0.00000000    0.00000000   -0.00076729
     atom    3 type  3   force =     0.00000000    0.00000000   -0.00158270
     atom    4 type  3   force =     0.00000000    0.00000000    0.00104894
     atom    5 type  3   force =     0.00000000    0.00000000    0.00104894

     Total force =     0.002315     Total SCF correction =     0.000012


     Computing stress (Cartesian axis) and pressure


     negative rho (up, down):  1.578E-02 0.000E+00
          total   stress  (Ry/bohr**3)                   (kbar)     P=      -41.75
  -0.00033707   0.00000000   0.00000000          -49.58        0.00        0.00
   0.00000000  -0.00033707   0.00000000            0.00      -49.58        0.00
   0.00000000   0.00000000  -0.00017737            0.00        0.00      -26.09

     Energy error            =      1.8E-05 Ry
     Gradient error          =      1.6E-03 Ry/Bohr

     number of scf cycles    =   7
     number of bfgs steps    =   6

     energy             old  =    -380.5758108395 Ry
     energy             new  =    -380.5758292810 Ry

     CASE: energy            _new < energy            _old

     new trust radius        =       0.0032206470 bohr
     new conv_thr            =            1.0E-10 Ry


ATOMIC_POSITIONS (crystal)
Pb               0.0000000000        0.0000000000        0.9933975521
Ti               0.5000000000        0.5000000000        0.5384083607
O                0.5000000000        0.5000000000        0.1069717606
O                0.5000000000        0.0000000000        0.6142533073
O                0.0000000000        0.5000000000        0.6142533073



     Writing config-only to output data dir ./pto_130.save/ :
     XML data file
     NEW-OLD atomic charge density approx. for the potential

     negative rho (up, down):  1.578E-02 0.000E+00

     total cpu time spent up to now is      263.6 secs

     Self-consistent Calculation

     iteration #  1     ecut=   130.00 Ry     beta= 0.70
     CG style diagonalization
     ethr =  1.00E-06,  avg # of iterations =  2.7

     Threshold (ethr) on eigenvalues was too large:
     Diagonalizing with lowered threshold

     CG style diagonalization
     c_bands:  1 eigenvalues not converged
     c_bands:  1 eigenvalues not converged
     c_bands:  1 eigenvalues not converged
     c_bands:  1 eigenvalues not converged
     c_bands:  1 eigenvalues not converged
     ethr =  5.91E-09,  avg # of iterations =  5.9

     negative rho (up, down):  1.578E-02 0.000E+00

     total cpu time spent up to now is      269.8 secs

     total energy              =    -380.57583367 Ry
     estimated scf accuracy    <       0.00000457 Ry

     iteration #  2     ecut=   130.00 Ry     beta= 0.70
     CG style diagonalization
     ethr =  1.04E-08,  avg # of iterations =  4.6

     negative rho (up, down):  1.578E-02 0.000E+00

     total cpu time spent up to now is      272.9 secs

     total energy              =    -380.57583298 Ry
     estimated scf accuracy    <       0.00001615 Ry

     iteration #  3     ecut=   130.00 Ry     beta= 0.70
     CG style diagonalization
     ethr =  1.04E-08,  avg # of iterations =  4.3

     negative rho (up, down):  1.578E-02 0.000E+00

     total cpu time spent up to now is      275.8 secs

     total energy              =    -380.57583587 Ry
     estimated scf accuracy    <       0.00000054 Ry

     iteration #  4     ecut=   130.00 Ry     beta= 0.70
     CG style diagonalization
     ethr =  1.22E-09,  avg # of iterations =  3.7

     negative rho (up, down):  1.578E-02 0.000E+00

     total cpu time spent up to now is      278.4 secs

     total energy              =    -380.57583599 Ry
     estimated scf accuracy    <       0.00000010 Ry

     iteration #  5     ecut=   130.00 Ry     beta= 0.70
     CG style diagonalization
     ethr =  2.17E-10,  avg # of iterations =  3.9

     negative rho (up, down):  1.578E-02 0.000E+00

     total cpu time spent up to now is      281.1 secs

     total energy              =    -380.57583602 Ry
     estimated scf accuracy    <       0.00000001 Ry

     iteration #  6     ecut=   130.00 Ry     beta= 0.70
     CG style diagonalization
     ethr =  2.48E-11,  avg # of iterations =  4.2

     negative rho (up, down):  1.578E-02 0.000E+00

     total cpu time spent up to now is      283.9 secs

     total energy              =    -380.57583610 Ry
     estimated scf accuracy    <          1.0E-09 Ry

     iteration #  7     ecut=   130.00 Ry     beta= 0.70
     CG style diagonalization
     ethr =  2.35E-12,  avg # of iterations =  5.3

     negative rho (up, down):  1.578E-02 0.000E+00

     total cpu time spent up to now is      287.5 secs

     total energy              =    -380.57583610 Ry
     estimated scf accuracy    <          4.7E-10 Ry

     iteration #  8     ecut=   130.00 Ry     beta= 0.70
     CG style diagonalization
     ethr =  1.06E-12,  avg # of iterations =  3.9

     negative rho (up, down):  1.578E-02 0.000E+00

     total cpu time spent up to now is      290.1 secs

     End of self-consistent calculation

          k = 0.0000 0.0000 0.0000 ( 10517 PWs)   bands (ev):

   -45.7948 -22.4810 -22.3708 -22.3708  -7.5737  -6.5135  -6.2027  -4.9918
    -4.9918  -4.9499  -4.8655  -4.6819   4.2120   6.2497   6.2497   6.8024
     8.1205   8.1205   8.4492   8.6292   8.8724   8.8724

          k = 0.0000 0.0000 0.2378 ( 10560 PWs)   bands (ev):

   -45.7946 -22.5006 -22.3700 -22.3700  -7.3881  -6.4615  -6.1424  -5.0069
    -5.0069  -4.9486  -4.8516  -4.7458   3.4640   6.2910   6.2910   6.8765
     7.9145   7.9145   8.3646   8.7843   8.9706   8.9706

          k = 0.0000 0.0000-0.4756 ( 10516 PWs)   bands (ev):

   -45.7943 -22.5200 -22.3693 -22.3693  -7.1882  -6.4054  -6.0870  -5.0218
    -5.0218  -4.9474  -4.8382  -4.8139   2.9566   6.2133   6.3131   6.3131
     7.7871   7.7871   8.2838   9.0349   9.0349   9.9887

          k = 0.0000 0.1667 0.0000 ( 10543 PWs)   bands (ev):

   -45.7945 -22.4803 -22.3882 -22.3701  -7.4396  -6.4877  -6.1838  -5.0131
    -4.9904  -4.9626  -4.8554  -4.6715   3.7943   6.3062   6.3583   6.7341
     8.1335   8.1459   8.4250   8.5046   8.5731   8.9694

          k = 0.0000 0.1667 0.2378 ( 10546 PWs)   bands (ev):

   -45.7942 -22.4997 -22.3873 -22.3693  -7.2698  -6.4491  -6.1169  -5.0061
    -5.0059  -4.9618  -4.8511  -4.7056   3.2595   6.0911   6.4083   6.9293
     7.6039   7.9019   8.2139   8.6221   8.6513   9.3527

          k = 0.0000 0.1667-0.4756 ( 10524 PWs)   bands (ev):

   -45.7940 -22.5190 -22.3864 -22.3685  -7.0957  -6.4061  -6.0462  -5.0213
    -4.9968  -4.9610  -4.8519  -4.7394   2.8402   5.7998   6.4340   6.5859
     7.4355   7.7803   8.2525   8.6789   8.7261   9.9584

          k = 0.0000 0.3333 0.0000 ( 10543 PWs)   bands (ev):

   -45.7938 -22.4787 -22.4226 -22.3687  -7.1477  -6.4311  -6.1641  -5.0408
    -4.9882  -4.9870  -4.8218  -4.6826   3.2260   5.9449   6.6429   6.6676
     7.8037   7.8384   8.2228   8.2883   8.6608   9.6374

          k = 0.0000 0.3333 0.2378 ( 10532 PWs)   bands (ev):

   -45.7936 -22.4979 -22.4216 -22.3679  -7.0402  -6.3948  -6.0725  -5.0073
    -5.0040  -4.9878  -4.8247  -4.6546   2.9153   5.8095   6.5428   6.7190
     7.2355   7.6665   7.8435   8.3096   8.8655   9.7035

          k = 0.0000 0.3333-0.4756 ( 10540 PWs)   bands (ev):

   -45.7933 -22.5170 -22.4205 -22.3670  -6.9597  -6.3405  -5.9528  -5.0203
    -4.9881  -4.9646  -4.8563  -4.6134   2.6341   5.4900   6.3285   6.7438
     7.1047   7.3568   7.6176   8.3536   9.2519   9.5720

          k = 0.0000-0.5000 0.0000 ( 10518 PWs)   bands (ev):

   -45.7935 -22.4778 -22.4398 -22.3680  -6.9867  -6.3844  -6.1822  -5.0511
    -5.0002  -4.9860  -4.7513  -4.7476   3.0199   5.6037   6.9041   6.9090
     7.3300   7.4393   8.2041   8.2552   8.6908  10.3700

          k = 0.0000-0.5000 0.2378 ( 10552 PWs)   bands (ev):

   -45.7933 -22.4969 -22.4387 -22.3671  -6.9405  -6.3222  -6.0718  -5.0163
    -5.0030  -5.0008  -4.7831  -4.6531   2.7776   5.5623   6.5533   6.7669
     7.0915   7.2394   7.9442   8.2792   8.8765   9.8842

          k = 0.0000-0.5000-0.4756 ( 10560 PWs)   bands (ev):

   -45.7930 -22.5158 -22.4375 -22.3663  -6.9262  -6.2565  -5.9080  -5.0198
    -5.0015  -4.9740  -4.8287  -4.5628   2.5518   5.3582   6.0199   6.7887
     7.0649   7.2937   7.3963   8.2936   9.2207   9.5689

          k = 0.1667 0.1667 0.0000 ( 10547 PWs)   bands (ev):

   -45.7942 -22.4795 -22.3876 -22.3872  -7.3079  -6.4611  -6.1839  -5.0169
    -5.0033  -4.9650  -4.8254  -4.6616   3.4914   6.2527   6.4868   6.7283
     7.6564   7.7890   8.4674   8.5354   8.8196   9.1851

          k = 0.1667 0.1667 0.2378 ( 10536 PWs)   bands (ev):

   -45.7939 -22.4989 -22.3866 -22.3864  -7.1498  -6.4392  -6.1150  -5.0179
    -4.9940  -4.9596  -4.8188  -4.6754   3.1412   6.0444   6.1236   6.8485
     7.4929   7.5160   8.2764   8.6786   8.8991   9.3301

          k = 0.1667 0.1667-0.4756 ( 10532 PWs)   bands (ev):

   -45.7936 -22.5181 -22.3857 -22.3856  -6.9939  -6.4172  -6.0334  -5.0287
    -4.9738  -4.9372  -4.8256  -4.6933   2.8128   5.8425   5.8585   6.5703
     7.3517   7.4680   8.2086   8.7420   8.9537   9.6803

          k = 0.1667 0.3333 0.0000 ( 10525 PWs)   bands (ev):

   -45.7935 -22.4779 -22.4217 -22.3858  -7.0232  -6.4061  -6.2008  -5.0336
    -4.9921  -4.9484  -4.7832  -4.6704   3.0137   5.9555   6.4918   6.8212
     7.1475   7.7061   8.0360   8.6518   8.8178   9.6820

          k = 0.1667 0.3333 0.2378 ( 10536 PWs)   bands (ev):

   -45.7933 -22.4970 -22.4207 -22.3850  -6.9158  -6.3975  -6.1174  -5.0127
    -4.9895  -4.9301  -4.7689  -4.6327   2.8999   5.7812   5.9422   6.4629
     6.8982   7.5603   8.3319   8.6165   8.9547   9.4305

          k = 0.1667 0.3333-0.4756 ( 10544 PWs)   bands (ev):

   -45.7930 -22.5161 -22.4197 -22.3841  -6.8403  -6.3791  -5.9984  -5.0129
    -4.9660  -4.8946  -4.7771  -4.5890   2.7462   5.4416   5.8405   6.2161
     6.4014   7.4158   8.4375   8.6596   8.9673   9.3865

          k = 0.1667-0.5000 0.0000 ( 10512 PWs)   bands (ev):

   -45.7932 -22.4770 -22.4389 -22.3851  -6.8666  -6.3622  -6.2360  -5.0348
    -4.9843  -4.9298  -4.7302  -4.7257   2.8237   5.6218   6.6195   6.8154
     7.1807   7.4545   7.8423   8.7015   8.7984  10.0022

          k = 0.1667-0.5000 0.2378 ( 10542 PWs)   bands (ev):

   -45.7929 -22.4960 -22.4378 -22.3842  -6.8158  -6.3340  -6.1390  -5.0109
    -4.9769  -4.9140  -4.7341  -4.6309   2.7893   5.5697   5.8441   6.2325
     6.8486   7.6958   8.1222   8.6156   8.9664   9.4000

          k = 0.1667-0.5000-0.4756 ( 10548 PWs)   bands (ev):

   -45.7927 -22.5150 -22.4367 -22.3834  -6.8062  -6.3068  -5.9835  -5.0080
    -4.9385  -4.8967  -4.7459  -4.5408   2.7169   5.3267   5.6768   5.8686
     6.2999   7.5298   8.3212   8.5837   8.6419   9.5821

          k = 0.3333 0.3333 0.0000 ( 10499 PWs)   bands (ev):

   -45.7929 -22.4763 -22.4201 -22.4198  -6.7669  -6.3575  -6.2690  -5.0142
    -4.9706  -4.8713  -4.7121  -4.6702   2.6143   5.9065   6.0866   6.8986
     7.0708   7.1982   7.8761   8.4904   9.2976   9.4304

          k = 0.3333 0.3333 0.2378 ( 10531 PWs)   bands (ev):

   -45.7926 -22.4953 -22.4191 -22.4189  -6.6644  -6.3967  -6.2027  -4.9775
    -4.9665  -4.8282  -4.6665  -4.6021   2.7960   5.5539   5.6385   5.9035
     6.6224   7.0687   8.4167   8.9271   8.9670   9.3147

          k = 0.3333 0.3333-0.4756 ( 10512 PWs)   bands (ev):

   -45.7923 -22.5142 -22.4182 -22.4180  -6.6157  -6.4335  -6.0717  -4.9618
    -4.9418  -4.7801  -4.6202  -4.5362   2.9680   5.1552   5.1939   5.6750
     6.3550   6.5406   7.7539   9.2706   9.2837   9.4576

          k = 0.3333-0.5000 0.0000 ( 10498 PWs)   bands (ev):

   -45.7926 -22.4753 -22.4370 -22.4190  -6.6372  -6.3237  -6.3092  -5.0065
    -4.9482  -4.7993  -4.7130  -4.6737   2.4294   5.5925   6.1237   6.7384
     7.2473   7.3831   7.4724   8.4782   9.1336   9.4917

          k = 0.3333-0.5000 0.2378 ( 10512 PWs)   bands (ev):

   -45.7923 -22.4943 -22.4360 -22.4182  -6.5542  -6.3615  -6.2588  -4.9699
    -4.9401  -4.7485  -4.6418  -4.5903   2.7111   5.4773   5.5479   5.6644
     6.3960   7.1405   7.9935   8.9343   8.9432   9.4676

          k = 0.3333-0.5000-0.4756 ( 10552 PWs)   bands (ev):

   -45.7920 -22.5132 -22.4350 -22.4173  -6.5620  -6.3972  -6.1036  -4.9451
    -4.9209  -4.7061  -4.5702  -4.4968   3.0662   4.9194   5.1181   5.4460
     6.1444   6.5405   7.0328   9.3772   9.4378   9.6123

          k =-0.5000-0.5000 0.0000 ( 10540 PWs)   bands (ev):

   -45.7922 -22.4744 -22.4360 -22.4360  -6.5521  -6.3075  -6.3075  -4.9968
    -4.9080  -4.7165  -4.7165  -4.6664   2.2351   5.4324   5.9918   6.9707
     6.9707   7.4813   7.4813   8.2512   8.6636   9.7435

          k =-0.5000-0.5000 0.2378 ( 10512 PWs)   bands (ev):

   -45.7920 -22.4934 -22.4351 -22.4351  -6.3766  -6.3766  -6.3562  -4.9589
    -4.9062  -4.6398  -4.5970  -4.5970   2.6152   5.3905   5.6099   5.6099
     5.9981   7.0784   7.3844   8.9596   8.9596   9.7287

          k =-0.5000-0.5000-0.4756 ( 10536 PWs)   bands (ev):

   -45.7917 -22.5123 -22.4342 -22.4342  -6.4384  -6.4384  -6.1543  -4.9210
    -4.9044  -4.6044  -4.4830  -4.4830   3.1926   4.9866   4.9866   5.2800
     6.0044   6.1141   6.2311   9.6280   9.6280   9.7139

     highest occupied level (ev):    10.3700

!    total energy              =    -380.57583603 Ry
     estimated scf accuracy    <          6.9E-11 Ry

     The total energy is the sum of the following terms:
     one-electron contribution =     -85.73743846 Ry
     hartree contribution      =      72.01291680 Ry
     xc contribution           =    -102.58548688 Ry
     ewald contribution        =    -264.26582748 Ry

     convergence has been achieved in   8 iterations

     negative rho (up, down):  1.578E-02 0.000E+00

     Forces acting on atoms (cartesian axes, Ry/au):

     atom    1 type  1   force =     0.00000000    0.00000000    0.00032271
     atom    2 type  2   force =     0.00000000    0.00000000   -0.00125565
     atom    3 type  3   force =     0.00000000    0.00000000   -0.00015891
     atom    4 type  3   force =     0.00000000    0.00000000    0.00054592
     atom    5 type  3   force =     0.00000000    0.00000000    0.00054592

     Total force =     0.001517     Total SCF correction =     0.000006


     Computing stress (Cartesian axis) and pressure


     negative rho (up, down):  1.578E-02 0.000E+00
          total   stress  (Ry/bohr**3)                   (kbar)     P=      -42.30
  -0.00033879   0.00000000   0.00000000          -49.84        0.00        0.00
   0.00000000  -0.00033879   0.00000000            0.00      -49.84        0.00
   0.00000000   0.00000000  -0.00018516            0.00        0.00      -27.24

     Energy error            =      6.7E-06 Ry
     Gradient error          =      1.3E-03 Ry/Bohr

     number of scf cycles    =   8
     number of bfgs steps    =   7

     energy             old  =    -380.5758292810 Ry
     energy             new  =    -380.5758360277 Ry

     CASE: energy            _new < energy            _old

     new trust radius        =       0.0019682358 bohr
     new conv_thr            =            1.0E-10 Ry


ATOMIC_POSITIONS (crystal)
Pb               0.0000000000        0.0000000000        0.9934671541
Ti               0.5000000000        0.5000000000        0.5381726440
O                0.5000000000        0.5000000000        0.1067177251
O                0.5000000000        0.0000000000        0.6144633824
O                0.0000000000        0.5000000000        0.6144633824



     Writing config-only to output data dir ./pto_130.save/ :
     XML data file
     NEW-OLD atomic charge density approx. for the potential

     negative rho (up, down):  1.578E-02 0.000E+00

     total cpu time spent up to now is      294.8 secs

     Self-consistent Calculation

     iteration #  1     ecut=   130.00 Ry     beta= 0.70
     CG style diagonalization
     ethr =  1.00E-06,  avg # of iterations =  3.0

     Threshold (ethr) on eigenvalues was too large:
     Diagonalizing with lowered threshold

     CG style diagonalization
     c_bands:  1 eigenvalues not converged
     c_bands:  1 eigenvalues not converged
     c_bands:  1 eigenvalues not converged
     c_bands:  3 eigenvalues not converged
     c_bands:  3 eigenvalues not converged
     c_bands:  1 eigenvalues not converged
     c_bands:  1 eigenvalues not converged
     c_bands:  2 eigenvalues not converged
     c_bands:  2 eigenvalues not converged
     c_bands:  1 eigenvalues not converged
     ethr =  1.78E-09,  avg # of iterations =  7.7

     negative rho (up, down):  1.578E-02 0.000E+00

     total cpu time spent up to now is      302.3 secs

     total energy              =    -380.57583836 Ry
     estimated scf accuracy    <       0.00000117 Ry

     iteration #  2     ecut=   130.00 Ry     beta= 0.70
     CG style diagonalization
     ethr =  2.66E-09,  avg # of iterations =  4.6

     negative rho (up, down):  1.578E-02 0.000E+00

     total cpu time spent up to now is      305.4 secs

     total energy              =    -380.57583815 Ry
     estimated scf accuracy    <       0.00000413 Ry

     iteration #  3     ecut=   130.00 Ry     beta= 0.70
     CG style diagonalization
     ethr =  2.66E-09,  avg # of iterations =  4.2

     negative rho (up, down):  1.578E-02 0.000E+00

     total cpu time spent up to now is      308.3 secs

     total energy              =    -380.57583900 Ry
     estimated scf accuracy    <       0.00000011 Ry

     iteration #  4     ecut=   130.00 Ry     beta= 0.70
     CG style diagonalization
     ethr =  2.52E-10,  avg # of iterations =  3.8

     negative rho (up, down):  1.578E-02 0.000E+00

     total cpu time spent up to now is      310.9 secs

     total energy              =    -380.57583902 Ry
     estimated scf accuracy    <       0.00000002 Ry

     iteration #  5     ecut=   130.00 Ry     beta= 0.70
     CG style diagonalization
     ethr =  4.34E-11,  avg # of iterations =  4.4

     negative rho (up, down):  1.578E-02 0.000E+00

     total cpu time spent up to now is      313.8 secs

     total energy              =    -380.57583896 Ry
     estimated scf accuracy    <          4.2E-09 Ry

     iteration #  6     ecut=   130.00 Ry     beta= 0.70
     CG style diagonalization
     ethr =  9.47E-12,  avg # of iterations =  4.2

     negative rho (up, down):  1.578E-02 0.000E+00

     total cpu time spent up to now is      316.7 secs

     total energy              =    -380.57583896 Ry
     estimated scf accuracy    <          7.9E-10 Ry

     iteration #  7     ecut=   130.00 Ry     beta= 0.70
     CG style diagonalization
     ethr =  1.79E-12,  avg # of iterations =  4.8

     negative rho (up, down):  1.578E-02 0.000E+00

     total cpu time spent up to now is      319.9 secs

     total energy              =    -380.57583896 Ry
     estimated scf accuracy    <          2.4E-10 Ry

     iteration #  8     ecut=   130.00 Ry     beta= 0.70
     CG style diagonalization
     ethr =  5.38E-13,  avg # of iterations =  4.6

     negative rho (up, down):  1.578E-02 0.000E+00

     total cpu time spent up to now is      323.0 secs

     End of self-consistent calculation

          k = 0.0000 0.0000 0.0000 ( 10517 PWs)   bands (ev):

   -45.7956 -22.4816 -22.3714 -22.3714  -7.5740  -6.5126  -6.2025  -4.9908
    -4.9908  -4.9487  -4.8644  -4.6802   4.2139   6.2484   6.2484   6.8007
     8.1181   8.1181   8.4475   8.6287   8.8720   8.8720

          k = 0.0000 0.0000 0.2378 ( 10560 PWs)   bands (ev):

   -45.7954 -22.5012 -22.3706 -22.3706  -7.3882  -6.4606  -6.1424  -5.0059
    -5.0059  -4.9474  -4.8504  -4.7442   3.4652   6.2882   6.2882   6.8753
     7.9146   7.9146   8.3630   8.7847   8.9705   8.9705

          k = 0.0000 0.0000-0.4756 ( 10516 PWs)   bands (ev):

   -45.7951 -22.5207 -22.3699 -22.3699  -7.1880  -6.4045  -6.0874  -5.0208
    -5.0208  -4.9461  -4.8370  -4.8123   2.9575   6.2126   6.3085   6.3085
     7.7899   7.7899   8.2821   9.0350   9.0350   9.9895

          k = 0.0000 0.1667 0.0000 ( 10543 PWs)   bands (ev):

   -45.7953 -22.4809 -22.3887 -22.3707  -7.4400  -6.4870  -6.1837  -5.0120
    -4.9894  -4.9613  -4.8544  -4.6699   3.7954   6.3063   6.3572   6.7326
     8.1334   8.1438   8.4236   8.5039   8.5723   8.9698

          k = 0.0000 0.1667 0.2378 ( 10546 PWs)   bands (ev):

   -45.7950 -22.5003 -22.3879 -22.3699  -7.2700  -6.4484  -6.1170  -5.0050
    -5.0049  -4.9606  -4.8500  -4.7040   3.2604   6.0895   6.4057   6.9285
     7.6044   7.9018   8.2147   8.6205   8.6515   9.3535

          k = 0.0000 0.1667-0.4756 ( 10524 PWs)   bands (ev):

   -45.7948 -22.5197 -22.3870 -22.3691  -7.0955  -6.4054  -6.0467  -5.0203
    -4.9957  -4.9598  -4.8508  -4.7379   2.8409   5.7975   6.4296   6.5850
     7.4378   7.7828   8.2527   8.6771   8.7267   9.9602

          k = 0.0000 0.3333 0.0000 ( 10543 PWs)   bands (ev):

   -45.7947 -22.4793 -22.4232 -22.3693  -7.1480  -6.4309  -6.1641  -5.0397
    -4.9871  -4.9859  -4.8208  -4.6811   3.2263   5.9462   6.6424   6.6692
     7.8060   7.8379   8.2203   8.2871   8.6598   9.6371

          k = 0.0000 0.3333 0.2378 ( 10532 PWs)   bands (ev):

   -45.7944 -22.4985 -22.4221 -22.3685  -7.0401  -6.3948  -6.0727  -5.0062
    -5.0030  -4.9867  -4.8236  -4.6532   2.9158   5.8098   6.5437   6.7171
     7.2376   7.6655   7.8431   8.3105   8.8653   9.7038

          k = 0.0000 0.3333-0.4756 ( 10540 PWs)   bands (ev):

   -45.7941 -22.5176 -22.4210 -22.3676  -6.9593  -6.3407  -5.9534  -5.0193
    -4.9869  -4.9634  -4.8551  -4.6120   2.6348   5.4886   6.3317   6.7399
     7.1054   7.3567   7.6183   8.3558   9.2505   9.5743

          k = 0.0000-0.5000 0.0000 ( 10518 PWs)   bands (ev):

   -45.7943 -22.4784 -22.4404 -22.3686  -6.9868  -6.3848  -6.1821  -5.0501
    -4.9990  -4.9850  -4.7500  -4.7464   3.0200   5.6064   6.9050   6.9128
     7.3307   7.4374   8.2028   8.2530   8.6897  10.3700

          k = 0.0000-0.5000 0.2378 ( 10552 PWs)   bands (ev):

   -45.7941 -22.4975 -22.4392 -22.3677  -6.9401  -6.3227  -6.0722  -5.0152
    -5.0019  -4.9996  -4.7819  -4.6518   2.7781   5.5642   6.5545   6.7687
     7.0925   7.2355   7.9438   8.2802   8.8770   9.8841

          k = 0.0000-0.5000-0.4756 ( 10560 PWs)   bands (ev):

   -45.7938 -22.5164 -22.4380 -22.3669  -6.9255  -6.2571  -5.9088  -5.0188
    -5.0003  -4.9729  -4.8275  -4.5615   2.5526   5.3577   6.0234   6.7895
     7.0600   7.2948   7.3961   8.2965   9.2224   9.5685

          k = 0.1667 0.1667 0.0000 ( 10547 PWs)   bands (ev):

   -45.7950 -22.4801 -22.3881 -22.3878  -7.3083  -6.4605  -6.1838  -5.0158
    -5.0023  -4.9638  -4.8244  -4.6600   3.4921   6.2517   6.4875   6.7267
     7.6557   7.7890   8.4674   8.5343   8.8211   9.1843

          k = 0.1667 0.1667 0.2378 ( 10536 PWs)   bands (ev):

   -45.7947 -22.4995 -22.3872 -22.3870  -7.1500  -6.4387  -6.1152  -5.0168
    -4.9929  -4.9584  -4.8178  -4.6739   3.1419   6.0422   6.1231   6.8471
     7.4932   7.5180   8.2764   8.6775   8.8993   9.3316

          k = 0.1667 0.1667-0.4756 ( 10532 PWs)   bands (ev):

   -45.7944 -22.5187 -22.3863 -22.3861  -6.9938  -6.4167  -6.0340  -5.0276
    -4.9726  -4.9361  -4.8245  -4.6917   2.8135   5.8397   5.8566   6.5714
     7.3502   7.4714   8.2096   8.7413   8.9531   9.6825

          k = 0.1667 0.3333 0.0000 ( 10525 PWs)   bands (ev):

   -45.7943 -22.4785 -22.4223 -22.3864  -7.0237  -6.4060  -6.2008  -5.0326
    -4.9911  -4.9472  -4.7821  -4.6689   3.0141   5.9567   6.4908   6.8231
     7.1472   7.7060   8.0380   8.6510   8.8180   9.6818

          k = 0.1667 0.3333 0.2378 ( 10536 PWs)   bands (ev):

   -45.7941 -22.4977 -22.4213 -22.3856  -6.9160  -6.3975  -6.1177  -5.0116
    -4.9884  -4.9289  -4.7678  -4.6312   2.9004   5.7813   5.9425   6.4621
     6.8992   7.5624   8.3332   8.6159   8.9543   9.4309

          k = 0.1667 0.3333-0.4756 ( 10544 PWs)   bands (ev):

   -45.7938 -22.5167 -22.4202 -22.3847  -6.8401  -6.3792  -5.9991  -5.0118
    -4.9649  -4.8934  -4.7759  -4.5876   2.7469   5.4404   5.8403   6.2155
     6.4038   7.4178   8.4378   8.6598   8.9683   9.3860

          k = 0.1667-0.5000 0.0000 ( 10512 PWs)   bands (ev):

   -45.7940 -22.4776 -22.4394 -22.3856  -6.8669  -6.3627  -6.2359  -5.0337
    -4.9833  -4.9285  -4.7290  -4.7244   2.8239   5.6245   6.6200   6.8138
     7.1839   7.4562   7.8414   8.7008   8.7981  10.0025

          k = 0.1667-0.5000 0.2378 ( 10542 PWs)   bands (ev):

   -45.7937 -22.4966 -22.4383 -22.3848  -6.8157  -6.3345  -6.1395  -5.0098
    -4.9759  -4.9128  -4.7329  -4.6296   2.7898   5.5716   5.8453   6.2318
     6.8484   7.6981   8.1242   8.6143   8.9669   9.3993

          k = 0.1667-0.5000-0.4756 ( 10548 PWs)   bands (ev):

   -45.7935 -22.5156 -22.4372 -22.3839  -6.8057  -6.3073  -5.9843  -5.0070
    -4.9375  -4.8955  -4.7447  -4.5395   2.7177   5.3263   5.6777   5.8700
     6.2997   7.5324   8.3228   8.5828   8.6425   9.5815

          k = 0.3333 0.3333 0.0000 ( 10499 PWs)   bands (ev):

   -45.7937 -22.4769 -22.4206 -22.4203  -6.7678  -6.3577  -6.2691  -5.0131
    -4.9695  -4.8700  -4.7110  -4.6688   2.6147   5.9071   6.0882   6.8978
     7.0733   7.1976   7.8790   8.4919   9.2977   9.4306

          k = 0.3333 0.3333 0.2378 ( 10531 PWs)   bands (ev):

   -45.7934 -22.4959 -22.4197 -22.4195  -6.6649  -6.3968  -6.2030  -4.9764
    -4.9654  -4.8270  -4.6654  -4.6008   2.7964   5.5545   5.6384   5.9037
     6.6261   7.0700   8.4191   8.9271   8.9659   9.3147

          k = 0.3333 0.3333-0.4756 ( 10512 PWs)   bands (ev):

   -45.7932 -22.5148 -22.4187 -22.4186  -6.6159  -6.4336  -6.0724  -4.9607
    -4.9407  -4.7790  -4.6191  -4.5349   2.9685   5.1560   5.1937   5.6731
     6.3579   6.5448   7.7558   9.2698   9.2839   9.4567

          k = 0.3333-0.5000 0.0000 ( 10498 PWs)   bands (ev):

   -45.7934 -22.4759 -22.4375 -22.4196  -6.6381  -6.3242  -6.3094  -5.0055
    -4.9470  -4.7980  -4.7118  -4.6725   2.4297   5.5945   6.1257   6.7374
     7.2457   7.3865   7.4753   8.4794   9.1343   9.4920

          k = 0.3333-0.5000 0.2378 ( 10512 PWs)   bands (ev):

   -45.7931 -22.4949 -22.4365 -22.4187  -6.5546  -6.3619  -6.2593  -4.9688
    -4.9390  -4.7473  -4.6406  -4.5891   2.7115   5.4783   5.5491   5.6646
     6.3992   7.1421   7.9952   8.9341   8.9429   9.4678

          k = 0.3333-0.5000-0.4756 ( 10552 PWs)   bands (ev):

   -45.7928 -22.5138 -22.4355 -22.4178  -6.5620  -6.3976  -6.1044  -4.9439
    -4.9198  -4.7050  -4.5691  -4.4956   3.0667   4.9204   5.1184   5.4453
     6.1473   6.5446   7.0340   9.3761   9.4381   9.6116

          k =-0.5000-0.5000 0.0000 ( 10540 PWs)   bands (ev):

   -45.7930 -22.4750 -22.4365 -22.4365  -6.5529  -6.3080  -6.3080  -4.9958
    -4.9069  -4.7152  -4.7152  -4.6651   2.2354   5.4343   5.9960   6.9685
     6.9685   7.4848   7.4848   8.2520   8.6655   9.7438

          k =-0.5000-0.5000 0.2378 ( 10512 PWs)   bands (ev):

   -45.7928 -22.4940 -22.4356 -22.4356  -6.3770  -6.3770  -6.3570  -4.9578
    -4.9050  -4.6385  -4.5958  -4.5958   2.6154   5.3917   5.6107   5.6107
     6.0023   7.0797   7.3857   8.9596   8.9596   9.7290

          k =-0.5000-0.5000-0.4756 ( 10536 PWs)   bands (ev):

   -45.7925 -22.5129 -22.4347 -22.4347  -6.4387  -6.4387  -6.1551  -4.9199
    -4.9032  -4.6032  -4.4820  -4.4820   3.1928   4.9877   4.9877   5.2796
     6.0086   6.1152   6.2339   9.6273   9.6273   9.7142

     highest occupied level (ev):    10.3700

!    total energy              =    -380.57583896 Ry
     estimated scf accuracy    <          1.1E-11 Ry

     The total energy is the sum of the following terms:
     one-electron contribution =     -85.72246643 Ry
     hartree contribution      =      72.00567689 Ry
     xc contribution           =    -102.58518680 Ry
     ewald contribution        =    -264.27386262 Ry

     convergence has been achieved in   8 iterations

     negative rho (up, down):  1.578E-02 0.000E+00

     Forces acting on atoms (cartesian axes, Ry/au):

     atom    1 type  1   force =     0.00000000    0.00000000    0.00017522
     atom    2 type  2   force =     0.00000000    0.00000000   -0.00085934
     atom    3 type  3   force =     0.00000000    0.00000000    0.00036930
     atom    4 type  3   force =     0.00000000    0.00000000    0.00015741
     atom    5 type  3   force =     0.00000000    0.00000000    0.00015741

     Total force =     0.000977     Total SCF correction =     0.000011


     Computing stress (Cartesian axis) and pressure


     negative rho (up, down):  1.578E-02 0.000E+00
          total   stress  (Ry/bohr**3)                   (kbar)     P=      -42.54
  -0.00034067   0.00000000   0.00000000          -50.11        0.00        0.00
   0.00000000  -0.00034067   0.00000000            0.00      -50.11        0.00
   0.00000000   0.00000000  -0.00018613            0.00        0.00      -27.38

     Energy error            =      2.9E-06 Ry
     Gradient error          =      8.6E-04 Ry/Bohr

     bfgs converged in   9 scf cycles and   8 bfgs steps
     (criteria: energy <  1.0E-04 Ry, force <  1.0E-03 Ry/Bohr)

     End of BFGS Geometry Optimization

     Final energy             =    -380.5758389637 Ry

     File ./pto_130.bfgs deleted, as requested
Begin final coordinates

ATOMIC_POSITIONS (crystal)
Pb               0.0000000000        0.0000000000        0.9934671541
Ti               0.5000000000        0.5000000000        0.5381726440
O                0.5000000000        0.5000000000        0.1067177251
O                0.5000000000        0.0000000000        0.6144633824
O                0.0000000000        0.5000000000        0.6144633824
End final coordinates



     Writing all to output data dir ./pto_130.save/ :
     XML data file, charge density, pseudopotentials, collected wavefunctions
 
     init_run     :      0.95s CPU      1.08s WALL (       1 calls)
     electrons    :    270.81s CPU    284.59s WALL (       9 calls)
     update_pot   :      0.10s CPU      0.11s WALL (       8 calls)
     forces       :      3.46s CPU      3.83s WALL (       9 calls)
     stress       :     34.52s CPU     35.71s WALL (       9 calls)

     Called by init_run:
     wfcinit      :      0.52s CPU      0.56s WALL (       1 calls)
     potinit      :      0.02s CPU      0.03s WALL (       1 calls)
     hinit0       :      0.18s CPU      0.21s WALL (       1 calls)

     Called by electrons:
     c_bands      :    223.44s CPU    229.02s WALL (      89 calls)
     sum_band     :     33.19s CPU     37.38s WALL (      89 calls)
     v_of_rho     :      0.50s CPU      0.51s WALL (      94 calls)
     newd         :     14.50s CPU     18.59s WALL (      94 calls)
     mix_rho      :      0.31s CPU      0.32s WALL (      89 calls)

     Called by c_bands:
     init_us_2    :      2.37s CPU      2.44s WALL (    5910 calls)
     init_us_2:cp :      2.36s CPU      2.42s WALL (    5910 calls)
     ccgdiagg     :    198.83s CPU    203.93s WALL (    2670 calls)
     wfcrot       :     23.52s CPU     23.95s WALL (    2310 calls)

     Called by *cgdiagg:
     h_psi        :    142.49s CPU    145.95s WALL (  228717 calls)
     s_psi        :     29.59s CPU     30.47s WALL (  455124 calls)

     Called by h_psi:
     h_psi:calbec :     18.66s CPU     19.14s WALL (  228717 calls)
     vloc_psi     :    106.07s CPU    108.61s WALL (  228717 calls)
     add_vuspsi   :     15.32s CPU     15.77s WALL (  228717 calls)
     hs_1psi      :    138.03s CPU    141.53s WALL (  226407 calls)
     s_1psi       :     33.08s CPU     33.89s WALL (  226407 calls)

     General routines
     calbec       :     36.83s CPU     37.88s WALL (  459144 calls)
     fft          :      0.68s CPU      0.70s WALL (     630 calls)
     ffts         :      0.05s CPU      0.05s WALL (     183 calls)
     fftw         :     90.11s CPU     92.10s WALL (  613734 calls)
     interpolate  :      0.15s CPU      0.15s WALL (      94 calls)
 
     Parallel routines
 
     PWSCF        :   5m11.40s CPU   5m28.08s WALL

 
   This run was terminated on:   0:28:41  13Nov2025            

=------------------------------------------------------------------------------=
   JOB DONE.
=------------------------------------------------------------------------------=
TACC:  Shutdown complete. Exiting. 
