TACC:  Starting up job 2560830 
TACC:  Starting parallel tasks... 

     Program PWSCF v.7.3 starts on 18Nov2025 at  0: 3:16 

     This program is part of the open-source Quantum ESPRESSO suite
     for quantum simulation of materials; please cite
         "P. Giannozzi et al., J. Phys.:Condens. Matter 21 395502 (2009);
         "P. Giannozzi et al., J. Phys.:Condens. Matter 29 465901 (2017);
         "P. Giannozzi et al., J. Chem. Phys. 152 154105 (2020);
          URL http://www.quantum-espresso.org", 
     in publications or presentations arising from this work. More details at
     http://www.quantum-espresso.org/quote

     Parallel version (MPI & OpenMP), running on      10 processor cores
     Number of MPI processes:                10
     Threads/MPI process:                     1

     MPI processes distributed on     1 nodes
     189441 MiB available memory on the printing compute node when the environment starts
 
     Waiting for input...
     Reading input from standard input
Warning: card &CELL ignored
Warning: card  CELL_DYNAMICS = 'BFGS', ignored
Warning: card  PRESS=0.D0, ignored
Warning: card / ignored

     Current dimensions of program PWSCF are:
     Max number of different atomic species (ntypx) = 10
     Max number of k-points (npk) =  40000
     Max angular momentum in pseudopotentials (lmaxx) =  4
     Message from routine setup:
     using ibrav=0 with symmetry is DISCOURAGED, use correct ibrav instead
 
     R & G space division:  proc/nbgrp/npool/nimage =      10
     Subspace diagonalization in iterative solution of the eigenvalue problem:
     a serial algorithm will be used

 
     Parallelization info
     --------------------
     sticks:   dense  smooth     PW     G-vecs:    dense   smooth      PW
     Min         209      84     25                 7667     1942     321
     Max         210      85     26                 7672     1947     324
     Sum        2093     845    253                76691    19439    3227
 
     Using Slab Decomposition
 


     bravais-lattice index     =            0
     lattice parameter (alat)  =       7.2783  a.u.
     unit-cell volume          =     406.0535 (a.u.)^3
     number of atoms/cell      =            5
     number of atomic types    =            3
     number of electrons       =        44.00
     number of Kohn-Sham states=           22
     kinetic-energy cutoff     =      50.0000  Ry
     charge density cutoff     =     500.0000  Ry
     scf convergence threshold =      1.0E-08
     mixing beta               =       0.7000
     number of iterations used =            8  plain     mixing
     energy convergence thresh.=      1.0E-04
     force convergence thresh. =      1.0E-03
     Exchange-correlation= SLA  PZ   NOGX NOGC
                           (   1   1   0   0   0   0   0)
     nstep                     =           50


     celldm(1)=   7.278318  celldm(2)=   0.000000  celldm(3)=   0.000000
     celldm(4)=   0.000000  celldm(5)=   0.000000  celldm(6)=   0.000000

     crystal axes: (cart. coord. in units of alat)
               a(1) = (   1.000000   0.000000   0.000000 )  
               a(2) = (   0.000000   1.001039   0.000000 )  
               a(3) = (   0.000000   0.000000   1.052057 )  

     reciprocal axes: (cart. coord. in units 2 pi/alat)
               b(1) = (  1.000000  0.000000  0.000000 )  
               b(2) = (  0.000000  0.998963  0.000000 )  
               b(3) = (  0.000000  0.000000  0.950519 )  


     PseudoPot. # 1 for Pb read from file:
     /scratch/11018/zhc/assisgnment3/input_files/Pb_LDA.UPF
     MD5 check sum: 062a37469794d955244864f8fe2e5624
     Pseudo is Ultrasoft + core correction, Zval = 14.0
     Generated by new atomic code, or converted to UPF format
     Using radial grid of  899 points,  6 beta functions with: 
                l(1) =   0
                l(2) =   0
                l(3) =   1
                l(4) =   1
                l(5) =   2
                l(6) =   2
     Q(r) pseudized with  6 coefficients,  rinner =    1.000   1.000   1.000
                                                       1.000   1.000

     PseudoPot. # 2 for Ti read from file:
     /scratch/11018/zhc/assisgnment3/input_files/Ti_LDA.UPF
     MD5 check sum: 0d9f225c038fe889ca2a701dcc8d72cb
     Pseudo is Ultrasoft + core correction, Zval = 12.0
     Generated by new atomic code, or converted to UPF format
     Using radial grid of  851 points,  6 beta functions with: 
                l(1) =   0
                l(2) =   0
                l(3) =   1
                l(4) =   1
                l(5) =   2
                l(6) =   2
     Q(r) pseudized with  6 coefficients,  rinner =    1.000   1.000   1.000
                                                       1.000   1.000

     PseudoPot. # 3 for O  read from file:
     /scratch/11018/zhc/assisgnment3/input_files/O_LDA.UPF
     MD5 check sum: 194b818514d2a7dbb603bb78519a4f40
     Pseudo is Ultrasoft + core correction, Zval =  6.0
     Generated by new atomic code, or converted to UPF format
     Using radial grid of  737 points,  5 beta functions with: 
                l(1) =   0
                l(2) =   0
                l(3) =   1
                l(4) =   1
                l(5) =   2
     Q(r) pseudized with  8 coefficients,  rinner =    0.900   0.900   0.900
                                                       0.900   0.900

     atomic species   valence    mass     pseudopotential
     Pb               14.00   207.20000     Pb( 1.00)
     Ti               12.00    47.88000     Ti( 1.00)
     O                 6.00    16.00000     O ( 1.00)

      4 Sym. Ops. (no inversion) found



   Cartesian axes

     site n.     atom                  positions (alat units)
         1        Pb     tau(   1) = (   0.0000000   0.0000000   1.0575005  )
         2        Ti     tau(   2) = (   0.5000000   0.5005193   0.5676212  )
         3        O      tau(   3) = (   0.5000000   0.5005193   0.1046880  )
         4        O      tau(   4) = (   0.5000000   0.0000000   0.6433689  )
         5        O      tau(   5) = (   0.0000000   0.5005193   0.6433689  )

     number of k points=    48
                       cart. coord. in units 2pi/alat
        k(    1) = (   0.0000000   0.0000000   0.0000000), wk =   0.0138889
        k(    2) = (   0.0000000   0.0000000   0.2376296), wk =   0.0277778
        k(    3) = (   0.0000000   0.0000000  -0.4752593), wk =   0.0138889
        k(    4) = (   0.0000000   0.1664938   0.0000000), wk =   0.0277778
        k(    5) = (   0.0000000   0.1664938   0.2376296), wk =   0.0555556
        k(    6) = (   0.0000000   0.1664938  -0.4752593), wk =   0.0277778
        k(    7) = (   0.0000000   0.3329875   0.0000000), wk =   0.0277778
        k(    8) = (   0.0000000   0.3329875   0.2376296), wk =   0.0555556
        k(    9) = (   0.0000000   0.3329875  -0.4752593), wk =   0.0277778
        k(   10) = (   0.0000000  -0.4994813   0.0000000), wk =   0.0138889
        k(   11) = (   0.0000000  -0.4994813   0.2376296), wk =   0.0277778
        k(   12) = (   0.0000000  -0.4994813  -0.4752593), wk =   0.0138889
        k(   13) = (   0.1666667   0.0000000   0.0000000), wk =   0.0277778
        k(   14) = (   0.1666667   0.0000000   0.2376296), wk =   0.0555556
        k(   15) = (   0.1666667   0.0000000  -0.4752593), wk =   0.0277778
        k(   16) = (   0.1666667   0.1664938   0.0000000), wk =   0.0555556
        k(   17) = (   0.1666667   0.1664938   0.2376296), wk =   0.1111111
        k(   18) = (   0.1666667   0.1664938  -0.4752593), wk =   0.0555556
        k(   19) = (   0.1666667   0.3329875   0.0000000), wk =   0.0555556
        k(   20) = (   0.1666667   0.3329875   0.2376296), wk =   0.1111111
        k(   21) = (   0.1666667   0.3329875  -0.4752593), wk =   0.0555556
        k(   22) = (   0.1666667  -0.4994813   0.0000000), wk =   0.0277778
        k(   23) = (   0.1666667  -0.4994813   0.2376296), wk =   0.0555556
        k(   24) = (   0.1666667  -0.4994813  -0.4752593), wk =   0.0277778
        k(   25) = (   0.3333333   0.0000000   0.0000000), wk =   0.0277778
        k(   26) = (   0.3333333   0.0000000   0.2376296), wk =   0.0555556
        k(   27) = (   0.3333333   0.0000000  -0.4752593), wk =   0.0277778
        k(   28) = (   0.3333333   0.1664938   0.0000000), wk =   0.0555556
        k(   29) = (   0.3333333   0.1664938   0.2376296), wk =   0.1111111
        k(   30) = (   0.3333333   0.1664938  -0.4752593), wk =   0.0555556
        k(   31) = (   0.3333333   0.3329875   0.0000000), wk =   0.0555556
        k(   32) = (   0.3333333   0.3329875   0.2376296), wk =   0.1111111
        k(   33) = (   0.3333333   0.3329875  -0.4752593), wk =   0.0555556
        k(   34) = (   0.3333333  -0.4994813   0.0000000), wk =   0.0277778
        k(   35) = (   0.3333333  -0.4994813   0.2376296), wk =   0.0555556
        k(   36) = (   0.3333333  -0.4994813  -0.4752593), wk =   0.0277778
        k(   37) = (  -0.5000000   0.0000000   0.0000000), wk =   0.0138889
        k(   38) = (  -0.5000000   0.0000000   0.2376296), wk =   0.0277778
        k(   39) = (  -0.5000000   0.0000000  -0.4752593), wk =   0.0138889
        k(   40) = (  -0.5000000   0.1664938   0.0000000), wk =   0.0277778
        k(   41) = (  -0.5000000   0.1664938   0.2376296), wk =   0.0555556
        k(   42) = (  -0.5000000   0.1664938  -0.4752593), wk =   0.0277778
        k(   43) = (  -0.5000000   0.3329875   0.0000000), wk =   0.0277778
        k(   44) = (  -0.5000000   0.3329875   0.2376296), wk =   0.0555556
        k(   45) = (  -0.5000000   0.3329875  -0.4752593), wk =   0.0277778
        k(   46) = (  -0.5000000  -0.4994813   0.0000000), wk =   0.0138889
        k(   47) = (  -0.5000000  -0.4994813   0.2376296), wk =   0.0277778
        k(   48) = (  -0.5000000  -0.4994813  -0.4752593), wk =   0.0138889

     Dense  grid:    76691 G-vectors     FFT dimensions: (  54,  54,  60)

     Smooth grid:    19439 G-vectors     FFT dimensions: (  36,  36,  36)

     Estimated max dynamical RAM per process >      37.98 MB

     Estimated total dynamical RAM >     379.76 MB

     Check: negative core charge=   -0.000004

     Initial potential from superposition of free atoms

     starting charge      42.9982, renormalised to      44.0000

     negative rho (up, down):  1.668E-02 0.000E+00
     Starting wfcs are   31 randomized atomic wfcs

     total cpu time spent up to now is        0.8 secs

     Self-consistent Calculation

     iteration #  1     ecut=    50.00 Ry     beta= 0.70
     CG style diagonalization
     ethr =  1.00E-02,  avg # of iterations =  2.1

     negative rho (up, down):  1.400E-02 0.000E+00

     total cpu time spent up to now is        1.6 secs

     total energy              =    -380.06314427 Ry
     estimated scf accuracy    <       1.02070468 Ry

     iteration #  2     ecut=    50.00 Ry     beta= 0.70
     CG style diagonalization
     ethr =  2.32E-03,  avg # of iterations =  4.8

     negative rho (up, down):  1.451E-02 0.000E+00

     total cpu time spent up to now is        3.0 secs

     total energy              =    -379.75491786 Ry
     estimated scf accuracy    <       3.91878113 Ry

     iteration #  3     ecut=    50.00 Ry     beta= 0.70
     CG style diagonalization
     ethr =  2.32E-03,  avg # of iterations =  4.3

     negative rho (up, down):  1.512E-02 0.000E+00

     total cpu time spent up to now is        4.3 secs

     total energy              =    -380.53702151 Ry
     estimated scf accuracy    <       0.31213403 Ry

     iteration #  4     ecut=    50.00 Ry     beta= 0.70
     CG style diagonalization
     ethr =  7.09E-04,  avg # of iterations =  3.4

     negative rho (up, down):  1.511E-02 0.000E+00

     total cpu time spent up to now is        5.3 secs

     total energy              =    -380.56012292 Ry
     estimated scf accuracy    <       0.04239016 Ry

     iteration #  5     ecut=    50.00 Ry     beta= 0.70
     CG style diagonalization
     ethr =  9.63E-05,  avg # of iterations =  3.9

     negative rho (up, down):  1.511E-02 0.000E+00

     total cpu time spent up to now is        6.5 secs

     total energy              =    -380.57146498 Ry
     estimated scf accuracy    <       0.00808325 Ry

     iteration #  6     ecut=    50.00 Ry     beta= 0.70
     CG style diagonalization
     ethr =  1.84E-05,  avg # of iterations =  3.9

     negative rho (up, down):  1.512E-02 0.000E+00

     total cpu time spent up to now is        7.6 secs

     total energy              =    -380.57361920 Ry
     estimated scf accuracy    <       0.00603624 Ry

     iteration #  7     ecut=    50.00 Ry     beta= 0.70
     CG style diagonalization
     ethr =  1.37E-05,  avg # of iterations =  3.3

     negative rho (up, down):  1.513E-02 0.000E+00

     total cpu time spent up to now is        8.6 secs

     total energy              =    -380.57362146 Ry
     estimated scf accuracy    <       0.00160468 Ry

     iteration #  8     ecut=    50.00 Ry     beta= 0.70
     CG style diagonalization
     ethr =  3.65E-06,  avg # of iterations =  3.7

     negative rho (up, down):  1.516E-02 0.000E+00

     total cpu time spent up to now is        9.7 secs

     total energy              =    -380.57397314 Ry
     estimated scf accuracy    <       0.00000940 Ry

     iteration #  9     ecut=    50.00 Ry     beta= 0.70
     CG style diagonalization
     c_bands:  1 eigenvalues not converged
     c_bands:  1 eigenvalues not converged
     c_bands:  1 eigenvalues not converged
     c_bands:  1 eigenvalues not converged
     ethr =  2.14E-08,  avg # of iterations =  7.9

     negative rho (up, down):  1.519E-02 0.000E+00

     total cpu time spent up to now is       12.0 secs

     total energy              =    -380.57403372 Ry
     estimated scf accuracy    <       0.00003528 Ry

     iteration # 10     ecut=    50.00 Ry     beta= 0.70
     CG style diagonalization
     ethr =  2.14E-08,  avg # of iterations =  3.5

     negative rho (up, down):  1.525E-02 0.000E+00

     total cpu time spent up to now is       13.1 secs

     total energy              =    -380.57402952 Ry
     estimated scf accuracy    <       0.00002111 Ry

     iteration # 11     ecut=    50.00 Ry     beta= 0.70
     CG style diagonalization
     ethr =  2.14E-08,  avg # of iterations =  3.7

     negative rho (up, down):  1.531E-02 0.000E+00

     total cpu time spent up to now is       14.2 secs

     total energy              =    -380.57403029 Ry
     estimated scf accuracy    <       0.00000259 Ry

     iteration # 12     ecut=    50.00 Ry     beta= 0.70
     CG style diagonalization
     ethr =  5.88E-09,  avg # of iterations =  4.6

     negative rho (up, down):  1.530E-02 0.000E+00

     total cpu time spent up to now is       15.5 secs

     total energy              =    -380.57403133 Ry
     estimated scf accuracy    <       0.00000081 Ry

     iteration # 13     ecut=    50.00 Ry     beta= 0.70
     CG style diagonalization
     ethr =  1.83E-09,  avg # of iterations =  5.4

     negative rho (up, down):  1.530E-02 0.000E+00

     total cpu time spent up to now is       17.1 secs

     total energy              =    -380.57403197 Ry
     estimated scf accuracy    <       0.00000003 Ry

     iteration # 14     ecut=    50.00 Ry     beta= 0.70
     CG style diagonalization
     c_bands:  1 eigenvalues not converged
     c_bands:  1 eigenvalues not converged
     c_bands:  1 eigenvalues not converged
     ethr =  7.39E-11,  avg # of iterations = 10.0

     negative rho (up, down):  1.531E-02 0.000E+00

     total cpu time spent up to now is       20.2 secs

     End of self-consistent calculation

          k = 0.0000 0.0000 0.0000 (  2421 PWs)   bands (ev):

   -45.1509 -21.8314 -21.7489 -21.7478  -7.1562  -6.0019  -5.7430  -4.3947
    -4.3944  -4.3544  -4.2365  -4.1246   4.8586   6.7461   6.7542   7.1222
     8.7266   8.7285   8.9640   9.3062   9.4573   9.4590

          k = 0.0000 0.0000 0.2376 (  2429 PWs)   bands (ev):

   -45.1506 -21.8549 -21.7480 -21.7469  -6.9488  -5.9403  -5.6731  -4.4125
    -4.4122  -4.3529  -4.2245  -4.2015   3.9943   6.8013   6.8079   7.3227
     8.4726   8.4766   8.8812   9.3932   9.5769   9.5777

          k = 0.0000 0.0000-0.4753 (  2410 PWs)   bands (ev):

   -45.1502 -21.8781 -21.7471 -21.7460  -6.7234  -5.8727  -5.6098  -4.4301
    -4.4298  -4.3514  -4.2845  -4.2141   3.4505   6.6272   6.8359   6.8405
     8.3144   8.3212   8.8024   9.6533   9.6536  10.6709

          k = 0.0000 0.1665 0.0000 (  2419 PWs)   bands (ev):

   -45.1505 -21.8306 -21.7682 -21.7481  -7.0113  -5.9678  -5.7121  -4.4193
    -4.3928  -4.3692  -4.2396  -4.1128   4.3684   6.8118   6.8643   7.1554
     8.6833   8.7507   8.9618   9.0805   9.1868   9.5792

          k = 0.0000 0.1665 0.2376 (  2428 PWs)   bands (ev):

   -45.1502 -21.8538 -21.7672 -21.7471  -6.8204  -5.9219  -5.6364  -4.4178
    -4.4112  -4.3684  -4.2336  -4.1528   3.7599   6.5946   6.9293   7.4063
     8.1428   8.4584   8.7819   9.1745   9.2483   9.9502

          k = 0.0000 0.1665-0.4753 (  2426 PWs)   bands (ev):

   -45.1498 -21.8769 -21.7661 -21.7462  -6.6231  -5.8698  -5.5579  -4.4294
    -4.4140  -4.3675  -4.2384  -4.1881   3.3052   6.2778   6.9677   7.0521
     7.9455   8.3120   8.8497   9.2327   9.3301  10.5932

          k = 0.0000 0.3330 0.0000 (  2422 PWs)   bands (ev):

   -45.1497 -21.8290 -21.8086 -21.7464  -6.6967  -5.8936  -5.6663  -4.4566
    -4.3989  -4.3895  -4.2347  -4.1179   3.7394   6.4461   7.1069   7.1456
     8.3423   8.3744   8.8159   8.8693   9.3061  10.2339

          k = 0.0000 0.3330 0.2376 (  2411 PWs)   bands (ev):

   -45.1494 -21.8517 -21.8075 -21.7454  -6.5722  -5.8509  -5.5692  -4.4234
    -4.4093  -4.3990  -4.2272  -4.0924   3.3724   6.3150   7.0153   7.2442
     7.7770   8.2012   8.3563   8.9249   9.4384  10.3125

          k = 0.0000 0.3330-0.4753 (  2422 PWs)   bands (ev):

   -45.1491 -21.8744 -21.8062 -21.7444  -6.4798  -5.7833  -5.4414  -4.4286
    -4.3995  -4.3823  -4.2633  -4.0393   3.0512   5.9907   6.7781   7.2866
     7.6637   7.8287   8.1439   8.9568   9.8758  10.1446

          k = 0.0000-0.4995 0.0000 (  2428 PWs)   bands (ev):

   -45.1493 -21.8291 -21.8276 -21.7455  -6.5233  -5.8370  -5.6711  -4.4727
    -4.4134  -4.3879  -4.2089  -4.1500   3.5198   6.0623   7.3742   7.3881
     7.8450   7.9927   8.7377   8.9076   9.3367  11.0379

          k = 0.0000-0.4995 0.2376 (  2422 PWs)   bands (ev):

   -45.1490 -21.8504 -21.8277 -21.7445  -6.4645  -5.7609  -5.5627  -4.4358
    -4.4144  -4.4081  -4.1931  -4.0883   3.2204   6.0338   7.0449   7.2879
     7.5958   7.7921   8.4657   8.9031   9.4399  10.5178

          k = 0.0000-0.4995-0.4753 (  2432 PWs)   bands (ev):

   -45.1487 -21.8730 -21.8262 -21.7435  -6.4461  -5.6793  -5.3873  -4.4282
    -4.4153  -4.3910  -4.2488  -3.9774   2.9497   5.8512   6.4670   7.3477
     7.6115   7.8209   7.8418   8.8999   9.8195  10.1745

          k = 0.1667 0.0000 0.0000 (  2419 PWs)   bands (ev):

   -45.1505 -21.8306 -21.7696 -21.7470  -7.0103  -5.9674  -5.7119  -4.4190
    -4.3931  -4.3694  -4.2395  -4.1125   4.3688   6.8158   6.8563   7.1539
     8.6861   8.7481   8.9627   9.0811   9.1858   9.5790

          k = 0.1667 0.0000 0.2376 (  2425 PWs)   bands (ev):

   -45.1502 -21.8538 -21.7685 -21.7460  -6.8193  -5.9218  -5.6363  -4.4175
    -4.4115  -4.3685  -4.2341  -4.1515   3.7608   6.5981   6.9229   7.4053
     8.1416   8.4545   8.7816   9.1777   9.2473   9.9513

          k = 0.1667 0.0000-0.4753 (  2426 PWs)   bands (ev):

   -45.1498 -21.8769 -21.7675 -21.7451  -6.6218  -5.8702  -5.5578  -4.4297
    -4.4140  -4.3677  -4.2390  -4.1863   3.3063   6.2804   6.9635   7.0506
     7.9473   8.3052   8.8477   9.2369   9.3286  10.5916

          k = 0.1667 0.1665 0.0000 (  2419 PWs)   bands (ev):

   -45.1501 -21.8298 -21.7687 -21.7673  -6.8678  -5.9322  -5.7031  -4.4250
    -4.4093  -4.3730  -4.2155  -4.1017   4.0368   6.7351   6.9870   7.2116
     8.2075   8.3206   9.0559   9.0951   9.3983   9.8144

          k = 0.1667 0.1665 0.2376 (  2421 PWs)   bands (ev):

   -45.1498 -21.8528 -21.7676 -21.7662  -6.6879  -5.9063  -5.6279  -4.4279
    -4.4043  -4.3669  -4.2048  -4.1175   3.6364   6.5122   6.6220   7.3491
     8.0382   8.0570   8.8638   9.2382   9.4768   9.9213

          k = 0.1667 0.1665-0.4753 (  2442 PWs)   bands (ev):

   -45.1495 -21.8757 -21.7666 -21.7652  -6.5091  -5.8801  -5.5399  -4.4409
    -4.3826  -4.3441  -4.2101  -4.1394   3.2726   6.2960   6.3486   7.0393
     7.9467   7.9827   8.7670   9.3137   9.5350  10.2890

          k = 0.1667 0.3330 0.0000 (  2425 PWs)   bands (ev):

   -45.1493 -21.8281 -21.8075 -21.7668  -6.5614  -5.8599  -5.7007  -4.4495
    -4.3982  -4.3573  -4.1910  -4.1070   3.5231   6.4436   6.9868   7.2842
     7.6663   8.2549   8.5613   9.2383   9.4254  10.3136

          k = 0.1667 0.3330 0.2376 (  2427 PWs)   bands (ev):

   -45.1490 -21.8507 -21.8064 -21.7657  -6.4331  -5.8504  -5.6179  -4.4249
    -4.3990  -4.3338  -4.1695  -4.0661   3.3767   6.2631   6.3931   6.9508
     7.4033   8.0964   8.9192   9.1961   9.5301  10.0227

          k = 0.1667 0.3330-0.4753 (  2422 PWs)   bands (ev):

   -45.1487 -21.8734 -21.8052 -21.7647  -6.3431  -5.8268  -5.4953  -4.4225
    -4.3731  -4.2925  -4.1820  -4.0118   3.1859   5.9080   6.3255   6.6509
     6.8949   7.9546   9.0270   9.2429   9.5279   9.9669

          k = 0.1667-0.4995 0.0000 (  2420 PWs)   bands (ev):

   -45.1489 -21.8279 -21.8267 -21.7658  -6.3939  -5.8061  -5.7266  -4.4526
    -4.3902  -4.3354  -4.1728  -4.1402   3.3234   6.0814   7.1032   7.3296
     7.6309   7.9764   8.4245   9.2715   9.4236  10.6455

          k = 0.1667-0.4995 0.2376 (  2422 PWs)   bands (ev):

   -45.1486 -21.8495 -21.8266 -21.7648  -6.3239  -5.7711  -5.6404  -4.4231
    -4.3853  -4.3118  -4.1463  -4.0604   3.2582   6.0382   6.2878   6.6953
     7.3644   8.2389   8.6872   9.2066   9.5394   9.9868

          k = 0.1667-0.4995-0.4753 (  2404 PWs)   bands (ev):

   -45.1483 -21.8720 -21.8252 -21.7638  -6.3082  -5.7374  -5.4785  -4.4171
    -4.3411  -4.2892  -4.1650  -3.9509   3.1453   5.8026   6.1569   6.3099
     6.7470   8.0671   8.8995   9.1561   9.1850  10.1841

          k = 0.3333 0.0000 0.0000 (  2422 PWs)   bands (ev):

   -45.1497 -21.8290 -21.8104 -21.7452  -6.6937  -5.8923  -5.6656  -4.4563
    -4.3993  -4.3897  -4.2340  -4.1174   3.7393   6.4413   7.1064   7.1375
     8.3442   8.3712   8.8166   8.8695   9.3057  10.2356

          k = 0.3333 0.0000 0.2376 (  2419 PWs)   bands (ev):

   -45.1494 -21.8517 -21.8093 -21.7442  -6.5691  -5.8502  -5.5687  -4.4231
    -4.4095  -4.3994  -4.2274  -4.0901   3.3741   6.3128   7.0133   7.2379
     7.7745   8.1974   8.3537   8.9223   9.4403  10.3141

          k = 0.3333 0.0000-0.4753 (  2426 PWs)   bands (ev):

   -45.1491 -21.8744 -21.8080 -21.7432  -6.4768  -5.7831  -5.4409  -4.4289
    -4.3999  -4.3820  -4.2634  -4.0362   3.0542   5.9916   6.7742   7.2834
     7.6588   7.8260   8.1372   8.9531   9.8822  10.1376

          k = 0.3333 0.1665 0.0000 (  2426 PWs)   bands (ev):

   -45.1493 -21.8281 -21.8093 -21.7654  -6.5595  -5.8589  -5.7003  -4.4495
    -4.3982  -4.3573  -4.1906  -4.1067   3.5228   6.4385   6.9852   7.2823
     7.6675   8.2553   8.5614   9.2345   9.4252  10.3159

          k = 0.3333 0.1665 0.2376 (  2426 PWs)   bands (ev):

   -45.1490 -21.8507 -21.8083 -21.7644  -6.4311  -5.8498  -5.6176  -4.4248
    -4.3989  -4.3338  -4.1701  -4.0643   3.3778   6.2610   6.3906   6.9500
     7.4029   8.0939   8.9132   9.1938   9.5316  10.0245

          k = 0.3333 0.1665-0.4753 (  2426 PWs)   bands (ev):

   -45.1487 -21.8733 -21.8071 -21.7633  -6.3413  -5.8263  -5.4950  -4.4225
    -4.3730  -4.2926  -4.1830  -4.0090   3.1880   5.9089   6.3234   6.6500
     6.8899   7.9529   9.0217   9.2373   9.5278   9.9688

          k = 0.3333 0.3330 0.0000 (  2434 PWs)   bands (ev):

   -45.1486 -21.8264 -21.8071 -21.8053  -6.2941  -5.7921  -5.7516  -4.4292
    -4.3785  -4.2849  -4.1097  -4.1083   3.1161   6.4265   6.5198   7.3908
     7.5436   7.6909   8.3571   9.0840   9.9012  10.0452

          k = 0.3333 0.3330 0.2376 (  2424 PWs)   bands (ev):

   -45.1482 -21.8487 -21.8062 -21.8044  -6.1562  -5.8405  -5.7067  -4.3869
    -4.3714  -4.2242  -4.0609  -4.0285   3.3054   5.9691   6.0408   6.4233
     7.0652   7.5703   8.9832   9.4930   9.5380   9.9173

          k = 0.3333 0.3330-0.4753 (  2426 PWs)   bands (ev):

   -45.1479 -21.8711 -21.8051 -21.8033  -6.0858  -5.8855  -5.5818  -4.3643
    -4.3449  -4.1583  -4.0110  -3.9500   3.4706   5.5649   5.5849   6.1698
     6.8217   6.9812   8.2324   9.8715   9.8872  10.0506

          k = 0.3333-0.4995 0.0000 (  2450 PWs)   bands (ev):

   -45.1482 -21.8256 -21.8250 -21.8060  -6.1739  -5.7671  -5.7493  -4.4207
    -4.3543  -4.2203  -4.1431  -4.0735   2.9291   6.0749   6.5630   7.2023
     7.7348   7.8558   7.9747   9.0519   9.7282  10.1057

          k = 0.3333-0.4995 0.2376 (  2428 PWs)   bands (ev):

   -45.1478 -21.8475 -21.8244 -21.8052  -6.0374  -5.7960  -5.7653  -4.3775
    -4.3426  -4.1296  -4.0590  -3.9984   3.2310   5.8621   6.0157   6.0833
     6.8465   7.6414   8.5103   9.4918   9.5208  10.0777

          k = 0.3333-0.4995-0.4753 (  2420 PWs)   bands (ev):

   -45.1475 -21.8699 -21.8232 -21.8042  -6.0264  -5.8396  -5.6203  -4.3467
    -4.3202  -4.0662  -3.9737  -3.8944   3.6104   5.2961   5.4911   5.9267
     6.5828   6.9943   7.4472   9.9748  10.0504  10.2085

          k =-0.5000 0.0000 0.0000 (  2436 PWs)   bands (ev):

   -45.1493 -21.8312 -21.8276 -21.7444  -6.5192  -5.8347  -5.6707  -4.4724
    -4.4140  -4.3882  -4.2070  -4.1502   3.5195   6.0549   7.3714   7.3784
     7.8481   7.9908   8.7376   8.9075   9.3364  11.0423

          k =-0.5000 0.0000 0.2376 (  2428 PWs)   bands (ev):

   -45.1490 -21.8504 -21.8297 -21.7433  -6.4608  -5.7589  -5.5624  -4.4355
    -4.4149  -4.4084  -4.1932  -4.0854   3.2226   6.0274   7.0452   7.2834
     7.5859   7.7919   8.4639   8.9005   9.4400  10.5181

          k =-0.5000 0.0000-0.4753 (  2432 PWs)   bands (ev):

   -45.1487 -21.8729 -21.8283 -21.7423  -6.4430  -5.6777  -5.3867  -4.4284
    -4.4158  -4.3907  -4.2485  -3.9737   2.9538   5.8497   6.4614   7.3436
     7.6122   7.8108   7.8387   8.8957   9.8108  10.1784

          k =-0.5000 0.1665 0.0000 (  2416 PWs)   bands (ev):

   -45.1489 -21.8300 -21.8267 -21.7644  -6.3911  -5.8040  -5.7263  -4.4525
    -4.3902  -4.3354  -4.1713  -4.1408   3.3228   6.0736   7.0998   7.3329
     7.6262   7.9783   8.4242   9.2672   9.4224  10.6499

          k =-0.5000 0.1665 0.2376 (  2424 PWs)   bands (ev):

   -45.1486 -21.8494 -21.8286 -21.7634  -6.3215  -5.7691  -5.6403  -4.4230
    -4.3851  -4.3120  -4.1470  -4.0578   3.2596   6.0319   6.2843   6.6968
     7.3646   8.2378   8.6773   9.2045   9.5394   9.9875

          k =-0.5000 0.1665-0.4753 (  2416 PWs)   bands (ev):

   -45.1483 -21.8720 -21.8273 -21.7624  -6.3064  -5.7355  -5.4782  -4.4170
    -4.3409  -4.2894  -4.1660  -3.9473   3.1486   5.8023   6.1532   6.3053
     6.7458   8.0664   8.8879   9.1520   9.1816  10.1872

          k =-0.5000 0.3330 0.0000 (  2450 PWs)   bands (ev):

   -45.1482 -21.8277 -21.8249 -21.8042  -6.1734  -5.7677  -5.7474  -4.4207
    -4.3543  -4.2190  -4.1443  -4.0730   2.9288   6.0677   6.5688   7.2020
     7.7340   7.8503   7.9793   9.0519   9.7236  10.1092

          k =-0.5000 0.3330 0.2376 (  2428 PWs)   bands (ev):

   -45.1478 -21.8475 -21.8265 -21.8033  -6.0375  -5.7938  -5.7659  -4.3776
    -4.3424  -4.1287  -4.0609  -3.9967   3.2312   5.8606   6.0133   6.0835
     6.8482   7.6417   8.5066   9.4919   9.5202  10.0759

          k =-0.5000 0.3330-0.4753 (  2420 PWs)   bands (ev):

   -45.1475 -21.8699 -21.8253 -21.8023  -6.0275  -5.8372  -5.6203  -4.3470
    -4.3197  -4.0658  -3.9763  -3.8914   3.6117   5.2949   5.4940   5.9230
     6.5785   6.9985   7.4433   9.9711  10.0474  10.2113

          k =-0.5000-0.4995 0.0000 (  2480 PWs)   bands (ev):

   -45.1478 -21.8265 -21.8244 -21.8236  -6.1173  -5.7238  -5.7220  -4.4097
    -4.3060  -4.1663  -4.1646  -4.0219   2.7353   5.9202   6.3966   7.4155
     7.4159   7.9682   7.9746   8.8195   9.2475  10.3684

          k =-0.5000-0.4995 0.2376 (  2424 PWs)   bands (ev):

   -45.1475 -21.8462 -21.8254 -21.8233  -5.9019  -5.8101  -5.8079  -4.3651
    -4.3038  -4.0198  -4.0173  -3.9873   3.1522   5.8771   5.9846   5.9868
     6.4033   7.5829   7.8517   9.5207   9.5216  10.3508

          k =-0.5000-0.4995-0.4753 (  2400 PWs)   bands (ev):

   -45.1471 -21.8687 -21.8243 -21.8222  -5.8854  -5.8828  -5.6798  -4.3206
    -4.3016  -3.9412  -3.8817  -3.8784   3.8275   5.3237   5.3257   5.7592
     6.4099   6.4331   6.6862  10.2203  10.2231  10.3333

     highest occupied level (ev):    11.0423

!    total energy              =    -380.57403224 Ry
     estimated scf accuracy    <          5.4E-09 Ry

     The total energy is the sum of the following terms:
     one-electron contribution =     -79.57835767 Ry
     hartree contribution      =      69.89582524 Ry
     xc contribution           =    -102.68104090 Ry
     ewald contribution        =    -268.21045891 Ry

     convergence has been achieved in  14 iterations

     negative rho (up, down):  1.531E-02 0.000E+00

     Forces acting on atoms (cartesian axes, Ry/au):

     atom    1 type  1   force =     0.00000000    0.00000000    0.00042337
     atom    2 type  2   force =     0.00000000    0.00000000   -0.00026229
     atom    3 type  3   force =     0.00000000    0.00000000   -0.00007340
     atom    4 type  3   force =     0.00000000    0.00000000   -0.00015549
     atom    5 type  3   force =     0.00000000    0.00000000    0.00006780

     Total force =     0.000531     Total SCF correction =     0.000077
     SCF correction compared to forces is large: reduce conv_thr to get better values


     Computing stress (Cartesian axis) and pressure


     negative rho (up, down):  1.531E-02 0.000E+00
          total   stress  (Ry/bohr**3)                   (kbar)     P=        2.02
   0.00002457   0.00000000   0.00000000            3.62        0.00        0.00
   0.00000000   0.00001107   0.00000000            0.00        1.63        0.00
   0.00000000   0.00000000   0.00000545            0.00        0.00        0.80


     BFGS Geometry Optimization
     Energy error            =      0.0E+00 Ry
     Gradient error          =      4.2E-04 Ry/Bohr

     bfgs converged in   1 scf cycles and   0 bfgs steps
     (criteria: energy <  1.0E-04 Ry, force <  1.0E-03 Ry/Bohr)

     End of BFGS Geometry Optimization

     Final energy             =    -380.5740322419 Ry
Begin final coordinates

ATOMIC_POSITIONS (crystal)
Pb               0.0000000000        0.0000000000        1.0051738283
Ti               0.5000000000        0.5000000000        0.5395344294
O                0.5000000000        0.5000000000        0.0995079024
O                0.5000000000        0.0000000000        0.6115340639
O                0.0000000000        0.5000000000        0.6115340639
End final coordinates



     Writing all to output data dir ./pto_T1_etam0p004.save/ :
     XML data file, charge density, pseudopotentials, collected wavefunctions
 
     init_run     :      0.46s CPU      0.54s WALL (       1 calls)
     electrons    :     18.31s CPU     19.46s WALL (       1 calls)
     forces       :      0.13s CPU      0.14s WALL (       1 calls)
     stress       :      1.37s CPU      1.39s WALL (       1 calls)

     Called by init_run:
     wfcinit      :      0.25s CPU      0.28s WALL (       1 calls)
     potinit      :      0.01s CPU      0.01s WALL (       1 calls)
     hinit0       :      0.10s CPU      0.14s WALL (       1 calls)

     Called by electrons:
     c_bands      :     16.05s CPU     17.00s WALL (      14 calls)
     sum_band     :      1.67s CPU      1.75s WALL (      14 calls)
     v_of_rho     :      0.02s CPU      0.02s WALL (      15 calls)
     newd         :      0.58s CPU      0.68s WALL (      15 calls)
     mix_rho      :      0.02s CPU      0.02s WALL (      14 calls)

     Called by c_bands:
     init_us_2    :      0.14s CPU      0.15s WALL (    1488 calls)
     init_us_2:cp :      0.14s CPU      0.15s WALL (    1488 calls)
     ccgdiagg     :     14.26s CPU     15.12s WALL (     672 calls)
     wfcrot       :      1.90s CPU      2.01s WALL (     672 calls)

     Called by *cgdiagg:
     h_psi        :      9.12s CPU      9.65s WALL (   54984 calls)
     s_psi        :      1.21s CPU      1.29s WALL (  109296 calls)

     Called by h_psi:
     h_psi:calbec :      1.40s CPU      1.49s WALL (   54984 calls)
     vloc_psi     :      6.61s CPU      6.99s WALL (   54984 calls)
     add_vuspsi   :      0.68s CPU      0.72s WALL (   54984 calls)
     hs_1psi      :      8.51s CPU      9.02s WALL (   54312 calls)
     s_1psi       :      2.00s CPU      2.12s WALL (   54312 calls)

     General routines
     calbec       :      2.52s CPU      2.67s WALL (  110208 calls)
     fft          :      0.02s CPU      0.04s WALL (      96 calls)
     ffts         :      0.00s CPU      0.00s WALL (      29 calls)
     fftw         :      5.62s CPU      5.93s WALL (  153840 calls)
     interpolate  :      0.01s CPU      0.01s WALL (      15 calls)
 
     Parallel routines
 
     PWSCF        :     20.53s CPU     22.27s WALL

 
   This run was terminated on:   0: 3:38  18Nov2025            

=------------------------------------------------------------------------------=
   JOB DONE.
=------------------------------------------------------------------------------=
TACC:  Shutdown complete. Exiting. 
