TACC:  Starting up job 2553085 
TACC:  Starting parallel tasks... 

     Program PWSCF v.7.3 starts on 15Nov2025 at  2:28:33 

     This program is part of the open-source Quantum ESPRESSO suite
     for quantum simulation of materials; please cite
         "P. Giannozzi et al., J. Phys.:Condens. Matter 21 395502 (2009);
         "P. Giannozzi et al., J. Phys.:Condens. Matter 29 465901 (2017);
         "P. Giannozzi et al., J. Chem. Phys. 152 154105 (2020);
          URL http://www.quantum-espresso.org", 
     in publications or presentations arising from this work. More details at
     http://www.quantum-espresso.org/quote

     Parallel version (MPI & OpenMP), running on      10 processor cores
     Number of MPI processes:                10
     Threads/MPI process:                     1

     MPI processes distributed on     1 nodes
     179974 MiB available memory on the printing compute node when the environment starts
 
     Waiting for input...
     Reading input from standard input
Warning: card &CELL ignored
Warning: card  CELL_DYNAMICS = 'BFGS', ignored
Warning: card  PRESS=0.D0, ignored
Warning: card / ignored

     Current dimensions of program PWSCF are:
     Max number of different atomic species (ntypx) = 10
     Max number of k-points (npk) =  40000
     Max angular momentum in pseudopotentials (lmaxx) =  4
     Message from routine setup:
     using ibrav=0 with symmetry is DISCOURAGED, use correct ibrav instead
 
     R & G space division:  proc/nbgrp/npool/nimage =      10
     Subspace diagonalization in iterative solution of the eigenvalue problem:
     a serial algorithm will be used

 
     Parallelization info
     --------------------
     sticks:   dense  smooth     PW     G-vecs:    dense   smooth      PW
     Min         216      86     26                 7944     2004     338
     Max         217      87     27                 7947     2007     341
     Sum        2161     869    261                79447    20063    3391
 
     Using Slab Decomposition
 


     bravais-lattice index     =            0
     lattice parameter (alat)  =       7.3699  a.u.
     unit-cell volume          =     420.8329 (a.u.)^3
     number of atoms/cell      =            5
     number of atomic types    =            3
     number of electrons       =        44.00
     number of Kohn-Sham states=           22
     kinetic-energy cutoff     =      50.0000  Ry
     charge density cutoff     =     500.0000  Ry
     scf convergence threshold =      1.0E-08
     mixing beta               =       0.7000
     number of iterations used =            8  plain     mixing
     energy convergence thresh.=      1.0E-04
     force convergence thresh. =      1.0E-03
     Exchange-correlation= SLA  PZ   NOGX NOGC
                           (   1   1   0   0   0   0   0)
     nstep                     =           50


     celldm(1)=   7.369932  celldm(2)=   0.000000  celldm(3)=   0.000000
     celldm(4)=   0.000000  celldm(5)=   0.000000  celldm(6)=   0.000000

     crystal axes: (cart. coord. in units of alat)
               a(1) = (   1.000000   0.000000   0.000000 )  
               a(2) = (   0.000000   1.000000   0.000000 )  
               a(3) = (   0.000000   0.000000   1.051282 )  

     reciprocal axes: (cart. coord. in units 2 pi/alat)
               b(1) = (  1.000000  0.000000  0.000000 )  
               b(2) = (  0.000000  1.000000  0.000000 )  
               b(3) = (  0.000000  0.000000  0.951220 )  


     PseudoPot. # 1 for Pb read from file:
     /scratch/11018/zhc/assisgnment3/input_files/Pb_LDA.UPF
     MD5 check sum: 062a37469794d955244864f8fe2e5624
     Pseudo is Ultrasoft + core correction, Zval = 14.0
     Generated by new atomic code, or converted to UPF format
     Using radial grid of  899 points,  6 beta functions with: 
                l(1) =   0
                l(2) =   0
                l(3) =   1
                l(4) =   1
                l(5) =   2
                l(6) =   2
     Q(r) pseudized with  6 coefficients,  rinner =    1.000   1.000   1.000
                                                       1.000   1.000

     PseudoPot. # 2 for Ti read from file:
     /scratch/11018/zhc/assisgnment3/input_files/Ti_LDA.UPF
     MD5 check sum: 0d9f225c038fe889ca2a701dcc8d72cb
     Pseudo is Ultrasoft + core correction, Zval = 12.0
     Generated by new atomic code, or converted to UPF format
     Using radial grid of  851 points,  6 beta functions with: 
                l(1) =   0
                l(2) =   0
                l(3) =   1
                l(4) =   1
                l(5) =   2
                l(6) =   2
     Q(r) pseudized with  6 coefficients,  rinner =    1.000   1.000   1.000
                                                       1.000   1.000

     PseudoPot. # 3 for O  read from file:
     /scratch/11018/zhc/assisgnment3/input_files/O_LDA.UPF
     MD5 check sum: 194b818514d2a7dbb603bb78519a4f40
     Pseudo is Ultrasoft + core correction, Zval =  6.0
     Generated by new atomic code, or converted to UPF format
     Using radial grid of  737 points,  5 beta functions with: 
                l(1) =   0
                l(2) =   0
                l(3) =   1
                l(4) =   1
                l(5) =   2
     Q(r) pseudized with  8 coefficients,  rinner =    0.900   0.900   0.900
                                                       0.900   0.900

     atomic species   valence    mass     pseudopotential
     Pb               14.00   207.20000     Pb( 1.00)
     Ti               12.00    47.88000     Ti( 1.00)
     O                 6.00    16.00000     O ( 1.00)

      8 Sym. Ops. (no inversion) found



   Cartesian axes

     site n.     atom                  positions (alat units)
         1        Pb     tau(   1) = (   0.0000000   0.0000000   1.0580339  )
         2        Ti     tau(   2) = (   0.5000000   0.5000000   0.5681377  )
         3        O      tau(   3) = (   0.5000000   0.5000000   0.1036357  )
         4        O      tau(   4) = (   0.5000000   0.0000000   0.6422586  )
         5        O      tau(   5) = (   0.0000000   0.5000000   0.6422586  )

     number of k points=    18
                       cart. coord. in units 2pi/alat
        k(    1) = (   0.0000000   0.0000000   0.0000000), wk =   0.0312500
        k(    2) = (   0.0000000   0.0000000   0.2378049), wk =   0.0625000
        k(    3) = (   0.0000000   0.0000000  -0.4756098), wk =   0.0312500
        k(    4) = (   0.0000000   0.2500000   0.0000000), wk =   0.1250000
        k(    5) = (   0.0000000   0.2500000   0.2378049), wk =   0.2500000
        k(    6) = (   0.0000000   0.2500000  -0.4756098), wk =   0.1250000
        k(    7) = (   0.0000000  -0.5000000   0.0000000), wk =   0.0625000
        k(    8) = (   0.0000000  -0.5000000   0.2378049), wk =   0.1250000
        k(    9) = (   0.0000000  -0.5000000  -0.4756098), wk =   0.0625000
        k(   10) = (   0.2500000   0.2500000   0.0000000), wk =   0.1250000
        k(   11) = (   0.2500000   0.2500000   0.2378049), wk =   0.2500000
        k(   12) = (   0.2500000   0.2500000  -0.4756098), wk =   0.1250000
        k(   13) = (   0.2500000  -0.5000000   0.0000000), wk =   0.1250000
        k(   14) = (   0.2500000  -0.5000000   0.2378049), wk =   0.2500000
        k(   15) = (   0.2500000  -0.5000000  -0.4756098), wk =   0.1250000
        k(   16) = (  -0.5000000  -0.5000000   0.0000000), wk =   0.0312500
        k(   17) = (  -0.5000000  -0.5000000   0.2378049), wk =   0.0625000
        k(   18) = (  -0.5000000  -0.5000000  -0.4756098), wk =   0.0312500

     Dense  grid:    79447 G-vectors     FFT dimensions: (  54,  54,  60)

     Smooth grid:    20063 G-vectors     FFT dimensions: (  36,  36,  36)

     Estimated max dynamical RAM per process >      36.59 MB

     Estimated total dynamical RAM >     365.87 MB

     Check: negative core charge=   -0.000004

     Initial potential from superposition of free atoms

     starting charge      42.9982, renormalised to      44.0000

     negative rho (up, down):  1.690E-02 0.000E+00
     Starting wfcs are   31 randomized atomic wfcs

     total cpu time spent up to now is        0.6 secs

     Self-consistent Calculation

     iteration #  1     ecut=    50.00 Ry     beta= 0.70
     CG style diagonalization
     ethr =  1.00E-02,  avg # of iterations =  2.1

     negative rho (up, down):  1.406E-02 0.000E+00

     total cpu time spent up to now is        1.0 secs

     total energy              =    -380.04930086 Ry
     estimated scf accuracy    <       1.03101844 Ry

     iteration #  2     ecut=    50.00 Ry     beta= 0.70
     CG style diagonalization
     ethr =  2.34E-03,  avg # of iterations =  4.8

     negative rho (up, down):  1.455E-02 0.000E+00

     total cpu time spent up to now is        1.6 secs

     total energy              =    -379.58126305 Ry
     estimated scf accuracy    <       4.96109461 Ry

     iteration #  3     ecut=    50.00 Ry     beta= 0.70
     CG style diagonalization
     ethr =  2.34E-03,  avg # of iterations =  4.4

     negative rho (up, down):  1.524E-02 0.000E+00

     total cpu time spent up to now is        2.2 secs

     total energy              =    -380.53215724 Ry
     estimated scf accuracy    <       0.36464676 Ry

     iteration #  4     ecut=    50.00 Ry     beta= 0.70
     CG style diagonalization
     ethr =  8.29E-04,  avg # of iterations =  3.4

     negative rho (up, down):  1.525E-02 0.000E+00

     total cpu time spent up to now is        2.6 secs

     total energy              =    -380.55387672 Ry
     estimated scf accuracy    <       0.06615496 Ry

     iteration #  5     ecut=    50.00 Ry     beta= 0.70
     CG style diagonalization
     ethr =  1.50E-04,  avg # of iterations =  3.7

     negative rho (up, down):  1.524E-02 0.000E+00

     total cpu time spent up to now is        3.1 secs

     total energy              =    -380.56629872 Ry
     estimated scf accuracy    <       0.00879500 Ry

     iteration #  6     ecut=    50.00 Ry     beta= 0.70
     CG style diagonalization
     ethr =  2.00E-05,  avg # of iterations =  4.0

     negative rho (up, down):  1.524E-02 0.000E+00

     total cpu time spent up to now is        3.7 secs

     total energy              =    -380.57034304 Ry
     estimated scf accuracy    <       0.00586906 Ry

     iteration #  7     ecut=    50.00 Ry     beta= 0.70
     CG style diagonalization
     ethr =  1.33E-05,  avg # of iterations =  3.3

     negative rho (up, down):  1.525E-02 0.000E+00

     total cpu time spent up to now is        4.1 secs

     total energy              =    -380.57031739 Ry
     estimated scf accuracy    <       0.00182848 Ry

     iteration #  8     ecut=    50.00 Ry     beta= 0.70
     CG style diagonalization
     ethr =  4.16E-06,  avg # of iterations =  3.5

     negative rho (up, down):  1.527E-02 0.000E+00

     total cpu time spent up to now is        4.6 secs

     total energy              =    -380.57063381 Ry
     estimated scf accuracy    <       0.00001908 Ry

     iteration #  9     ecut=    50.00 Ry     beta= 0.70
     CG style diagonalization
     ethr =  4.34E-08,  avg # of iterations =  6.8

     negative rho (up, down):  1.530E-02 0.000E+00

     total cpu time spent up to now is        5.4 secs

     total energy              =    -380.57069946 Ry
     estimated scf accuracy    <       0.00002326 Ry

     iteration # 10     ecut=    50.00 Ry     beta= 0.70
     CG style diagonalization
     ethr =  4.34E-08,  avg # of iterations =  3.3

     negative rho (up, down):  1.538E-02 0.000E+00

     total cpu time spent up to now is        5.8 secs

     total energy              =    -380.57069449 Ry
     estimated scf accuracy    <       0.00001507 Ry

     iteration # 11     ecut=    50.00 Ry     beta= 0.70
     CG style diagonalization
     ethr =  3.42E-08,  avg # of iterations =  3.8

     negative rho (up, down):  1.538E-02 0.000E+00

     total cpu time spent up to now is        6.3 secs

     total energy              =    -380.57069845 Ry
     estimated scf accuracy    <       0.00000312 Ry

     iteration # 12     ecut=    50.00 Ry     beta= 0.70
     CG style diagonalization
     ethr =  7.10E-09,  avg # of iterations =  4.5

     negative rho (up, down):  1.539E-02 0.000E+00

     total cpu time spent up to now is        6.9 secs

     total energy              =    -380.57069983 Ry
     estimated scf accuracy    <       0.00000013 Ry

     iteration # 13     ecut=    50.00 Ry     beta= 0.70
     CG style diagonalization
     c_bands:  1 eigenvalues not converged
     ethr =  3.01E-10,  avg # of iterations =  9.2

     negative rho (up, down):  1.539E-02 0.000E+00

     total cpu time spent up to now is        8.1 secs

     total energy              =    -380.57070067 Ry
     estimated scf accuracy    <       0.00000004 Ry

     iteration # 14     ecut=    50.00 Ry     beta= 0.70
     CG style diagonalization
     ethr =  9.62E-11,  avg # of iterations =  5.3

     negative rho (up, down):  1.540E-02 0.000E+00

     total cpu time spent up to now is        8.7 secs

     total energy              =    -380.57070069 Ry
     estimated scf accuracy    <       0.00000007 Ry

     iteration # 15     ecut=    50.00 Ry     beta= 0.70
     CG style diagonalization
     ethr =  9.62E-11,  avg # of iterations =  3.7

     negative rho (up, down):  1.540E-02 0.000E+00

     total cpu time spent up to now is        9.2 secs

     total energy              =    -380.57070069 Ry
     estimated scf accuracy    <       0.00000002 Ry

     iteration # 16     ecut=    50.00 Ry     beta= 0.70
     CG style diagonalization
     ethr =  4.46E-11,  avg # of iterations =  4.5

     negative rho (up, down):  1.540E-02 0.000E+00

     total cpu time spent up to now is        9.8 secs

     total energy              =    -380.57070069 Ry
     estimated scf accuracy    <       0.00000001 Ry

     iteration # 17     ecut=    50.00 Ry     beta= 0.70
     CG style diagonalization
     ethr =  3.22E-11,  avg # of iterations =  4.0

     negative rho (up, down):  1.540E-02 0.000E+00

     total cpu time spent up to now is       10.3 secs

     End of self-consistent calculation

          k = 0.0000 0.0000 0.0000 (  2525 PWs)   bands (ev):

   -45.8548 -22.4883 -22.4283 -22.4283  -7.5129  -6.4344  -6.1985  -5.0278
    -5.0278  -4.9928  -4.8709  -4.7669   4.2238   6.3089   6.3089   6.6272
     8.2781   8.2781   8.4918   8.7829   8.9409   8.9409

          k = 0.0000 0.0000 0.2378 (  2517 PWs)   bands (ev):

   -45.8545 -22.5078 -22.4275 -22.4275  -7.3203  -6.3755  -6.1404  -5.0430
    -5.0430  -4.9916  -4.8632  -4.8381   3.4622   6.3786   6.3786   6.7915
     8.0110   8.0110   8.4076   8.8286   9.0471   9.0471

          k = 0.0000 0.0000-0.4756 (  2530 PWs)   bands (ev):

   -45.8543 -22.5271 -22.4267 -22.4267  -7.1101  -6.3107  -6.0902  -5.0581
    -5.0581  -4.9903  -4.9153  -4.8574   2.9645   6.1516   6.4353   6.4353
     7.8267   7.8267   8.3271   9.1171   9.1171   9.9990

          k = 0.0000 0.2500 0.0000 (  2503 PWs)   bands (ev):

   -45.8542 -22.4870 -22.4624 -22.4268  -7.2356  -6.3752  -6.1438  -5.0658
    -5.0252  -5.0183  -4.8784  -4.7564   3.4751   6.2815   6.5440   6.5769
     8.1513   8.1876   8.3891   8.4181   8.7113   9.1803

          k = 0.0000 0.2500 0.2378 (  2512 PWs)   bands (ev):

   -45.8539 -22.5061 -22.4616 -22.4260  -7.0831  -6.3411  -6.0716  -5.0472
    -5.0413  -5.0180  -4.8779  -4.7613   3.0619   6.0412   6.6291   6.7186
     7.5885   7.9066   7.9334   8.5044   8.8612   9.5254

          k = 0.0000 0.2500-0.4756 (  2508 PWs)   bands (ev):

   -45.8536 -22.5252 -22.4607 -22.4252  -6.9407  -6.2930  -5.9874  -5.0572
    -5.0237  -5.0176  -4.8985  -4.7551   2.7160   5.7045   6.5292   6.6893
     7.2705   7.7763   7.7988   8.5605   9.0803   9.7295

          k = 0.0000-0.5000 0.0000 (  2488 PWs)   bands (ev):

   -45.8535 -22.4968 -22.4852 -22.4254  -6.9217  -6.2952  -6.1270  -5.0969
    -5.0436  -5.0223  -4.8478  -4.7999   3.0107   5.6191   6.9612   6.9714
     7.3517   7.4701   8.2707   8.4523   8.8149  10.3585

          k = 0.0000-0.5000 0.2378 (  2506 PWs)   bands (ev):

   -45.8533 -22.5042 -22.4956 -22.4246  -6.8704  -6.2240  -6.0339  -5.0644
    -5.0441  -5.0394  -4.8409  -4.7359   2.7518   5.5914   6.5941   6.8589
     7.1654   7.3184   7.9719   8.3965   8.9316   9.8644

          k = 0.0000-0.5000-0.4756 (  2516 PWs)   bands (ev):

   -45.8530 -22.5230 -22.4945 -22.4238  -6.8561  -6.1476  -5.8793  -5.0563
    -5.0447  -5.0246  -4.8939  -4.6348   2.5127   5.4264   6.0419   6.9200
     7.1711   7.3717   7.3754   8.3595   9.1482   9.6561

          k = 0.2500 0.2500 0.0000 (  2528 PWs)   bands (ev):

   -45.8535 -22.4857 -22.4608 -22.4607  -6.9743  -6.3150  -6.1741  -5.0672
    -5.0368  -4.9849  -4.8133  -4.7456   3.0384   6.2076   6.4015   6.7831
     7.2470   7.4951   8.2789   8.6239   9.0486   9.5724

          k = 0.2500 0.2500 0.2378 (  2504 PWs)   bands (ev):

   -45.8533 -22.5045 -22.4601 -22.4599  -6.8363  -6.3271  -6.1138  -5.0419
    -5.0391  -4.9559  -4.7892  -4.7139   2.9609   5.8580   5.9121   6.4435
     7.1179   7.1548   8.6234   8.8832   9.1311   9.2238

          k = 0.2500 0.2500-0.4756 (  2520 PWs)   bands (ev):

   -45.8530 -22.5234 -22.4592 -22.4591  -6.7211  -6.3395  -6.0208  -5.0419
    -5.0127  -4.9055  -4.7812  -4.6870   2.8290   5.5275   5.7481   6.0635
     6.7507   7.0245   8.6187   9.0212   9.0348   9.3098

          k = 0.2500-0.5000 0.0000 (  2530 PWs)   bands (ev):

   -45.8529 -22.4949 -22.4838 -22.4591  -6.6950  -6.2427  -6.2231  -5.0636
    -5.0148  -4.9109  -4.7881  -4.7683   2.6745   5.6440   6.4428   6.6875
     7.2980   7.4732   7.6345   8.7215   9.1544   9.6044

          k = 0.2500-0.5000 0.2378 (  2506 PWs)   bands (ev):

   -45.8526 -22.5026 -22.4939 -22.4584  -6.6160  -6.2513  -6.1792  -5.0324
    -5.0038  -4.8567  -4.7530  -4.6795   2.8119   5.5998   5.6019   5.9395
     6.6989   7.3382   8.3040   8.9367   9.0193   9.2825

          k = 0.2500-0.5000-0.4756 (  2504 PWs)   bands (ev):

   -45.8524 -22.5214 -22.4928 -22.4576  -6.6082  -6.2611  -6.0476  -5.0180
    -4.9705  -4.8124  -4.7204  -4.5824   2.9211   5.2772   5.3170   5.6202
     6.1891   7.0153   7.6383   9.1264   9.1486   9.6744

          k =-0.5000-0.5000 0.0000 (  2496 PWs)   bands (ev):

   -45.8523 -22.4930 -22.4930 -22.4819  -6.5543  -6.1972  -6.1972  -5.0419
    -4.9499  -4.8101  -4.8101  -4.6714   2.3352   5.4604   5.9635   7.0022
     7.0022   7.5193   7.5193   8.2527   8.5816   9.8315

          k =-0.5000-0.5000 0.2378 (  2508 PWs)   bands (ev):

   -45.8520 -22.5008 -22.4921 -22.4921  -6.3644  -6.2823  -6.2823  -5.0038
    -4.9480  -4.6717  -4.6717  -4.6374   2.7451   5.4140   5.6183   5.6183
     5.9697   7.0857   7.2559   9.0215   9.0215   9.8160

          k =-0.5000-0.5000-0.4756 (  2504 PWs)   bands (ev):

   -45.8518 -22.5196 -22.4912 -22.4912  -6.3558  -6.3558  -6.1704  -4.9656
    -4.9462  -4.5922  -4.5428  -4.5428   3.4110   4.9841   4.9841   5.2913
     5.8876   5.9759   6.2500   9.6966   9.6966   9.8006

     highest occupied level (ev):    10.3585

!    total energy              =    -380.57070069 Ry
     estimated scf accuracy    <          2.2E-09 Ry

     The total energy is the sum of the following terms:
     one-electron contribution =     -84.08604812 Ry
     hartree contribution      =      71.17227039 Ry
     xc contribution           =    -102.54276351 Ry
     ewald contribution        =    -265.11415945 Ry

     convergence has been achieved in  17 iterations

     negative rho (up, down):  1.540E-02 0.000E+00

     Forces acting on atoms (cartesian axes, Ry/au):

     atom    1 type  1   force =     0.00000000    0.00000000   -0.00794405
     atom    2 type  2   force =     0.00000000    0.00000000   -0.01207123
     atom    3 type  3   force =     0.00000000    0.00000000    0.02021045
     atom    4 type  3   force =     0.00000000    0.00000000   -0.00009759
     atom    5 type  3   force =     0.00000000    0.00000000   -0.00009759

     Total force =     0.024846     Total SCF correction =     0.000112


     Computing stress (Cartesian axis) and pressure


     negative rho (up, down):  1.540E-02 0.000E+00
          total   stress  (Ry/bohr**3)                   (kbar)     P=      -65.32
  -0.00043333   0.00000000   0.00000000          -63.75        0.00        0.00
   0.00000000  -0.00043333   0.00000000            0.00      -63.75        0.00
   0.00000000   0.00000000  -0.00046550            0.00        0.00      -68.48


     BFGS Geometry Optimization
     Energy error            =      0.0E+00 Ry
     Gradient error          =      2.0E-02 Ry/Bohr

     number of scf cycles    =   1
     number of bfgs steps    =   0

     energy             new  =    -380.5707006937 Ry

     new trust radius        =       0.0202104499 bohr
     new conv_thr            =       0.0000000100 Ry


ATOMIC_POSITIONS (crystal)
Pb               0.0000000000        0.0000000000        1.0053971887
Ti               0.5000000000        0.5000000000        0.5388656921
O                0.5000000000        0.5000000000        0.1011888155
O                0.5000000000        0.0000000000        0.6109162958
O                0.0000000000        0.5000000000        0.6109162958



     Writing config-only to output data dir ./pto_k4.save/ :
     XML data file
     NEW-OLD atomic charge density approx. for the potential

     Check: negative core charge=   -0.000004

     negative rho (up, down):  1.527E-02 0.000E+00

     total cpu time spent up to now is       11.2 secs

     Self-consistent Calculation

     iteration #  1     ecut=    50.00 Ry     beta= 0.70
     CG style diagonalization
     c_bands:  1 eigenvalues not converged
     c_bands:  2 eigenvalues not converged
     ethr =  1.00E-06,  avg # of iterations =  6.5

     negative rho (up, down):  1.525E-02 0.000E+00

     total cpu time spent up to now is       12.1 secs

     total energy              =    -380.57106263 Ry
     estimated scf accuracy    <       0.00023660 Ry

     iteration #  2     ecut=    50.00 Ry     beta= 0.70
     CG style diagonalization
     ethr =  5.38E-07,  avg # of iterations =  4.7

     negative rho (up, down):  1.525E-02 0.000E+00

     total cpu time spent up to now is       12.7 secs

     total energy              =    -380.57103381 Ry
     estimated scf accuracy    <       0.00071638 Ry

     iteration #  3     ecut=    50.00 Ry     beta= 0.70
     CG style diagonalization
     ethr =  5.38E-07,  avg # of iterations =  4.2

     negative rho (up, down):  1.525E-02 0.000E+00

     total cpu time spent up to now is       13.3 secs

     total energy              =    -380.57117323 Ry
     estimated scf accuracy    <       0.00005602 Ry

     iteration #  4     ecut=    50.00 Ry     beta= 0.70
     CG style diagonalization
     ethr =  1.27E-07,  avg # of iterations =  3.7

     negative rho (up, down):  1.525E-02 0.000E+00

     total cpu time spent up to now is       13.7 secs

     total energy              =    -380.57118710 Ry
     estimated scf accuracy    <       0.00000646 Ry

     iteration #  5     ecut=    50.00 Ry     beta= 0.70
     CG style diagonalization
     ethr =  1.47E-08,  avg # of iterations =  4.1

     negative rho (up, down):  1.525E-02 0.000E+00

     total cpu time spent up to now is       14.3 secs

     total energy              =    -380.57119026 Ry
     estimated scf accuracy    <       0.00000059 Ry

     iteration #  6     ecut=    50.00 Ry     beta= 0.70
     CG style diagonalization
     ethr =  1.34E-09,  avg # of iterations =  4.7

     negative rho (up, down):  1.525E-02 0.000E+00

     total cpu time spent up to now is       14.9 secs

     total energy              =    -380.57119066 Ry
     estimated scf accuracy    <       0.00000034 Ry

     iteration #  7     ecut=    50.00 Ry     beta= 0.70
     CG style diagonalization
     ethr =  7.75E-10,  avg # of iterations =  3.8

     negative rho (up, down):  1.525E-02 0.000E+00

     total cpu time spent up to now is       15.4 secs

     total energy              =    -380.57119073 Ry
     estimated scf accuracy    <       0.00000006 Ry

     iteration #  8     ecut=    50.00 Ry     beta= 0.70
     CG style diagonalization
     ethr =  1.27E-10,  avg # of iterations =  4.5

     negative rho (up, down):  1.525E-02 0.000E+00

     total cpu time spent up to now is       16.0 secs

     End of self-consistent calculation

          k = 0.0000 0.0000 0.0000 (  2525 PWs)   bands (ev):

   -45.8202 -22.4759 -22.3931 -22.3931  -7.5101  -6.4284  -6.2092  -5.0303
    -5.0303  -4.9971  -4.8782  -4.7646   4.2142   6.3124   6.3124   6.6569
     8.2109   8.2109   8.4932   8.7263   8.9494   8.9494

          k = 0.0000 0.0000 0.2378 (  2517 PWs)   bands (ev):

   -45.8199 -22.4954 -22.3923 -22.3923  -7.3148  -6.3693  -6.1534  -5.0454
    -5.0454  -4.9958  -4.8705  -4.8359   3.4483   6.3726   6.3726   6.8065
     7.9688   7.9688   8.4086   8.8105   9.0524   9.0524

          k = 0.0000 0.0000-0.4756 (  2530 PWs)   bands (ev):

   -45.8197 -22.5149 -22.3915 -22.3915  -7.1005  -6.3044  -6.1067  -5.0605
    -5.0605  -4.9945  -4.9132  -4.8646   2.9436   6.1646   6.4167   6.4167
     7.8065   7.8065   8.3277   9.1224   9.1224  10.0022

          k = 0.0000 0.2500 0.0000 (  2503 PWs)   bands (ev):

   -45.8196 -22.4744 -22.4274 -22.3916  -7.2337  -6.3706  -6.1566  -5.0688
    -5.0276  -5.0224  -4.8817  -4.7542   3.4722   6.2837   6.5493   6.5812
     8.1377   8.1788   8.3372   8.4175   8.6838   9.1614

          k = 0.0000 0.2500 0.2378 (  2512 PWs)   bands (ev):

   -45.8193 -22.4937 -22.4265 -22.3908  -7.0782  -6.3371  -6.0867  -5.0499
    -5.0436  -5.0221  -4.8819  -4.7588   3.0556   6.0332   6.6257   6.7242
     7.5799   7.9042   7.9057   8.4942   8.8424   9.5246

          k = 0.0000 0.2500-0.4756 (  2508 PWs)   bands (ev):

   -45.8190 -22.5129 -22.4255 -22.3900  -6.9324  -6.2889  -6.0057  -5.0596
    -5.0258  -5.0218  -4.9029  -4.7527   2.7057   5.6864   6.5446   6.6726
     7.2655   7.7819   7.7828   8.5610   9.0541   9.7399

          k = 0.0000-0.5000 0.0000 (  2488 PWs)   bands (ev):

   -45.8189 -22.4727 -22.4617 -22.3902  -6.9198  -6.2920  -6.1438  -5.0988
    -5.0476  -5.0247  -4.8449  -4.8011   3.0085   5.6350   6.9445   6.9812
     7.3628   7.4768   8.2703   8.3776   8.7784  10.3461

          k = 0.0000-0.5000 0.2378 (  2506 PWs)   bands (ev):

   -45.8187 -22.4918 -22.4605 -22.3894  -6.8650  -6.2212  -6.0542  -5.0661
    -5.0482  -5.0418  -4.8420  -4.7333   2.7498   5.6027   6.5881   6.8499
     7.1756   7.3048   7.9716   8.3542   8.9253   9.8482

          k = 0.0000-0.5000-0.4756 (  2516 PWs)   bands (ev):

   -45.8184 -22.5107 -22.4594 -22.3885  -6.8489  -6.1452  -5.9014  -5.0586
    -5.0488  -5.0259  -4.8949  -4.6322   2.5111   5.4194   6.0427   6.9151
     7.1448   7.3862   7.3887   8.3390   9.1456   9.6303

          k = 0.2500 0.2500 0.0000 (  2528 PWs)   bands (ev):

   -45.8189 -22.4730 -22.4259 -22.4256  -6.9751  -6.3110  -6.1856  -5.0693
    -5.0398  -4.9882  -4.8177  -4.7430   3.0368   6.2220   6.3980   6.7899
     7.2374   7.4446   8.3015   8.6002   9.0485   9.5445

          k = 0.2500 0.2500 0.2378 (  2504 PWs)   bands (ev):

   -45.8187 -22.4921 -22.4250 -22.4247  -6.8334  -6.3231  -6.1286  -5.0452
    -5.0412  -4.9597  -4.7937  -4.7111   2.9566   5.8538   5.9061   6.4447
     7.1178   7.1582   8.5902   8.8838   9.1222   9.2176

          k = 0.2500 0.2500-0.4756 (  2520 PWs)   bands (ev):

   -45.8184 -22.5111 -22.4241 -22.4239  -6.7147  -6.3355  -6.0385  -5.0455
    -5.0153  -4.9097  -4.7856  -4.6839   2.8208   5.5161   5.7390   6.0687
     6.7576   7.0381   8.5840   9.0237   9.0403   9.2917

          k = 0.2500-0.5000 0.0000 (  2530 PWs)   bands (ev):

   -45.8183 -22.4712 -22.4598 -22.4241  -6.6998  -6.2403  -6.2315  -5.0653
    -5.0176  -4.9143  -4.7875  -4.7707   2.6729   5.6594   6.4582   6.6646
     7.3093   7.4846   7.5758   8.7133   9.1518   9.6051

          k = 0.2500-0.5000 0.2378 (  2506 PWs)   bands (ev):

   -45.8181 -22.4902 -22.4588 -22.4233  -6.6143  -6.2490  -6.1933  -5.0347
    -5.0064  -4.8642  -4.7520  -4.6792   2.8095   5.5978   5.6100   5.9361
     6.7014   7.3352   8.3067   8.9112   9.0097   9.2780

          k = 0.2500-0.5000-0.4756 (  2504 PWs)   bands (ev):

   -45.8178 -22.5091 -22.4577 -22.4224  -6.6034  -6.2590  -6.0635  -5.0213
    -4.9726  -4.8229  -4.7190  -4.5810   2.9176   5.2775   5.3007   5.6321
     6.1934   7.0288   7.6375   9.0995   9.1550   9.6523

          k =-0.5000-0.5000 0.0000 (  2496 PWs)   bands (ev):

   -45.8177 -22.4694 -22.4579 -22.4579  -6.5693  -6.1958  -6.1958  -5.0435
    -4.9537  -4.8067  -4.8067  -4.6835   2.3327   5.4710   5.9922   6.9693
     6.9693   7.5259   7.5259   8.2472   8.5945   9.8381

          k =-0.5000-0.5000 0.2378 (  2508 PWs)   bands (ev):

   -45.8174 -22.4884 -22.4570 -22.4570  -6.3783  -6.2805  -6.2805  -5.0054
    -4.9519  -4.6688  -4.6688  -4.6512   2.7417   5.4257   5.6072   5.6072
     5.9984   7.0813   7.2668   9.0042   9.0042   9.8227

          k =-0.5000-0.5000-0.4756 (  2504 PWs)   bands (ev):

   -45.8172 -22.5072 -22.4561 -22.4561  -6.3538  -6.3538  -6.1829  -4.9673
    -4.9501  -4.6084  -4.5404  -4.5404   3.4041   4.9758   4.9758   5.3045
     5.9008   6.0047   6.2456   9.6756   9.6756   9.8073

     highest occupied level (ev):    10.3461

!    total energy              =    -380.57119076 Ry
     estimated scf accuracy    <          2.7E-09 Ry

     The total energy is the sum of the following terms:
     one-electron contribution =     -84.30255982 Ry
     hartree contribution      =      71.28966360 Ry
     xc contribution           =    -102.55250608 Ry
     ewald contribution        =    -265.00578846 Ry

     convergence has been achieved in   8 iterations

     negative rho (up, down):  1.525E-02 0.000E+00

     Forces acting on atoms (cartesian axes, Ry/au):

     atom    1 type  1   force =     0.00000000    0.00000000   -0.00869833
     atom    2 type  2   force =     0.00000000    0.00000000   -0.00487526
     atom    3 type  3   force =     0.00000000    0.00000000    0.01136048
     atom    4 type  3   force =     0.00000000    0.00000000    0.00110655
     atom    5 type  3   force =     0.00000000    0.00000000    0.00110655

     Total force =     0.015197     Total SCF correction =     0.000078


     Computing stress (Cartesian axis) and pressure


     negative rho (up, down):  1.525E-02 0.000E+00
          total   stress  (Ry/bohr**3)                   (kbar)     P=      -60.02
  -0.00042176   0.00000000   0.00000000          -62.04        0.00        0.00
   0.00000000  -0.00042176   0.00000000            0.00      -62.04        0.00
   0.00000000   0.00000000  -0.00038050            0.00        0.00      -55.97

     Energy error            =      4.9E-04 Ry
     Gradient error          =      1.1E-02 Ry/Bohr

     number of scf cycles    =   2
     number of bfgs steps    =   1

     energy             old  =    -380.5707006937 Ry
     energy             new  =    -380.5711907563 Ry

     CASE: energy            _new < energy            _old

     new trust radius        =       0.0222314949 bohr
     new conv_thr            =       0.0000000005 Ry


ATOMIC_POSITIONS (crystal)
Pb               0.0000000000        0.0000000000        1.0033515206
Ti               0.5000000000        0.5000000000        0.5375660501
O                0.5000000000        0.5000000000        0.1040581815
O                0.5000000000        0.0000000000        0.6111542679
O                0.0000000000        0.5000000000        0.6111542679



     Writing config-only to output data dir ./pto_k4.save/ :
     XML data file
     NEW-OLD atomic charge density approx. for the potential

     Check: negative core charge=   -0.000004

     negative rho (up, down):  1.514E-02 0.000E+00

     total cpu time spent up to now is       16.8 secs

     Self-consistent Calculation

     iteration #  1     ecut=    50.00 Ry     beta= 0.70
     CG style diagonalization
     c_bands:  1 eigenvalues not converged
     c_bands:  1 eigenvalues not converged
     ethr =  1.00E-06,  avg # of iterations =  6.8

     negative rho (up, down):  1.511E-02 0.000E+00

     total cpu time spent up to now is       17.7 secs

     total energy              =    -380.57136785 Ry
     estimated scf accuracy    <       0.00023827 Ry

     iteration #  2     ecut=    50.00 Ry     beta= 0.70
     CG style diagonalization
     ethr =  5.42E-07,  avg # of iterations =  4.6

     negative rho (up, down):  1.511E-02 0.000E+00

     total cpu time spent up to now is       18.3 secs

     total energy              =    -380.57133722 Ry
     estimated scf accuracy    <       0.00069738 Ry

     iteration #  3     ecut=    50.00 Ry     beta= 0.70
     CG style diagonalization
     ethr =  5.42E-07,  avg # of iterations =  4.2

     negative rho (up, down):  1.511E-02 0.000E+00

     total cpu time spent up to now is       18.9 secs

     total energy              =    -380.57147506 Ry
     estimated scf accuracy    <       0.00005480 Ry

     iteration #  4     ecut=    50.00 Ry     beta= 0.70
     CG style diagonalization
     ethr =  1.25E-07,  avg # of iterations =  3.7

     negative rho (up, down):  1.510E-02 0.000E+00

     total cpu time spent up to now is       19.4 secs

     total energy              =    -380.57148790 Ry
     estimated scf accuracy    <       0.00000587 Ry

     iteration #  5     ecut=    50.00 Ry     beta= 0.70
     CG style diagonalization
     ethr =  1.33E-08,  avg # of iterations =  4.2

     negative rho (up, down):  1.510E-02 0.000E+00

     total cpu time spent up to now is       19.9 secs

     total energy              =    -380.57149124 Ry
     estimated scf accuracy    <       0.00000065 Ry

     iteration #  6     ecut=    50.00 Ry     beta= 0.70
     CG style diagonalization
     ethr =  1.47E-09,  avg # of iterations =  4.6

     negative rho (up, down):  1.510E-02 0.000E+00

     total cpu time spent up to now is       20.5 secs

     total energy              =    -380.57149169 Ry
     estimated scf accuracy    <       0.00000029 Ry

     iteration #  7     ecut=    50.00 Ry     beta= 0.70
     CG style diagonalization
     ethr =  6.65E-10,  avg # of iterations =  4.0

     negative rho (up, down):  1.510E-02 0.000E+00

     total cpu time spent up to now is       21.0 secs

     total energy              =    -380.57149177 Ry
     estimated scf accuracy    <       0.00000006 Ry

     iteration #  8     ecut=    50.00 Ry     beta= 0.70
     CG style diagonalization
     ethr =  1.27E-10,  avg # of iterations =  4.5

     negative rho (up, down):  1.510E-02 0.000E+00

     total cpu time spent up to now is       21.6 secs

     total energy              =    -380.57149180 Ry
     estimated scf accuracy    <          3.8E-09 Ry

     iteration #  9     ecut=    50.00 Ry     beta= 0.70
     CG style diagonalization
     ethr =  8.59E-12,  avg # of iterations =  6.3

     negative rho (up, down):  1.510E-02 0.000E+00

     total cpu time spent up to now is       22.4 secs

     total energy              =    -380.57149181 Ry
     estimated scf accuracy    <          5.2E-10 Ry

     iteration # 10     ecut=    50.00 Ry     beta= 0.70
     CG style diagonalization
     ethr =  1.18E-12,  avg # of iterations =  5.7

     negative rho (up, down):  1.511E-02 0.000E+00

     total cpu time spent up to now is       23.1 secs

     End of self-consistent calculation

          k = 0.0000 0.0000 0.0000 (  2525 PWs)   bands (ev):

   -45.7861 -22.4656 -22.3585 -22.3585  -7.5133  -6.4310  -6.2176  -5.0291
    -5.0291  -4.9967  -4.8837  -4.7554   4.2051   6.3103   6.3103   6.6970
     8.1439   8.1439   8.4911   8.6679   8.9504   8.9504

          k = 0.0000 0.0000 0.2378 (  2517 PWs)   bands (ev):

   -45.7858 -22.4852 -22.3577 -22.3577  -7.3164  -6.3726  -6.1635  -5.0442
    -5.0442  -4.9955  -4.8753  -4.8261   3.4370   6.3604   6.3604   6.8265
     7.9264   7.9264   8.4061   8.7922   9.0503   9.0503

          k = 0.0000 0.0000-0.4756 (  2530 PWs)   bands (ev):

   -45.7855 -22.5047 -22.3569 -22.3569  -7.1001  -6.3083  -6.1189  -5.0592
    -5.0592  -4.9942  -4.9025  -4.8686   2.9259   6.1808   6.3914   6.3914
     7.7863   7.7863   8.3249   9.1194   9.1194  10.0037

          k = 0.0000 0.2500 0.0000 (  2503 PWs)   bands (ev):

   -45.7854 -22.4641 -22.3930 -22.3571  -7.2377  -6.3749  -6.1686  -5.0681
    -5.0264  -5.0219  -4.8812  -4.7450   3.4702   6.2806   6.5485   6.5860
     8.1198   8.1502   8.2984   8.4136   8.6514   9.1472

          k = 0.0000 0.2500 0.2378 (  2512 PWs)   bands (ev):

   -45.7851 -22.4835 -22.3920 -22.3563  -7.0805  -6.3421  -6.1000  -5.0483
    -5.0424  -5.0217  -4.8821  -4.7492   3.0518   6.0205   6.6154   6.7284
     7.5675   7.8705   7.9012   8.4815   8.8209   9.5248

          k = 0.0000 0.2500-0.4756 (  2508 PWs)   bands (ev):

   -45.7849 -22.5027 -22.3910 -22.3554  -6.9328  -6.2944  -6.0208  -5.0583
    -5.0232  -5.0214  -4.9031  -4.7437   2.6986   5.6655   6.5580   6.6489
     7.2580   7.7625   7.7802   8.5560   9.0261   9.7524

          k = 0.0000-0.5000 0.0000 (  2488 PWs)   bands (ev):

   -45.7848 -22.4624 -22.4273 -22.3556  -6.9240  -6.2973  -6.1619  -5.0963
    -5.0471  -5.0234  -4.8341  -4.7975   3.0077   5.6455   6.9235   6.9828
     7.3701   7.4799   8.2651   8.3015   8.7381  10.3371

          k = 0.0000-0.5000 0.2378 (  2506 PWs)   bands (ev):

   -45.7845 -22.4815 -22.4261 -22.3548  -6.8672  -6.2276  -6.0730  -5.0633
    -5.0477  -5.0405  -4.8378  -4.7239   2.7505   5.6082   6.5799   6.8330
     7.1770   7.2862   7.9691   8.3112   8.9141   9.8381

          k = 0.0000-0.5000-0.4756 (  2516 PWs)   bands (ev):

   -45.7842 -22.5006 -22.4249 -22.3540  -6.8499  -6.1530  -5.9207  -5.0573
    -5.0484  -5.0226  -4.8900  -4.6241   2.5131   5.4067   6.0423   6.8985
     7.1143   7.3873   7.4044   8.3168   9.1461   9.6049

          k = 0.2500 0.2500 0.0000 (  2528 PWs)   bands (ev):

   -45.7848 -22.4626 -22.3915 -22.3911  -6.9810  -6.3165  -6.1976  -5.0673
    -5.0387  -4.9871  -4.8176  -4.7333   3.0331   6.2318   6.3896   6.7945
     7.2241   7.3958   8.3184   8.5758   9.0408   9.5190

          k = 0.2500 0.2500 0.2378 (  2504 PWs)   bands (ev):

   -45.7845 -22.4818 -22.3906 -22.3902  -6.8374  -6.3282  -6.1419  -5.0444
    -5.0390  -4.9594  -4.7939  -4.7016   2.9517   5.8460   5.8949   6.4421
     7.1162   7.1594   8.5534   8.8777   9.1085   9.2154

          k = 0.2500 0.2500-0.4756 (  2520 PWs)   bands (ev):

   -45.7842 -22.5009 -22.3896 -22.3894  -6.7169  -6.3402  -6.0525  -5.0451
    -5.0137  -4.9103  -4.7856  -4.6744   2.8135   5.5025   5.7241   6.0706
     6.7592   7.0493   8.5504   9.0286   9.0369   9.2706

          k = 0.2500-0.5000 0.0000 (  2530 PWs)   bands (ev):

   -45.7841 -22.4608 -22.4254 -22.3896  -6.7077  -6.2472  -6.2435  -5.0629
    -5.0162  -4.9130  -4.7809  -4.7663   2.6674   5.6696   6.4689   6.6389
     7.3169   7.4915   7.5210   8.7015   9.1443   9.6074

          k = 0.2500-0.5000 0.2378 (  2506 PWs)   bands (ev):

   -45.7839 -22.4799 -22.4243 -22.3888  -6.6191  -6.2557  -6.2059  -5.0329
    -5.0048  -4.8682  -4.7455  -4.6727   2.8039   5.5892   5.6144   5.9304
     6.7022   7.3308   8.3091   8.8831   9.0005   9.2682

          k = 0.2500-0.5000-0.4756 (  2504 PWs)   bands (ev):

   -45.7836 -22.4989 -22.4233 -22.3879  -6.6066  -6.2654  -6.0753  -5.0205
    -4.9706  -4.8302  -4.7125  -4.5743   2.9124   5.2690   5.2816   5.6416
     6.1961   7.0385   7.6465   9.0704   9.1520   9.6279

          k =-0.5000-0.5000 0.0000 (  2496 PWs)   bands (ev):

   -45.7835 -22.4591 -22.4235 -22.4235  -6.5804  -6.2046  -6.2046  -5.0408
    -4.9532  -4.7956  -4.7956  -4.6926   2.3219   5.4765   6.0167   6.9372
     6.9372   7.5298   7.5298   8.2421   8.6114   9.8355

          k =-0.5000-0.5000 0.2378 (  2508 PWs)   bands (ev):

   -45.7832 -22.4781 -22.4226 -22.4226  -6.3880  -6.2876  -6.2876  -5.0029
    -4.9514  -4.6624  -4.6600  -4.6600   2.7275   5.4327   5.5964   5.5964
     6.0230   7.0768   7.2866   8.9849   8.9849   9.8201

          k =-0.5000-0.5000-0.4756 (  2504 PWs)   bands (ev):

   -45.7830 -22.4970 -22.4217 -22.4217  -6.3596  -6.3596  -6.1907  -4.9649
    -4.9495  -4.6223  -4.5333  -4.5333   3.3784   4.9683   4.9683   5.3146
     5.9320   6.0293   6.2394   9.6526   9.6526   9.8049

     highest occupied level (ev):    10.3371

!    total energy              =    -380.57149181 Ry
     estimated scf accuracy    <          8.7E-11 Ry

     The total energy is the sum of the following terms:
     one-electron contribution =     -84.64031297 Ry
     hartree contribution      =      71.46748905 Ry
     xc contribution           =    -102.56459163 Ry
     ewald contribution        =    -264.83407627 Ry

     convergence has been achieved in  10 iterations

     negative rho (up, down):  1.511E-02 0.000E+00

     Forces acting on atoms (cartesian axes, Ry/au):

     atom    1 type  1   force =     0.00000000    0.00000000   -0.00864214
     atom    2 type  2   force =     0.00000000    0.00000000    0.00276118
     atom    3 type  3   force =     0.00000000    0.00000000    0.00142429
     atom    4 type  3   force =     0.00000000    0.00000000    0.00222833
     atom    5 type  3   force =     0.00000000    0.00000000    0.00222833

     Total force =     0.009709     Total SCF correction =     0.000004


     Computing stress (Cartesian axis) and pressure


     negative rho (up, down):  1.511E-02 0.000E+00
          total   stress  (Ry/bohr**3)                   (kbar)     P=      -53.67
  -0.00040545   0.00000000   0.00000000          -59.64        0.00        0.00
   0.00000000  -0.00040545   0.00000000            0.00      -59.64        0.00
   0.00000000   0.00000000  -0.00028365            0.00        0.00      -41.73

     Energy error            =      3.0E-04 Ry
     Gradient error          =      8.6E-03 Ry/Bohr

     number of scf cycles    =   3
     number of bfgs steps    =   2

     energy             old  =    -380.5711907563 Ry
     energy             new  =    -380.5714918129 Ry

     CASE: energy            _new < energy            _old

     new trust radius        =       0.0198712088 bohr
     new conv_thr            =       0.0000000003 Ry


ATOMIC_POSITIONS (crystal)
Pb               0.0000000000        0.0000000000        1.0007867911
Ti               0.5000000000        0.5000000000        0.5372991952
O                0.5000000000        0.5000000000        0.1058878321
O                0.5000000000        0.0000000000        0.6116552348
O                0.0000000000        0.5000000000        0.6116552348



     Writing config-only to output data dir ./pto_k4.save/ :
     XML data file
     NEW-OLD atomic charge density approx. for the potential

     Check: negative core charge=   -0.000004

     negative rho (up, down):  1.492E-02 0.000E+00

     total cpu time spent up to now is       24.0 secs

     Self-consistent Calculation

     iteration #  1     ecut=    50.00 Ry     beta= 0.70
     CG style diagonalization
     ethr =  1.00E-06,  avg # of iterations =  5.7

     negative rho (up, down):  1.488E-02 0.000E+00

     total cpu time spent up to now is       24.8 secs

     total energy              =    -380.57160367 Ry
     estimated scf accuracy    <       0.00006225 Ry

     iteration #  2     ecut=    50.00 Ry     beta= 0.70
     CG style diagonalization
     ethr =  1.41E-07,  avg # of iterations =  4.7

     negative rho (up, down):  1.488E-02 0.000E+00

     total cpu time spent up to now is       25.4 secs

     total energy              =    -380.57160408 Ry
     estimated scf accuracy    <       0.00015485 Ry

     iteration #  3     ecut=    50.00 Ry     beta= 0.70
     CG style diagonalization
     ethr =  1.41E-07,  avg # of iterations =  4.2

     negative rho (up, down):  1.488E-02 0.000E+00

     total cpu time spent up to now is       25.9 secs

     total energy              =    -380.57163717 Ry
     estimated scf accuracy    <       0.00001808 Ry

     iteration #  4     ecut=    50.00 Ry     beta= 0.70
     CG style diagonalization
     ethr =  4.11E-08,  avg # of iterations =  3.6

     negative rho (up, down):  1.487E-02 0.000E+00

     total cpu time spent up to now is       26.4 secs

     total energy              =    -380.57164081 Ry
     estimated scf accuracy    <       0.00000226 Ry

     iteration #  5     ecut=    50.00 Ry     beta= 0.70
     CG style diagonalization
     ethr =  5.15E-09,  avg # of iterations =  4.1

     negative rho (up, down):  1.487E-02 0.000E+00

     total cpu time spent up to now is       26.9 secs

     total energy              =    -380.57164193 Ry
     estimated scf accuracy    <       0.00000009 Ry

     iteration #  6     ecut=    50.00 Ry     beta= 0.70
     CG style diagonalization
     ethr =  2.08E-10,  avg # of iterations =  5.8

     negative rho (up, down):  1.487E-02 0.000E+00

     total cpu time spent up to now is       27.7 secs

     total energy              =    -380.57164210 Ry
     estimated scf accuracy    <       0.00000017 Ry

     iteration #  7     ecut=    50.00 Ry     beta= 0.70
     CG style diagonalization
     ethr =  2.08E-10,  avg # of iterations =  3.8

     negative rho (up, down):  1.487E-02 0.000E+00

     total cpu time spent up to now is       28.2 secs

     total energy              =    -380.57164211 Ry
     estimated scf accuracy    <       0.00000004 Ry

     iteration #  8     ecut=    50.00 Ry     beta= 0.70
     CG style diagonalization
     ethr =  9.67E-11,  avg # of iterations =  3.9

     negative rho (up, down):  1.487E-02 0.000E+00

     total cpu time spent up to now is       28.7 secs

     total energy              =    -380.57164212 Ry
     estimated scf accuracy    <          3.3E-09 Ry

     iteration #  9     ecut=    50.00 Ry     beta= 0.70
     CG style diagonalization
     ethr =  7.41E-12,  avg # of iterations =  5.7

     negative rho (up, down):  1.488E-02 0.000E+00

     total cpu time spent up to now is       29.4 secs

     total energy              =    -380.57164213 Ry
     estimated scf accuracy    <          3.3E-10 Ry

     iteration # 10     ecut=    50.00 Ry     beta= 0.70
     CG style diagonalization
     ethr =  7.42E-13,  avg # of iterations =  5.7

     negative rho (up, down):  1.488E-02 0.000E+00

     total cpu time spent up to now is       30.1 secs

     End of self-consistent calculation

          k = 0.0000 0.0000 0.0000 (  2525 PWs)   bands (ev):

   -45.7721 -22.4633 -22.3449 -22.3449  -7.5241  -6.4460  -6.2186  -5.0230
    -5.0230  -4.9895  -4.8835  -4.7404   4.2013   6.3007   6.3007   6.7323
     8.1132   8.1132   8.4845   8.6375   8.9388   8.9388

          k = 0.0000 0.0000 0.2378 (  2517 PWs)   bands (ev):

   -45.7718 -22.4830 -22.3441 -22.3441  -7.3286  -6.3889  -6.1639  -5.0380
    -5.0380  -4.9882  -4.8740  -4.8097   3.4360   6.3457   6.3457   6.8443
     7.9066   7.9066   8.3994   8.7831   9.0368   9.0368

          k = 0.0000 0.0000-0.4756 (  2530 PWs)   bands (ev):

   -45.7715 -22.5025 -22.3434 -22.3434  -7.1145  -6.3264  -6.1181  -5.0530
    -5.0530  -4.9870  -4.8843  -4.8658   2.9228   6.1940   6.3706   6.3706
     7.7765   7.7765   8.3181   9.1047   9.1047  10.0017

          k = 0.0000 0.2500 0.0000 (  2503 PWs)   bands (ev):

   -45.7714 -22.4618 -22.3795 -22.3435  -7.2487  -6.3911  -6.1737  -5.0618
    -5.0202  -5.0146  -4.8752  -4.7297   3.4707   6.2701   6.5385   6.5907
     8.1078   8.1295   8.2770   8.4042   8.6307   9.1455

          k = 0.0000 0.2500 0.2378 (  2512 PWs)   bands (ev):

   -45.7712 -22.4812 -22.3785 -22.3427  -7.0929  -6.3587  -6.1041  -5.0410
    -5.0362  -5.0144  -4.8766  -4.7338   3.0539   6.0071   6.6010   6.7292
     7.5568   7.8510   7.8936   8.4676   8.8062   9.5264

          k = 0.0000 0.2500-0.4756 (  2508 PWs)   bands (ev):

   -45.7709 -22.5005 -22.3775 -22.3419  -6.9469  -6.3120  -6.0232  -5.0520
    -5.0145  -5.0141  -4.8968  -4.7291   2.7007   5.6512   6.5613   6.6288
     7.2517   7.7495   7.7645   8.5441   9.0104   9.7617

          k = 0.0000-0.5000 0.0000 (  2488 PWs)   bands (ev):

   -45.7708 -22.4601 -22.4138 -22.3420  -6.9355  -6.3134  -6.1731  -5.0883
    -5.0397  -5.0172  -4.8164  -4.7885   3.0097   5.6420   6.9092   6.9705
     7.3669   7.4761   8.2545   8.2630   8.7140  10.3389

          k = 0.0000-0.5000 0.2378 (  2506 PWs)   bands (ev):

   -45.7705 -22.4793 -22.4127 -22.3412  -6.8801  -6.2455  -6.0803  -5.0549
    -5.0404  -5.0342  -4.8277  -4.7090   2.7552   5.6022   6.5719   6.8137
     7.1634   7.2727   7.9646   8.2878   8.9028   9.8420

          k = 0.0000-0.5000-0.4756 (  2516 PWs)   bands (ev):

   -45.7703 -22.4983 -22.4115 -22.3404  -6.8631  -6.1730  -5.9257  -5.0510
    -5.0410  -5.0137  -4.8785  -4.6113   2.5200   5.3935   6.0375   6.8728
     7.0958   7.3722   7.4100   8.3024   9.1564   9.5900

          k = 0.2500 0.2500 0.0000 (  2528 PWs)   bands (ev):

   -45.7708 -22.4603 -22.3780 -22.3776  -6.9914  -6.3341  -6.2048  -5.0601
    -5.0319  -4.9795  -4.8106  -4.7174   3.0283   6.2290   6.3782   6.7945
     7.2117   7.3763   8.3182   8.5634   9.0248   9.5121

          k = 0.2500 0.2500 0.2378 (  2504 PWs)   bands (ev):

   -45.7705 -22.4795 -22.3771 -22.3767  -6.8500  -6.3451  -6.1461  -5.0376
    -5.0314  -4.9529  -4.7875  -4.6865   2.9487   5.8381   5.8820   6.4350
     7.1133   7.1569   8.5329   8.8655   9.0928   9.2194

          k = 0.2500 0.2500-0.4756 (  2520 PWs)   bands (ev):

   -45.7703 -22.4986 -22.3761 -22.3759  -6.7317  -6.3564  -6.0535  -5.0386
    -5.0062  -4.9051  -4.7791  -4.6599   2.8119   5.4937   5.7073   6.0668
     6.7519   7.0507   8.5394   9.0214   9.0330   9.2558

          k = 0.2500-0.5000 0.0000 (  2530 PWs)   bands (ev):

   -45.7702 -22.4586 -22.4119 -22.3761  -6.7159  -6.2653  -6.2555  -5.0552
    -5.0090  -4.9051  -4.7684  -4.7538   2.6586   5.6662   6.4659   6.6256
     7.3135   7.4874   7.5019   8.6918   9.1328   9.6111

          k = 0.2500-0.5000 0.2378 (  2506 PWs)   bands (ev):

   -45.7699 -22.4776 -22.4109 -22.3753  -6.6316  -6.2732  -6.2103  -5.0256
    -4.9975  -4.8645  -4.7338  -4.6600   2.7962   5.5792   5.6087   5.9245
     6.6988   7.3278   8.3113   8.8655   8.9980   9.2533

          k = 0.2500-0.5000-0.4756 (  2504 PWs)   bands (ev):

   -45.7696 -22.4966 -22.4098 -22.3744  -6.6207  -6.2822  -6.0749  -5.0138
    -4.9632  -4.8289  -4.7014  -4.5630   2.9073   5.2516   5.2694   5.6421
     6.1944   7.0378   7.6674   9.0540   9.1358   9.6132

          k =-0.5000-0.5000 0.0000 (  2496 PWs)   bands (ev):

   -45.7695 -22.4568 -22.4100 -22.4100  -6.5795  -6.2251  -6.2251  -5.0330
    -4.9461  -4.7785  -4.7785  -4.6927   2.3035   5.4710   6.0211   6.9298
     6.9298   7.5223   7.5223   8.2415   8.6259   9.8197

          k =-0.5000-0.5000 0.2378 (  2508 PWs)   bands (ev):

   -45.7693 -22.4758 -22.4091 -22.4091  -6.3860  -6.3049  -6.3049  -4.9951
    -4.9442  -4.6639  -4.6466  -4.6466   2.7033   5.4285   5.5937   5.5937
     6.0274   7.0748   7.3100   8.9727   8.9727   9.8044

          k =-0.5000-0.5000-0.4756 (  2504 PWs)   bands (ev):

   -45.7690 -22.4948 -22.4082 -22.4082  -6.3746  -6.3746  -6.1872  -4.9572
    -4.9424  -4.6257  -4.5227  -4.5227   3.3368   4.9676   4.9676   5.3139
     5.9747   6.0338   6.2342   9.6393   9.6393   9.7893

     highest occupied level (ev):    10.3389

!    total energy              =    -380.57164213 Ry
     estimated scf accuracy    <          7.7E-11 Ry

     The total energy is the sum of the following terms:
     one-electron contribution =     -84.97198494 Ry
     hartree contribution      =      71.63691565 Ry
     xc contribution           =    -102.57340056 Ry
     ewald contribution        =    -264.66317227 Ry

     convergence has been achieved in  10 iterations

     negative rho (up, down):  1.488E-02 0.000E+00

     Forces acting on atoms (cartesian axes, Ry/au):

     atom    1 type  1   force =     0.00000000    0.00000000   -0.00715646
     atom    2 type  2   force =     0.00000000    0.00000000    0.00556615
     atom    3 type  3   force =     0.00000000    0.00000000   -0.00373864
     atom    4 type  3   force =     0.00000000    0.00000000    0.00266447
     atom    5 type  3   force =     0.00000000    0.00000000    0.00266447

     Total force =     0.010506     Total SCF correction =     0.000023


     Computing stress (Cartesian axis) and pressure


     negative rho (up, down):  1.488E-02 0.000E+00
          total   stress  (Ry/bohr**3)                   (kbar)     P=      -49.09
  -0.00038824   0.00000000   0.00000000          -57.11        0.00        0.00
   0.00000000  -0.00038824   0.00000000            0.00      -57.11        0.00
   0.00000000   0.00000000  -0.00022462            0.00        0.00      -33.04

     Energy error            =      1.5E-04 Ry
     Gradient error          =      7.2E-03 Ry/Bohr

     number of scf cycles    =   4
     number of bfgs steps    =   3

     energy             old  =    -380.5714918129 Ry
     energy             new  =    -380.5716421297 Ry

     CASE: energy            _new < energy            _old

     new trust radius        =       0.0328045544 bohr
     new conv_thr            =       0.0000000002 Ry


ATOMIC_POSITIONS (crystal)
Pb               0.0000000000        0.0000000000        0.9965527856
Ti               0.5000000000        0.5000000000        0.5377691449
O                0.5000000000        0.5000000000        0.1075609254
O                0.5000000000        0.0000000000        0.6127007161
O                0.0000000000        0.5000000000        0.6127007161



     Writing config-only to output data dir ./pto_k4.save/ :
     XML data file
     NEW-OLD atomic charge density approx. for the potential

     Check: negative core charge=   -0.000004

     negative rho (up, down):  1.529E-02 0.000E+00

     total cpu time spent up to now is       31.0 secs

     Self-consistent Calculation

     iteration #  1     ecut=    50.00 Ry     beta= 0.70
     CG style diagonalization
     ethr =  1.00E-06,  avg # of iterations =  6.4

     negative rho (up, down):  1.524E-02 0.000E+00

     total cpu time spent up to now is       31.9 secs

     total energy              =    -380.57178778 Ry
     estimated scf accuracy    <       0.00004798 Ry

     iteration #  2     ecut=    50.00 Ry     beta= 0.70
     CG style diagonalization
     ethr =  1.09E-07,  avg # of iterations =  4.5

     negative rho (up, down):  1.522E-02 0.000E+00

     total cpu time spent up to now is       32.5 secs

     total energy              =    -380.57179925 Ry
     estimated scf accuracy    <       0.00003493 Ry

     iteration #  3     ecut=    50.00 Ry     beta= 0.70
     CG style diagonalization
     ethr =  7.94E-08,  avg # of iterations =  4.2

     negative rho (up, down):  1.521E-02 0.000E+00

     total cpu time spent up to now is       33.0 secs

     total energy              =    -380.57180940 Ry
     estimated scf accuracy    <       0.00002505 Ry

     iteration #  4     ecut=    50.00 Ry     beta= 0.70
     CG style diagonalization
     ethr =  5.69E-08,  avg # of iterations =  3.6

     negative rho (up, down):  1.521E-02 0.000E+00

     total cpu time spent up to now is       33.5 secs

     total energy              =    -380.57181362 Ry
     estimated scf accuracy    <       0.00000021 Ry

     iteration #  5     ecut=    50.00 Ry     beta= 0.70
     CG style diagonalization
     ethr =  4.76E-10,  avg # of iterations =  6.6

     negative rho (up, down):  1.521E-02 0.000E+00

     total cpu time spent up to now is       34.3 secs

     total energy              =    -380.57181439 Ry
     estimated scf accuracy    <       0.00000039 Ry

     iteration #  6     ecut=    50.00 Ry     beta= 0.70
     CG style diagonalization
     ethr =  4.76E-10,  avg # of iterations =  3.9

     negative rho (up, down):  1.521E-02 0.000E+00

     total cpu time spent up to now is       34.8 secs

     total energy              =    -380.57181443 Ry
     estimated scf accuracy    <       0.00000006 Ry

     iteration #  7     ecut=    50.00 Ry     beta= 0.70
     CG style diagonalization
     ethr =  1.32E-10,  avg # of iterations =  4.1

     negative rho (up, down):  1.521E-02 0.000E+00

     total cpu time spent up to now is       35.4 secs

     total energy              =    -380.57181443 Ry
     estimated scf accuracy    <       0.00000003 Ry

     iteration #  8     ecut=    50.00 Ry     beta= 0.70
     CG style diagonalization
     ethr =  6.66E-11,  avg # of iterations =  4.1

     negative rho (up, down):  1.521E-02 0.000E+00

     total cpu time spent up to now is       35.9 secs

     total energy              =    -380.57181444 Ry
     estimated scf accuracy    <          2.9E-09 Ry

     iteration #  9     ecut=    50.00 Ry     beta= 0.70
     CG style diagonalization
     ethr =  6.70E-12,  avg # of iterations =  5.6

     negative rho (up, down):  1.521E-02 0.000E+00

     total cpu time spent up to now is       36.6 secs

     total energy              =    -380.57181445 Ry
     estimated scf accuracy    <          2.5E-10 Ry

     iteration # 10     ecut=    50.00 Ry     beta= 0.70
     CG style diagonalization
     ethr =  5.70E-13,  avg # of iterations =  6.1

     negative rho (up, down):  1.521E-02 0.000E+00

     total cpu time spent up to now is       37.4 secs

     End of self-consistent calculation

          k = 0.0000 0.0000 0.0000 (  2525 PWs)   bands (ev):

   -45.7710 -22.4669 -22.3453 -22.3453  -7.5481  -6.4803  -6.2133  -5.0089
    -5.0089  -4.9719  -4.8779  -4.7120   4.2015   6.2785   6.2785   6.7801
     8.1013   8.1013   8.4697   8.6186   8.9090   8.9090

          k = 0.0000 0.0000 0.2378 (  2517 PWs)   bands (ev):

   -45.7707 -22.4865 -22.3445 -22.3445  -7.3573  -6.4259  -6.1559  -5.0240
    -5.0240  -4.9707  -4.8660  -4.7785   3.4446   6.3207   6.3207   6.8683
     7.8987   7.8987   8.3847   8.7785   9.0056   9.0056

          k = 0.0000 0.0000-0.4756 (  2530 PWs)   bands (ev):

   -45.7705 -22.5060 -22.3437 -22.3437  -7.1502  -6.3668  -6.1053  -5.0389
    -5.0389  -4.9694  -4.8551  -4.8497   2.9327   6.2104   6.3429   6.3429
     7.7726   7.7726   8.3035   9.0713   9.0713   9.9955

          k = 0.0000 0.2500 0.0000 (  2503 PWs)   bands (ev):

   -45.7704 -22.4654 -22.3799 -22.3438  -7.2726  -6.4268  -6.1750  -5.0470
    -5.0061  -4.9971  -4.8609  -4.7007   3.4738   6.2474   6.5144   6.5987
     8.0961   8.1191   8.2477   8.3836   8.6123   9.1542

          k = 0.0000 0.2500 0.2378 (  2512 PWs)   bands (ev):

   -45.7701 -22.4847 -22.3790 -22.3430  -7.1218  -6.3948  -6.1015  -5.0245
    -5.0221  -4.9968  -4.8625  -4.7047   3.0631   5.9860   6.5749   6.7279
     7.5425   7.8364   7.8796   8.4444   8.7902   9.5306

          k = 0.0000 0.2500-0.4756 (  2508 PWs)   bands (ev):

   -45.7698 -22.5040 -22.3780 -22.3422  -6.9814  -6.3503  -6.0152  -5.0379
    -4.9965  -4.9960  -4.8812  -4.7015   2.7128   5.6350   6.5577   6.6012
     7.2438   7.7292   7.7367   8.5198   8.9980   9.7734

          k = 0.0000-0.5000 0.0000 (  2488 PWs)   bands (ev):

   -45.7697 -22.4637 -22.4144 -22.3424  -6.9605  -6.3485  -6.1828  -5.0711
    -5.0220  -5.0031  -4.7837  -4.7695   3.0148   5.6239   6.8974   6.9388
     7.3517   7.4632   8.2322   8.2410   8.6937  10.3521

          k = 0.0000-0.5000 0.2378 (  2506 PWs)   bands (ev):

   -45.7694 -22.4828 -22.4132 -22.3416  -6.9100  -6.2836  -6.0804  -5.0369
    -5.0227  -5.0201  -4.8067  -4.6813   2.7659   5.5829   6.5603   6.7841
     7.1289   7.2572   7.9555   8.2711   8.8868   9.8607

          k = 0.0000-0.5000-0.4756 (  2516 PWs)   bands (ev):

   -45.7692 -22.5018 -22.4120 -22.3407  -6.8947  -6.2147  -5.9206  -5.0369
    -5.0234  -4.9951  -4.8549  -4.5876   2.5351   5.3743   6.0258   6.8269
     7.0794   7.3344   7.4088   8.2888   9.1844   9.5755

          k = 0.2500 0.2500 0.0000 (  2528 PWs)   bands (ev):

   -45.7697 -22.4638 -22.3785 -22.3780  -7.0128  -6.3720  -6.2107  -5.0442
    -5.0163  -4.9620  -4.7938  -4.6876   3.0194   6.2126   6.3585   6.7911
     7.1948   7.3749   8.3028   8.5566   8.9928   9.5196

          k = 0.2500 0.2500 0.2378 (  2504 PWs)   bands (ev):

   -45.7694 -22.4830 -22.3775 -22.3772  -6.8779  -6.3817  -6.1441  -5.0219
    -5.0145  -4.9371  -4.7717  -4.6584   2.9457   5.8265   5.8613   6.4191
     7.1091   7.1509   8.5187   8.8407   9.0679   9.2314

          k = 0.2500 0.2500-0.4756 (  2520 PWs)   bands (ev):

   -45.7692 -22.5021 -22.3765 -22.3763  -6.7661  -6.3918  -6.0434  -5.0232
    -4.9893  -4.8913  -4.7632  -4.6331   2.8146   5.4852   5.6792   6.0569
     6.7335   7.0448   8.5454   8.9861   9.0392   9.2400

          k = 0.2500-0.5000 0.0000 (  2530 PWs)   bands (ev):

   -45.7691 -22.4621 -22.4125 -22.3766  -6.7309  -6.3036  -6.2719  -5.0385
    -4.9926  -4.8871  -4.7442  -4.7274   2.6417   5.6488   6.4482   6.6192
     7.2986   7.4757   7.5030   8.6808   9.1099   9.6196

          k = 0.2500-0.5000 0.2378 (  2506 PWs)   bands (ev):

   -45.7688 -22.4811 -22.4114 -22.3757  -6.6591  -6.3102  -6.2084  -5.0091
    -4.9812  -4.8516  -4.7112  -4.6351   2.7818   5.5643   5.5916   5.9153
     6.6898   7.3261   8.3155   8.8491   9.0006   9.2263

          k = 0.2500-0.5000-0.4756 (  2504 PWs)   bands (ev):

   -45.7685 -22.5001 -22.4104 -22.3748  -6.6527  -6.3178  -6.0633  -4.9981
    -4.9468  -4.8186  -4.6802  -4.5414   2.8989   5.2190   5.2580   5.6336
     6.1884   7.0281   7.7109   9.0411   9.0991   9.6003

          k =-0.5000-0.5000 0.0000 (  2496 PWs)   bands (ev):

   -45.7684 -22.4603 -22.4106 -22.4106  -6.5677  -6.2667  -6.2667  -5.0163
    -4.9291  -4.7473  -4.7473  -4.6841   2.2678   5.4525   6.0097   6.9439
     6.9439   7.4997   7.4997   8.2451   8.6465   9.7833

          k =-0.5000-0.5000 0.2378 (  2508 PWs)   bands (ev):

   -45.7682 -22.4793 -22.4096 -22.4096  -6.3727  -6.3409  -6.3409  -4.9784
    -4.9273  -4.6569  -4.6219  -4.6219   2.6573   5.4116   5.5980   5.5980
     6.0159   7.0750   7.3496   8.9614   8.9614   9.7683

          k =-0.5000-0.5000-0.4756 (  2504 PWs)   bands (ev):

   -45.7679 -22.4982 -22.4087 -22.4087  -6.4065  -6.4065  -6.1719  -4.9405
    -4.9255  -4.6208  -4.5032  -4.5032   3.2604   4.9736   4.9736   5.3021
     6.0223   6.0492   6.2286   9.6291   9.6291   9.7533

     highest occupied level (ev):    10.3521

!    total energy              =    -380.57181445 Ry
     estimated scf accuracy    <          2.6E-11 Ry

     The total energy is the sum of the following terms:
     one-electron contribution =     -85.45347389 Ry
     hartree contribution      =      71.87765934 Ry
     xc contribution           =    -102.58311210 Ry
     ewald contribution        =    -264.41288780 Ry

     convergence has been achieved in  10 iterations

     negative rho (up, down):  1.521E-02 0.000E+00

     Forces acting on atoms (cartesian axes, Ry/au):

     atom    1 type  1   force =     0.00000000    0.00000000   -0.00350195
     atom    2 type  2   force =     0.00000000    0.00000000    0.00460358
     atom    3 type  3   force =     0.00000000    0.00000000   -0.00605494
     atom    4 type  3   force =     0.00000000    0.00000000    0.00247666
     atom    5 type  3   force =     0.00000000    0.00000000    0.00247666

     Total force =     0.009077     Total SCF correction =     0.000020


     Computing stress (Cartesian axis) and pressure


     negative rho (up, down):  1.521E-02 0.000E+00
          total   stress  (Ry/bohr**3)                   (kbar)     P=      -44.23
  -0.00036227   0.00000000   0.00000000          -53.29        0.00        0.00
   0.00000000  -0.00036227   0.00000000            0.00      -53.29        0.00
   0.00000000   0.00000000  -0.00017749            0.00        0.00      -26.11

     Energy error            =      1.7E-04 Ry
     Gradient error          =      6.1E-03 Ry/Bohr

     number of scf cycles    =   5
     number of bfgs steps    =   4

     energy             old  =    -380.5716421297 Ry
     energy             new  =    -380.5718144477 Ry

     CASE: energy            _new < energy            _old

     new trust radius        =       0.0221856979 bohr
     new conv_thr            =       0.0000000002 Ry


ATOMIC_POSITIONS (crystal)
Pb               0.0000000000        0.0000000000        0.9936893305
Ti               0.5000000000        0.5000000000        0.5385110773
O                0.5000000000        0.5000000000        0.1077778548
O                0.5000000000        0.0000000000        0.6136530127
O                0.0000000000        0.5000000000        0.6136530127



     Writing config-only to output data dir ./pto_k4.save/ :
     XML data file
     NEW-OLD atomic charge density approx. for the potential

     Check: negative core charge=   -0.000004

     negative rho (up, down):  1.558E-02 0.000E+00

     total cpu time spent up to now is       38.6 secs

     Self-consistent Calculation

     iteration #  1     ecut=    50.00 Ry     beta= 0.70
     CG style diagonalization
     c_bands:  1 eigenvalues not converged
     ethr =  1.00E-06,  avg # of iterations =  5.9

     Threshold (ethr) on eigenvalues was too large:
     Diagonalizing with lowered threshold

     CG style diagonalization
     c_bands:  1 eigenvalues not converged
     ethr =  8.10E-08,  avg # of iterations =  4.6

     negative rho (up, down):  1.555E-02 0.000E+00

     total cpu time spent up to now is       40.0 secs

     total energy              =    -380.57187785 Ry
     estimated scf accuracy    <       0.00003503 Ry

     iteration #  2     ecut=    50.00 Ry     beta= 0.70
     CG style diagonalization
     ethr =  7.96E-08,  avg # of iterations =  4.5

     negative rho (up, down):  1.554E-02 0.000E+00

     total cpu time spent up to now is       40.6 secs

     total energy              =    -380.57187834 Ry
     estimated scf accuracy    <       0.00004359 Ry

     iteration #  3     ecut=    50.00 Ry     beta= 0.70
     CG style diagonalization
     ethr =  7.96E-08,  avg # of iterations =  4.0

     negative rho (up, down):  1.553E-02 0.000E+00

     total cpu time spent up to now is       41.1 secs

     total energy              =    -380.57188891 Ry
     estimated scf accuracy    <       0.00001395 Ry

     iteration #  4     ecut=    50.00 Ry     beta= 0.70
     CG style diagonalization
     ethr =  3.17E-08,  avg # of iterations =  3.6

     negative rho (up, down):  1.553E-02 0.000E+00

     total cpu time spent up to now is       41.6 secs

     total energy              =    -380.57189139 Ry
     estimated scf accuracy    <       0.00000124 Ry

     iteration #  5     ecut=    50.00 Ry     beta= 0.70
     CG style diagonalization
     ethr =  2.81E-09,  avg # of iterations =  4.1

     negative rho (up, down):  1.553E-02 0.000E+00

     total cpu time spent up to now is       42.1 secs

     total energy              =    -380.57189202 Ry
     estimated scf accuracy    <       0.00000030 Ry

     iteration #  6     ecut=    50.00 Ry     beta= 0.70
     CG style diagonalization
     ethr =  6.73E-10,  avg # of iterations =  4.1

     negative rho (up, down):  1.553E-02 0.000E+00

     total cpu time spent up to now is       42.7 secs

     total energy              =    -380.57189211 Ry
     estimated scf accuracy    <       0.00000005 Ry

     iteration #  7     ecut=    50.00 Ry     beta= 0.70
     CG style diagonalization
     ethr =  1.04E-10,  avg # of iterations =  4.9

     negative rho (up, down):  1.553E-02 0.000E+00

     total cpu time spent up to now is       43.3 secs

     total energy              =    -380.57189215 Ry
     estimated scf accuracy    <          5.3E-09 Ry

     iteration #  8     ecut=    50.00 Ry     beta= 0.70
     CG style diagonalization
     ethr =  1.20E-11,  avg # of iterations =  5.3

     negative rho (up, down):  1.553E-02 0.000E+00

     total cpu time spent up to now is       44.0 secs

     total energy              =    -380.57189216 Ry
     estimated scf accuracy    <          4.1E-10 Ry

     iteration #  9     ecut=    50.00 Ry     beta= 0.70
     CG style diagonalization
     c_bands:  1 eigenvalues not converged
     ethr =  9.28E-13,  avg # of iterations =  6.7

     negative rho (up, down):  1.553E-02 0.000E+00

     total cpu time spent up to now is       44.8 secs

     End of self-consistent calculation

          k = 0.0000 0.0000 0.0000 (  2525 PWs)   bands (ev):

   -45.7842 -22.4738 -22.3599 -22.3599  -7.5690  -6.5095  -6.2053  -4.9967
    -4.9967  -4.9561  -4.8702  -4.6895   4.2061   6.2583   6.2583   6.8057
     8.1157   8.1157   8.4564   8.6244   8.8817   8.8817

          k = 0.0000 0.0000 0.2378 (  2517 PWs)   bands (ev):

   -45.7839 -22.4934 -22.3591 -22.3591  -7.3828  -6.4571  -6.1450  -5.0117
    -5.0117  -4.9548  -4.8566  -4.7539   3.4574   6.3012   6.3012   6.8811
     7.9087   7.9087   8.3716   8.7817   8.9786   8.9786

          k = 0.0000 0.0000-0.4756 (  2530 PWs)   bands (ev):

   -45.7836 -22.5128 -22.3583 -22.3583  -7.1821  -6.4005  -6.0900  -5.0266
    -5.0266  -4.9535  -4.8436  -4.8225   2.9489   6.2180   6.3248   6.3248
     7.7794   7.7794   8.2906   9.0429   9.0429   9.9899

          k = 0.0000 0.2500 0.0000 (  2503 PWs)   bands (ev):

   -45.7835 -22.4723 -22.3945 -22.3584  -7.2933  -6.4567  -6.1712  -5.0338
    -4.9938  -4.9812  -4.8481  -4.6778   3.4772   6.2285   6.4924   6.6054
     8.0932   8.1255   8.2309   8.3652   8.6091   9.1675

          k = 0.0000 0.2500 0.2378 (  2512 PWs)   bands (ev):

   -45.7832 -22.4916 -22.3936 -22.3576  -7.1473  -6.4252  -6.0940  -5.0101
    -5.0098  -4.9809  -4.8496  -4.6818   3.0728   5.9713   6.5541   6.7262
     7.5350   7.8366   7.8696   8.4293   8.7838   9.5353

          k = 0.0000 0.2500-0.4756 (  2508 PWs)   bands (ev):

   -45.7830 -22.5108 -22.3926 -22.3568  -7.0117  -6.3823  -6.0028  -5.0256
    -4.9807  -4.9802  -4.8670  -4.6797   2.7265   5.6271   6.5505   6.5830
     7.2406   7.6993   7.7344   8.5012   8.9969   9.7807

          k = 0.0000-0.5000 0.0000 (  2488 PWs)   bands (ev):

   -45.7829 -22.4705 -22.4290 -22.3570  -6.9822  -6.3782  -6.1835  -5.0565
    -5.0062  -4.9908  -4.7585  -4.7534   3.0190   5.6054   6.8995   6.9106
     7.3354   7.4487   8.2128   8.2503   8.6911  10.3675

          k = 0.0000-0.5000 0.2378 (  2506 PWs)   bands (ev):

   -45.7826 -22.4896 -22.4279 -22.3562  -6.9361  -6.3154  -6.0736  -5.0217
    -5.0078  -5.0069  -4.7893  -4.6598   2.7749   5.5650   6.5538   6.7665
     7.0983   7.2485   7.9483   8.2736   8.8780   9.8807

          k = 0.0000-0.5000-0.4756 (  2516 PWs)   bands (ev):

   -45.7823 -22.5086 -22.4267 -22.3553  -6.9221  -6.2491  -5.9098  -5.0246
    -5.0075  -4.9796  -4.8354  -4.5691   2.5478   5.3621   6.0173   6.7939
     7.0738   7.3010   7.4016   8.2875   9.2119   9.5707

          k = 0.2500 0.2500 0.0000 (  2528 PWs)   bands (ev):

   -45.7829 -22.4707 -22.3931 -22.3927  -7.0312  -6.4035  -6.2105  -5.0304
    -5.0026  -4.9465  -4.7787  -4.6643   3.0126   6.1938   6.3438   6.7869
     7.1866   7.3926   8.2842   8.5608   8.9677   9.5360

          k = 0.2500 0.2500 0.2378 (  2504 PWs)   bands (ev):

   -45.7826 -22.4899 -22.3921 -22.3918  -6.9023  -6.4123  -6.1370  -5.0080
    -5.0000  -4.9226  -4.7574  -4.6364   2.9446   5.8181   5.8480   6.4048
     7.1081   7.1470   8.5211   8.8197   9.0527   9.2436

          k = 0.2500 0.2500-0.4756 (  2520 PWs)   bands (ev):

   -45.7823 -22.5089 -22.3911 -22.3909  -6.7961  -6.4215  -6.0300  -5.0095
    -4.9745  -4.8782  -4.7490  -4.6122   2.8198   5.4819   5.6589   6.0482
     6.7176   7.0379   8.5651   8.9557   9.0430   9.2344

          k = 0.2500-0.5000 0.0000 (  2530 PWs)   bands (ev):

   -45.7822 -22.4690 -22.4271 -22.3912  -6.7443  -6.3353  -6.2795  -5.0242
    -4.9783  -4.8711  -4.7249  -4.7056   2.6282   5.6310   6.4280   6.6240
     7.2851   7.4621   7.5265   8.6773   9.0905   9.6284

          k = 0.2500-0.5000 0.2378 (  2506 PWs)   bands (ev):

   -45.7820 -22.4880 -22.4261 -22.3903  -6.6830  -6.3409  -6.2012  -4.9949
    -4.9670  -4.8381  -4.6932  -4.6153   2.7707   5.5559   5.5759   5.9086
     6.6819   7.3285   8.3199   8.8453   9.0047   9.2079

          k = 0.2500-0.5000-0.4756 (  2504 PWs)   bands (ev):

   -45.7817 -22.5069 -22.4250 -22.3895  -6.6799  -6.3474  -6.0494  -4.9842
    -4.9327  -4.8062  -4.6634  -4.5242   2.8928   5.1953   5.2550   5.6220
     6.1835   7.0184   7.7468   9.0405   9.0681   9.5982

          k =-0.5000-0.5000 0.0000 (  2496 PWs)   bands (ev):

   -45.7816 -22.4672 -22.4252 -22.4252  -6.5539  -6.3005  -6.3005  -5.0020
    -4.9139  -4.7236  -4.7236  -4.6726   2.2399   5.4350   5.9924   6.9678
     6.9678   7.4805   7.4805   8.2511   8.6598   9.7522

          k =-0.5000-0.5000 0.2378 (  2508 PWs)   bands (ev):

   -45.7813 -22.4862 -22.4243 -22.4243  -6.3705  -6.3705  -6.3581  -4.9641
    -4.9121  -4.6460  -4.6030  -4.6030   2.6216   5.3945   5.6065   5.6065
     5.9986   7.0780   7.3781   8.9595   8.9595   9.7373

          k =-0.5000-0.5000-0.4756 (  2504 PWs)   bands (ev):

   -45.7811 -22.5050 -22.4234 -22.4234  -6.4330  -6.4330  -6.1563  -4.9262
    -4.9103  -4.6107  -4.4880  -4.4880   3.2031   4.9826   4.9826   5.2870
     6.0049   6.1032   6.2281   9.6290   9.6290   9.7225

     highest occupied level (ev):    10.3675

!    total energy              =    -380.57189216 Ry
     estimated scf accuracy    <          6.7E-11 Ry

     The total energy is the sum of the following terms:
     one-electron contribution =     -85.73904154 Ry
     hartree contribution      =      72.01685624 Ry
     xc contribution           =    -102.58666609 Ry
     ewald contribution        =    -264.26304077 Ry

     convergence has been achieved in   9 iterations

     negative rho (up, down):  1.553E-02 0.000E+00

     Forces acting on atoms (cartesian axes, Ry/au):

     atom    1 type  1   force =     0.00000000    0.00000000   -0.00026657
     atom    2 type  2   force =     0.00000000    0.00000000    0.00056470
     atom    3 type  3   force =     0.00000000    0.00000000   -0.00345667
     atom    4 type  3   force =     0.00000000    0.00000000    0.00157927
     atom    5 type  3   force =     0.00000000    0.00000000    0.00157927

     Total force =     0.004163     Total SCF correction =     0.000029


     Computing stress (Cartesian axis) and pressure


     negative rho (up, down):  1.553E-02 0.000E+00
          total   stress  (Ry/bohr**3)                   (kbar)     P=      -42.66
  -0.00034636   0.00000000   0.00000000          -50.95        0.00        0.00
   0.00000000  -0.00034636   0.00000000            0.00      -50.95        0.00
   0.00000000   0.00000000  -0.00017732            0.00        0.00      -26.08

     Energy error            =      7.8E-05 Ry
     Gradient error          =      3.5E-03 Ry/Bohr

     number of scf cycles    =   6
     number of bfgs steps    =   5

     energy             old  =    -380.5718144477 Ry
     energy             new  =    -380.5718921617 Ry

     CASE: energy            _new < energy            _old

     new trust radius        =       0.0039806337 bohr
     new conv_thr            =            1.0E-10 Ry


ATOMIC_POSITIONS (crystal)
Pb               0.0000000000        0.0000000000        0.9933975667
Ti               0.5000000000        0.5000000000        0.5386506756
O                0.5000000000        0.5000000000        0.1072640839
O                0.5000000000        0.0000000000        0.6139859809
O                0.0000000000        0.5000000000        0.6139859809



     Writing config-only to output data dir ./pto_k4.save/ :
     XML data file
     NEW-OLD atomic charge density approx. for the potential

     Check: negative core charge=   -0.000004

     negative rho (up, down):  1.556E-02 0.000E+00

     total cpu time spent up to now is       45.7 secs

     Self-consistent Calculation

     iteration #  1     ecut=    50.00 Ry     beta= 0.70
     CG style diagonalization
     ethr =  1.00E-06,  avg # of iterations =  3.2

     Threshold (ethr) on eigenvalues was too large:
     Diagonalizing with lowered threshold

     CG style diagonalization
     c_bands:  1 eigenvalues not converged
     c_bands:  1 eigenvalues not converged
     c_bands:  1 eigenvalues not converged
     c_bands:  1 eigenvalues not converged
     ethr =  2.49E-08,  avg # of iterations =  5.6

     negative rho (up, down):  1.556E-02 0.000E+00

     total cpu time spent up to now is       46.9 secs

     total energy              =    -380.57190039 Ry
     estimated scf accuracy    <       0.00001157 Ry

     iteration #  2     ecut=    50.00 Ry     beta= 0.70
     CG style diagonalization
     ethr =  2.63E-08,  avg # of iterations =  4.7

     negative rho (up, down):  1.555E-02 0.000E+00

     total cpu time spent up to now is       47.5 secs

     total energy              =    -380.57189874 Ry
     estimated scf accuracy    <       0.00003864 Ry

     iteration #  3     ecut=    50.00 Ry     beta= 0.70
     CG style diagonalization
     ethr =  2.63E-08,  avg # of iterations =  4.2

     negative rho (up, down):  1.555E-02 0.000E+00

     total cpu time spent up to now is       48.1 secs

     total energy              =    -380.57190609 Ry
     estimated scf accuracy    <       0.00000247 Ry

     iteration #  4     ecut=    50.00 Ry     beta= 0.70
     CG style diagonalization
     ethr =  5.62E-09,  avg # of iterations =  3.6

     negative rho (up, down):  1.555E-02 0.000E+00

     total cpu time spent up to now is       48.5 secs

     total energy              =    -380.57190664 Ry
     estimated scf accuracy    <       0.00000022 Ry

     iteration #  5     ecut=    50.00 Ry     beta= 0.70
     CG style diagonalization
     ethr =  4.98E-10,  avg # of iterations =  4.1

     negative rho (up, down):  1.555E-02 0.000E+00

     total cpu time spent up to now is       49.1 secs

     total energy              =    -380.57190676 Ry
     estimated scf accuracy    <       0.00000005 Ry

     iteration #  6     ecut=    50.00 Ry     beta= 0.70
     CG style diagonalization
     ethr =  1.06E-10,  avg # of iterations =  4.1

     negative rho (up, down):  1.555E-02 0.000E+00

     total cpu time spent up to now is       49.6 secs

     total energy              =    -380.57190678 Ry
     estimated scf accuracy    <       0.00000001 Ry

     iteration #  7     ecut=    50.00 Ry     beta= 0.70
     CG style diagonalization
     ethr =  2.39E-11,  avg # of iterations =  4.1

     negative rho (up, down):  1.555E-02 0.000E+00

     total cpu time spent up to now is       50.1 secs

     total energy              =    -380.57190678 Ry
     estimated scf accuracy    <          2.2E-09 Ry

     iteration #  8     ecut=    50.00 Ry     beta= 0.70
     CG style diagonalization
     ethr =  5.10E-12,  avg # of iterations =  4.4

     negative rho (up, down):  1.555E-02 0.000E+00

     total cpu time spent up to now is       50.7 secs

     total energy              =    -380.57190678 Ry
     estimated scf accuracy    <          2.0E-10 Ry

     iteration #  9     ecut=    50.00 Ry     beta= 0.70
     CG style diagonalization
     ethr =  4.44E-13,  avg # of iterations =  5.6

     negative rho (up, down):  1.555E-02 0.000E+00

     total cpu time spent up to now is       51.4 secs

     End of self-consistent calculation

          k = 0.0000 0.0000 0.0000 (  2525 PWs)   bands (ev):

   -45.7921 -22.4769 -22.3680 -22.3680  -7.5734  -6.5146  -6.2023  -4.9935
    -4.9935  -4.9519  -4.8671  -4.6848   4.2096   6.2532   6.2532   6.8046
     8.1258   8.1258   8.4526   8.6329   8.8755   8.8755

          k = 0.0000 0.0000 0.2378 (  2517 PWs)   bands (ev):

   -45.7918 -22.4965 -22.3673 -22.3673  -7.3880  -6.4626  -6.1415  -5.0085
    -5.0085  -4.9506  -4.8531  -4.7488   3.4624   6.2964   6.2964   6.8804
     7.9167   7.9167   8.3679   8.7849   8.9732   8.9732

          k = 0.0000 0.0000-0.4756 (  2530 PWs)   bands (ev):

   -45.7916 -22.5159 -22.3665 -22.3665  -7.1886  -6.4064  -6.0856  -5.0234
    -5.0234  -4.9493  -4.8398  -4.8169   2.9553   6.2170   6.3206   6.3206
     7.7860   7.7860   8.2869   9.0374   9.0374   9.9891

          k = 0.0000 0.2500 0.0000 (  2503 PWs)   bands (ev):

   -45.7914 -22.4754 -22.4027 -22.3666  -7.2976  -6.4621  -6.1687  -5.0303
    -4.9906  -4.9771  -4.8446  -4.6731   3.4786   6.2250   6.4871   6.6069
     8.0964   8.1301   8.2308   8.3606   8.6121   9.1721

          k = 0.0000 0.2500 0.2378 (  2512 PWs)   bands (ev):

   -45.7912 -22.4947 -22.4017 -22.3658  -7.1524  -6.4307  -6.0908  -5.0066
    -5.0065  -4.9768  -4.8461  -4.6771   3.0757   5.9691   6.5491   6.7259
     7.5360   7.8407   7.8683   8.4284   8.7845   9.5368

          k = 0.0000 0.2500-0.4756 (  2508 PWs)   bands (ev):

   -45.7909 -22.5139 -22.4007 -22.3650  -7.0178  -6.3882  -5.9987  -5.0224
    -4.9765  -4.9764  -4.8631  -4.6752   2.7308   5.6266   6.5485   6.5789
     7.2421   7.6933   7.7380   8.4991   8.9991   9.7824

          k = 0.0000-0.5000 0.0000 (  2488 PWs)   bands (ev):

   -45.7908 -22.4736 -22.4371 -22.3652  -6.9865  -6.3840  -6.1813  -5.0529
    -5.0020  -4.9876  -4.7537  -4.7496   3.0200   5.6022   6.9051   6.9061
     7.3316   7.4437   8.2081   8.2606   8.6951  10.3720

          k = 0.0000-0.5000 0.2378 (  2506 PWs)   bands (ev):

   -45.7905 -22.4927 -22.4360 -22.3643  -6.9410  -6.3217  -6.0702  -5.0181
    -5.0046  -5.0027  -4.7852  -4.6555   2.7770   5.5619   6.5543   6.7666
     7.0925   7.2461   7.9468   8.2806   8.8782   9.8860

          k = 0.0000-0.5000-0.4756 (  2516 PWs)   bands (ev):

   -45.7903 -22.5117 -22.4348 -22.3635  -6.9272  -6.2558  -5.9058  -5.0214
    -5.0034  -4.9759  -4.8310  -4.5652   2.5508   5.3608   6.0181   6.7899
     7.0728   7.2947   7.3981   8.2926   9.2195   9.5723

          k = 0.2500 0.2500 0.0000 (  2528 PWs)   bands (ev):

   -45.7908 -22.4738 -22.4012 -22.4008  -7.0350  -6.4092  -6.2088  -5.0270
    -4.9990  -4.9425  -4.7748  -4.6596   3.0118   6.1884   6.3413   6.7866
     7.1870   7.4025   8.2797   8.5657   8.9637   9.5425

          k = 0.2500 0.2500 0.2378 (  2504 PWs)   bands (ev):

   -45.7905 -22.4930 -22.4002 -22.3999  -6.9074  -6.4179  -6.1340  -5.0044
    -4.9964  -4.9187  -4.7535  -4.6320   2.9453   5.8162   5.8472   6.4011
     7.1107   7.1473   8.5269   8.8157   9.0516   9.2471

          k = 0.2500 0.2500-0.4756 (  2520 PWs)   bands (ev):

   -45.7903 -22.5120 -22.3993 -22.3991  -6.8021  -6.4269  -6.0259  -5.0058
    -4.9708  -4.8745  -4.7451  -4.6080   2.8221   5.4818   5.6562   6.0463
     6.7148   7.0381   8.5746   8.9497   9.0435   9.2354

          k = 0.2500-0.5000 0.0000 (  2530 PWs)   bands (ev):

   -45.7902 -22.4721 -22.4352 -22.3993  -6.7470  -6.3415  -6.2792  -5.0207
    -4.9747  -4.8667  -4.7208  -4.7008   2.6263   5.6278   6.4222   6.6280
     7.2841   7.4594   7.5384   8.6790   9.0870   9.6306

          k = 0.2500-0.5000 0.2378 (  2506 PWs)   bands (ev):

   -45.7899 -22.4911 -22.4342 -22.3985  -6.6877  -6.3468  -6.1984  -4.9913
    -4.9635  -4.8338  -4.6894  -4.6110   2.7693   5.5561   5.5734   5.9073
     6.6812   7.3317   8.3226   8.8478   9.0058   9.2056

          k = 0.2500-0.5000-0.4756 (  2504 PWs)   bands (ev):

   -45.7896 -22.5100 -22.4331 -22.3976  -6.6851  -6.3531  -6.0457  -4.9806
    -4.9292  -4.8019  -4.6599  -4.5205   2.8926   5.1923   5.2565   5.6182
     6.1837   7.0181   7.7542   9.0433   9.0623   9.6005

          k =-0.5000-0.5000 0.0000 (  2496 PWs)   bands (ev):

   -45.7895 -22.4703 -22.4333 -22.4333  -6.5503  -6.3069  -6.3069  -4.9986
    -4.9100  -4.7190  -4.7190  -4.6680   2.2357   5.4320   5.9887   6.9752
     6.9752   7.4790   7.4790   8.2539   8.6618   9.7462

          k =-0.5000-0.5000 0.2378 (  2508 PWs)   bands (ev):

   -45.7893 -22.4892 -22.4324 -22.4324  -6.3762  -6.3762  -6.3545  -4.9607
    -4.9081  -4.6413  -4.5992  -4.5992   2.6161   5.3908   5.6103   5.6103
     5.9950   7.0803   7.3826   8.9619   8.9619   9.7313

          k =-0.5000-0.5000-0.4756 (  2504 PWs)   bands (ev):

   -45.7890 -22.5081 -22.4315 -22.4315  -6.4381  -6.4381  -6.1527  -4.9227
    -4.9063  -4.6058  -4.4850  -4.4850   3.1943   4.9864   4.9864   5.2821
     6.0013   6.1115   6.2310   9.6317   9.6317   9.7166

     highest occupied level (ev):    10.3720

!    total energy              =    -380.57190678 Ry
     estimated scf accuracy    <          2.1E-11 Ry

     The total energy is the sum of the following terms:
     one-electron contribution =     -85.74229873 Ry
     hartree contribution      =      72.01668112 Ry
     xc contribution           =    -102.58554019 Ry
     ewald contribution        =    -264.26074899 Ry

     convergence has been achieved in   9 iterations

     negative rho (up, down):  1.555E-02 0.000E+00

     Forces acting on atoms (cartesian axes, Ry/au):

     atom    1 type  1   force =     0.00000000    0.00000000    0.00028769
     atom    2 type  2   force =     0.00000000    0.00000000   -0.00110346
     atom    3 type  3   force =     0.00000000    0.00000000   -0.00109256
     atom    4 type  3   force =     0.00000000    0.00000000    0.00095417
     atom    5 type  3   force =     0.00000000    0.00000000    0.00095417

     Total force =     0.002077     Total SCF correction =     0.000007


     Computing stress (Cartesian axis) and pressure


     negative rho (up, down):  1.555E-02 0.000E+00
          total   stress  (Ry/bohr**3)                   (kbar)     P=      -43.41
  -0.00034674   0.00000000   0.00000000          -51.01        0.00        0.00
   0.00000000  -0.00034674   0.00000000            0.00      -51.01        0.00
   0.00000000   0.00000000  -0.00019172            0.00        0.00      -28.20

     Energy error            =      1.5E-05 Ry
     Gradient error          =      1.1E-03 Ry/Bohr

     number of scf cycles    =   7
     number of bfgs steps    =   6

     energy             old  =    -380.5718921617 Ry
     energy             new  =    -380.5719067848 Ry

     CASE: energy            _new < energy            _old

     new trust radius        =       0.0031124696 bohr
     new conv_thr            =            1.0E-10 Ry


ATOMIC_POSITIONS (crystal)
Pb               0.0000000000        0.0000000000        0.9934701442
Ti               0.5000000000        0.5000000000        0.5385006750
O                0.5000000000        0.5000000000        0.1068623649
O                0.5000000000        0.0000000000        0.6142255520
O                0.0000000000        0.5000000000        0.6142255520



     Writing config-only to output data dir ./pto_k4.save/ :
     XML data file
     NEW-OLD atomic charge density approx. for the potential

     Check: negative core charge=   -0.000004

     negative rho (up, down):  1.554E-02 0.000E+00

     total cpu time spent up to now is       52.3 secs

     Self-consistent Calculation

     iteration #  1     ecut=    50.00 Ry     beta= 0.70
     CG style diagonalization
     ethr =  1.00E-06,  avg # of iterations =  2.9

     Threshold (ethr) on eigenvalues was too large:
     Diagonalizing with lowered threshold

     CG style diagonalization
     c_bands:  1 eigenvalues not converged
     c_bands:  1 eigenvalues not converged
     c_bands:  1 eigenvalues not converged
     ethr =  3.53E-09,  avg # of iterations =  6.5

     negative rho (up, down):  1.555E-02 0.000E+00

     total cpu time spent up to now is       53.6 secs

     total energy              =    -380.57191124 Ry
     estimated scf accuracy    <       0.00000334 Ry

     iteration #  2     ecut=    50.00 Ry     beta= 0.70
     CG style diagonalization
     ethr =  7.59E-09,  avg # of iterations =  4.6

     negative rho (up, down):  1.555E-02 0.000E+00

     total cpu time spent up to now is       54.2 secs

     total energy              =    -380.57191048 Ry
     estimated scf accuracy    <       0.00001275 Ry

     iteration #  3     ecut=    50.00 Ry     beta= 0.70
     CG style diagonalization
     ethr =  7.59E-09,  avg # of iterations =  4.3

     negative rho (up, down):  1.555E-02 0.000E+00

     total cpu time spent up to now is       54.7 secs

     total energy              =    -380.57191280 Ry
     estimated scf accuracy    <       0.00000052 Ry

     iteration #  4     ecut=    50.00 Ry     beta= 0.70
     CG style diagonalization
     ethr =  1.17E-09,  avg # of iterations =  3.6

     negative rho (up, down):  1.555E-02 0.000E+00

     total cpu time spent up to now is       55.2 secs

     total energy              =    -380.57191292 Ry
     estimated scf accuracy    <       0.00000006 Ry

     iteration #  5     ecut=    50.00 Ry     beta= 0.70
     CG style diagonalization
     ethr =  1.31E-10,  avg # of iterations =  4.2

     negative rho (up, down):  1.555E-02 0.000E+00

     total cpu time spent up to now is       55.8 secs

     total energy              =    -380.57191295 Ry
     estimated scf accuracy    <       0.00000001 Ry

     iteration #  6     ecut=    50.00 Ry     beta= 0.70
     CG style diagonalization
     ethr =  2.87E-11,  avg # of iterations =  3.9

     negative rho (up, down):  1.555E-02 0.000E+00

     total cpu time spent up to now is       56.3 secs

     total energy              =    -380.57191295 Ry
     estimated scf accuracy    <          1.7E-09 Ry

     iteration #  7     ecut=    50.00 Ry     beta= 0.70
     CG style diagonalization
     ethr =  3.82E-12,  avg # of iterations =  4.5

     negative rho (up, down):  1.555E-02 0.000E+00

     total cpu time spent up to now is       56.8 secs

     total energy              =    -380.57191295 Ry
     estimated scf accuracy    <          2.9E-10 Ry

     iteration #  8     ecut=    50.00 Ry     beta= 0.70
     CG style diagonalization
     ethr =  6.56E-13,  avg # of iterations =  4.9

     negative rho (up, down):  1.555E-02 0.000E+00

     total cpu time spent up to now is       57.5 secs

     End of self-consistent calculation

          k = 0.0000 0.0000 0.0000 (  2525 PWs)   bands (ev):

   -45.7953 -22.4783 -22.3711 -22.3711  -7.5743  -6.5146  -6.2014  -4.9920
    -4.9920  -4.9501  -4.8654  -4.6828   4.2122   6.2511   6.2511   6.8017
     8.1273   8.1273   8.4505   8.6357   8.8740   8.8740

          k = 0.0000 0.0000 0.2378 (  2517 PWs)   bands (ev):

   -45.7950 -22.4978 -22.3703 -22.3703  -7.3889  -6.4626  -6.1407  -5.0071
    -5.0071  -4.9488  -4.8514  -4.7467   3.4647   6.2934   6.2934   6.8786
     7.9195   7.9195   8.3658   8.7864   8.9723   8.9723

          k = 0.0000 0.0000-0.4756 (  2530 PWs)   bands (ev):

   -45.7947 -22.5173 -22.3695 -22.3695  -7.1895  -6.4065  -6.0849  -5.0220
    -5.0220  -4.9475  -4.8380  -4.8148   2.9578   6.2156   6.3165   6.3165
     7.7904   7.7904   8.2849   9.0366   9.0366   9.9896

          k = 0.0000 0.2500 0.0000 (  2503 PWs)   bands (ev):

   -45.7946 -22.4768 -22.4056 -22.3696  -7.2985  -6.4624  -6.1678  -5.0288
    -4.9892  -4.9753  -4.8431  -4.6712   3.4794   6.2248   6.4855   6.6073
     8.0991   8.1316   8.2295   8.3590   8.6125   9.1732

          k = 0.0000 0.2500 0.2378 (  2512 PWs)   bands (ev):

   -45.7944 -22.4961 -22.4047 -22.3688  -7.1533  -6.4311  -6.0900  -5.0052
    -5.0049  -4.9750  -4.8445  -4.6753   3.0769   5.9684   6.5465   6.7260
     7.5378   7.8420   7.8686   8.4291   8.7844   9.5377

          k = 0.0000 0.2500-0.4756 (  2508 PWs)   bands (ev):

   -45.7941 -22.5152 -22.4037 -22.3680  -7.0186  -6.3888  -5.9980  -5.0210
    -4.9748  -4.9747  -4.8614  -4.6734   2.7323   5.6254   6.5490   6.5751
     7.2437   7.6926   7.7409   8.5000   8.9987   9.7845

          k = 0.0000-0.5000 0.0000 (  2488 PWs)   bands (ev):

   -45.7940 -22.4750 -22.4401 -22.3682  -6.9872  -6.3852  -6.1803  -5.0514
    -5.0003  -4.9862  -4.7520  -4.7481   3.0202   5.6038   6.9049   6.9113
     7.3313   7.4409   8.2063   8.2627   8.6960  10.3730

          k = 0.0000-0.5000 0.2378 (  2506 PWs)   bands (ev):

   -45.7937 -22.4941 -22.4389 -22.3674  -6.9415  -6.3230  -6.0694  -5.0166
    -5.0032  -5.0010  -4.7836  -4.6538   2.7778   5.5629   6.5557   6.7688
     7.0924   7.2427   7.9463   8.2840   8.8790   9.8871

          k = 0.0000-0.5000-0.4756 (  2516 PWs)   bands (ev):

   -45.7934 -22.5131 -22.4377 -22.3665  -6.9274  -6.2573  -5.9053  -5.0200
    -5.0017  -4.9744  -4.8293  -4.5636   2.5520   5.3606   6.0213   6.7905
     7.0691   7.2946   7.3969   8.2968   9.2224   9.5728

          k = 0.2500 0.2500 0.0000 (  2528 PWs)   bands (ev):

   -45.7940 -22.4752 -22.4042 -22.4038  -7.0361  -6.4099  -6.2081  -5.0255
    -4.9974  -4.9407  -4.7731  -4.6578   3.0123   6.1871   6.3406   6.7877
     7.1877   7.4055   8.2802   8.5683   8.9633   9.5440

          k = 0.2500 0.2500 0.2378 (  2504 PWs)   bands (ev):

   -45.7937 -22.4944 -22.4032 -22.4029  -6.9084  -6.4185  -6.1334  -5.0029
    -4.9949  -4.9170  -4.7519  -4.6302   2.9460   5.8150   5.8479   6.3993
     7.1140   7.1486   8.5296   8.8151   9.0517   9.2485

          k = 0.2500 0.2500-0.4756 (  2520 PWs)   bands (ev):

   -45.7934 -22.5134 -22.4022 -22.4021  -6.8031  -6.4275  -6.0254  -5.0042
    -4.9692  -4.8728  -4.7434  -4.6063   2.8233   5.4809   5.6557   6.0458
     6.7152   7.0414   8.5779   8.9488   9.0443   9.2353

          k = 0.2500-0.5000 0.0000 (  2530 PWs)   bands (ev):

   -45.7933 -22.4735 -22.4382 -22.4023  -6.7479  -6.3427  -6.2788  -5.0193
    -4.9731  -4.8648  -4.7191  -4.6991   2.6264   5.6293   6.4207   6.6292
     7.2868   7.4602   7.5417   8.6805   9.0863   9.6314

          k = 0.2500-0.5000 0.2378 (  2506 PWs)   bands (ev):

   -45.7931 -22.4925 -22.4371 -22.4014  -6.6885  -6.3480  -6.1980  -4.9898
    -4.9619  -4.8318  -4.6879  -4.6094   2.7696   5.5574   5.5744   5.9065
     6.6823   7.3347   8.3253   8.8483   9.0058   9.2052

          k = 0.2500-0.5000-0.4756 (  2504 PWs)   bands (ev):

   -45.7928 -22.5113 -22.4361 -22.4006  -6.6857  -6.3543  -6.0454  -4.9790
    -4.9277  -4.7999  -4.6585  -4.5189   2.8933   5.1929   5.2571   5.6170
     6.1855   7.0211   7.7564   9.0436   9.0618   9.6011

          k =-0.5000-0.5000 0.0000 (  2496 PWs)   bands (ev):

   -45.7927 -22.4717 -22.4362 -22.4362  -6.5501  -6.3082  -6.3082  -4.9971
    -4.9082  -4.7174  -4.7174  -4.6658   2.2357   5.4329   5.9911   6.9754
     6.9754   7.4819   7.4819   8.2553   8.6634   9.7455

          k =-0.5000-0.5000 0.2378 (  2508 PWs)   bands (ev):

   -45.7924 -22.4906 -22.4353 -22.4353  -6.3773  -6.3773  -6.3543  -4.9592
    -4.9064  -4.6391  -4.5978  -4.5978   2.6159   5.3910   5.6119   5.6119
     5.9973   7.0819   7.3839   8.9631   8.9631   9.7307

          k =-0.5000-0.5000-0.4756 (  2504 PWs)   bands (ev):

   -45.7922 -22.5095 -22.4344 -22.4344  -6.4391  -6.4391  -6.1526  -4.9212
    -4.9046  -4.6035  -4.4838  -4.4838   3.1938   4.9883   4.9883   5.2806
     6.0037   6.1131   6.2342   9.6323   9.6323   9.7159

     highest occupied level (ev):    10.3730

!    total energy              =    -380.57191295 Ry
     estimated scf accuracy    <          2.6E-11 Ry

     The total energy is the sum of the following terms:
     one-electron contribution =     -85.71870085 Ry
     hartree contribution      =      72.00453837 Ry
     xc contribution           =    -102.58469994 Ry
     ewald contribution        =    -264.27305054 Ry

     convergence has been achieved in   8 iterations

     negative rho (up, down):  1.555E-02 0.000E+00

     Forces acting on atoms (cartesian axes, Ry/au):

     atom    1 type  1   force =     0.00000000    0.00000000    0.00023703
     atom    2 type  2   force =     0.00000000    0.00000000   -0.00127613
     atom    3 type  3   force =     0.00000000    0.00000000    0.00011150
     atom    4 type  3   force =     0.00000000    0.00000000    0.00046380
     atom    5 type  3   force =     0.00000000    0.00000000    0.00046380

     Total force =     0.001459     Total SCF correction =     0.000016


     Computing stress (Cartesian axis) and pressure


     negative rho (up, down):  1.555E-02 0.000E+00
          total   stress  (Ry/bohr**3)                   (kbar)     P=      -43.93
  -0.00034892   0.00000000   0.00000000          -51.33        0.00        0.00
   0.00000000  -0.00034892   0.00000000            0.00      -51.33        0.00
   0.00000000   0.00000000  -0.00019808            0.00        0.00      -29.14

     Energy error            =      6.2E-06 Ry
     Gradient error          =      1.3E-03 Ry/Bohr

     number of scf cycles    =   8
     number of bfgs steps    =   7

     energy             old  =    -380.5719067848 Ry
     energy             new  =    -380.5719129529 Ry

     CASE: energy            _new < energy            _old

     new trust radius        =       0.0019706159 bohr
     new conv_thr            =            1.0E-10 Ry


ATOMIC_POSITIONS (crystal)
Pb               0.0000000000        0.0000000000        0.9934981085
Ti               0.5000000000        0.5000000000        0.5382463323
O                0.5000000000        0.5000000000        0.1066749610
O                0.5000000000        0.0000000000        0.6144324431
O                0.0000000000        0.5000000000        0.6144324431



     Writing config-only to output data dir ./pto_k4.save/ :
     XML data file
     NEW-OLD atomic charge density approx. for the potential

     Check: negative core charge=   -0.000004

     negative rho (up, down):  1.554E-02 0.000E+00

     total cpu time spent up to now is       58.4 secs

     Self-consistent Calculation

     iteration #  1     ecut=    50.00 Ry     beta= 0.70
     CG style diagonalization
     ethr =  1.00E-06,  avg # of iterations =  2.9

     Threshold (ethr) on eigenvalues was too large:
     Diagonalizing with lowered threshold

     CG style diagonalization
     c_bands:  2 eigenvalues not converged
     c_bands:  1 eigenvalues not converged
     c_bands:  1 eigenvalues not converged
     c_bands:  3 eigenvalues not converged
     c_bands:  1 eigenvalues not converged
     c_bands:  2 eigenvalues not converged
     c_bands:  1 eigenvalues not converged
     ethr =  1.47E-09,  avg # of iterations =  7.0

     negative rho (up, down):  1.554E-02 0.000E+00

     total cpu time spent up to now is       59.7 secs

     total energy              =    -380.57191530 Ry
     estimated scf accuracy    <       0.00000075 Ry

     iteration #  2     ecut=    50.00 Ry     beta= 0.70
     CG style diagonalization
     ethr =  1.71E-09,  avg # of iterations =  4.3

     negative rho (up, down):  1.554E-02 0.000E+00

     total cpu time spent up to now is       60.3 secs

     total energy              =    -380.57191518 Ry
     estimated scf accuracy    <       0.00000195 Ry

     iteration #  3     ecut=    50.00 Ry     beta= 0.70
     CG style diagonalization
     ethr =  1.71E-09,  avg # of iterations =  4.0

     negative rho (up, down):  1.554E-02 0.000E+00

     total cpu time spent up to now is       60.8 secs

     total energy              =    -380.57191558 Ry
     estimated scf accuracy    <       0.00000014 Ry

     iteration #  4     ecut=    50.00 Ry     beta= 0.70
     CG style diagonalization
     ethr =  3.24E-10,  avg # of iterations =  3.6

     negative rho (up, down):  1.554E-02 0.000E+00

     total cpu time spent up to now is       61.3 secs

     total energy              =    -380.57191561 Ry
     estimated scf accuracy    <          7.4E-09 Ry

     iteration #  5     ecut=    50.00 Ry     beta= 0.70
     CG style diagonalization
     ethr =  1.68E-11,  avg # of iterations =  4.8

     negative rho (up, down):  1.554E-02 0.000E+00

     total cpu time spent up to now is       61.9 secs

     total energy              =    -380.57191562 Ry
     estimated scf accuracy    <          2.9E-09 Ry

     iteration #  6     ecut=    50.00 Ry     beta= 0.70
     CG style diagonalization
     ethr =  6.57E-12,  avg # of iterations =  3.9

     negative rho (up, down):  1.554E-02 0.000E+00

     total cpu time spent up to now is       62.4 secs

     total energy              =    -380.57191562 Ry
     estimated scf accuracy    <          6.6E-10 Ry

     iteration #  7     ecut=    50.00 Ry     beta= 0.70
     CG style diagonalization
     ethr =  1.50E-12,  avg # of iterations =  4.7

     negative rho (up, down):  1.554E-02 0.000E+00

     total cpu time spent up to now is       63.0 secs

     total energy              =    -380.57191562 Ry
     estimated scf accuracy    <          4.0E-10 Ry

     iteration #  8     ecut=    50.00 Ry     beta= 0.70
     CG style diagonalization
     ethr =  9.03E-13,  avg # of iterations =  3.9

     negative rho (up, down):  1.554E-02 0.000E+00

     total cpu time spent up to now is       63.5 secs

     End of self-consistent calculation

          k = 0.0000 0.0000 0.0000 (  2525 PWs)   bands (ev):

   -45.7954 -22.4787 -22.3709 -22.3709  -7.5746  -6.5138  -6.2014  -4.9910
    -4.9910  -4.9489  -4.8644  -4.6810   4.2140   6.2498   6.2498   6.8010
     8.1236   8.1236   8.4489   8.6340   8.8736   8.8736

          k = 0.0000 0.0000 0.2378 (  2517 PWs)   bands (ev):

   -45.7951 -22.4983 -22.3701 -22.3701  -7.3890  -6.4619  -6.1410  -5.0061
    -5.0061  -4.9476  -4.8504  -4.7449   3.4656   6.2904   6.2904   6.8778
     7.9187   7.9187   8.3642   8.7865   8.9722   8.9722

          k = 0.0000 0.0000-0.4756 (  2530 PWs)   bands (ev):

   -45.7948 -22.5177 -22.3694 -22.3694  -7.1893  -6.4058  -6.0855  -5.0210
    -5.0210  -4.9463  -4.8369  -4.8130   2.9583   6.2152   6.3115   6.3115
     7.7927   7.7927   8.2832   9.0367   9.0367   9.9904

          k = 0.0000 0.2500 0.0000 (  2503 PWs)   bands (ev):

   -45.7947 -22.4772 -22.4055 -22.3695  -7.2990  -6.4620  -6.1679  -5.0277
    -4.9882  -4.9741  -4.8421  -4.6695   3.4800   6.2250   6.4846   6.6077
     8.1005   8.1311   8.2260   8.3579   8.6107   9.1727

          k = 0.0000 0.2500 0.2378 (  2512 PWs)   bands (ev):

   -45.7944 -22.4965 -22.4045 -22.3687  -7.1534  -6.4308  -6.0904  -5.0042
    -5.0038  -4.9738  -4.8434  -4.6736   3.0775   5.9674   6.5440   6.7262
     7.5388   7.8408   7.8689   8.4294   8.7829   9.5384

          k = 0.0000 0.2500-0.4756 (  2508 PWs)   bands (ev):

   -45.7942 -22.5157 -22.4035 -22.3679  -7.0183  -6.3886  -5.9989  -5.0200
    -4.9736  -4.9736  -4.8603  -4.6718   2.7328   5.6231   6.5507   6.5706
     7.2446   7.6929   7.7421   8.5011   8.9965   9.7870

          k = 0.0000-0.5000 0.0000 (  2488 PWs)   bands (ev):

   -45.7941 -22.4755 -22.4399 -22.3681  -6.9873  -6.3858  -6.1806  -5.0503
    -4.9992  -4.9852  -4.7505  -4.7469   3.0202   5.6067   6.9058   6.9144
     7.3322   7.4392   8.2050   8.2590   8.6941  10.3728

          k = 0.0000-0.5000 0.2378 (  2506 PWs)   bands (ev):

   -45.7938 -22.4945 -22.4387 -22.3672  -6.9411  -6.3236  -6.0702  -5.0155
    -5.0022  -4.9998  -4.7823  -4.6524   2.7783   5.5648   6.5567   6.7701
     7.0933   7.2386   7.9459   8.2841   8.8792   9.8869

          k = 0.0000-0.5000-0.4756 (  2516 PWs)   bands (ev):

   -45.7935 -22.5135 -22.4375 -22.3664  -6.9267  -6.2580  -5.9065  -5.0190
    -5.0005  -4.9732  -4.8280  -4.5621   2.5529   5.3598   6.0247   6.7909
     7.0637   7.2957   7.3971   8.2992   9.2240   9.5719

          k = 0.2500 0.2500 0.0000 (  2528 PWs)   bands (ev):

   -45.7941 -22.4757 -22.4040 -22.4036  -7.0369  -6.4098  -6.2083  -5.0244
    -4.9964  -4.9396  -4.7721  -4.6561   3.0126   6.1873   6.3398   6.7893
     7.1875   7.4042   8.2824   8.5689   8.9633   9.5430

          k = 0.2500 0.2500 0.2378 (  2504 PWs)   bands (ev):

   -45.7938 -22.4948 -22.4030 -22.4027  -6.9089  -6.4184  -6.1339  -5.0018
    -4.9938  -4.9159  -4.7508  -4.6286   2.9464   5.8137   5.8481   6.3980
     7.1170   7.1500   8.5294   8.8149   9.0511   9.2492

          k = 0.2500 0.2500-0.4756 (  2520 PWs)   bands (ev):

   -45.7935 -22.5138 -22.4021 -22.4019  -6.8031  -6.4273  -6.0263  -5.0032
    -4.9681  -4.8718  -4.7423  -4.6047   2.8237   5.4793   5.6547   6.0458
     6.7163   7.0454   8.5777   8.9488   9.0456   9.2338

          k = 0.2500-0.5000 0.0000 (  2530 PWs)   bands (ev):

   -45.7934 -22.4739 -22.4380 -22.4021  -6.7486  -6.3433  -6.2790  -5.0182
    -4.9720  -4.8635  -4.7178  -4.6977   2.6265   5.6320   6.4208   6.6284
     7.2901   7.4620   7.5400   8.6810   9.0858   9.6321

          k = 0.2500-0.5000 0.2378 (  2506 PWs)   bands (ev):

   -45.7932 -22.4929 -22.4369 -22.4013  -6.6887  -6.3486  -6.1987  -4.9887
    -4.9609  -4.8308  -4.6866  -4.6080   2.7698   5.5583   5.5762   5.9057
     6.6838   7.3368   8.3278   8.8470   9.0053   9.2044

          k = 0.2500-0.5000-0.4756 (  2504 PWs)   bands (ev):

   -45.7929 -22.5118 -22.4359 -22.4004  -6.6855  -6.3548  -6.0463  -4.9779
    -4.9266  -4.7990  -4.6573  -4.5175   2.8939   5.1937   5.2565   5.6169
     6.1876   7.0250   7.7579   9.0418   9.0622   9.6000

          k =-0.5000-0.5000 0.0000 (  2496 PWs)   bands (ev):

   -45.7928 -22.4721 -22.4360 -22.4360  -6.5511  -6.3089  -6.3089  -4.9960
    -4.9071  -4.7158  -4.7158  -4.6648   2.2357   5.4348   5.9956   6.9726
     6.9726   7.4852   7.4852   8.2560   8.6656   9.7458

          k =-0.5000-0.5000 0.2378 (  2508 PWs)   bands (ev):

   -45.7925 -22.4911 -22.4351 -22.4351  -6.3778  -6.3778  -6.3553  -4.9581
    -4.9053  -4.6381  -4.5965  -4.5965   2.6159   5.3923   5.6125   5.6125
     6.0019   7.0830   7.3856   8.9627   8.9627   9.7309

          k =-0.5000-0.5000-0.4756 (  2504 PWs)   bands (ev):

   -45.7923 -22.5099 -22.4342 -22.4342  -6.4395  -6.4395  -6.1535  -4.9202
    -4.9035  -4.6026  -4.4826  -4.4826   3.1935   4.9893   4.9893   5.2805
     6.0082   6.1148   6.2367   9.6311   9.6311   9.7162

     highest occupied level (ev):    10.3728

!    total energy              =    -380.57191562 Ry
     estimated scf accuracy    <          1.0E-11 Ry

     The total energy is the sum of the following terms:
     one-electron contribution =     -85.71154989 Ry
     hartree contribution      =      72.00140594 Ry
     xc contribution           =    -102.58467412 Ry
     ewald contribution        =    -264.27709755 Ry

     convergence has been achieved in   8 iterations

     negative rho (up, down):  1.554E-02 0.000E+00

     Forces acting on atoms (cartesian axes, Ry/au):

     atom    1 type  1   force =     0.00000000    0.00000000    0.00008526
     atom    2 type  2   force =     0.00000000    0.00000000   -0.00069907
     atom    3 type  3   force =     0.00000000    0.00000000    0.00040291
     atom    4 type  3   force =     0.00000000    0.00000000    0.00010545
     atom    5 type  3   force =     0.00000000    0.00000000    0.00010545

     Total force =     0.000825     Total SCF correction =     0.000007


     Computing stress (Cartesian axis) and pressure


     negative rho (up, down):  1.554E-02 0.000E+00
          total   stress  (Ry/bohr**3)                   (kbar)     P=      -44.00
  -0.00035027   0.00000000   0.00000000          -51.53        0.00        0.00
   0.00000000  -0.00035027   0.00000000            0.00      -51.53        0.00
   0.00000000   0.00000000  -0.00019679            0.00        0.00      -28.95

     Energy error            =      2.7E-06 Ry
     Gradient error          =      7.0E-04 Ry/Bohr

     bfgs converged in   9 scf cycles and   8 bfgs steps
     (criteria: energy <  1.0E-04 Ry, force <  1.0E-03 Ry/Bohr)

     End of BFGS Geometry Optimization

     Final energy             =    -380.5719156197 Ry

     File ./pto_k4.bfgs deleted, as requested
Begin final coordinates

ATOMIC_POSITIONS (crystal)
Pb               0.0000000000        0.0000000000        0.9934981085
Ti               0.5000000000        0.5000000000        0.5382463323
O                0.5000000000        0.5000000000        0.1066749610
O                0.5000000000        0.0000000000        0.6144324431
O                0.0000000000        0.5000000000        0.6144324431
End final coordinates



     Writing all to output data dir ./pto_k4.save/ :
     XML data file, charge density, pseudopotentials, collected wavefunctions
 
     init_run     :      0.32s CPU      0.40s WALL (       1 calls)
     electrons    :     52.27s CPU     55.68s WALL (       9 calls)
     update_pot   :      0.03s CPU      0.03s WALL (       8 calls)
     forces       :      0.76s CPU      0.81s WALL (       9 calls)
     stress       :      6.07s CPU      6.21s WALL (       9 calls)

     Called by init_run:
     wfcinit      :      0.10s CPU      0.12s WALL (       1 calls)
     potinit      :      0.01s CPU      0.01s WALL (       1 calls)
     hinit0       :      0.11s CPU      0.14s WALL (       1 calls)

     Called by electrons:
     c_bands      :     41.15s CPU     43.69s WALL (      93 calls)
     sum_band     :      6.89s CPU      7.31s WALL (      93 calls)
     v_of_rho     :      0.14s CPU      0.15s WALL (      98 calls)
     newd         :      4.29s CPU      4.60s WALL (      98 calls)
     mix_rho      :      0.10s CPU      0.10s WALL (      93 calls)

     Called by c_bands:
     init_us_2    :      0.38s CPU      0.39s WALL (    3690 calls)
     init_us_2:cp :      0.37s CPU      0.39s WALL (    3690 calls)
     ccgdiagg     :     36.87s CPU     39.21s WALL (    1674 calls)
     wfcrot       :      4.07s CPU      4.27s WALL (    1458 calls)

     Called by *cgdiagg:
     h_psi        :     23.09s CPU     24.49s WALL (  138045 calls)
     s_psi        :      4.05s CPU      4.32s WALL (  274632 calls)

     Called by h_psi:
     h_psi:calbec :      3.63s CPU      3.86s WALL (  138045 calls)
     vloc_psi     :     16.19s CPU     17.16s WALL (  138045 calls)
     add_vuspsi   :      2.18s CPU      2.32s WALL (  138045 calls)
     hs_1psi      :     22.66s CPU     24.09s WALL (  136587 calls)
     s_1psi       :      5.63s CPU      5.97s WALL (  136587 calls)

     General routines
     calbec       :      6.58s CPU      7.00s WALL (  277116 calls)
     fft          :      0.17s CPU      0.19s WALL (     654 calls)
     ffts         :      0.01s CPU      0.02s WALL (     191 calls)
     fftw         :     13.78s CPU     14.58s WALL (  374478 calls)
     interpolate  :      0.04s CPU      0.04s WALL (      98 calls)
 
     Parallel routines
 
     PWSCF        :   1m 0.03s CPU   1m 4.58s WALL

 
   This run was terminated on:   2:29:38  15Nov2025            

=------------------------------------------------------------------------------=
   JOB DONE.
=------------------------------------------------------------------------------=
TACC:  Shutdown complete. Exiting. 
