TACC:  Starting up job 2409253 
TACC:  Starting parallel tasks... 

     Program PWSCF v.7.3 starts on 24Sep2025 at 14:49:58 

     This program is part of the open-source Quantum ESPRESSO suite
     for quantum simulation of materials; please cite
         "P. Giannozzi et al., J. Phys.:Condens. Matter 21 395502 (2009);
         "P. Giannozzi et al., J. Phys.:Condens. Matter 29 465901 (2017);
         "P. Giannozzi et al., J. Chem. Phys. 152 154105 (2020);
          URL http://www.quantum-espresso.org", 
     in publications or presentations arising from this work. More details at
     http://www.quantum-espresso.org/quote

     Parallel version (MPI & OpenMP), running on      10 processor cores
     Number of MPI processes:                10
     Threads/MPI process:                     1

     MPI processes distributed on     1 nodes
     189261 MiB available memory on the printing compute node when the environment starts
 
     Waiting for input...
     Reading input from standard input
Warning: card &CELL ignored
Warning: card  CELL_DYNAMICS = 'BFGS', ignored
Warning: card  PRESS=0.D0, ignored
Warning: card / ignored
     Message from routine read_cards :
     DEPRECATED: no units specified in ATOMIC_POSITIONS card
     Message from routine read_cards :
     ATOMIC_POSITIONS: units set to alat

     Current dimensions of program PWSCF are:
     Max number of different atomic species (ntypx) = 10
     Max number of k-points (npk) =  40000
     Max angular momentum in pseudopotentials (lmaxx) =  4
 
     R & G space division:  proc/nbgrp/npool/nimage =      10
     Subspace diagonalization in iterative solution of the eigenvalue problem:
     a serial algorithm will be used

 
     Parallelization info
     --------------------
     sticks:   dense  smooth     PW     G-vecs:    dense   smooth      PW
     Min         446     178     50                22400     5660     872
     Max         447     179     51                22403     5663     875
     Sum        4469    1781    509               224023    56619    8733
 
     Using Slab Decomposition
 


     bravais-lattice index     =            1
     lattice parameter (alat)  =       7.4858  a.u.
     unit-cell volume          =     419.4782 (a.u.)^3
     number of atoms/cell      =            5
     number of atomic types    =            3
     number of electrons       =        40.00
     number of Kohn-Sham states=           20
     kinetic-energy cutoff     =     100.0000  Ry
     charge density cutoff     =    1000.0000  Ry
     scf convergence threshold =      1.0E-08
     mixing beta               =       0.7000
     number of iterations used =            8  plain     mixing
     Exchange-correlation= SLA  PZ   NOGX NOGC
                           (   1   1   0   0   0   0   0)

     celldm(1)=   7.485770  celldm(2)=   0.000000  celldm(3)=   0.000000
     celldm(4)=   0.000000  celldm(5)=   0.000000  celldm(6)=   0.000000

     crystal axes: (cart. coord. in units of alat)
               a(1) = (   1.000000   0.000000   0.000000 )  
               a(2) = (   0.000000   1.000000   0.000000 )  
               a(3) = (   0.000000   0.000000   1.000000 )  

     reciprocal axes: (cart. coord. in units 2 pi/alat)
               b(1) = (  1.000000  0.000000  0.000000 )  
               b(2) = (  0.000000  1.000000  0.000000 )  
               b(3) = (  0.000000  0.000000  1.000000 )  


     PseudoPot. # 1 for Ca read from file:
     /scratch/11018/zhc/assisgnment1/CaTiO3/Ca_LDA.UPF
     MD5 check sum: d2d4e7693e10d071152e9eeb7dd009f3
     Pseudo is Ultrasoft + core correction, Zval = 10.0
     Generated by new atomic code, or converted to UPF format
     Using radial grid of  845 points,  6 beta functions with: 
                l(1) =   0
                l(2) =   0
                l(3) =   1
                l(4) =   1
                l(5) =   2
                l(6) =   2
     Q(r) pseudized with  8 coefficients,  rinner =    1.500   1.500   1.500
                                                       1.500   1.500

     PseudoPot. # 2 for Ti read from file:
     /scratch/11018/zhc/assisgnment1/CaTiO3/Ti_LDA.UPF
     MD5 check sum: 0d9f225c038fe889ca2a701dcc8d72cb
     Pseudo is Ultrasoft + core correction, Zval = 12.0
     Generated by new atomic code, or converted to UPF format
     Using radial grid of  851 points,  6 beta functions with: 
                l(1) =   0
                l(2) =   0
                l(3) =   1
                l(4) =   1
                l(5) =   2
                l(6) =   2
     Q(r) pseudized with  6 coefficients,  rinner =    1.000   1.000   1.000
                                                       1.000   1.000

     PseudoPot. # 3 for O  read from file:
     /scratch/11018/zhc/assisgnment1/CaTiO3/O_LDA.UPF
     MD5 check sum: 194b818514d2a7dbb603bb78519a4f40
     Pseudo is Ultrasoft + core correction, Zval =  6.0
     Generated by new atomic code, or converted to UPF format
     Using radial grid of  737 points,  5 beta functions with: 
                l(1) =   0
                l(2) =   0
                l(3) =   1
                l(4) =   1
                l(5) =   2
     Q(r) pseudized with  8 coefficients,  rinner =    0.900   0.900   0.900
                                                       0.900   0.900

     atomic species   valence    mass     pseudopotential
     Ca               10.00    40.07800     Ca( 1.00)
     Ti               12.00    47.88000     Ti( 1.00)
     O                 6.00    16.00000     O ( 1.00)

     48 Sym. Ops., with inversion, found



   Cartesian axes

     site n.     atom                  positions (alat units)
         1        Ca     tau(   1) = (   0.0000000   0.0000000   0.0000000  )
         2        Ti     tau(   2) = (   0.5000000   0.5000000   0.5000000  )
         3        O      tau(   3) = (   0.5000000   0.5000000   0.0000000  )
         4        O      tau(   4) = (   0.5000000   0.0000000   0.5000000  )
         5        O      tau(   5) = (   0.0000000   0.5000000   0.5000000  )

     number of k points=    20
                       cart. coord. in units 2pi/alat
        k(    1) = (   0.0000000   0.0000000   0.0000000), wk =   0.0092593
        k(    2) = (   0.0000000   0.0000000   0.1666667), wk =   0.0555556
        k(    3) = (   0.0000000   0.0000000   0.3333333), wk =   0.0555556
        k(    4) = (   0.0000000   0.0000000  -0.5000000), wk =   0.0277778
        k(    5) = (   0.0000000   0.1666667   0.1666667), wk =   0.1111111
        k(    6) = (   0.0000000   0.1666667   0.3333333), wk =   0.2222222
        k(    7) = (   0.0000000   0.1666667  -0.5000000), wk =   0.1111111
        k(    8) = (   0.0000000   0.3333333   0.3333333), wk =   0.1111111
        k(    9) = (   0.0000000   0.3333333  -0.5000000), wk =   0.1111111
        k(   10) = (   0.0000000  -0.5000000  -0.5000000), wk =   0.0277778
        k(   11) = (   0.1666667   0.1666667   0.1666667), wk =   0.0740741
        k(   12) = (   0.1666667   0.1666667   0.3333333), wk =   0.2222222
        k(   13) = (   0.1666667   0.1666667  -0.5000000), wk =   0.1111111
        k(   14) = (   0.1666667   0.3333333   0.3333333), wk =   0.2222222
        k(   15) = (   0.1666667   0.3333333  -0.5000000), wk =   0.2222222
        k(   16) = (   0.1666667  -0.5000000  -0.5000000), wk =   0.0555556
        k(   17) = (   0.3333333   0.3333333   0.3333333), wk =   0.0740741
        k(   18) = (   0.3333333   0.3333333  -0.5000000), wk =   0.1111111
        k(   19) = (   0.3333333  -0.5000000  -0.5000000), wk =   0.0555556
        k(   20) = (  -0.5000000  -0.5000000  -0.5000000), wk =   0.0092593

     Dense  grid:   224023 G-vectors     FFT dimensions: (  75,  75,  75)

     Smooth grid:    56619 G-vectors     FFT dimensions: (  48,  48,  48)

     Estimated max dynamical RAM per process >      95.31 MB

     Estimated total dynamical RAM >     953.11 MB

     Initial potential from superposition of free atoms

     starting charge      38.9952, renormalised to      40.0000

     negative rho (up, down):  8.795E-04 0.000E+00
     Starting wfcs are   32 randomized atomic wfcs

     total cpu time spent up to now is        0.9 secs

     Self-consistent Calculation

     iteration #  1     ecut=   100.00 Ry     beta= 0.70
     CG style diagonalization
     ethr =  1.00E-02,  avg # of iterations =  2.2

     negative rho (up, down):  1.164E-03 0.000E+00

     total cpu time spent up to now is        1.7 secs

     total energy              =    -291.27157676 Ry
     estimated scf accuracy    <       0.83459642 Ry

     iteration #  2     ecut=   100.00 Ry     beta= 0.70
     CG style diagonalization
     ethr =  2.09E-03,  avg # of iterations =  5.3

     negative rho (up, down):  6.311E-04 0.000E+00

     total cpu time spent up to now is        3.1 secs

     total energy              =    -290.25912587 Ry
     estimated scf accuracy    <       9.25862777 Ry

     iteration #  3     ecut=   100.00 Ry     beta= 0.70
     CG style diagonalization
     ethr =  2.09E-03,  avg # of iterations =  4.7

     negative rho (up, down):  7.384E-04 0.000E+00

     total cpu time spent up to now is        4.3 secs

     total energy              =    -291.69926975 Ry
     estimated scf accuracy    <       0.20923012 Ry

     iteration #  4     ecut=   100.00 Ry     beta= 0.70
     CG style diagonalization
     ethr =  5.23E-04,  avg # of iterations =  3.5

     negative rho (up, down):  8.062E-04 0.000E+00

     total cpu time spent up to now is        5.2 secs

     total energy              =    -291.72054601 Ry
     estimated scf accuracy    <       0.07620000 Ry

     iteration #  5     ecut=   100.00 Ry     beta= 0.70
     CG style diagonalization
     ethr =  1.91E-04,  avg # of iterations =  3.5

     negative rho (up, down):  8.570E-04 0.000E+00

     total cpu time spent up to now is        6.2 secs

     total energy              =    -291.72780452 Ry
     estimated scf accuracy    <       0.00714676 Ry

     iteration #  6     ecut=   100.00 Ry     beta= 0.70
     CG style diagonalization
     ethr =  1.79E-05,  avg # of iterations =  3.8

     negative rho (up, down):  8.722E-04 0.000E+00

     total cpu time spent up to now is        7.2 secs

     total energy              =    -291.73037253 Ry
     estimated scf accuracy    <       0.00004654 Ry

     iteration #  7     ecut=   100.00 Ry     beta= 0.70
     CG style diagonalization
     ethr =  1.16E-07,  avg # of iterations =  5.0

     negative rho (up, down):  8.702E-04 0.000E+00

     total cpu time spent up to now is        8.5 secs

     total energy              =    -291.73055094 Ry
     estimated scf accuracy    <       0.00033949 Ry

     iteration #  8     ecut=   100.00 Ry     beta= 0.70
     CG style diagonalization
     ethr =  1.16E-07,  avg # of iterations =  4.2

     negative rho (up, down):  8.683E-04 0.000E+00

     total cpu time spent up to now is        9.6 secs

     total energy              =    -291.73056768 Ry
     estimated scf accuracy    <       0.00003256 Ry

     iteration #  9     ecut=   100.00 Ry     beta= 0.70
     CG style diagonalization
     ethr =  8.14E-08,  avg # of iterations =  3.5

     negative rho (up, down):  8.675E-04 0.000E+00

     total cpu time spent up to now is       10.6 secs

     total energy              =    -291.73057187 Ry
     estimated scf accuracy    <       0.00000121 Ry

     iteration # 10     ecut=   100.00 Ry     beta= 0.70
     CG style diagonalization
     ethr =  3.04E-09,  avg # of iterations =  4.1

     negative rho (up, down):  8.675E-04 0.000E+00

     total cpu time spent up to now is       11.6 secs

     total energy              =    -291.73057261 Ry
     estimated scf accuracy    <       0.00000006 Ry

     iteration # 11     ecut=   100.00 Ry     beta= 0.70
     CG style diagonalization
     ethr =  1.39E-10,  avg # of iterations =  4.4

     negative rho (up, down):  8.675E-04 0.000E+00

     total cpu time spent up to now is       12.8 secs

     total energy              =    -291.73057277 Ry
     estimated scf accuracy    <       0.00000012 Ry

     iteration # 12     ecut=   100.00 Ry     beta= 0.70
     CG style diagonalization
     ethr =  1.39E-10,  avg # of iterations =  3.6

     negative rho (up, down):  8.676E-04 0.000E+00

     total cpu time spent up to now is       13.8 secs

     total energy              =    -291.73057277 Ry
     estimated scf accuracy    <       0.00000001 Ry

     iteration # 13     ecut=   100.00 Ry     beta= 0.70
     CG style diagonalization
     ethr =  2.64E-11,  avg # of iterations =  3.8

     negative rho (up, down):  8.675E-04 0.000E+00

     total cpu time spent up to now is       14.8 secs

     End of self-consistent calculation

          k = 0.0000 0.0000 0.0000 (  7075 PWs)   bands (ev):

   -48.0341 -31.0630 -24.5887 -24.5887 -24.5887 -12.2476 -12.2476 -12.2476
    -9.0259  -7.9739  -7.9739   4.9798   4.9798   4.9798   6.9112   6.9112
     6.9112   7.5103   7.5103   7.5103

          k = 0.0000 0.0000 0.1667 (  7052 PWs)   bands (ev):

   -48.0339 -31.0619 -24.6028 -24.5881 -24.5881 -12.2922 -12.2454 -12.2454
    -8.8906  -7.9652  -7.9162   4.6894   5.0028   5.0028   6.5674   6.5674
     6.7057   6.7515   7.3899   7.3899

          k = 0.0000 0.0000 0.3333 (  7076 PWs)   bands (ev):

   -48.0335 -31.0596 -24.6308 -24.5868 -24.5868 -12.3771 -12.2410 -12.2410
    -8.6139  -7.9478  -7.7966   4.0708   5.1007   5.1007   5.7279   5.9369
     5.9369   6.3454   7.2835   7.2835

          k = 0.0000 0.0000-0.5000 (  7032 PWs)   bands (ev):

   -48.0333 -31.0585 -24.6446 -24.5862 -24.5862 -12.4177 -12.2388 -12.2388
    -8.4730  -7.9391  -7.7330   3.7337   5.2517   5.2517   5.3583   5.5637
     5.5637   6.1842   7.2457   7.2457

          k = 0.0000 0.1667 0.1667 (  7055 PWs)   bands (ev):

   -48.0337 -31.0607 -24.6024 -24.6021 -24.5875 -12.2974 -12.2738 -12.2431
    -8.7661  -7.9347  -7.8829   4.5359   4.8560   5.0229   5.8631   6.3536
     6.6722   6.8067   7.0956   7.1631

          k = 0.0000 0.1667 0.3333 (  7086 PWs)   bands (ev):

   -48.0333 -31.0584 -24.6303 -24.6011 -24.5862 -12.3643 -12.2714 -12.2385
    -8.5182  -7.9080  -7.7686   4.0326   4.6602   5.1121   5.1156   5.8456
     6.0618   6.7506   6.9654   7.0199

          k = 0.0000 0.1667-0.5000 (  7064 PWs)   bands (ev):

   -48.0330 -31.0573 -24.6442 -24.6005 -24.5856 -12.4002 -12.2666 -12.2362
    -8.3985  -7.8951  -7.6994   3.7269   4.4492   4.9603   5.2631   5.4983
     5.8531   6.7406   6.9099   6.9273

          k = 0.0000 0.3333 0.3333 (  7101 PWs)   bands (ev):

   -48.0328 -31.0560 -24.6295 -24.6293 -24.5850 -12.3460 -12.3239 -12.2335
    -8.3665  -7.7899  -7.6959   3.7878   4.2033   4.2717   5.1689   5.6032
     6.1262   6.2834   6.5553   7.5510

          k = 0.0000 0.3333-0.5000 (  7078 PWs)   bands (ev):

   -48.0326 -31.0548 -24.6434 -24.6289 -24.5844 -12.3652 -12.3211 -12.2309
    -8.3163  -7.7232  -7.6325   3.6712   3.6799   4.2057   5.2919   5.3722
     6.0526   6.2642   6.4172   7.6811

          k = 0.0000-0.5000-0.5000 (  7120 PWs)   bands (ev):

   -48.0324 -31.0536 -24.6430 -24.6430 -24.5838 -12.3478 -12.3478 -12.2283
    -8.3031  -7.5993  -7.5993   3.3900   3.5390   3.9067   5.3114   5.3114
     6.1488   6.1488   6.2137   7.9134

          k = 0.1667 0.1667 0.1667 (  7055 PWs)   bands (ev):

   -48.0335 -31.0595 -24.6017 -24.6017 -24.6016 -12.2999 -12.2695 -12.2695
    -8.6458  -7.8808  -7.8808   4.3970   4.8541   4.8541   5.7876   5.7876
     6.1360   7.0224   7.0224   7.1620

          k = 0.1667 0.1667 0.3333 (  7103 PWs)   bands (ev):

   -48.0330 -31.0572 -24.6298 -24.6006 -24.6003 -12.3529 -12.2725 -12.2609
    -8.4093  -7.8765  -7.7552   3.9950   4.5748   4.8159   5.0180   5.2605
     6.0176   6.7951   6.9784   7.1620

          k = 0.1667 0.1667-0.5000 (  7102 PWs)   bands (ev):

   -48.0328 -31.0561 -24.6437 -24.6000 -24.5997 -12.3847 -12.2678 -12.2566
    -8.2972  -7.8743  -7.6781   3.7230   4.3417   4.7478   4.8059   5.1249
     6.0739   6.6545   6.9588   7.0831

          k = 0.1667 0.3333 0.3333 (  7094 PWs)   bands (ev):

   -48.0326 -31.0549 -24.6288 -24.6287 -24.5992 -12.3364 -12.3160 -12.2570
    -8.2308  -7.7803  -7.7060   3.8015   4.2495   4.2719   4.7082   4.9707
     5.5484   6.8853   6.9212   7.5774

          k = 0.1667 0.3333-0.5000 (  7082 PWs)   bands (ev):

   -48.0324 -31.0537 -24.6428 -24.6282 -24.5986 -12.3539 -12.3138 -12.2528
    -8.1730  -7.7369  -7.6360   3.6828   3.7554   4.2039   4.6649   4.8287
     5.5434   6.8442   6.9111   7.7021

          k = 0.1667-0.5000-0.5000 (  7112 PWs)   bands (ev):

   -48.0322 -31.0525 -24.6423 -24.6423 -24.5979 -12.3384 -12.3384 -12.2489
    -8.1534  -7.6153  -7.6153   3.5022   3.5458   3.9108   4.6847   4.6847
     5.4808   6.8787   6.8787   7.9348

          k = 0.3333 0.3333 0.3333 (  7091 PWs)   bands (ev):

   -48.0322 -31.0526 -24.6276 -24.6273 -24.6273 -12.3205 -12.3001 -12.3001
    -7.9764  -7.7266  -7.7266   3.7629   4.2187   4.2187   4.3180   4.4224
     4.4224   7.3992   7.3992   7.7048

          k = 0.3333 0.3333-0.5000 (  7092 PWs)   bands (ev):

   -48.0320 -31.0514 -24.6414 -24.6269 -24.6266 -12.3310 -12.3031 -12.2921
    -7.8951  -7.7370  -7.6436   3.6530   3.8696   4.0775   4.1102   4.3492
     4.4347   7.4852   7.5680   7.8027

          k = 0.3333-0.5000-0.5000 (  7060 PWs)   bands (ev):

   -48.0317 -31.0503 -24.6407 -24.6407 -24.6260 -12.3195 -12.3195 -12.2897
    -7.8347  -7.6477  -7.6477   3.5194   3.7339   3.9188   4.0726   4.0726
     4.3224   7.6887   7.6887   7.9785

          k =-0.5000-0.5000-0.5000 (  7088 PWs)   bands (ev):

   -48.0315 -31.0492 -24.6399 -24.6399 -24.6399 -12.3099 -12.3099 -12.3099
    -7.6640  -7.6640  -7.6640   3.3987   3.8537   3.8537   3.8537   3.9229
     3.9229   8.0008   8.0008   8.0008

     highest occupied level (ev):     8.0008

!    total energy              =    -291.73057278 Ry
     estimated scf accuracy    <          1.8E-10 Ry

     The total energy is the sum of the following terms:
     one-electron contribution =     -98.62771489 Ry
     hartree contribution      =      67.42442514 Ry
     xc contribution           =     -51.04067492 Ry
     ewald contribution        =    -209.48660810 Ry

     convergence has been achieved in  13 iterations

     negative rho (up, down):  8.675E-04 0.000E+00

     Forces acting on atoms (cartesian axes, Ry/au):

     atom    1 type  1   force =     0.00000000    0.00000000    0.00000000
     atom    2 type  2   force =     0.00000000    0.00000000    0.00000000
     atom    3 type  3   force =     0.00000000    0.00000000    0.00000000
     atom    4 type  3   force =     0.00000000    0.00000000    0.00000000
     atom    5 type  3   force =     0.00000000    0.00000000    0.00000000

     Total force =     0.000000     Total SCF correction =     0.000000


     Computing stress (Cartesian axis) and pressure


     negative rho (up, down):  8.675E-04 0.000E+00
          total   stress  (Ry/bohr**3)                   (kbar)     P=     -189.26
  -0.00128660   0.00000000   0.00000000         -189.26        0.00        0.00
   0.00000000  -0.00128660   0.00000000            0.00     -189.26        0.00
   0.00000000   0.00000000  -0.00128660            0.00        0.00     -189.26


     Writing all to output data dir ./CTO_module_18.save/ :
     XML data file, charge density, pseudopotentials, collected wavefunctions
 
     init_run     :      0.53s CPU      0.64s WALL (       1 calls)
     electrons    :     13.27s CPU     13.94s WALL (       1 calls)
     forces       :      0.24s CPU      0.24s WALL (       1 calls)
     stress       :      1.87s CPU      1.91s WALL (       1 calls)

     Called by init_run:
     wfcinit      :      0.20s CPU      0.23s WALL (       1 calls)
     potinit      :      0.02s CPU      0.02s WALL (       1 calls)
     hinit0       :      0.15s CPU      0.18s WALL (       1 calls)

     Called by electrons:
     c_bands      :      9.21s CPU      9.54s WALL (      13 calls)
     sum_band     :      2.47s CPU      2.61s WALL (      13 calls)
     v_of_rho     :      0.05s CPU      0.05s WALL (      14 calls)
     newd         :      1.57s CPU      1.78s WALL (      14 calls)
     mix_rho      :      0.04s CPU      0.05s WALL (      13 calls)

     Called by c_bands:
     init_us_2    :      0.16s CPU      0.16s WALL (     580 calls)
     init_us_2:cp :      0.16s CPU      0.16s WALL (     580 calls)
     ccgdiagg     :      7.97s CPU      8.26s WALL (     260 calls)
     wfcrot       :      1.31s CPU      1.37s WALL (     260 calls)

     Called by *cgdiagg:
     h_psi        :      5.65s CPU      5.85s WALL (   16111 calls)
     s_psi        :      0.94s CPU      0.97s WALL (   31962 calls)

     Called by h_psi:
     h_psi:calbec :      0.99s CPU      1.03s WALL (   16111 calls)
     vloc_psi     :      3.95s CPU      4.09s WALL (   16111 calls)
     add_vuspsi   :      0.55s CPU      0.57s WALL (   16111 calls)
     hs_1psi      :      5.10s CPU      5.28s WALL (   15851 calls)
     s_1psi       :      1.24s CPU      1.28s WALL (   15851 calls)

     General routines
     calbec       :      1.72s CPU      1.79s WALL (   32322 calls)
     fft          :      0.07s CPU      0.09s WALL (      90 calls)
     ffts         :      0.00s CPU      0.01s WALL (      27 calls)
     fftw         :      3.09s CPU      3.19s WALL (   47782 calls)
     interpolate  :      0.01s CPU      0.02s WALL (      14 calls)
 
     Parallel routines
 
     PWSCF        :     16.13s CPU     17.32s WALL

 
   This run was terminated on:  14:50:16  24Sep2025            

=------------------------------------------------------------------------------=
   JOB DONE.
=------------------------------------------------------------------------------=
TACC:  Shutdown complete. Exiting. 
