TACC:  Starting up job 2553093 
TACC:  Starting parallel tasks... 

     Program PWSCF v.7.3 starts on 15Nov2025 at  2:33:28 

     This program is part of the open-source Quantum ESPRESSO suite
     for quantum simulation of materials; please cite
         "P. Giannozzi et al., J. Phys.:Condens. Matter 21 395502 (2009);
         "P. Giannozzi et al., J. Phys.:Condens. Matter 29 465901 (2017);
         "P. Giannozzi et al., J. Chem. Phys. 152 154105 (2020);
          URL http://www.quantum-espresso.org", 
     in publications or presentations arising from this work. More details at
     http://www.quantum-espresso.org/quote

     Parallel version (MPI & OpenMP), running on      10 processor cores
     Number of MPI processes:                10
     Threads/MPI process:                     1

     MPI processes distributed on     1 nodes
     186261 MiB available memory on the printing compute node when the environment starts
 
     Waiting for input...
     Reading input from standard input
Warning: card &CELL ignored
Warning: card  CELL_DYNAMICS = 'BFGS', ignored
Warning: card  PRESS=0.D0, ignored
Warning: card / ignored

     Current dimensions of program PWSCF are:
     Max number of different atomic species (ntypx) = 10
     Max number of k-points (npk) =  40000
     Max angular momentum in pseudopotentials (lmaxx) =  4
     Message from routine setup:
     using ibrav=0 with symmetry is DISCOURAGED, use correct ibrav instead
 
     R & G space division:  proc/nbgrp/npool/nimage =      10
     Subspace diagonalization in iterative solution of the eigenvalue problem:
     a serial algorithm will be used

 
     Parallelization info
     --------------------
     sticks:   dense  smooth     PW     G-vecs:    dense   smooth      PW
     Min         216      86     25                 7944     2004     321
     Max         217      87     26                 7947     2007     324
     Sum        2161     869    253                79447    20063    3231
 
     Using Slab Decomposition
 


     bravais-lattice index     =            0
     lattice parameter (alat)  =       7.3699  a.u.
     unit-cell volume          =     420.8329 (a.u.)^3
     number of atoms/cell      =            5
     number of atomic types    =            3
     number of electrons       =        44.00
     number of Kohn-Sham states=           22
     kinetic-energy cutoff     =      50.0000  Ry
     charge density cutoff     =     500.0000  Ry
     scf convergence threshold =      1.0E-08
     mixing beta               =       0.7000
     number of iterations used =            8  plain     mixing
     energy convergence thresh.=      1.0E-04
     force convergence thresh. =      1.0E-03
     Exchange-correlation= SLA  PZ   NOGX NOGC
                           (   1   1   0   0   0   0   0)
     nstep                     =           50


     celldm(1)=   7.369932  celldm(2)=   0.000000  celldm(3)=   0.000000
     celldm(4)=   0.000000  celldm(5)=   0.000000  celldm(6)=   0.000000

     crystal axes: (cart. coord. in units of alat)
               a(1) = (   1.000000   0.000000   0.000000 )  
               a(2) = (   0.000000   1.000000   0.000000 )  
               a(3) = (   0.000000   0.000000   1.051282 )  

     reciprocal axes: (cart. coord. in units 2 pi/alat)
               b(1) = (  1.000000  0.000000  0.000000 )  
               b(2) = (  0.000000  1.000000  0.000000 )  
               b(3) = (  0.000000  0.000000  0.951220 )  


     PseudoPot. # 1 for Pb read from file:
     /scratch/11018/zhc/assisgnment3/input_files/Pb_LDA.UPF
     MD5 check sum: 062a37469794d955244864f8fe2e5624
     Pseudo is Ultrasoft + core correction, Zval = 14.0
     Generated by new atomic code, or converted to UPF format
     Using radial grid of  899 points,  6 beta functions with: 
                l(1) =   0
                l(2) =   0
                l(3) =   1
                l(4) =   1
                l(5) =   2
                l(6) =   2
     Q(r) pseudized with  6 coefficients,  rinner =    1.000   1.000   1.000
                                                       1.000   1.000

     PseudoPot. # 2 for Ti read from file:
     /scratch/11018/zhc/assisgnment3/input_files/Ti_LDA.UPF
     MD5 check sum: 0d9f225c038fe889ca2a701dcc8d72cb
     Pseudo is Ultrasoft + core correction, Zval = 12.0
     Generated by new atomic code, or converted to UPF format
     Using radial grid of  851 points,  6 beta functions with: 
                l(1) =   0
                l(2) =   0
                l(3) =   1
                l(4) =   1
                l(5) =   2
                l(6) =   2
     Q(r) pseudized with  6 coefficients,  rinner =    1.000   1.000   1.000
                                                       1.000   1.000

     PseudoPot. # 3 for O  read from file:
     /scratch/11018/zhc/assisgnment3/input_files/O_LDA.UPF
     MD5 check sum: 194b818514d2a7dbb603bb78519a4f40
     Pseudo is Ultrasoft + core correction, Zval =  6.0
     Generated by new atomic code, or converted to UPF format
     Using radial grid of  737 points,  5 beta functions with: 
                l(1) =   0
                l(2) =   0
                l(3) =   1
                l(4) =   1
                l(5) =   2
     Q(r) pseudized with  8 coefficients,  rinner =    0.900   0.900   0.900
                                                       0.900   0.900

     atomic species   valence    mass     pseudopotential
     Pb               14.00   207.20000     Pb( 1.00)
     Ti               12.00    47.88000     Ti( 1.00)
     O                 6.00    16.00000     O ( 1.00)

      8 Sym. Ops. (no inversion) found



   Cartesian axes

     site n.     atom                  positions (alat units)
         1        Pb     tau(   1) = (   0.0000000   0.0000000   1.0580339  )
         2        Ti     tau(   2) = (   0.5000000   0.5000000   0.5681377  )
         3        O      tau(   3) = (   0.5000000   0.5000000   0.1036357  )
         4        O      tau(   4) = (   0.5000000   0.0000000   0.6422586  )
         5        O      tau(   5) = (   0.0000000   0.5000000   0.6422586  )

     number of k points=    75
                       cart. coord. in units 2pi/alat
        k(    1) = (   0.0000000   0.0000000   0.0000000), wk =   0.0027435
        k(    2) = (   0.0000000   0.0000000   0.1056911), wk =   0.0054870
        k(    3) = (   0.0000000   0.0000000   0.2113821), wk =   0.0054870
        k(    4) = (   0.0000000   0.0000000   0.3170732), wk =   0.0054870
        k(    5) = (   0.0000000   0.0000000   0.4227642), wk =   0.0054870
        k(    6) = (   0.0000000   0.1111111   0.0000000), wk =   0.0109739
        k(    7) = (   0.0000000   0.1111111   0.1056911), wk =   0.0219479
        k(    8) = (   0.0000000   0.1111111   0.2113821), wk =   0.0219479
        k(    9) = (   0.0000000   0.1111111   0.3170732), wk =   0.0219479
        k(   10) = (   0.0000000   0.1111111   0.4227642), wk =   0.0219479
        k(   11) = (   0.0000000   0.2222222   0.0000000), wk =   0.0109739
        k(   12) = (   0.0000000   0.2222222   0.1056911), wk =   0.0219479
        k(   13) = (   0.0000000   0.2222222   0.2113821), wk =   0.0219479
        k(   14) = (   0.0000000   0.2222222   0.3170732), wk =   0.0219479
        k(   15) = (   0.0000000   0.2222222   0.4227642), wk =   0.0219479
        k(   16) = (   0.0000000   0.3333333   0.0000000), wk =   0.0109739
        k(   17) = (   0.0000000   0.3333333   0.1056911), wk =   0.0219479
        k(   18) = (   0.0000000   0.3333333   0.2113821), wk =   0.0219479
        k(   19) = (   0.0000000   0.3333333   0.3170732), wk =   0.0219479
        k(   20) = (   0.0000000   0.3333333   0.4227642), wk =   0.0219479
        k(   21) = (   0.0000000   0.4444444   0.0000000), wk =   0.0109739
        k(   22) = (   0.0000000   0.4444444   0.1056911), wk =   0.0219479
        k(   23) = (   0.0000000   0.4444444   0.2113821), wk =   0.0219479
        k(   24) = (   0.0000000   0.4444444   0.3170732), wk =   0.0219479
        k(   25) = (   0.0000000   0.4444444   0.4227642), wk =   0.0219479
        k(   26) = (   0.1111111   0.1111111   0.0000000), wk =   0.0109739
        k(   27) = (   0.1111111   0.1111111   0.1056911), wk =   0.0219479
        k(   28) = (   0.1111111   0.1111111   0.2113821), wk =   0.0219479
        k(   29) = (   0.1111111   0.1111111   0.3170732), wk =   0.0219479
        k(   30) = (   0.1111111   0.1111111   0.4227642), wk =   0.0219479
        k(   31) = (   0.1111111   0.2222222   0.0000000), wk =   0.0219479
        k(   32) = (   0.1111111   0.2222222   0.1056911), wk =   0.0438957
        k(   33) = (   0.1111111   0.2222222   0.2113821), wk =   0.0438957
        k(   34) = (   0.1111111   0.2222222   0.3170732), wk =   0.0438957
        k(   35) = (   0.1111111   0.2222222   0.4227642), wk =   0.0438957
        k(   36) = (   0.1111111   0.3333333   0.0000000), wk =   0.0219479
        k(   37) = (   0.1111111   0.3333333   0.1056911), wk =   0.0438957
        k(   38) = (   0.1111111   0.3333333   0.2113821), wk =   0.0438957
        k(   39) = (   0.1111111   0.3333333   0.3170732), wk =   0.0438957
        k(   40) = (   0.1111111   0.3333333   0.4227642), wk =   0.0438957
        k(   41) = (   0.1111111   0.4444444   0.0000000), wk =   0.0219479
        k(   42) = (   0.1111111   0.4444444   0.1056911), wk =   0.0438957
        k(   43) = (   0.1111111   0.4444444   0.2113821), wk =   0.0438957
        k(   44) = (   0.1111111   0.4444444   0.3170732), wk =   0.0438957
        k(   45) = (   0.1111111   0.4444444   0.4227642), wk =   0.0438957
        k(   46) = (   0.2222222   0.2222222   0.0000000), wk =   0.0109739
        k(   47) = (   0.2222222   0.2222222   0.1056911), wk =   0.0219479
        k(   48) = (   0.2222222   0.2222222   0.2113821), wk =   0.0219479
        k(   49) = (   0.2222222   0.2222222   0.3170732), wk =   0.0219479
        k(   50) = (   0.2222222   0.2222222   0.4227642), wk =   0.0219479
        k(   51) = (   0.2222222   0.3333333   0.0000000), wk =   0.0219479
        k(   52) = (   0.2222222   0.3333333   0.1056911), wk =   0.0438957
        k(   53) = (   0.2222222   0.3333333   0.2113821), wk =   0.0438957
        k(   54) = (   0.2222222   0.3333333   0.3170732), wk =   0.0438957
        k(   55) = (   0.2222222   0.3333333   0.4227642), wk =   0.0438957
        k(   56) = (   0.2222222   0.4444444   0.0000000), wk =   0.0219479
        k(   57) = (   0.2222222   0.4444444   0.1056911), wk =   0.0438957
        k(   58) = (   0.2222222   0.4444444   0.2113821), wk =   0.0438957
        k(   59) = (   0.2222222   0.4444444   0.3170732), wk =   0.0438957
        k(   60) = (   0.2222222   0.4444444   0.4227642), wk =   0.0438957
        k(   61) = (   0.3333333   0.3333333   0.0000000), wk =   0.0109739
        k(   62) = (   0.3333333   0.3333333   0.1056911), wk =   0.0219479
        k(   63) = (   0.3333333   0.3333333   0.2113821), wk =   0.0219479
        k(   64) = (   0.3333333   0.3333333   0.3170732), wk =   0.0219479
        k(   65) = (   0.3333333   0.3333333   0.4227642), wk =   0.0219479
        k(   66) = (   0.3333333   0.4444444   0.0000000), wk =   0.0219479
        k(   67) = (   0.3333333   0.4444444   0.1056911), wk =   0.0438957
        k(   68) = (   0.3333333   0.4444444   0.2113821), wk =   0.0438957
        k(   69) = (   0.3333333   0.4444444   0.3170732), wk =   0.0438957
        k(   70) = (   0.3333333   0.4444444   0.4227642), wk =   0.0438957
        k(   71) = (   0.4444444   0.4444444   0.0000000), wk =   0.0109739
        k(   72) = (   0.4444444   0.4444444   0.1056911), wk =   0.0219479
        k(   73) = (   0.4444444   0.4444444   0.2113821), wk =   0.0219479
        k(   74) = (   0.4444444   0.4444444   0.3170732), wk =   0.0219479
        k(   75) = (   0.4444444   0.4444444   0.4227642), wk =   0.0219479

     Dense  grid:    79447 G-vectors     FFT dimensions: (  54,  54,  60)

     Smooth grid:    20063 G-vectors     FFT dimensions: (  36,  36,  36)

     Estimated max dynamical RAM per process >      41.39 MB

     Estimated total dynamical RAM >     413.90 MB

     Check: negative core charge=   -0.000004

     Initial potential from superposition of free atoms

     starting charge      42.9982, renormalised to      44.0000

     negative rho (up, down):  1.690E-02 0.000E+00
     Starting wfcs are   31 randomized atomic wfcs

     total cpu time spent up to now is        1.0 secs

     Self-consistent Calculation

     iteration #  1     ecut=    50.00 Ry     beta= 0.70
     CG style diagonalization
     ethr =  1.00E-02,  avg # of iterations =  2.1

     negative rho (up, down):  1.407E-02 0.000E+00

     total cpu time spent up to now is        2.2 secs

     total energy              =    -380.04666134 Ry
     estimated scf accuracy    <       1.03413687 Ry

     iteration #  2     ecut=    50.00 Ry     beta= 0.70
     CG style diagonalization
     ethr =  2.35E-03,  avg # of iterations =  5.0

     negative rho (up, down):  1.455E-02 0.000E+00

     total cpu time spent up to now is        4.5 secs

     total energy              =    -379.55215686 Ry
     estimated scf accuracy    <       5.14647252 Ry

     iteration #  3     ecut=    50.00 Ry     beta= 0.70
     CG style diagonalization
     ethr =  2.35E-03,  avg # of iterations =  4.5

     negative rho (up, down):  1.525E-02 0.000E+00

     total cpu time spent up to now is        6.6 secs

     total energy              =    -380.53282785 Ry
     estimated scf accuracy    <       0.36478899 Ry

     iteration #  4     ecut=    50.00 Ry     beta= 0.70
     CG style diagonalization
     ethr =  8.29E-04,  avg # of iterations =  3.4

     negative rho (up, down):  1.524E-02 0.000E+00

     total cpu time spent up to now is        8.2 secs

     total energy              =    -380.55284958 Ry
     estimated scf accuracy    <       0.07115423 Ry

     iteration #  5     ecut=    50.00 Ry     beta= 0.70
     CG style diagonalization
     ethr =  1.62E-04,  avg # of iterations =  3.8

     negative rho (up, down):  1.524E-02 0.000E+00

     total cpu time spent up to now is        9.9 secs

     total energy              =    -380.56672343 Ry
     estimated scf accuracy    <       0.00739320 Ry

     iteration #  6     ecut=    50.00 Ry     beta= 0.70
     CG style diagonalization
     ethr =  1.68E-05,  avg # of iterations =  4.2

     negative rho (up, down):  1.524E-02 0.000E+00

     total cpu time spent up to now is       11.8 secs

     total energy              =    -380.57092358 Ry
     estimated scf accuracy    <       0.00685076 Ry

     iteration #  7     ecut=    50.00 Ry     beta= 0.70
     CG style diagonalization
     ethr =  1.56E-05,  avg # of iterations =  3.2

     negative rho (up, down):  1.525E-02 0.000E+00

     total cpu time spent up to now is       13.3 secs

     total energy              =    -380.57057330 Ry
     estimated scf accuracy    <       0.00263954 Ry

     iteration #  8     ecut=    50.00 Ry     beta= 0.70
     CG style diagonalization
     ethr =  6.00E-06,  avg # of iterations =  3.6

     negative rho (up, down):  1.527E-02 0.000E+00

     total cpu time spent up to now is       14.9 secs

     total energy              =    -380.57105017 Ry
     estimated scf accuracy    <       0.00001065 Ry

     iteration #  9     ecut=    50.00 Ry     beta= 0.70
     CG style diagonalization
     c_bands:  1 eigenvalues not converged
     c_bands:  1 eigenvalues not converged
     c_bands:  1 eigenvalues not converged
     c_bands:  1 eigenvalues not converged
     c_bands:  1 eigenvalues not converged
     c_bands:  1 eigenvalues not converged
     ethr =  2.42E-08,  avg # of iterations =  8.0

     negative rho (up, down):  1.531E-02 0.000E+00

     total cpu time spent up to now is       18.7 secs

     total energy              =    -380.57111367 Ry
     estimated scf accuracy    <       0.00001791 Ry

     iteration # 10     ecut=    50.00 Ry     beta= 0.70
     CG style diagonalization
     ethr =  2.42E-08,  avg # of iterations =  3.3

     negative rho (up, down):  1.540E-02 0.000E+00

     total cpu time spent up to now is       20.2 secs

     total energy              =    -380.57111106 Ry
     estimated scf accuracy    <       0.00000790 Ry

     iteration # 11     ecut=    50.00 Ry     beta= 0.70
     CG style diagonalization
     ethr =  1.80E-08,  avg # of iterations =  4.0

     negative rho (up, down):  1.539E-02 0.000E+00

     total cpu time spent up to now is       22.1 secs

     total energy              =    -380.57111337 Ry
     estimated scf accuracy    <       0.00000307 Ry

     iteration # 12     ecut=    50.00 Ry     beta= 0.70
     CG style diagonalization
     ethr =  6.97E-09,  avg # of iterations =  4.1

     negative rho (up, down):  1.540E-02 0.000E+00

     total cpu time spent up to now is       24.0 secs

     total energy              =    -380.57111432 Ry
     estimated scf accuracy    <       0.00000002 Ry

     iteration # 13     ecut=    50.00 Ry     beta= 0.70
     CG style diagonalization
     c_bands:  1 eigenvalues not converged
     c_bands:  1 eigenvalues not converged
     c_bands:  2 eigenvalues not converged
     c_bands:  1 eigenvalues not converged
     c_bands:  2 eigenvalues not converged
     c_bands:  1 eigenvalues not converged
     c_bands:  1 eigenvalues not converged
     c_bands:  1 eigenvalues not converged
     c_bands:  1 eigenvalues not converged
     c_bands:  1 eigenvalues not converged
     c_bands:  1 eigenvalues not converged
     c_bands:  2 eigenvalues not converged
     c_bands:  1 eigenvalues not converged
     c_bands:  1 eigenvalues not converged
     c_bands:  1 eigenvalues not converged
     c_bands:  1 eigenvalues not converged
     c_bands:  1 eigenvalues not converged
     c_bands:  1 eigenvalues not converged
     c_bands:  1 eigenvalues not converged
     c_bands:  3 eigenvalues not converged
     c_bands:  1 eigenvalues not converged
     c_bands:  2 eigenvalues not converged
     c_bands:  1 eigenvalues not converged
     c_bands:  1 eigenvalues not converged
     c_bands:  1 eigenvalues not converged
     c_bands:  2 eigenvalues not converged
     c_bands:  2 eigenvalues not converged
     c_bands:  1 eigenvalues not converged
     c_bands:  1 eigenvalues not converged
     c_bands:  1 eigenvalues not converged
     c_bands:  1 eigenvalues not converged
     c_bands:  1 eigenvalues not converged
     c_bands:  3 eigenvalues not converged
     c_bands:  1 eigenvalues not converged
     c_bands:  1 eigenvalues not converged
     c_bands:  1 eigenvalues not converged
     c_bands:  1 eigenvalues not converged
     c_bands:  1 eigenvalues not converged
     c_bands:  1 eigenvalues not converged
     ethr =  5.44E-11,  avg # of iterations = 13.8

     negative rho (up, down):  1.540E-02 0.000E+00

     total cpu time spent up to now is       30.7 secs

     total energy              =    -380.57111519 Ry
     estimated scf accuracy    <       0.00000003 Ry

     iteration # 14     ecut=    50.00 Ry     beta= 0.70
     CG style diagonalization
     ethr =  5.44E-11,  avg # of iterations =  3.9

     negative rho (up, down):  1.541E-02 0.000E+00

     total cpu time spent up to now is       32.5 secs

     End of self-consistent calculation

          k = 0.0000 0.0000 0.0000 (  2525 PWs)   bands (ev):

   -45.8546 -22.4894 -22.4276 -22.4276  -7.5145  -6.4344  -6.2033  -5.0268
    -5.0268  -4.9921  -4.8709  -4.7663   4.2240   6.3077   6.3077   6.6256
     8.2735   8.2735   8.4917   8.7771   8.9405   8.9405

          k = 0.0000 0.0000 0.1057 (  2533 PWs)   bands (ev):

   -45.8546 -22.4940 -22.4274 -22.4274  -7.4707  -6.4210  -6.1893  -5.0304
    -5.0304  -4.9918  -4.8690  -4.7825   4.0009   6.3248   6.3248   6.8040
     8.1999   8.1999   8.4715   8.6491   8.9721   8.9721

          k = 0.0000 0.0000 0.2114 (  2517 PWs)   bands (ev):

   -45.8544 -22.5056 -22.4270 -22.4270  -7.3561  -6.3861  -6.1553  -5.0394
    -5.0394  -4.9910  -4.8644  -4.8247   3.5676   6.3657   6.3657   6.8551
     8.0460   8.0460   8.4218   8.7150   9.0321   9.0321

          k = 0.0000 0.0000 0.3171 (  2510 PWs)   bands (ev):

   -45.8542 -22.5186 -22.4265 -22.4265  -7.2186  -6.3439  -6.1196  -5.0496
    -5.0496  -4.9902  -4.8751  -4.8600   3.1938   6.4071   6.4071   6.4939
     7.9076   7.9076   8.3669   9.0838   9.0838   9.3010

          k = 0.0000 0.0000 0.4228 (  2538 PWs)   bands (ev):

   -45.8541 -22.5271 -22.4261 -22.4261  -7.1238  -6.3148  -6.0989  -5.0562
    -5.0562  -4.9896  -4.9097  -4.8576   2.9903   6.1890   6.4303   6.4303
     7.8329   7.8329   8.3318   9.1129   9.1129   9.8967

          k = 0.0000 0.1111 0.0000 (  2525 PWs)   bands (ev):

   -45.8545 -22.4891 -22.4357 -22.4273  -7.4522  -6.4206  -6.1895  -5.0371
    -5.0262  -4.9981  -4.8734  -4.7610   4.0048   6.3272   6.3571   6.7034
     8.1679   8.2866   8.5131   8.7115   8.7557   9.0128

          k = 0.0000 0.1111 0.1057 (  2522 PWs)   bands (ev):

   -45.8544 -22.4937 -22.4355 -22.4271  -7.4096  -6.4090  -6.1754  -5.0391
    -5.0298  -4.9978  -4.8716  -4.7736   3.8263   6.2960   6.3751   6.8667
     8.0544   8.2055   8.5401   8.5916   8.7961   9.0299

          k = 0.0000 0.1111 0.2114 (  2517 PWs)   bands (ev):

   -45.8543 -22.5052 -22.4350 -22.4266  -7.2989  -6.3787  -6.1402  -5.0435
    -5.0389  -4.9972  -4.8684  -4.8060   3.4544   6.2614   6.4180   6.9398
     7.8257   8.0461   8.5003   8.5731   8.8648   9.1778

          k = 0.0000 0.1111 0.3171 (  2523 PWs)   bands (ev):

   -45.8541 -22.5182 -22.4345 -22.4261  -7.1676  -6.3424  -6.1016  -5.0493
    -5.0476  -4.9965  -4.8685  -4.8422   3.1163   6.1683   6.4609   6.6899
     7.6947   7.9086   8.5590   8.6198   8.9198   9.5402

          k = 0.0000 0.1111 0.4228 (  2524 PWs)   bands (ev):

   -45.8540 -22.5267 -22.4341 -22.4258  -7.0781  -6.3173  -6.0777  -5.0560
    -5.0502  -4.9960  -4.8767  -4.8595   2.9276   6.0063   6.4846   6.5501
     7.6403   7.8363   8.5429   8.7010   8.9501   9.9305

          k = 0.0000 0.2222 0.0000 (  2507 PWs)   bands (ev):

   -45.8541 -22.4883 -22.4559 -22.4264  -7.2877  -6.3858  -6.1570  -5.0591
    -5.0246  -5.0131  -4.8778  -4.7552   3.5778   6.3381   6.4966   6.5876
     8.1972   8.2636   8.4077   8.4413   8.6788   9.1000

          k = 0.0000 0.2222 0.1057 (  2514 PWs)   bands (ev):

   -45.8541 -22.4928 -22.4557 -22.4262  -7.2496  -6.3779  -6.1417  -5.0567
    -5.0283  -5.0130  -4.8756  -4.7598   3.4619   6.2471   6.5172   6.7089
     8.0203   8.1577   8.4063   8.4755   8.5913   9.2134

          k = 0.0000 0.2222 0.2114 (  2513 PWs)   bands (ev):

   -45.8539 -22.5042 -22.4552 -22.4258  -7.1531  -6.3565  -6.1012  -5.0487
    -5.0378  -5.0127  -4.8756  -4.7689   3.1964   6.1194   6.5654   6.7975
     7.6951   7.9997   8.0600   8.5504   8.7683   9.4176

          k = 0.0000 0.2222 0.3171 (  2518 PWs)   bands (ev):

   -45.8537 -22.5171 -22.4546 -22.4252  -7.0442  -6.3285  -6.0518  -5.0485
    -5.0374  -5.0124  -4.8837  -4.7750   2.9321   5.9477   6.6116   6.6900
     7.4338   7.8782   7.9419   8.6015   8.9071   9.6340

          k = 0.0000 0.2222 0.4228 (  2510 PWs)   bands (ev):

   -45.8536 -22.5256 -22.4542 -22.4249  -6.9748  -6.3066  -6.0177  -5.0554
    -5.0298  -5.0122  -4.8914  -4.7781   2.7767   5.7767   6.5792   6.6353
     7.3298   7.8194   7.9512   8.6287   8.9631   9.7837

          k = 0.0000 0.3333 0.0000 (  2514 PWs)   bands (ev):

   -45.8537 -22.4877 -22.4786 -22.4255  -7.0862  -6.3420  -6.1306  -5.0806
    -5.0303  -5.0226  -4.8735  -4.7651   3.2187   5.9813   6.6723   6.7028
     7.8542   7.8762   8.3455   8.4073   8.7742   9.6128

          k = 0.0000 0.3333 0.1057 (  2512 PWs)   bands (ev):

   -45.8536 -22.4920 -22.4785 -22.4253  -7.0572  -6.3344  -6.1138  -5.0742
    -5.0304  -5.0265  -4.8671  -4.7632   3.1393   5.9601   6.6636   6.7280
     7.6646   7.8411   8.4056   8.4450   8.5758   9.6719

          k = 0.0000 0.3333 0.2114 (  2505 PWs)   bands (ev):

   -45.8535 -22.5031 -22.4781 -22.4248  -6.9895  -6.3113  -6.0644  -5.0564
    -5.0366  -5.0302  -4.8665  -4.7465   2.9484   5.8949   6.5947   6.7854
     7.3617   7.7656   7.9803   8.4045   8.8540   9.6948

          k = 0.0000 0.3333 0.3171 (  2508 PWs)   bands (ev):

   -45.8533 -22.5159 -22.4774 -22.4243  -6.9246  -6.2755  -5.9968  -5.0476
    -5.0332  -5.0304  -4.8849  -4.7153   2.7468   5.7576   6.4292   6.8340
     7.2333   7.5659   7.7082   8.4074   9.1550   9.6095

          k = 0.0000 0.3333 0.4228 (  2521 PWs)   bands (ev):

   -45.8532 -22.5242 -22.4770 -22.4239  -6.8904  -6.2453  -5.9458  -5.0548
    -5.0305  -5.0154  -4.9035  -4.6931   2.6233   5.5997   6.3277   6.8529
     7.2084   7.3807   7.6901   8.4114   9.3122   9.5252

          k = 0.0000 0.4444 0.0000 (  2498 PWs)   bands (ev):

   -45.8534 -22.4942 -22.4863 -22.4248  -6.9439  -6.3025  -6.1301  -5.0941
    -5.0413  -5.0215  -4.8537  -4.7916   3.0334   5.6643   6.8958   6.9224
     7.4397   7.5334   8.2780   8.4424   8.8066  10.2423

          k = 0.0000 0.4444 0.1057 (  2511 PWs)   bands (ev):

   -45.8534 -22.4941 -22.4906 -22.4246  -6.9258  -6.2882  -6.1139  -5.0868
    -5.0415  -5.0255  -4.8362  -4.7921   2.9691   5.6605   6.8433   6.9598
     7.2582   7.5027   8.4282   8.4526   8.5757  10.1548

          k = 0.0000 0.4444 0.2114 (  2517 PWs)   bands (ev):

   -45.8532 -22.5022 -22.4931 -22.4242  -6.8900  -6.2496  -6.0587  -5.0674
    -5.0418  -5.0356  -4.8390  -4.7507   2.8121   5.6404   6.6554   6.9591
     7.0465   7.4368   8.0767   8.3987   8.8386   9.9116

          k = 0.0000 0.4444 0.3171 (  2510 PWs)   bands (ev):

   -45.8530 -22.5149 -22.4923 -22.4236  -6.8662  -6.2008  -5.9721  -5.0470
    -5.0429  -5.0421  -4.8679  -4.6865   2.6428   5.5733   6.2865   6.9182
     7.1048   7.4107   7.6342   8.3736   9.1633   9.6473

          k = 0.0000 0.4444 0.4228 (  2524 PWs)   bands (ev):

   -45.8529 -22.5232 -22.4918 -22.4232  -6.8590  -6.1662  -5.9026  -5.0544
    -5.0423  -5.0240  -4.8922  -4.6459   2.5371   5.4662   6.0927   6.9519
     7.0998   7.3876   7.4423   8.3607   9.1993   9.6123

          k = 0.1111 0.1111 0.0000 (  2513 PWs)   bands (ev):

   -45.8544 -22.4888 -22.4354 -22.4352  -7.3904  -6.4065  -6.1804  -5.0380
    -5.0349  -5.0037  -4.8684  -4.7559   3.8280   6.3112   6.4087   6.7665
     7.9762   8.2877   8.4154   8.5642   8.9355   9.0621

          k = 0.1111 0.1111 0.1057 (  2509 PWs)   bands (ev):

   -45.8543 -22.4933 -22.4352 -22.4350  -7.3489  -6.3968  -6.1663  -5.0393
    -5.0375  -5.0035  -4.8664  -4.7654   3.6847   6.2998   6.3434   6.9263
     7.9077   8.1537   8.4009   8.5976   8.9402   9.0284

          k = 0.1111 0.1111 0.2114 (  2520 PWs)   bands (ev):

   -45.8541 -22.5048 -22.4347 -22.4346  -7.2416  -6.3715  -6.1306  -5.0501
    -5.0346  -5.0031  -4.8630  -4.7903   3.3676   6.2649   6.2955   6.9905
     7.7840   7.8730   8.3764   8.6421   8.9536   9.1714

          k = 0.1111 0.1111 0.3171 (  2527 PWs)   bands (ev):

   -45.8540 -22.5178 -22.4342 -22.4341  -7.1154  -6.3417  -6.0902  -5.0616
    -5.0278  -5.0028  -4.8623  -4.8205   3.0637   6.1894   6.2156   6.7928
     7.6946   7.7644   8.3666   8.6559   8.9732   9.5399

          k = 0.1111 0.1111 0.4228 (  2515 PWs)   bands (ev):

   -45.8538 -22.5263 -22.4338 -22.4337  -7.0305  -6.3215  -6.0637  -5.0686
    -5.0208  -5.0030  -4.8644  -4.8414   2.8893   6.0039   6.1788   6.7161
     7.6558   7.7308   8.3773   8.6525   8.9889   9.8611

          k = 0.1111 0.2222 0.0000 (  2506 PWs)   bands (ev):

   -45.8540 -22.4880 -22.4555 -22.4344  -7.2276  -6.3714  -6.1600  -5.0606
    -5.0329  -5.0096  -4.8610  -4.7502   3.4588   6.2879   6.5441   6.6396
     7.8463   7.9351   8.4450   8.5913   8.8225   9.2670

          k = 0.1111 0.2222 0.1057 (  2506 PWs)   bands (ev):

   -45.8539 -22.4925 -22.4553 -22.4342  -7.1900  -6.3658  -6.1454  -5.0577
    -5.0360  -5.0085  -4.8581  -4.7523   3.3711   6.2351   6.3888   6.8066
     7.7366   7.9200   8.3921   8.6296   8.7707   9.2853

          k = 0.1111 0.2222 0.2114 (  2507 PWs)   bands (ev):

   -45.8538 -22.5039 -22.4548 -22.4338  -7.0951  -6.3508  -6.1064  -5.0541
    -5.0374  -5.0052  -4.8548  -4.7569   3.1572   6.0989   6.3100   6.8459
     7.5170   7.7086   8.3549   8.6532   8.8361   9.3883

          k = 0.1111 0.2222 0.3171 (  2519 PWs)   bands (ev):

   -45.8536 -22.5167 -22.4542 -22.4332  -6.9890  -6.3318  -6.0574  -5.0597
    -5.0259  -4.9978  -4.8593  -4.7608   2.9296   5.9301   6.2644   6.6717
     7.3491   7.5856   8.2840   8.6974   8.9643   9.5344

          k = 0.1111 0.2222 0.4228 (  2518 PWs)   bands (ev):

   -45.8535 -22.5251 -22.4538 -22.4329  -6.9217  -6.3175  -6.0221  -5.0641
    -5.0185  -4.9873  -4.8676  -4.7633   2.7903   5.7773   6.1862   6.5771
     7.3236   7.5468   8.2229   8.7302   9.0256   9.6253

          k = 0.1111 0.3333 0.0000 (  2510 PWs)   bands (ev):

   -45.8535 -22.4873 -22.4781 -22.4334  -7.0286  -6.3284  -6.1478  -5.0796
    -5.0276  -5.0093  -4.8539  -4.7600   3.1302   5.9822   6.6020   6.7702
     7.4544   7.9306   8.1584   8.5827   8.8566   9.6783

          k = 0.1111 0.3333 0.1057 (  2507 PWs)   bands (ev):

   -45.8535 -22.4916 -22.4781 -22.4332  -6.9992  -6.3240  -6.1326  -5.0738
    -5.0305  -5.0065  -4.8472  -4.7555   3.0778   5.9613   6.4253   6.8199
     7.3987   7.8914   8.1687   8.6521   8.7236   9.6654

          k = 0.1111 0.3333 0.2114 (  2504 PWs)   bands (ev):

   -45.8533 -22.5027 -22.4777 -22.4328  -6.9309  -6.3099  -6.0870  -5.0606
    -5.0348  -4.9987  -4.8421  -4.7353   2.9416   5.8873   6.2618   6.7029
     7.1450   7.7658   8.2354   8.5030   8.9058   9.5928

          k = 0.1111 0.3333 0.3171 (  2516 PWs)   bands (ev):

   -45.8532 -22.5155 -22.4770 -22.4322  -6.8662  -6.2861  -6.0227  -5.0560
    -5.0283  -4.9847  -4.8529  -4.7034   2.7839   5.7361   6.2088   6.5142
     6.8295   7.6362   8.3516   8.3855   9.1401   9.4599

          k = 0.1111 0.3333 0.4228 (  2517 PWs)   bands (ev):

   -45.8530 -22.5238 -22.4766 -22.4318  -6.8328  -6.2656  -5.9728  -5.0579
    -5.0201  -4.9685  -4.8684  -4.6812   2.6813   5.5786   6.2171   6.3616
     6.7009   7.5905   8.3110   8.4256   9.1688   9.4411

          k = 0.1111 0.4444 0.0000 (  2519 PWs)   bands (ev):

   -45.8533 -22.4938 -22.4859 -22.4328  -6.8885  -6.2897  -6.1571  -5.0870
    -5.0236  -5.0064  -4.8381  -4.7864   2.9551   5.6721   6.7300   7.0399
     7.1600   7.5614   8.1810   8.5381   8.8926  10.1064

          k = 0.1111 0.4444 0.1057 (  2514 PWs)   bands (ev):

   -45.8532 -22.4936 -22.4902 -22.4326  -6.8691  -6.2796  -6.1433  -5.0801
    -5.0262  -5.0035  -4.8217  -4.7830   2.9179   5.6673   6.4814   6.9465
     7.2767   7.5684   8.1644   8.6353   8.7371   9.9906

          k = 0.1111 0.4444 0.2114 (  2519 PWs)   bands (ev):

   -45.8531 -22.5019 -22.4926 -22.4321  -6.8314  -6.2519  -6.0935  -5.0640
    -5.0293  -4.9968  -4.8194  -4.7387   2.8185   5.6437   6.2495   6.5938
     7.0809   7.7992   8.0223   8.5422   8.8998   9.6976

          k = 0.1111 0.4444 0.3171 (  2509 PWs)   bands (ev):

   -45.8529 -22.5145 -22.4919 -22.4315  -6.8075  -6.2169  -6.0120  -5.0559
    -5.0190  -4.9877  -4.8383  -4.6749   2.6986   5.5685   6.1409   6.2750
     6.7637   7.7878   8.0664   8.4362   9.0568   9.4966

          k = 0.1111 0.4444 0.4228 (  2524 PWs)   bands (ev):

   -45.8528 -22.5228 -22.4915 -22.4312  -6.8013  -6.1926  -5.9457  -5.0565
    -5.0047  -4.9779  -4.8568  -4.6343   2.6177   5.4537   6.0370   6.2275
     6.5532   7.7319   8.1534   8.3779   8.8896   9.6069

          k = 0.2222 0.2222 0.0000 (  2508 PWs)   bands (ev):

   -45.8536 -22.4872 -22.4547 -22.4545  -7.0705  -6.3358  -6.1694  -5.0647
    -5.0391  -4.9960  -4.8296  -4.7443   3.1834   6.2427   6.5230   6.6974
     7.4187   7.5769   8.4062   8.6187   8.9617   9.4963

          k = 0.2222 0.2222 0.1057 (  2510 PWs)   bands (ev):

   -45.8535 -22.4917 -22.4545 -22.4543  -7.0350  -6.3356  -6.1565  -5.0593
    -5.0419  -4.9920  -4.8245  -4.7400   3.1476   6.1723   6.3095   6.7058
     7.4592   7.5342   8.5037   8.5638   8.9792   9.4233

          k = 0.2222 0.2222 0.2114 (  2500 PWs)   bands (ev):

   -45.8534 -22.5029 -22.4540 -22.4538  -6.9472  -6.3353  -6.1198  -5.0473
    -5.0445  -4.9796  -4.8142  -4.7306   3.0444   5.9913   6.0610   6.6424
     7.3048   7.3345   8.5269   8.7918   9.0419   9.3085

          k = 0.2222 0.2222 0.3171 (  2517 PWs)   bands (ev):

   -45.8532 -22.5157 -22.4534 -22.4532  -6.8527  -6.3353  -6.0684  -5.0510
    -5.0280  -4.9577  -4.8088  -4.7221   2.9103   5.7917   5.9402   6.4255
     7.0521   7.2235   8.5907   8.9030   9.1430   9.2459

          k = 0.2222 0.2222 0.4228 (  2520 PWs)   bands (ev):

   -45.8531 -22.5241 -22.4530 -22.4529  -6.7955  -6.3354  -6.0278  -5.0520
    -5.0188  -4.9345  -4.8120  -4.7177   2.8167   5.6680   5.8478   6.2575
     6.9727   7.1938   8.5693   8.9404   9.1992   9.2061

          k = 0.2222 0.3333 0.0000 (  2520 PWs)   bands (ev):

   -45.8532 -22.4865 -22.4771 -22.4535  -6.8824  -6.2944  -6.1863  -5.0689
    -5.0288  -4.9694  -4.8050  -4.7528   2.9104   5.9943   6.4214   6.8953
     7.0414   7.5938   8.0255   8.6858   9.0573   9.6512

          k = 0.2222 0.3333 0.1057 (  2518 PWs)   bands (ev):

   -45.8531 -22.4908 -22.4771 -22.4533  -6.8517  -6.2982  -6.1756  -5.0620
    -5.0295  -4.9615  -4.7973  -4.7416   2.9118   5.9605   6.2436   6.5449
     7.1892   7.5792   8.2213   8.6407   9.0688   9.5373

          k = 0.2222 0.3333 0.2114 (  2512 PWs)   bands (ev):

   -45.8530 -22.5018 -22.4767 -22.4528  -6.7814  -6.3061  -6.1400  -5.0462
    -5.0276  -4.9412  -4.7817  -4.7109   2.9030   5.8295   5.8973   6.3204
     6.9502   7.3915   8.4916   8.8166   9.1187   9.2802

          k = 0.2222 0.3333 0.3171 (  2508 PWs)   bands (ev):

   -45.8528 -22.5145 -22.4761 -22.4523  -6.7179  -6.3114  -6.0816  -5.0379
    -5.0135  -4.9140  -4.7711  -4.6742   2.8693   5.6229   5.6984   6.1608
     6.6013   7.1752   8.5926   8.9463   9.0249   9.3115

          k = 0.2222 0.3333 0.4228 (  2512 PWs)   bands (ev):

   -45.8527 -22.5228 -22.4756 -22.4519  -6.6875  -6.3129  -6.0317  -5.0358
    -5.0005  -4.8905  -4.7694  -4.6502   2.8334   5.4592   5.6583   6.0138
     6.4040   7.1156   8.4512   8.9356   9.0308   9.4435

          k = 0.2222 0.4444 0.0000 (  2527 PWs)   bands (ev):

   -45.8529 -22.4926 -22.4851 -22.4528  -6.7528  -6.2593  -6.2093  -5.0681
    -5.0197  -4.9358  -4.7921  -4.7764   2.7539   5.6877   6.5244   6.7497
     7.1631   7.5864   7.7253   8.7681   9.0476   9.7212

          k = 0.2222 0.4444 0.1057 (  2518 PWs)   bands (ev):

   -45.8528 -22.4926 -22.4894 -22.4526  -6.7284  -6.2600  -6.2027  -5.0604
    -5.0192  -4.9245  -4.7839  -4.7593   2.7722   5.6806   6.2404   6.4736
     7.1555   7.7126   7.9106   8.7179   9.0695   9.5504

          k = 0.2222 0.4444 0.2114 (  2514 PWs)   bands (ev):

   -45.8527 -22.5009 -22.4916 -22.4521  -6.6818  -6.2595  -6.1693  -5.0433
    -5.0139  -4.9003  -4.7703  -4.7069   2.8107   5.6444   5.7891   6.1514
     6.8546   7.5127   8.3114   8.8376   9.1419   9.1934

          k = 0.2222 0.4444 0.3171 (  2504 PWs)   bands (ev):

   -45.8525 -22.5136 -22.4909 -22.4516  -6.6566  -6.2563  -6.0994  -5.0325
    -4.9957  -4.8752  -4.7589  -4.6440   2.8367   5.5226   5.5454   5.8760
     6.4950   7.2596   8.2850   8.9410   8.9805   9.4119

          k = 0.2222 0.4444 0.4228 (  2510 PWs)   bands (ev):

   -45.8524 -22.5219 -22.4905 -22.4512  -6.6533  -6.2543  -6.0373  -5.0290
    -4.9785  -4.8574  -4.7534  -4.6035   2.8406   5.3847   5.4598   5.7693
     6.2387   7.1829   8.0099   8.9627   9.0003   9.6153

          k = 0.3333 0.3333 0.0000 (  2522 PWs)   bands (ev):

   -45.8528 -22.4857 -22.4762 -22.4756  -6.7197  -6.2556  -6.2187  -5.0577
    -5.0122  -4.9222  -4.7590  -4.7531   2.6719   5.9498   6.0857   6.9491
     7.0868   7.2631   7.8807   8.5162   9.3854   9.4053

          k = 0.3333 0.3333 0.1057 (  2507 PWs)   bands (ev):

   -45.8527 -22.4898 -22.4760 -22.4757  -6.6866  -6.2673  -6.2160  -5.0494
    -5.0106  -4.9079  -4.7432  -4.7407   2.7145   5.9270   6.0058   6.3467
     6.9278   7.5213   8.3099   8.4028   9.2323   9.3883

          k = 0.3333 0.3333 0.2114 (  2520 PWs)   bands (ev):

   -45.8525 -22.5007 -22.4755 -22.4755  -6.6137  -6.2960  -6.1956  -5.0278
    -5.0068  -4.8727  -4.7168  -4.6951   2.8226   5.6976   5.7450   5.9691
     6.6431   7.2106   8.4517   8.8726   8.9889   9.3976

          k = 0.3333 0.3333 0.3171 (  2506 PWs)   bands (ev):

   -45.8524 -22.5133 -22.4750 -22.4749  -6.5567  -6.3270  -6.1420  -5.0032
    -5.0025  -4.8318  -4.6857  -4.6445   2.9416   5.3711   5.4313   5.8525
     6.5447   6.6698   8.0498   9.1955   9.2553   9.4252

          k = 0.3333 0.3333 0.4228 (  2505 PWs)   bands (ev):

   -45.8523 -22.5216 -22.4746 -22.4746  -6.5357  -6.3463  -6.0885  -4.9998
    -4.9873  -4.8023  -4.6664  -4.6120   3.0117   5.2408   5.2466   5.7241
     6.3850   6.5169   7.7002   9.3383   9.3650   9.5127

          k = 0.3333 0.4444 0.0000 (  2514 PWs)   bands (ev):

   -45.8525 -22.4914 -22.4844 -22.4751  -6.6222  -6.2346  -6.2225  -5.0514
    -4.9936  -4.8721  -4.7838  -4.7231   2.5245   5.6589   6.1117   6.8092
     7.2625   7.3338   7.5996   8.4876   9.1272   9.5533

          k = 0.3333 0.4444 0.1057 (  2523 PWs)   bands (ev):

   -45.8524 -22.4913 -22.4884 -22.4751  -6.5869  -6.2459  -6.2317  -5.0426
    -4.9911  -4.8503  -4.7639  -4.7105   2.5856   5.6507   6.0429   6.2742
     6.7887   7.7066   8.0316   8.4626   8.9192   9.5434

          k = 0.3333 0.4444 0.2114 (  2516 PWs)   bands (ev):

   -45.8523 -22.4999 -22.4904 -22.4748  -6.5145  -6.2705  -6.2365  -5.0206
    -4.9853  -4.8022  -4.7161  -4.6698   2.7526   5.5846   5.6819   5.7771
     6.4497   7.2735   8.1208   8.8662   8.9091   9.5378

          k = 0.3333 0.4444 0.3171 (  2504 PWs)   bands (ev):

   -45.8521 -22.5125 -22.4898 -22.4742  -6.4802  -6.2989  -6.1853  -4.9977
    -4.9773  -4.7560  -4.6662  -4.6106   2.9683   5.2065   5.3944   5.5899
     6.3123   6.7329   7.5077   9.2647   9.3345   9.5461

          k = 0.3333 0.4444 0.4228 (  2500 PWs)   bands (ev):

   -45.8520 -22.5207 -22.4894 -22.4739  -6.4826  -6.3174  -6.1231  -4.9874
    -4.9679  -4.7273  -4.6343  -4.5688   3.1262   5.0126   5.1762   5.5102
     6.1837   6.5151   7.0661   9.4288   9.5082   9.6336

          k = 0.4444 0.4444 0.0000 (  2512 PWs)   bands (ev):

   -45.8522 -22.4907 -22.4904 -22.4830  -6.5685  -6.2089  -6.2042  -5.0431
    -4.9611  -4.8266  -4.7989  -4.6827   2.3762   5.5179   5.9775   6.9641
     7.0344   7.4498   7.5581   8.2987   8.7199   9.7714

          k = 0.4444 0.4444 0.1057 (  2517 PWs)   bands (ev):

   -45.8521 -22.4907 -22.4902 -22.4871  -6.5257  -6.2272  -6.2242  -5.0341
    -4.9595  -4.7967  -4.7684  -4.6742   2.4562   5.5087   5.9583   6.3842
     6.4907   7.8351   8.1531   8.1684   8.4527   9.7686

          k = 0.4444 0.4444 0.2114 (  2525 PWs)   bands (ev):

   -45.8520 -22.4990 -22.4897 -22.4896  -6.4212  -6.2716  -6.2650  -5.0115
    -4.9565  -4.7268  -4.6926  -4.6476   2.6854   5.4711   5.7162   5.7310
     6.0878   7.2518   7.6462   8.8655   8.8684   9.7613

          k = 0.4444 0.4444 0.3171 (  2509 PWs)   bands (ev):

   -45.8518 -22.5116 -22.4891 -22.4890  -6.3590  -6.3210  -6.2448  -4.9857
    -4.9540  -4.6635  -4.6094  -4.6006   3.0173   5.2102   5.2822   5.4397
     6.0477   6.6260   6.8460   9.3764   9.3849   9.7531

          k = 0.4444 0.4444 0.4228 (  2498 PWs)   bands (ev):

   -45.8517 -22.5198 -22.4887 -22.4887  -6.3735  -6.3510  -6.1735  -4.9689
    -4.9527  -4.6319  -4.5588  -4.5565   3.3105   4.9491   5.0371   5.3604
     6.0433   6.2212   6.3553   9.6286   9.6422   9.7471

     highest occupied level (ev):    10.2423

!    total energy              =    -380.57111519 Ry
     estimated scf accuracy    <          5.8E-09 Ry

     The total energy is the sum of the following terms:
     one-electron contribution =     -84.08374542 Ry
     hartree contribution      =      71.16870854 Ry
     xc contribution           =    -102.54191887 Ry
     ewald contribution        =    -265.11415945 Ry

     convergence has been achieved in  14 iterations

     negative rho (up, down):  1.541E-02 0.000E+00

     Forces acting on atoms (cartesian axes, Ry/au):

     atom    1 type  1   force =     0.00000000    0.00000000   -0.00798958
     atom    2 type  2   force =     0.00000000    0.00000000   -0.01194819
     atom    3 type  3   force =     0.00000000    0.00000000    0.02005582
     atom    4 type  3   force =     0.00000000    0.00000000   -0.00005903
     atom    5 type  3   force =     0.00000000    0.00000000   -0.00005903

     Total force =     0.024675     Total SCF correction =     0.000367


     Computing stress (Cartesian axis) and pressure


     negative rho (up, down):  1.541E-02 0.000E+00
          total   stress  (Ry/bohr**3)                   (kbar)     P=      -65.71
  -0.00043346   0.00000000   0.00000000          -63.76        0.00        0.00
   0.00000000  -0.00043346   0.00000000            0.00      -63.76        0.00
   0.00000000   0.00000000  -0.00047311            0.00        0.00      -69.60


     BFGS Geometry Optimization
     Energy error            =      0.0E+00 Ry
     Gradient error          =      2.0E-02 Ry/Bohr

     number of scf cycles    =   1
     number of bfgs steps    =   0

     energy             new  =    -380.5711151926 Ry

     new trust radius        =       0.0200558221 bohr
     new conv_thr            =       0.0000000100 Ry


ATOMIC_POSITIONS (crystal)
Pb               0.0000000000        0.0000000000        1.0053913122
Ti               0.5000000000        0.5000000000        0.5388815726
O                0.5000000000        0.5000000000        0.1011688581
O                0.5000000000        0.0000000000        0.6109212726
O                0.0000000000        0.5000000000        0.6109212726



     Writing config-only to output data dir ./pto_k9.save/ :
     XML data file
     NEW-OLD atomic charge density approx. for the potential

     Check: negative core charge=   -0.000004

     negative rho (up, down):  1.527E-02 0.000E+00

     total cpu time spent up to now is       34.8 secs

     Self-consistent Calculation

     iteration #  1     ecut=    50.00 Ry     beta= 0.70
     CG style diagonalization
     c_bands:  1 eigenvalues not converged
     c_bands:  1 eigenvalues not converged
     c_bands:  1 eigenvalues not converged
     c_bands:  1 eigenvalues not converged
     c_bands:  1 eigenvalues not converged
     c_bands:  1 eigenvalues not converged
     c_bands:  2 eigenvalues not converged
     c_bands:  2 eigenvalues not converged
     c_bands:  1 eigenvalues not converged
     c_bands:  2 eigenvalues not converged
     c_bands:  2 eigenvalues not converged
     c_bands:  1 eigenvalues not converged
     c_bands:  1 eigenvalues not converged
     c_bands:  2 eigenvalues not converged
     c_bands:  1 eigenvalues not converged
     c_bands:  1 eigenvalues not converged
     c_bands:  1 eigenvalues not converged
     c_bands:  1 eigenvalues not converged
     ethr =  1.00E-06,  avg # of iterations =  7.1

     negative rho (up, down):  1.525E-02 0.000E+00

     total cpu time spent up to now is       38.5 secs

     total energy              =    -380.57147412 Ry
     estimated scf accuracy    <       0.00022961 Ry

     iteration #  2     ecut=    50.00 Ry     beta= 0.70
     CG style diagonalization
     ethr =  5.22E-07,  avg # of iterations =  4.8

     negative rho (up, down):  1.525E-02 0.000E+00

     total cpu time spent up to now is       40.8 secs

     total energy              =    -380.57144864 Ry
     estimated scf accuracy    <       0.00067025 Ry

     iteration #  3     ecut=    50.00 Ry     beta= 0.70
     CG style diagonalization
     ethr =  5.22E-07,  avg # of iterations =  4.3

     negative rho (up, down):  1.525E-02 0.000E+00

     total cpu time spent up to now is       42.8 secs

     total energy              =    -380.57158062 Ry
     estimated scf accuracy    <       0.00005072 Ry

     iteration #  4     ecut=    50.00 Ry     beta= 0.70
     CG style diagonalization
     ethr =  1.15E-07,  avg # of iterations =  3.8

     negative rho (up, down):  1.525E-02 0.000E+00

     total cpu time spent up to now is       44.5 secs

     total energy              =    -380.57159378 Ry
     estimated scf accuracy    <       0.00000529 Ry

     iteration #  5     ecut=    50.00 Ry     beta= 0.70
     CG style diagonalization
     ethr =  1.20E-08,  avg # of iterations =  4.4

     negative rho (up, down):  1.525E-02 0.000E+00

     total cpu time spent up to now is       46.6 secs

     total energy              =    -380.57159693 Ry
     estimated scf accuracy    <       0.00000057 Ry

     iteration #  6     ecut=    50.00 Ry     beta= 0.70
     CG style diagonalization
     ethr =  1.31E-09,  avg # of iterations =  4.6

     negative rho (up, down):  1.525E-02 0.000E+00

     total cpu time spent up to now is       48.7 secs

     total energy              =    -380.57159726 Ry
     estimated scf accuracy    <       0.00000029 Ry

     iteration #  7     ecut=    50.00 Ry     beta= 0.70
     CG style diagonalization
     ethr =  6.69E-10,  avg # of iterations =  4.0

     negative rho (up, down):  1.525E-02 0.000E+00

     total cpu time spent up to now is       50.6 secs

     total energy              =    -380.57159733 Ry
     estimated scf accuracy    <       0.00000008 Ry

     iteration #  8     ecut=    50.00 Ry     beta= 0.70
     CG style diagonalization
     ethr =  1.86E-10,  avg # of iterations =  4.3

     negative rho (up, down):  1.525E-02 0.000E+00

     total cpu time spent up to now is       52.6 secs

     End of self-consistent calculation

          k = 0.0000 0.0000 0.0000 (  2525 PWs)   bands (ev):

   -45.8205 -22.4772 -22.3929 -22.3929  -7.5120  -6.4287  -6.2136  -5.0293
    -5.0293  -4.9963  -4.8781  -4.7639   4.2144   6.3110   6.3110   6.6553
     8.2070   8.2070   8.4929   8.7212   8.9486   8.9486

          k = 0.0000 0.0000 0.1057 (  2533 PWs)   bands (ev):

   -45.8205 -22.4818 -22.3927 -22.3927  -7.4675  -6.4153  -6.2002  -5.0329
    -5.0329  -4.9960  -4.8762  -4.7802   3.9909   6.3262   6.3262   6.8323
     8.1404   8.1404   8.4726   8.6009   8.9786   8.9786

          k = 0.0000 0.0000 0.2114 (  2517 PWs)   bands (ev):

   -45.8203 -22.4934 -22.3923 -22.3923  -7.3513  -6.3803  -6.1675  -5.0418
    -5.0418  -4.9952  -4.8716  -4.8225   3.5548   6.3615   6.3615   6.8730
     8.0005   8.0005   8.4226   8.6908   9.0373   9.0373

          k = 0.0000 0.0000 0.3171 (  2510 PWs)   bands (ev):

   -45.8201 -22.5065 -22.3918 -22.3918  -7.2116  -6.3381  -6.1338  -5.0520
    -5.0520  -4.9944  -4.8730  -4.8671   3.1767   6.3952   6.3952   6.5057
     7.8767   7.8767   8.3674   9.0887   9.0887   9.2956

          k = 0.0000 0.0000 0.4228 (  2538 PWs)   bands (ev):

   -45.8200 -22.5150 -22.3914 -22.3914  -7.1149  -6.3089  -6.1147  -5.0586
    -5.0586  -4.9938  -4.9076  -4.8647   2.9700   6.2018   6.4126   6.4126
     7.8117   7.8117   8.3322   9.1178   9.1178   9.8987

          k = 0.0000 0.1111 0.0000 (  2525 PWs)   bands (ev):

   -45.8204 -22.4768 -22.4010 -22.3926  -7.4499  -6.4151  -6.2004  -5.0398
    -5.0287  -5.0023  -4.8796  -4.7586   3.9980   6.3305   6.3607   6.7237
     8.1224   8.2200   8.5062   8.6828   8.7641   8.9960

          k = 0.0000 0.1111 0.1057 (  2522 PWs)   bands (ev):

   -45.8203 -22.4814 -22.4008 -22.3924  -7.4067  -6.4035  -6.1867  -5.0418
    -5.0323  -5.0020  -4.8779  -4.7713   3.8186   6.2977   6.3769   6.8857
     8.0154   8.1468   8.5292   8.5638   8.8017   9.0219

          k = 0.0000 0.1111 0.2114 (  2517 PWs)   bands (ev):

   -45.8202 -22.4930 -22.4003 -22.3919  -7.2944  -6.3732  -6.1529  -5.0460
    -5.0414  -5.0014  -4.8749  -4.8037   3.4438   6.2566   6.4143   6.9555
     7.7931   8.0014   8.4916   8.5607   8.8692   9.1748

          k = 0.0000 0.1111 0.3171 (  2523 PWs)   bands (ev):

   -45.8200 -22.5061 -22.3998 -22.3914  -7.1607  -6.3369  -6.1163  -5.0517
    -5.0500  -5.0007  -4.8744  -4.8406   3.1017   6.1577   6.4495   6.7014
     7.6721   7.8780   8.5485   8.6229   8.9247   9.5410

          k = 0.0000 0.1111 0.4228 (  2524 PWs)   bands (ev):

   -45.8199 -22.5146 -22.3994 -22.3911  -7.0695  -6.3117  -6.0940  -5.0584
    -5.0525  -5.0002  -4.8787  -4.8618   2.9099   5.9994   6.4673   6.5538
     7.6255   7.8151   8.5331   8.7064   8.9553   9.9351

          k = 0.0000 0.2222 0.0000 (  2507 PWs)   bands (ev):

   -45.8200 -22.4760 -22.4213 -22.3917  -7.2860  -6.3812  -6.1691  -5.0622
    -5.0270  -5.0173  -4.8817  -4.7529   3.5744   6.3390   6.5013   6.5943
     8.1784   8.2245   8.3872   8.4385   8.6562   9.0787

          k = 0.0000 0.2222 0.1057 (  2514 PWs)   bands (ev):

   -45.8199 -22.4805 -22.4211 -22.3915  -7.2472  -6.3734  -6.1543  -5.0596
    -5.0308  -5.0171  -4.8798  -4.7575   3.4577   6.2474   6.5201   6.7133
     8.0082   8.1185   8.3909   8.4601   8.5764   9.2004

          k = 0.0000 0.2222 0.2114 (  2513 PWs)   bands (ev):

   -45.8198 -22.4920 -22.4206 -22.3911  -7.1489  -6.3523  -6.1151  -5.0514
    -5.0402  -5.0169  -4.8800  -4.7664   3.1899   6.1131   6.5630   6.8032
     7.6834   7.9642   8.0558   8.5440   8.7510   9.4149

          k = 0.0000 0.2222 0.3171 (  2518 PWs)   bands (ev):

   -45.8196 -22.5050 -22.4200 -22.3905  -7.0379  -6.3244  -6.0676  -5.0509
    -5.0399  -5.0166  -4.8883  -4.7726   2.9227   5.9329   6.6015   6.7033
     7.4218   7.8514   7.9469   8.6010   8.8859   9.6393

          k = 0.0000 0.2222 0.4228 (  2510 PWs)   bands (ev):

   -45.8195 -22.5134 -22.4196 -22.3902  -6.9668  -6.3025  -6.0349  -5.0578
    -5.0321  -5.0164  -4.8961  -4.7759   2.7651   5.7599   6.5941   6.6192
     7.3218   7.8001   7.9574   8.6308   8.9406   9.7924

          k = 0.0000 0.3333 0.0000 (  2514 PWs)   bands (ev):

   -45.8196 -22.4750 -22.4444 -22.3908  -7.0847  -6.3387  -6.1445  -5.0833
    -5.0344  -5.0251  -4.8746  -4.7635   3.2167   5.9890   6.6702   6.7092
     7.8505   7.8834   8.3373   8.3461   8.7395   9.6008

          k = 0.0000 0.3333 0.1057 (  2512 PWs)   bands (ev):

   -45.8195 -22.4795 -22.4441 -22.3906  -7.0550  -6.3313  -6.1281  -5.0768
    -5.0345  -5.0289  -4.8688  -4.7612   3.1369   5.9666   6.6615   6.7330
     7.6611   7.8398   8.3488   8.4367   8.5555   9.6604

          k = 0.0000 0.3333 0.2114 (  2505 PWs)   bands (ev):

   -45.8194 -22.4908 -22.4435 -22.3901  -6.9853  -6.3089  -6.0801  -5.0589
    -5.0390  -5.0343  -4.8689  -4.7439   2.9450   5.8960   6.5937   6.7854
     7.3567   7.7535   7.9759   8.3708   8.8407   9.6873

          k = 0.0000 0.3333 0.3171 (  2508 PWs)   bands (ev):

   -45.8192 -22.5037 -22.4428 -22.3895  -6.9184  -6.2733  -6.0144  -5.0500
    -5.0355  -5.0345  -4.8873  -4.7127   2.7423   5.7478   6.4350   6.8258
     7.2275   7.5736   7.6950   8.3900   9.1346   9.6087

          k = 0.0000 0.3333 0.4228 (  2521 PWs)   bands (ev):

   -45.8191 -22.5120 -22.4424 -22.3892  -6.8831  -6.2428  -5.9648  -5.0571
    -5.0346  -5.0176  -4.9061  -4.6906   2.6178   5.5831   6.3392   6.8379
     7.2032   7.3928   7.6803   8.4013   9.2805   9.5354

          k = 0.0000 0.4444 0.0000 (  2498 PWs)   bands (ev):

   -45.8193 -22.4742 -22.4594 -22.3901  -6.9423  -6.2997  -6.1460  -5.0960
    -5.0454  -5.0239  -4.8519  -4.7918   3.0313   5.6788   6.8840   6.9311
     7.4459   7.5404   8.2776   8.3689   8.7705  10.2306

          k = 0.0000 0.4444 0.1057 (  2511 PWs)   bands (ev):

   -45.8192 -22.4786 -22.4592 -22.3900  -6.9233  -6.2856  -6.1306  -5.0887
    -5.0455  -5.0279  -4.8356  -4.7912   2.9670   5.6742   6.8339   6.9679
     7.2592   7.5044   8.3638   8.4495   8.5508  10.1425

          k = 0.0000 0.4444 0.2114 (  2517 PWs)   bands (ev):

   -45.8191 -22.4899 -22.4585 -22.3895  -6.8855  -6.2475  -6.0772  -5.0693
    -5.0458  -5.0379  -4.8402  -4.7481   2.8100   5.6512   6.6502   6.9510
     7.0512   7.4302   8.0722   8.3535   8.8314   9.8979

          k = 0.0000 0.4444 0.3171 (  2510 PWs)   bands (ev):

   -45.8189 -22.5027 -22.4577 -22.3889  -6.8601  -6.1988  -5.9923  -5.0493
    -5.0462  -5.0446  -4.8691  -4.6840   2.6408   5.5758   6.2822   6.9114
     7.0972   7.4067   7.6436   8.3450   9.1576   9.6283

          k = 0.0000 0.4444 0.4228 (  2524 PWs)   bands (ev):

   -45.8188 -22.5111 -22.4572 -22.3885  -6.8522  -6.1642  -5.9237  -5.0567
    -5.0464  -5.0256  -4.8934  -4.6433   2.5351   5.4586   6.0947   6.9466
     7.0813   7.4031   7.4446   8.3407   9.1959   9.5889

          k = 0.1111 0.1111 0.0000 (  2513 PWs)   bands (ev):

   -45.8202 -22.4765 -22.4007 -22.4005  -7.3884  -6.4013  -6.1916  -5.0409
    -5.0376  -5.0077  -4.8740  -4.7535   3.8228   6.3165   6.4129   6.7777
     7.9263   8.2639   8.3870   8.5574   8.9444   9.0192

          k = 0.1111 0.1111 0.1057 (  2509 PWs)   bands (ev):

   -45.8202 -22.4811 -22.4005 -22.4004  -7.3463  -6.3915  -6.1780  -5.0420
    -5.0403  -5.0075  -4.8722  -4.7630   3.6785   6.3024   6.3459   6.9370
     7.8659   8.1276   8.3731   8.5881   8.9487   8.9995

          k = 0.1111 0.1111 0.2114 (  2520 PWs)   bands (ev):

   -45.8200 -22.4926 -22.4000 -22.3999  -7.2373  -6.3662  -6.1439  -5.0528
    -5.0371  -5.0070  -4.8690  -4.7879   3.3584   6.2606   6.2920   7.0017
     7.7571   7.8451   8.3547   8.6306   8.9613   9.1634

          k = 0.1111 0.1111 0.3171 (  2527 PWs)   bands (ev):

   -45.8198 -22.5056 -22.3995 -22.3994  -7.1089  -6.3363  -6.1054  -5.0643
    -5.0300  -5.0068  -4.8686  -4.8180   3.0507   6.1802   6.2038   6.8053
     7.6808   7.7344   8.3589   8.6444   8.9804   9.5415

          k = 0.1111 0.1111 0.4228 (  2515 PWs)   bands (ev):

   -45.8197 -22.5141 -22.3991 -22.3990  -7.0222  -6.3161  -6.0806  -5.0714
    -5.0227  -5.0070  -4.8707  -4.8389   2.8735   5.9978   6.1624   6.7236
     7.6494   7.7023   8.3764   8.6415   8.9959   9.8664

          k = 0.1111 0.2222 0.0000 (  2506 PWs)   bands (ev):

   -45.8199 -22.4756 -22.4210 -22.3998  -7.2263  -6.3669  -6.1720  -5.0635
    -5.0356  -5.0133  -4.8652  -4.7479   3.4560   6.2943   6.5473   6.6403
     7.8279   7.9048   8.4277   8.5777   8.8221   9.2320

          k = 0.1111 0.2222 0.1057 (  2506 PWs)   bands (ev):

   -45.8198 -22.4802 -22.4207 -22.3996  -7.1880  -6.3613  -6.1581  -5.0606
    -5.0387  -5.0123  -4.8624  -4.7499   3.3674   6.2376   6.3905   6.8082
     7.7123   7.9084   8.3609   8.6214   8.7664   9.2642

          k = 0.1111 0.2222 0.2114 (  2507 PWs)   bands (ev):

   -45.8196 -22.4916 -22.4202 -22.3991  -7.0914  -6.3465  -6.1205  -5.0569
    -5.0400  -5.0088  -4.8594  -4.7543   3.1512   6.0935   6.3075   6.8488
     7.5058   7.7005   8.3168   8.6591   8.8215   9.3841

          k = 0.1111 0.2222 0.3171 (  2519 PWs)   bands (ev):

   -45.8195 -22.5046 -22.4196 -22.3985  -6.9830  -6.3275  -6.0735  -5.0626
    -5.0289  -5.0008  -4.8641  -4.7583   2.9207   5.9166   6.2564   6.6818
     7.3461   7.5794   8.2526   8.7049   8.9458   9.5395

          k = 0.1111 0.2222 0.4228 (  2518 PWs)   bands (ev):

   -45.8193 -22.5130 -22.4192 -22.3982  -6.9141  -6.3132  -6.0397  -5.0671
    -5.0220  -4.9894  -4.8727  -4.7608   2.7793   5.7613   6.1770   6.5889
     7.3243   7.5400   8.1986   8.7368   9.0060   9.6337

          k = 0.1111 0.3333 0.0000 (  2510 PWs)   bands (ev):

   -45.8194 -22.4746 -22.4439 -22.3988  -7.0280  -6.3252  -6.1608  -5.0820
    -5.0302  -5.0133  -4.8558  -4.7582   3.1284   5.9914   6.5976   6.7766
     7.4542   7.9153   8.1194   8.5760   8.8362   9.6586

          k = 0.1111 0.3333 0.1057 (  2507 PWs)   bands (ev):

   -45.8194 -22.4791 -22.4437 -22.3986  -6.9978  -6.3210  -6.1461  -5.0762
    -5.0331  -5.0107  -4.8494  -4.7533   3.0756   5.9687   6.4225   6.8253
     7.3898   7.8836   8.1374   8.6347   8.7113   9.6505

          k = 0.1111 0.3333 0.2114 (  2504 PWs)   bands (ev):

   -45.8192 -22.4904 -22.4431 -22.3981  -6.9273  -6.3074  -6.1020  -5.0632
    -5.0373  -5.0029  -4.8446  -4.7328   2.9383   5.8883   6.2582   6.7076
     7.1346   7.7593   8.2300   8.4748   8.8939   9.5848

          k = 0.1111 0.3333 0.3171 (  2516 PWs)   bands (ev):

   -45.8190 -22.5033 -22.4424 -22.3975  -6.8606  -6.2837  -6.0398  -5.0589
    -5.0310  -4.9886  -4.8555  -4.7009   2.7793   5.7259   6.2059   6.5212
     6.8241   7.6382   8.3316   8.3782   9.1238   9.4564

          k = 0.1111 0.3333 0.4228 (  2517 PWs)   bands (ev):

   -45.8189 -22.5116 -22.4420 -22.3971  -6.8260  -6.2628  -5.9912  -5.0608
    -5.0233  -4.9718  -4.8710  -4.6787   2.6757   5.5621   6.2162   6.3676
     6.7023   7.5933   8.2816   8.4323   9.1557   9.4344

          k = 0.1111 0.4444 0.0000 (  2519 PWs)   bands (ev):

   -45.8191 -22.4738 -22.4590 -22.3981  -6.8880  -6.2871  -6.1713  -5.0890
    -5.0261  -5.0110  -4.8370  -4.7862   2.9533   5.6868   6.7176   7.0487
     7.1664   7.5692   8.1127   8.5360   8.8659  10.0957

          k = 0.1111 0.4444 0.1057 (  2514 PWs)   bands (ev):

   -45.8191 -22.4783 -22.4588 -22.3979  -6.8676  -6.2772  -6.1583  -5.0820
    -5.0286  -5.0083  -4.8216  -4.7818   2.9160   5.6812   6.4750   6.9516
     7.2745   7.5726   8.1130   8.6309   8.7125   9.9798

          k = 0.1111 0.4444 0.2114 (  2519 PWs)   bands (ev):

   -45.8189 -22.4896 -22.4581 -22.3974  -6.8276  -6.2499  -6.1103  -5.0662
    -5.0315  -5.0020  -4.8202  -4.7364   2.8164   5.6545   6.2458   6.5902
     7.0743   7.7986   8.0130   8.5084   8.8942   9.6846

          k = 0.1111 0.4444 0.3171 (  2509 PWs)   bands (ev):

   -45.8188 -22.5023 -22.4574 -22.3969  -6.8019  -6.2149  -6.0306  -5.0585
    -5.0210  -4.9931  -4.8390  -4.6726   2.6964   5.5701   6.1370   6.2738
     6.7569   7.7937   8.0712   8.4016   9.0568   9.4743

          k = 0.1111 0.4444 0.4228 (  2524 PWs)   bands (ev):

   -45.8186 -22.5107 -22.4569 -22.3965  -6.7949  -6.1905  -5.9650  -5.0593
    -5.0075  -4.9826  -4.8573  -4.6320   2.6154   5.4448   6.0383   6.2282
     6.5500   7.7407   8.1581   8.3468   8.8885   9.5842

          k = 0.2222 0.2222 0.0000 (  2508 PWs)   bands (ev):

   -45.8195 -22.4748 -22.4202 -22.4198  -7.0706  -6.3317  -6.1811  -5.0671
    -5.0420  -4.9995  -4.8338  -4.7418   3.1814   6.2547   6.5168   6.7042
     7.4136   7.5273   8.4252   8.5913   8.9612   9.4639

          k = 0.2222 0.2222 0.1057 (  2510 PWs)   bands (ev):

   -45.8194 -22.4793 -22.4200 -22.4196  -7.0343  -6.3316  -6.1689  -5.0616
    -5.0449  -4.9954  -4.8289  -4.7375   3.1450   6.1791   6.3050   6.7093
     7.4278   7.5317   8.4747   8.5714   8.9773   9.3983

          k = 0.2222 0.2222 0.2114 (  2500 PWs)   bands (ev):

   -45.8193 -22.4906 -22.4194 -22.4191  -6.9446  -6.3312  -6.1340  -5.0504
    -5.0467  -4.9831  -4.8188  -4.7279   3.0399   5.9885   6.0557   6.6424
     7.2960   7.3380   8.4909   8.7937   9.0342   9.3010

          k = 0.2222 0.2222 0.3171 (  2517 PWs)   bands (ev):

   -45.8191 -22.5035 -22.4188 -22.4186  -6.8477  -6.3312  -6.0847  -5.0543
    -5.0306  -4.9610  -4.8136  -4.7192   2.9031   5.7823   5.9317   6.4275
     7.0588   7.2276   8.5491   8.9069   9.1289   9.2523

          k = 0.2222 0.2222 0.4228 (  2520 PWs)   bands (ev):

   -45.8190 -22.5119 -22.4184 -22.4182  -6.7889  -6.3313  -6.0453  -5.0555
    -5.0217  -4.9376  -4.8169  -4.7147   2.8075   5.6559   5.8368   6.2656
     6.9773   7.2032   8.5281   8.9447   9.1905   9.2093

          k = 0.2222 0.3333 0.0000 (  2520 PWs)   bands (ev):

   -45.8191 -22.4737 -22.4429 -22.4189  -6.8843  -6.2915  -6.1969  -5.0708
    -5.0317  -4.9729  -4.8088  -4.7505   2.9089   6.0058   6.4238   6.9002
     7.0315   7.5421   8.0416   8.6707   9.0562   9.6322

          k = 0.2222 0.3333 0.1057 (  2518 PWs)   bands (ev):

   -45.8190 -22.4782 -22.4427 -22.4187  -6.8526  -6.2954  -6.1869  -5.0640
    -5.0324  -4.9653  -4.8010  -4.7392   2.9099   5.9694   6.2386   6.5511
     7.1749   7.5626   8.2159   8.6266   9.0665   9.5218

          k = 0.2222 0.3333 0.2114 (  2512 PWs)   bands (ev):

   -45.8188 -22.4895 -22.4421 -22.4182  -6.7797  -6.3035  -6.1534  -5.0485
    -5.0303  -4.9456  -4.7851  -4.7085   2.9000   5.8297   5.8916   6.3245
     6.9480   7.3892   8.4773   8.8018   9.1117   9.2712

          k = 0.2222 0.3333 0.3171 (  2508 PWs)   bands (ev):

   -45.8187 -22.5023 -22.4415 -22.4176  -6.7137  -6.3087  -6.0973  -5.0411
    -5.0158  -4.9190  -4.7741  -4.6718   2.8646   5.6135   5.6943   6.1647
     6.6055   7.1835   8.5740   8.9325   9.0285   9.2941

          k = 0.2222 0.3333 0.4228 (  2512 PWs)   bands (ev):

   -45.8185 -22.5106 -22.4411 -22.4172  -6.6820  -6.3099  -6.0485  -5.0392
    -5.0030  -4.8961  -4.7722  -4.6477   2.8275   5.4454   5.6556   6.0163
     6.4135   7.1269   8.4366   8.9208   9.0347   9.4236

          k = 0.2222 0.4444 0.0000 (  2527 PWs)   bands (ev):

   -45.8188 -22.4729 -22.4579 -22.4182  -6.7560  -6.2576  -6.2186  -5.0699
    -5.0224  -4.9398  -4.7940  -4.7753   2.7523   5.7024   6.5295   6.7364
     7.1727   7.5929   7.6717   8.7570   9.0457   9.7165

          k = 0.2222 0.4444 0.1057 (  2518 PWs)   bands (ev):

   -45.8187 -22.4774 -22.4577 -22.4180  -6.7302  -6.2587  -6.2129  -5.0623
    -5.0220  -4.9292  -4.7850  -4.7584   2.7704   5.6946   6.2317   6.4798
     7.1501   7.6992   7.8937   8.7030   9.0664   9.5458

          k = 0.2222 0.4444 0.2114 (  2514 PWs)   bands (ev):

   -45.8186 -22.4886 -22.4570 -22.4175  -6.6804  -6.2581  -6.1824  -5.0456
    -5.0164  -4.9067  -4.7706  -4.7057   2.8084   5.6542   5.7849   6.1487
     6.8546   7.5055   8.3104   8.8128   9.1475   9.1749

          k = 0.2222 0.4444 0.3171 (  2504 PWs)   bands (ev):

   -45.8184 -22.5014 -22.4563 -22.4169  -6.6526  -6.2545  -6.1151  -5.0355
    -4.9978  -4.8830  -4.7588  -4.6425   2.8338   5.5218   5.5406   5.8792
     6.4950   7.2672   8.2836   8.9155   8.9832   9.3921

          k = 0.2222 0.4444 0.4228 (  2510 PWs)   bands (ev):

   -45.8183 -22.5097 -22.4559 -22.4166  -6.6484  -6.2523  -6.0536  -5.0322
    -4.9806  -4.8662  -4.7530  -4.6018   2.8373   5.3706   5.4598   5.7776
     6.2421   7.1946   8.0074   8.9411   9.0013   9.5935

          k = 0.3333 0.3333 0.0000 (  2522 PWs)   bands (ev):

   -45.8186 -22.4727 -22.4418 -22.4416  -6.7255  -6.2531  -6.2257  -5.0593
    -5.0153  -4.9244  -4.7589  -4.7564   2.6702   5.9554   6.1063   6.9330
     7.0869   7.2161   7.9029   8.5037   9.3882   9.3956

          k = 0.3333 0.3333 0.1057 (  2507 PWs)   bands (ev):

   -45.8186 -22.4771 -22.4416 -22.4414  -6.6913  -6.2648  -6.2240  -5.0510
    -5.0138  -4.9106  -4.7488  -4.7380   2.7125   5.9307   6.0198   6.3413
     6.9107   7.5153   8.3086   8.3897   9.2220   9.3909

          k = 0.3333 0.3333 0.2114 (  2520 PWs)   bands (ev):

   -45.8184 -22.4883 -22.4411 -22.4409  -6.6149  -6.2934  -6.2067  -5.0295
    -5.0103  -4.8769  -4.7217  -4.6923   2.8198   5.6912   5.7444   5.9752
     6.6503   7.2084   8.4462   8.8618   8.9678   9.3992

          k = 0.3333 0.3333 0.3171 (  2506 PWs)   bands (ev):

   -45.8182 -22.5011 -22.4404 -22.4403  -6.5543  -6.3243  -6.1561  -5.0062
    -5.0050  -4.8378  -4.6897  -4.6416   2.9373   5.3663   5.4241   5.8574
     6.5624   6.6711   8.0480   9.1694   9.2469   9.4204

          k = 0.3333 0.3333 0.4228 (  2505 PWs)   bands (ev):

   -45.8181 -22.5094 -22.4400 -22.4399  -6.5318  -6.3437  -6.1035  -5.0036
    -4.9892  -4.8098  -4.6697  -4.6091   3.0059   5.2320   5.2439   5.7274
     6.3883   6.5377   7.6990   9.3119   9.3700   9.4932

          k = 0.3333 0.4444 0.0000 (  2514 PWs)   bands (ev):

   -45.8183 -22.4718 -22.4566 -22.4409  -6.6317  -6.2374  -6.2215  -5.0530
    -4.9967  -4.8729  -4.7819  -4.7297   2.5225   5.6705   6.1327   6.7836
     7.2362   7.3231   7.6118   8.4822   9.1263   9.5585

          k = 0.3333 0.4444 0.1057 (  2523 PWs)   bands (ev):

   -45.8183 -22.4763 -22.4564 -22.4407  -6.5951  -6.2486  -6.2318  -5.0442
    -4.9943  -4.8521  -4.7622  -4.7163   2.5834   5.6621   6.0577   6.2631
     6.7762   7.6968   8.0269   8.4543   8.9157   9.5482

          k = 0.3333 0.4444 0.2114 (  2516 PWs)   bands (ev):

   -45.8181 -22.4875 -22.4558 -22.4402  -6.5180  -6.2702  -6.2437  -5.0223
    -4.9887  -4.8069  -4.7154  -4.6725   2.7499   5.5869   5.6813   5.7779
     6.4588   7.2691   8.1256   8.8506   8.8888   9.5418

          k = 0.3333 0.4444 0.3171 (  2504 PWs)   bands (ev):

   -45.8180 -22.5002 -22.4552 -22.4396  -6.4784  -6.2972  -6.1983  -4.9998
    -4.9806  -4.7643  -4.6659  -4.6107   2.9644   5.2028   5.3846   5.6015
     6.3269   6.7355   7.5110   9.2411   9.3195   9.5468

          k = 0.3333 0.4444 0.4228 (  2500 PWs)   bands (ev):

   -45.8178 -22.5085 -22.4548 -22.4393  -6.4794  -6.3155  -6.1370  -4.9903
    -4.9704  -4.7378  -4.6338  -4.5680   3.1211   5.0111   5.1646   5.5210
     6.1935   6.5271   7.0689   9.4049   9.5128   9.6132

          k = 0.4444 0.4444 0.0000 (  2512 PWs)   bands (ev):

   -45.8181 -22.4710 -22.4558 -22.4558  -6.5823  -6.2085  -6.2029  -5.0446
    -4.9647  -4.8244  -4.7959  -4.6933   2.3738   5.5278   6.0046   6.9346
     6.9994   7.4547   7.5674   8.2937   8.7289   9.7773

          k = 0.4444 0.4444 0.1057 (  2517 PWs)   bands (ev):

   -45.8180 -22.4754 -22.4556 -22.4556  -6.5390  -6.2270  -6.2228  -5.0357
    -4.9631  -4.7951  -4.7654  -4.6847   2.4536   5.5187   5.9828   6.3692
     6.4763   7.8288   8.1441   8.1654   8.4556   9.7744

          k = 0.4444 0.4444 0.2114 (  2525 PWs)   bands (ev):

   -45.8179 -22.4866 -22.4551 -22.4551  -6.4322  -6.2701  -6.2664  -5.0131
    -4.9603  -4.7281  -4.6898  -4.6565   2.6822   5.4809   5.7119   5.7214
     6.1077   7.2478   7.6551   8.8498   8.8511   9.7672

          k = 0.4444 0.4444 0.3171 (  2509 PWs)   bands (ev):

   -45.8177 -22.4994 -22.4545 -22.4545  -6.3592  -6.3193  -6.2560  -4.9874
    -4.9579  -4.6722  -4.6068  -4.6038   3.0128   5.2040   5.2737   5.4496
     6.0743   6.6231   6.8538   9.3559   9.3659   9.7589

          k = 0.4444 0.4444 0.4228 (  2498 PWs)   bands (ev):

   -45.8176 -22.5077 -22.4541 -22.4541  -6.3716  -6.3492  -6.1860  -4.9706
    -4.9566  -4.6446  -4.5592  -4.5541   3.3041   4.9442   5.0289   5.3719
     6.0707   6.2247   6.3572   9.6069   9.6222   9.7528

     highest occupied level (ev):    10.2306

!    total energy              =    -380.57159736 Ry
     estimated scf accuracy    <          4.1E-09 Ry

     The total energy is the sum of the following terms:
     one-electron contribution =     -84.29972136 Ry
     hartree contribution      =      71.28578108 Ry
     xc contribution           =    -102.55160845 Ry
     ewald contribution        =    -265.00604863 Ry

     convergence has been achieved in   8 iterations

     negative rho (up, down):  1.525E-02 0.000E+00

     Forces acting on atoms (cartesian axes, Ry/au):

     atom    1 type  1   force =     0.00000000    0.00000000   -0.00852983
     atom    2 type  2   force =     0.00000000    0.00000000   -0.00496152
     atom    3 type  3   force =     0.00000000    0.00000000    0.01124866
     atom    4 type  3   force =     0.00000000    0.00000000    0.00112134
     atom    5 type  3   force =     0.00000000    0.00000000    0.00112134

     Total force =     0.015047     Total SCF correction =     0.000103


     Computing stress (Cartesian axis) and pressure


     negative rho (up, down):  1.525E-02 0.000E+00
          total   stress  (Ry/bohr**3)                   (kbar)     P=      -60.40
  -0.00042170   0.00000000   0.00000000          -62.03        0.00        0.00
   0.00000000  -0.00042170   0.00000000            0.00      -62.03        0.00
   0.00000000   0.00000000  -0.00038834            0.00        0.00      -57.13

     Energy error            =      4.8E-04 Ry
     Gradient error          =      1.1E-02 Ry/Bohr

     number of scf cycles    =   2
     number of bfgs steps    =   1

     energy             old  =    -380.5711151926 Ry
     energy             new  =    -380.5715973643 Ry

     CASE: energy            _new < energy            _old

     new trust radius        =       0.0220614043 bohr
     new conv_thr            =       0.0000000005 Ry


ATOMIC_POSITIONS (crystal)
Pb               0.0000000000        0.0000000000        1.0033676295
Ti               0.5000000000        0.5000000000        0.5375674181
O                0.5000000000        0.5000000000        0.1040162708
O                0.5000000000        0.0000000000        0.6111664848
O                0.0000000000        0.5000000000        0.6111664848



     Writing config-only to output data dir ./pto_k9.save/ :
     XML data file
     NEW-OLD atomic charge density approx. for the potential

     Check: negative core charge=   -0.000004

     negative rho (up, down):  1.514E-02 0.000E+00

     total cpu time spent up to now is       55.0 secs

     Self-consistent Calculation

     iteration #  1     ecut=    50.00 Ry     beta= 0.70
     CG style diagonalization
     c_bands:  1 eigenvalues not converged
     c_bands:  1 eigenvalues not converged
     c_bands:  1 eigenvalues not converged
     c_bands:  1 eigenvalues not converged
     c_bands:  1 eigenvalues not converged
     c_bands:  1 eigenvalues not converged
     c_bands:  1 eigenvalues not converged
     c_bands:  2 eigenvalues not converged
     c_bands:  1 eigenvalues not converged
     c_bands:  1 eigenvalues not converged
     c_bands:  2 eigenvalues not converged
     c_bands:  1 eigenvalues not converged
     c_bands:  2 eigenvalues not converged
     c_bands:  1 eigenvalues not converged
     c_bands:  1 eigenvalues not converged
     c_bands:  1 eigenvalues not converged
     ethr =  1.00E-06,  avg # of iterations =  7.4

     negative rho (up, down):  1.511E-02 0.000E+00

     total cpu time spent up to now is       58.8 secs

     total energy              =    -380.57177219 Ry
     estimated scf accuracy    <       0.00023111 Ry

     iteration #  2     ecut=    50.00 Ry     beta= 0.70
     CG style diagonalization
     ethr =  5.25E-07,  avg # of iterations =  4.7

     negative rho (up, down):  1.511E-02 0.000E+00

     total cpu time spent up to now is       61.0 secs

     total energy              =    -380.57174478 Ry
     estimated scf accuracy    <       0.00065475 Ry

     iteration #  3     ecut=    50.00 Ry     beta= 0.70
     CG style diagonalization
     ethr =  5.25E-07,  avg # of iterations =  4.3

     negative rho (up, down):  1.511E-02 0.000E+00

     total cpu time spent up to now is       63.0 secs

     total energy              =    -380.57187452 Ry
     estimated scf accuracy    <       0.00005494 Ry

     iteration #  4     ecut=    50.00 Ry     beta= 0.70
     CG style diagonalization
     ethr =  1.25E-07,  avg # of iterations =  3.7

     negative rho (up, down):  1.511E-02 0.000E+00

     total cpu time spent up to now is       64.7 secs

     total energy              =    -380.57188809 Ry
     estimated scf accuracy    <       0.00000647 Ry

     iteration #  5     ecut=    50.00 Ry     beta= 0.70
     CG style diagonalization
     ethr =  1.47E-08,  avg # of iterations =  4.2

     negative rho (up, down):  1.511E-02 0.000E+00

     total cpu time spent up to now is       66.6 secs

     total energy              =    -380.57189164 Ry
     estimated scf accuracy    <       0.00000062 Ry

     iteration #  6     ecut=    50.00 Ry     beta= 0.70
     CG style diagonalization
     ethr =  1.42E-09,  avg # of iterations =  4.8

     negative rho (up, down):  1.511E-02 0.000E+00

     total cpu time spent up to now is       68.9 secs

     total energy              =    -380.57189207 Ry
     estimated scf accuracy    <       0.00000032 Ry

     iteration #  7     ecut=    50.00 Ry     beta= 0.70
     CG style diagonalization
     ethr =  7.30E-10,  avg # of iterations =  4.0

     negative rho (up, down):  1.511E-02 0.000E+00

     total cpu time spent up to now is       70.7 secs

     total energy              =    -380.57189214 Ry
     estimated scf accuracy    <       0.00000007 Ry

     iteration #  8     ecut=    50.00 Ry     beta= 0.70
     CG style diagonalization
     ethr =  1.54E-10,  avg # of iterations =  4.8

     negative rho (up, down):  1.511E-02 0.000E+00

     total cpu time spent up to now is       73.0 secs

     total energy              =    -380.57189218 Ry
     estimated scf accuracy    <          4.5E-09 Ry

     iteration #  9     ecut=    50.00 Ry     beta= 0.70
     CG style diagonalization
     c_bands:  1 eigenvalues not converged
     ethr =  1.02E-11,  avg # of iterations =  7.2

     negative rho (up, down):  1.511E-02 0.000E+00

     total cpu time spent up to now is       76.4 secs

     total energy              =    -380.57189220 Ry
     estimated scf accuracy    <          5.5E-10 Ry

     iteration # 10     ecut=    50.00 Ry     beta= 0.70
     CG style diagonalization
     ethr =  1.24E-12,  avg # of iterations =  6.6

     negative rho (up, down):  1.511E-02 0.000E+00

     total cpu time spent up to now is       79.6 secs

     End of self-consistent calculation

          k = 0.0000 0.0000 0.0000 (  2525 PWs)   bands (ev):

   -45.7864 -22.4667 -22.3584 -22.3584  -7.5151  -6.4313  -6.2218  -5.0283
    -5.0283  -4.9961  -4.8836  -4.7550   4.2053   6.3089   6.3089   6.6951
     8.1403   8.1403   8.4906   8.6632   8.9496   8.9496

          k = 0.0000 0.0000 0.1057 (  2533 PWs)   bands (ev):

   -45.7863 -22.4713 -22.3582 -22.3582  -7.4704  -6.4181  -6.2087  -5.0318
    -5.0318  -4.9958  -4.8815  -4.7710   3.9821   6.3219   6.3219   6.8699
     8.0802   8.0802   8.4702   8.5505   8.9781   8.9781

          k = 0.0000 0.0000 0.2114 (  2517 PWs)   bands (ev):

   -45.7861 -22.4830 -22.3577 -22.3577  -7.3532  -6.3834  -6.1770  -5.0407
    -5.0407  -4.9950  -4.8766  -4.8130   3.5443   6.3512   6.3512   6.8967
     7.9545   7.9545   8.4200   8.6660   9.0353   9.0353

          k = 0.0000 0.0000 0.3171 (  2510 PWs)   bands (ev):

   -45.7859 -22.4961 -22.3572 -22.3572  -7.2123  -6.3416  -6.1445  -5.0508
    -5.0508  -4.9942  -4.8716  -4.8630   3.1625   6.3767   6.3767   6.5214
     7.8457   7.8457   8.3646   9.0861   9.0861   9.2899

          k = 0.0000 0.0000 0.4228 (  2538 PWs)   bands (ev):

   -45.7858 -22.5047 -22.3569 -22.3569  -7.1146  -6.3128  -6.1265  -5.0574
    -5.0574  -4.9936  -4.8972  -4.8688   2.9528   6.2181   6.3880   6.3880
     7.7905   7.7905   8.3292   9.1148   9.1148   9.8994

          k = 0.0000 0.1111 0.0000 (  2525 PWs)   bands (ev):

   -45.7862 -22.4664 -22.3665 -22.3580  -7.4533  -6.4181  -6.2094  -5.0391
    -5.0276  -5.0020  -4.8836  -4.7495   3.9917   6.3299   6.3589   6.7492
     8.0759   8.1528   8.4979   8.6452   8.7658   8.9793

          k = 0.0000 0.1111 0.1057 (  2522 PWs)   bands (ev):

   -45.7861 -22.4710 -22.3663 -22.3578  -7.4098  -6.4066  -6.1961  -5.0409
    -5.0312  -5.0018  -4.8819  -4.7621   3.8120   6.2953   6.3729   6.9091
     7.9755   8.0869   8.5130   8.5343   8.8011   9.0110

          k = 0.0000 0.1111 0.2114 (  2517 PWs)   bands (ev):

   -45.7860 -22.4826 -22.3658 -22.3574  -7.2965  -6.3766  -6.1632  -5.0448
    -5.0403  -5.0012  -4.8787  -4.7943   3.4353   6.2472   6.4043   6.9744
     7.7585   7.9556   8.4785   8.5467   8.8672   9.1685

          k = 0.0000 0.1111 0.3171 (  2523 PWs)   bands (ev):

   -45.7858 -22.4957 -22.3652 -22.3569  -7.1617  -6.3406  -6.1278  -5.0505
    -5.0486  -5.0005  -4.8775  -4.8314   3.0898   6.1435   6.4313   6.7134
     7.6477   7.8468   8.5358   8.6195   8.9226   9.5407

          k = 0.0000 0.1111 0.4228 (  2524 PWs)   bands (ev):

   -45.7857 -22.5043 -22.3649 -22.3565  -7.0695  -6.3158  -6.1065  -5.0572
    -5.0508  -5.0000  -4.8789  -4.8551   2.8953   5.9907   6.4431   6.5560
     7.6093   7.7934   8.5210   8.7035   8.9532   9.9394

          k = 0.0000 0.2222 0.0000 (  2507 PWs)   bands (ev):

   -45.7858 -22.4655 -22.3869 -22.3572  -7.2898  -6.3852  -6.1802  -5.0616
    -5.0260  -5.0170  -4.8823  -4.7438   3.5717   6.3350   6.5002   6.6022
     8.1568   8.1693   8.3758   8.4327   8.6275   9.0610

          k = 0.0000 0.2222 0.1057 (  2514 PWs)   bands (ev):

   -45.7858 -22.4701 -22.3867 -22.3570  -7.2507  -6.3775  -6.1657  -5.0588
    -5.0297  -5.0169  -4.8806  -4.7482   3.4546   6.2433   6.5171   6.7174
     7.9943   8.0709   8.3697   8.4460   8.5601   9.1883

          k = 0.0000 0.2222 0.2114 (  2513 PWs)   bands (ev):

   -45.7856 -22.4816 -22.3861 -22.3565  -7.1514  -6.3568  -6.1273  -5.0501
    -5.0391  -5.0166  -4.8812  -4.7570   3.1854   6.1023   6.5542   6.8080
     7.6695   7.9246   8.0473   8.5345   8.7313   9.4122

          k = 0.0000 0.2222 0.3171 (  2518 PWs)   bands (ev):

   -45.7854 -22.4946 -22.3855 -22.3560  -7.0391  -6.3293  -6.0808  -5.0497
    -5.0380  -5.0163  -4.8893  -4.7636   2.9160   5.9145   6.5845   6.7157
     7.4072   7.8223   7.9455   8.5956   8.8624   9.6453

          k = 0.0000 0.2222 0.4228 (  2510 PWs)   bands (ev):

   -45.7853 -22.5031 -22.3851 -22.3556  -6.9672  -6.3076  -6.0490  -5.0566
    -5.0297  -5.0161  -4.8970  -4.7670   2.7566   5.7405   6.5959   6.6074
     7.3116   7.7790   7.9549   8.6271   8.9159   9.8028

          k = 0.0000 0.3333 0.0000 (  2514 PWs)   bands (ev):

   -45.7854 -22.4644 -22.4100 -22.3562  -7.0889  -6.3440  -6.1584  -5.0820
    -5.0340  -5.0239  -4.8710  -4.7552   3.2156   5.9919   6.6665   6.7093
     7.8417   7.8850   8.2662   8.3428   8.7009   9.5935

          k = 0.0000 0.3333 0.1057 (  2512 PWs)   bands (ev):

   -45.7853 -22.4690 -22.4098 -22.3560  -7.0587  -6.3369  -6.1422  -5.0754
    -5.0341  -5.0278  -4.8660  -4.7523   3.1358   5.9683   6.6571   6.7315
     7.6529   7.8311   8.2926   8.4224   8.5347   9.6526

          k = 0.0000 0.3333 0.2114 (  2505 PWs)   bands (ev):

   -45.7852 -22.4804 -22.4091 -22.3555  -6.9879  -6.3151  -6.0948  -5.0572
    -5.0379  -5.0339  -4.8669  -4.7345   2.9438   5.8921   6.5905   6.7786
     7.3457   7.7344   7.9700   8.3370   8.8236   9.6831

          k = 0.0000 0.3333 0.3171 (  2508 PWs)   bands (ev):

   -45.7850 -22.4933 -22.4084 -22.3550  -6.9198  -6.2799  -6.0300  -5.0488
    -5.0342  -5.0335  -4.8852  -4.7038   2.7405   5.7332   6.4395   6.8104
     7.2130   7.5801   7.6763   8.3707   9.1101   9.6123

          k = 0.0000 0.3333 0.4228 (  2521 PWs)   bands (ev):

   -45.7849 -22.5017 -22.4080 -22.3546  -6.8839  -6.2495  -5.9811  -5.0560
    -5.0343  -5.0152  -4.9038  -4.6820   2.6154   5.5626   6.3489   6.8157
     7.1897   7.4016   7.6656   8.3884   9.2473   9.5484

          k = 0.0000 0.4444 0.0000 (  2498 PWs)   bands (ev):

   -45.7851 -22.4637 -22.4251 -22.3556  -6.9465  -6.3052  -6.1630  -5.0938
    -5.0450  -5.0227  -4.8434  -4.7864   3.0305   5.6884   6.8682   6.9324
     7.4485   7.5434   8.2727   8.2935   8.7306  10.2225

          k = 0.0000 0.4444 0.1057 (  2511 PWs)   bands (ev):

   -45.7850 -22.4682 -22.4248 -22.3554  -6.9270  -6.2915  -6.1477  -5.0864
    -5.0451  -5.0267  -4.8296  -4.7836   2.9665   5.6831   6.8200   6.9686
     7.2566   7.5013   8.2982   8.4419   8.5229  10.1342

          k = 0.0000 0.4444 0.2114 (  2517 PWs)   bands (ev):

   -45.7849 -22.4795 -22.4241 -22.3549  -6.8880  -6.2540  -6.0947  -5.0668
    -5.0455  -5.0368  -4.8365  -4.7388   2.8102   5.6568   6.6419   6.9366
     7.0482   7.4178   8.0655   8.3074   8.8196   9.8892

          k = 0.0000 0.4444 0.3171 (  2510 PWs)   bands (ev):

   -45.7847 -22.4923 -22.4234 -22.3543  -6.8615  -6.2060  -6.0104  -5.0482
    -5.0458  -5.0419  -4.8650  -4.6754   2.6417   5.5726   6.2768   6.8953
     7.0818   7.3970   7.6514   8.3151   9.1470   9.6159

          k = 0.0000 0.4444 0.4228 (  2524 PWs)   bands (ev):

   -45.7846 -22.5007 -22.4228 -22.3540  -6.8532  -6.1719  -5.9421  -5.0555
    -5.0461  -5.0225  -4.8890  -4.6352   2.5364   5.4455   6.0956   6.9301
     7.0563   7.4176   7.4399   8.3190   9.1935   9.5672

          k = 0.1111 0.1111 0.0000 (  2513 PWs)   bands (ev):

   -45.7861 -22.4660 -22.3662 -22.3660  -7.3920  -6.4046  -6.2012  -5.0402
    -5.0366  -5.0073  -4.8770  -4.7443   3.8179   6.3167   6.4141   6.7911
     7.8741   8.2285   8.3652   8.5487   8.9462   8.9756

          k = 0.1111 0.1111 0.1057 (  2509 PWs)   bands (ev):

   -45.7860 -22.4706 -22.3660 -22.3658  -7.3496  -6.3949  -6.1880  -5.0410
    -5.0395  -5.0071  -4.8752  -4.7537   3.6731   6.2997   6.3450   6.9490
     7.8218   8.0965   8.3451   8.5767   8.9499   8.9701

          k = 0.1111 0.1111 0.2114 (  2520 PWs)   bands (ev):

   -45.7858 -22.4822 -22.3655 -22.3654  -7.2397  -6.3698  -6.1548  -5.0517
    -5.0359  -5.0066  -4.8721  -4.7784   3.3512   6.2509   6.2843   7.0139
     7.7284   7.8123   8.3320   8.6167   8.9615   9.1546

          k = 0.1111 0.1111 0.3171 (  2527 PWs)   bands (ev):

   -45.7857 -22.4953 -22.3649 -22.3648  -7.1100  -6.3402  -6.1176  -5.0632
    -5.0285  -5.0064  -4.8717  -4.8083   3.0403   6.1683   6.1866   6.8166
     7.6655   7.7000   8.3484   8.6304   8.9796   9.5430

          k = 0.1111 0.1111 0.4228 (  2515 PWs)   bands (ev):

   -45.7855 -22.5038 -22.3646 -22.3645  -7.0224  -6.3202  -6.0937  -5.0702
    -5.0210  -5.0067  -4.8739  -4.8290   2.8606   5.9906   6.1409   6.7273
     7.6413   7.6707   8.3707   8.6278   8.9945   9.8720

          k = 0.1111 0.2222 0.0000 (  2506 PWs)   bands (ev):

   -45.7857 -22.4652 -22.3865 -22.3652  -7.2304  -6.3711  -6.1833  -5.0627
    -5.0346  -5.0128  -4.8657  -4.7386   3.4531   6.2957   6.5459   6.6414
     7.7939   7.8815   8.4070   8.5650   8.8148   9.1995

          k = 0.1111 0.2222 0.1057 (  2506 PWs)   bands (ev):

   -45.7856 -22.4697 -22.3863 -22.3650  -7.1919  -6.3656  -6.1697  -5.0596
    -5.0377  -5.0117  -4.8631  -4.7405   3.3643   6.2353   6.3882   6.8082
     7.6820   7.8950   8.3280   8.6114   8.7563   9.2449

          k = 0.1111 0.2222 0.2114 (  2507 PWs)   bands (ev):

   -45.7855 -22.4812 -22.3857 -22.3646  -7.0943  -6.3510  -6.1330  -5.0558
    -5.0387  -5.0082  -4.8604  -4.7449   3.1467   6.0836   6.3001   6.8504
     7.4898   7.6900   8.2776   8.6588   8.8040   9.3802

          k = 0.1111 0.2222 0.3171 (  2519 PWs)   bands (ev):

   -45.7853 -22.4942 -22.3851 -22.3640  -6.9846  -6.3322  -6.0870  -5.0617
    -5.0277  -4.9997  -4.8652  -4.7490   2.9140   5.8994   6.2435   6.6904
     7.3373   7.5693   8.2211   8.7046   8.9248   9.5454

          k = 0.1111 0.2222 0.4228 (  2518 PWs)   bands (ev):

   -45.7852 -22.5026 -22.3847 -22.3636  -6.9150  -6.3180  -6.0539  -5.0662
    -5.0212  -4.9876  -4.8739  -4.7516   2.7709   5.7426   6.1640   6.5973
     7.3181   7.5291   8.1743   8.7353   8.9839   9.6439

          k = 0.1111 0.3333 0.0000 (  2510 PWs)   bands (ev):

   -45.7852 -22.4641 -22.4096 -22.3642  -7.0327  -6.3307  -6.1741  -5.0804
    -5.0292  -5.0131  -4.8528  -4.7495   3.1265   5.9957   6.5889   6.7803
     7.4487   7.8867   8.0892   8.5650   8.8110   9.6429

          k = 0.1111 0.3333 0.1057 (  2507 PWs)   bands (ev):

   -45.7852 -22.4686 -22.4093 -22.3640  -7.0021  -6.3268  -6.1595  -5.0745
    -5.0320  -5.0106  -4.8470  -4.7442   3.0737   5.9711   6.4153   6.8277
     7.3754   7.8696   8.1067   8.6135   8.6954   9.6390

          k = 0.1111 0.3333 0.2114 (  2504 PWs)   bands (ev):

   -45.7850 -22.4800 -22.4087 -22.3635  -6.9305  -6.3135  -6.1161  -5.0616
    -5.0360  -5.0030  -4.8428  -4.7235   2.9362   5.8843   6.2493   6.7095
     7.1200   7.7495   8.2165   8.4473   8.8778   9.5800

          k = 0.1111 0.3333 0.3171 (  2516 PWs)   bands (ev):

   -45.7848 -22.4929 -22.4080 -22.3630  -6.8625  -6.2899  -6.0547  -5.0578
    -5.0296  -4.9884  -4.8534  -4.6921   2.7767   5.7112   6.1973   6.5264
     6.8138   7.6362   8.2983   8.3756   9.1034   9.4573

          k = 0.1111 0.3333 0.4228 (  2517 PWs)   bands (ev):

   -45.7847 -22.5013 -22.4076 -22.3626  -6.8273  -6.2690  -6.0066  -5.0600
    -5.0224  -4.9711  -4.8687  -4.6703   2.6724   5.5419   6.2088   6.3726
     6.6969   7.5919   8.2513   8.4308   9.1420   9.4299

          k = 0.1111 0.4444 0.0000 (  2519 PWs)   bands (ev):

   -45.7850 -22.4633 -22.4246 -22.3636  -6.8929  -6.2931  -6.1868  -5.0868
    -5.0249  -5.0113  -4.8293  -4.7801   2.9514   5.6967   6.6992   7.0534
     7.1689   7.5741   8.0442   8.5283   8.8346  10.0885

          k = 0.1111 0.4444 0.1057 (  2514 PWs)   bands (ev):

   -45.7849 -22.4678 -22.4244 -22.3634  -6.8720  -6.2834  -6.1738  -5.0798
    -5.0274  -5.0089  -4.8159  -4.7739   2.9144   5.6903   6.4629   6.9520
     7.2686   7.5724   8.0607   8.6210   8.6848   9.9729

          k = 0.1111 0.4444 0.2114 (  2519 PWs)   bands (ev):

   -45.7847 -22.4791 -22.4237 -22.3629  -6.8306  -6.2566  -6.1263  -5.0642
    -5.0300  -5.0030  -4.8160  -4.7274   2.8155   5.6600   6.2354   6.5831
     7.0650   7.7915   7.9998   8.4736   8.8834   9.6772

          k = 0.1111 0.4444 0.3171 (  2509 PWs)   bands (ev):

   -45.7846 -22.4920 -22.4230 -22.3623  -6.8039  -6.2219  -6.0470  -5.0572
    -5.0191  -4.9942  -4.8344  -4.6643   2.6961   5.5660   6.1278   6.2679
     6.7480   7.7952   8.0682   8.3659   9.0549   9.4560

          k = 0.1111 0.4444 0.4228 (  2524 PWs)   bands (ev):

   -45.7845 -22.5003 -22.4225 -22.3619  -6.7964  -6.1978  -5.9814  -5.0583
    -5.0065  -4.9831  -4.8522  -4.6241   2.6156   5.4306   6.0380   6.2192
     6.5447   7.7452   8.1539   8.3149   8.8917   9.5606

          k = 0.2222 0.2222 0.0000 (  2508 PWs)   bands (ev):

   -45.7853 -22.4643 -22.3858 -22.3853  -7.0757  -6.3367  -6.1928  -5.0656
    -5.0411  -4.9986  -4.8340  -4.7323   3.1782   6.2621   6.5059   6.7101
     7.4037   7.4783   8.4391   8.5638   8.9537   9.4332

          k = 0.2222 0.2222 0.1057 (  2510 PWs)   bands (ev):

   -45.7852 -22.4688 -22.3855 -22.3851  -7.0391  -6.3365  -6.1810  -5.0599
    -5.0440  -4.9947  -4.8292  -4.7280   3.1415   6.1814   6.2968   6.7095
     7.3958   7.5254   8.4442   8.5747   8.9689   9.3758

          k = 0.2222 0.2222 0.2114 (  2500 PWs)   bands (ev):

   -45.7851 -22.4802 -22.3850 -22.3846  -6.9483  -6.3361  -6.1468  -5.0496
    -5.0450  -4.9825  -4.8193  -4.7185   3.0354   5.9815   6.0458   6.6391
     7.2859   7.3386   8.4520   8.7894   9.0217   9.2963

          k = 0.2222 0.2222 0.3171 (  2517 PWs)   bands (ev):

   -45.7849 -22.4931 -22.3843 -22.3841  -6.8503  -6.3359  -6.0984  -5.0537
    -5.0290  -4.9604  -4.8144  -4.7098   2.8970   5.7696   5.9178   6.4276
     7.0602   7.2300   8.5062   8.9028   9.1114   9.2608

          k = 0.2222 0.2222 0.4228 (  2520 PWs)   bands (ev):

   -45.7848 -22.5015 -22.3839 -22.3837  -6.7907  -6.3359  -6.0595  -5.0550
    -5.0205  -4.9371  -4.8177  -4.7052   2.7999   5.6409   5.8220   6.2698
     6.9756   7.2107   8.4868   8.9406   9.1715   9.2219

          k = 0.2222 0.3333 0.0000 (  2520 PWs)   bands (ev):

   -45.7849 -22.4632 -22.4085 -22.3844  -6.8906  -6.2977  -6.2087  -5.0688
    -5.0306  -4.9720  -4.8077  -4.7412   2.9050   6.0123   6.4218   6.9003
     7.0207   7.4918   8.0529   8.6537   9.0480   9.6159

          k = 0.2222 0.3333 0.1057 (  2518 PWs)   bands (ev):

   -45.7848 -22.4677 -22.4083 -22.3842  -6.8584  -6.3016  -6.1990  -5.0620
    -5.0313  -4.9648  -4.8000  -4.7298   2.9059   5.9733   6.2299   6.5532
     7.1583   7.5449   8.2076   8.6102   9.0574   9.5094

          k = 0.2222 0.3333 0.2114 (  2512 PWs)   bands (ev):

   -45.7846 -22.4790 -22.4077 -22.3837  -6.7843  -6.3095  -6.1661  -5.0469
    -5.0290  -4.9461  -4.7840  -4.6994   2.8956   5.8252   5.8817   6.3248
     6.9444   7.3856   8.4574   8.7842   9.0989   9.2664

          k = 0.2222 0.3333 0.3171 (  2508 PWs)   bands (ev):

   -45.7845 -22.4919 -22.4071 -22.3831  -6.7169  -6.3143  -6.1106  -5.0403
    -5.0140  -4.9205  -4.7726  -4.6632   2.8596   5.6007   5.6839   6.1654
     6.6083   7.1892   8.5528   8.9188   9.0264   9.2754

          k = 0.2222 0.3333 0.4228 (  2512 PWs)   bands (ev):

   -45.7844 -22.5002 -22.4066 -22.3828  -6.6845  -6.3154  -6.0619  -5.0387
    -5.0014  -4.8983  -4.7701  -4.6394   2.8218   5.4291   5.6451   6.0165
     6.4202   7.1355   8.4242   8.9056   9.0308   9.4016

          k = 0.2222 0.4444 0.0000 (  2527 PWs)   bands (ev):

   -45.7846 -22.4624 -22.4235 -22.3837  -6.7630  -6.2648  -6.2305  -5.0676
    -5.0211  -4.9394  -4.7902  -4.7675   2.7477   5.7124   6.5283   6.7210
     7.1797   7.5803   7.6356   8.7422   9.0375   9.7146

          k = 0.2222 0.4444 0.1057 (  2518 PWs)   bands (ev):

   -45.7845 -22.4669 -22.4233 -22.3835  -6.7366  -6.2660  -6.2249  -5.0601
    -5.0207  -4.9299  -4.7808  -4.7506   2.7659   5.7038   6.2192   6.4813
     7.1421   7.6819   7.8781   8.6847   9.0575   9.5444

          k = 0.2222 0.4444 0.2114 (  2514 PWs)   bands (ev):

   -45.7844 -22.4782 -22.4227 -22.3830  -6.6851  -6.2651  -6.1951  -5.0438
    -5.0148  -4.9093  -4.7657  -4.6981   2.8040   5.6587   5.7761   6.1431
     6.8532   7.4970   8.3048   8.7853   9.1446   9.1636

          k = 0.2222 0.4444 0.3171 (  2504 PWs)   bands (ev):

   -45.7842 -22.4910 -22.4219 -22.3824  -6.6559  -6.2611  -6.1281  -5.0345
    -4.9958  -4.8875  -4.7535  -4.6352   2.8297   5.5147   5.5302   5.8808
     6.4941   7.2721   8.2853   8.8869   8.9802   9.3709

          k = 0.2222 0.4444 0.4228 (  2510 PWs)   bands (ev):

   -45.7841 -22.4993 -22.4215 -22.3821  -6.6512  -6.2588  -6.0663  -5.0316
    -4.9786  -4.8717  -4.7474  -4.5947   2.8335   5.3528   5.4511   5.7839
     6.2444   7.2032   8.0121   8.9140   8.9971   9.5695

          k = 0.3333 0.3333 0.0000 (  2522 PWs)   bands (ev):

   -45.7844 -22.4621 -22.4075 -22.4072  -6.7338  -6.2602  -6.2362  -5.0569
    -5.0141  -4.9219  -4.7599  -4.7466   2.6640   5.9558   6.1229   6.9104
     7.0892   7.1715   7.9196   8.4904   9.3827   9.3897

          k = 0.3333 0.3333 0.1057 (  2507 PWs)   bands (ev):

   -45.7844 -22.4665 -22.4073 -22.4070  -6.6990  -6.2717  -6.2347  -5.0485
    -5.0129  -4.9089  -4.7496  -4.7284   2.7060   5.9293   6.0295   6.3333
     6.8934   7.5081   8.3047   8.3745   9.2161   9.3853

          k = 0.3333 0.3333 0.2114 (  2520 PWs)   bands (ev):

   -45.7842 -22.4778 -22.4067 -22.4065  -6.6211  -6.2997  -6.2178  -5.0270
    -5.0096  -4.8772  -4.7219  -4.6831   2.8126   5.6811   5.7408   5.9774
     6.6563   7.2059   8.4395   8.8478   8.9500   9.3930

          k = 0.3333 0.3333 0.3171 (  2506 PWs)   bands (ev):

   -45.7840 -22.4906 -22.4060 -22.4059  -6.5589  -6.3300  -6.1675  -5.0059
    -5.0027  -4.8408  -4.6890  -4.6329   2.9291   5.3564   5.4154   5.8589
     6.5779   6.6717   8.0516   9.1417   9.2323   9.4103

          k = 0.3333 0.3333 0.4228 (  2505 PWs)   bands (ev):

   -45.7839 -22.4990 -22.4056 -22.4055  -6.5358  -6.3490  -6.1147  -5.0034
    -4.9870  -4.8147  -4.6682  -4.6007   2.9967   5.2223   5.2340   5.7283
     6.3906   6.5560   7.7053   9.2833   9.3662   9.4710

          k = 0.3333 0.4444 0.0000 (  2514 PWs)   bands (ev):

   -45.7842 -22.4613 -22.4223 -22.4065  -6.6413  -6.2470  -6.2294  -5.0505
    -4.9955  -4.8685  -4.7734  -4.7310   2.5146   5.6773   6.1497   6.7568
     7.1990   7.3218   7.6209   8.4755   9.1300   9.5553

          k = 0.3333 0.4444 0.1057 (  2523 PWs)   bands (ev):

   -45.7841 -22.4657 -22.4220 -22.4063  -6.6041  -6.2579  -6.2397  -5.0417
    -4.9933  -4.8493  -4.7543  -4.7163   2.5752   5.6686   6.0680   6.2504
     6.7628   7.6868   8.0199   8.4436   8.9179   9.5444

          k = 0.3333 0.4444 0.2114 (  2516 PWs)   bands (ev):

   -45.7839 -22.4770 -22.4215 -22.4058  -6.5251  -6.2778  -6.2531  -5.0199
    -4.9880  -4.8084  -4.7095  -4.6688   2.7407   5.5844   5.6783   5.7765
     6.4665   7.2647   8.1339   8.8344   8.8668   9.5374

          k = 0.3333 0.4444 0.3171 (  2504 PWs)   bands (ev):

   -45.7838 -22.4898 -22.4208 -22.4052  -6.4835  -6.3036  -6.2086  -4.9980
    -4.9797  -4.7700  -4.6606  -4.6051   2.9538   5.1960   5.3734   5.6092
     6.3393   6.7374   7.5224   9.2150   9.3006   9.5406

          k = 0.3333 0.4444 0.4228 (  2500 PWs)   bands (ev):

   -45.7836 -22.4981 -22.4204 -22.4048  -6.4839  -6.3214  -6.1468  -4.9894
    -4.9689  -4.7460  -4.6284  -4.5620   3.1091   5.0048   5.1522   5.5288
     6.2010   6.5378   7.0821   9.3782   9.5084   9.5907

          k = 0.4444 0.4444 0.0000 (  2512 PWs)   bands (ev):

   -45.7839 -22.4605 -22.4214 -22.4214  -6.5930  -6.2174  -6.2115  -5.0421
    -4.9640  -4.8156  -4.7854  -4.7004   2.3637   5.5330   6.0281   6.9047
     6.9654   7.4574   7.5738   8.2888   8.7423   9.7743

          k = 0.4444 0.4444 0.1057 (  2517 PWs)   bands (ev):

   -45.7838 -22.4649 -22.4212 -22.4212  -6.5493  -6.2354  -6.2310  -5.0332
    -4.9625  -4.7875  -4.7553  -4.6915   2.4429   5.5241   6.0032   6.3534
     6.4619   7.8224   8.1333   8.1604   8.4645   9.7714

          k = 0.4444 0.4444 0.2114 (  2525 PWs)   bands (ev):

   -45.7837 -22.4762 -22.4207 -22.4207  -6.4414  -6.2773  -6.2742  -5.0106
    -4.9598  -4.7263  -4.6808  -4.6599   2.6698   5.4863   5.7057   5.7115
     6.1258   7.2440   7.6710   8.8320   8.8321   9.7642

          k = 0.4444 0.4444 0.3171 (  2509 PWs)   bands (ev):

   -45.7835 -22.4890 -22.4201 -22.4200  -6.3656  -6.3256  -6.2648  -4.9850
    -4.9575  -4.6796  -4.6007  -4.5989   2.9967   5.1973   5.2653   5.4562
     6.0975   6.6202   6.8719   9.3332   9.3447   9.7560

          k = 0.4444 0.4444 0.4228 (  2498 PWs)   bands (ev):

   -45.7834 -22.4973 -22.4197 -22.4196  -6.3772  -6.3550  -6.1942  -4.9682
    -4.9562  -4.6556  -4.5543  -4.5469   3.2831   4.9390   5.0213   5.3804
     6.0945   6.2351   6.3652   9.5829   9.5996   9.7499

     highest occupied level (ev):    10.2225

!    total energy              =    -380.57189220 Ry
     estimated scf accuracy    <          1.3E-10 Ry

     The total energy is the sum of the following terms:
     one-electron contribution =     -84.63449691 Ry
     hartree contribution      =      71.46214627 Ry
     xc contribution           =    -102.56364268 Ry
     ewald contribution        =    -264.83589888 Ry

     convergence has been achieved in  10 iterations

     negative rho (up, down):  1.511E-02 0.000E+00

     Forces acting on atoms (cartesian axes, Ry/au):

     atom    1 type  1   force =     0.00000000    0.00000000   -0.00847169
     atom    2 type  2   force =     0.00000000    0.00000000    0.00264418
     atom    3 type  3   force =     0.00000000    0.00000000    0.00134870
     atom    4 type  3   force =     0.00000000    0.00000000    0.00223941
     atom    5 type  3   force =     0.00000000    0.00000000    0.00223941

     Total force =     0.009519     Total SCF correction =     0.000012


     Computing stress (Cartesian axis) and pressure


     negative rho (up, down):  1.511E-02 0.000E+00
          total   stress  (Ry/bohr**3)                   (kbar)     P=      -54.10
  -0.00040576   0.00000000   0.00000000          -59.69        0.00        0.00
   0.00000000  -0.00040576   0.00000000            0.00      -59.69        0.00
   0.00000000   0.00000000  -0.00029168            0.00        0.00      -42.91

     Energy error            =      2.9E-04 Ry
     Gradient error          =      8.5E-03 Ry/Bohr

     number of scf cycles    =   3
     number of bfgs steps    =   2

     energy             old  =    -380.5715973643 Ry
     energy             new  =    -380.5718921999 Ry

     CASE: energy            _new < energy            _old

     new trust radius        =       0.0193867089 bohr
     new conv_thr            =       0.0000000003 Ry


ATOMIC_POSITIONS (crystal)
Pb               0.0000000000        0.0000000000        1.0008654333
Ti               0.5000000000        0.5000000000        0.5372937479
O                0.5000000000        0.5000000000        0.1057846817
O                0.5000000000        0.0000000000        0.6116702126
O                0.0000000000        0.5000000000        0.6116702126



     Writing config-only to output data dir ./pto_k9.save/ :
     XML data file
     NEW-OLD atomic charge density approx. for the potential

     Check: negative core charge=   -0.000004

     negative rho (up, down):  1.492E-02 0.000E+00

     total cpu time spent up to now is       82.0 secs

     Self-consistent Calculation

     iteration #  1     ecut=    50.00 Ry     beta= 0.70
     CG style diagonalization
     c_bands:  1 eigenvalues not converged
     ethr =  1.00E-06,  avg # of iterations =  5.8

     negative rho (up, down):  1.489E-02 0.000E+00

     total cpu time spent up to now is       85.0 secs

     total energy              =    -380.57199688 Ry
     estimated scf accuracy    <       0.00005931 Ry

     iteration #  2     ecut=    50.00 Ry     beta= 0.70
     CG style diagonalization
     ethr =  1.35E-07,  avg # of iterations =  4.9

     negative rho (up, down):  1.489E-02 0.000E+00

     total cpu time spent up to now is       87.3 secs

     total energy              =    -380.57200078 Ry
     estimated scf accuracy    <       0.00014919 Ry

     iteration #  3     ecut=    50.00 Ry     beta= 0.70
     CG style diagonalization
     ethr =  1.35E-07,  avg # of iterations =  4.3

     negative rho (up, down):  1.489E-02 0.000E+00

     total cpu time spent up to now is       89.3 secs

     total energy              =    -380.57203167 Ry
     estimated scf accuracy    <       0.00001651 Ry

     iteration #  4     ecut=    50.00 Ry     beta= 0.70
     CG style diagonalization
     ethr =  3.75E-08,  avg # of iterations =  3.7

     negative rho (up, down):  1.489E-02 0.000E+00

     total cpu time spent up to now is       91.0 secs

     total energy              =    -380.57203544 Ry
     estimated scf accuracy    <       0.00000231 Ry

     iteration #  5     ecut=    50.00 Ry     beta= 0.70
     CG style diagonalization
     ethr =  5.26E-09,  avg # of iterations =  4.1

     negative rho (up, down):  1.489E-02 0.000E+00

     total cpu time spent up to now is       92.9 secs

     total energy              =    -380.57203654 Ry
     estimated scf accuracy    <       0.00000009 Ry

     iteration #  6     ecut=    50.00 Ry     beta= 0.70
     CG style diagonalization
     ethr =  2.12E-10,  avg # of iterations =  6.0

     negative rho (up, down):  1.489E-02 0.000E+00

     total cpu time spent up to now is       95.7 secs

     total energy              =    -380.57203671 Ry
     estimated scf accuracy    <       0.00000017 Ry

     iteration #  7     ecut=    50.00 Ry     beta= 0.70
     CG style diagonalization
     ethr =  2.12E-10,  avg # of iterations =  4.0

     negative rho (up, down):  1.489E-02 0.000E+00

     total cpu time spent up to now is       97.6 secs

     total energy              =    -380.57203672 Ry
     estimated scf accuracy    <       0.00000003 Ry

     iteration #  8     ecut=    50.00 Ry     beta= 0.70
     CG style diagonalization
     ethr =  7.48E-11,  avg # of iterations =  4.2

     negative rho (up, down):  1.489E-02 0.000E+00

     total cpu time spent up to now is       99.5 secs

     total energy              =    -380.57203674 Ry
     estimated scf accuracy    <          2.9E-09 Ry

     iteration #  9     ecut=    50.00 Ry     beta= 0.70
     CG style diagonalization
     ethr =  6.59E-12,  avg # of iterations =  6.3

     negative rho (up, down):  1.489E-02 0.000E+00

     total cpu time spent up to now is      102.5 secs

     total energy              =    -380.57203674 Ry
     estimated scf accuracy    <          3.3E-10 Ry

     iteration # 10     ecut=    50.00 Ry     beta= 0.70
     CG style diagonalization
     ethr =  7.41E-13,  avg # of iterations =  6.4

     negative rho (up, down):  1.489E-02 0.000E+00

     total cpu time spent up to now is      105.6 secs

     End of self-consistent calculation

          k = 0.0000 0.0000 0.0000 (  2525 PWs)   bands (ev):

   -45.7728 -22.4645 -22.3452 -22.3452  -7.5256  -6.4460  -6.2227  -5.0222
    -5.0222  -4.9890  -4.8834  -4.7403   4.2018   6.2995   6.2995   6.7295
     8.1104   8.1104   8.4839   8.6336   8.9381   8.9381

          k = 0.0000 0.0000 0.1057 (  2533 PWs)   bands (ev):

   -45.7727 -22.4691 -22.3450 -22.3450  -7.4811  -6.4330  -6.2095  -5.0258
    -5.0258  -4.9887  -4.8810  -4.7561   3.9801   6.3114   6.3114   6.9015
     8.0530   8.0530   8.4635   8.5244   8.9660   8.9660

          k = 0.0000 0.0000 0.2114 (  2517 PWs)   bands (ev):

   -45.7725 -22.4807 -22.3445 -22.3445  -7.3648  -6.3992  -6.1774  -5.0347
    -5.0347  -4.9879  -4.8754  -4.7972   3.5434   6.3377   6.3377   6.9169
     7.9336   7.9336   8.4133   8.6537   9.0223   9.0223

          k = 0.0000 0.0000 0.3171 (  2510 PWs)   bands (ev):

   -45.7724 -22.4939 -22.3440 -22.3440  -7.2251  -6.3584  -6.1444  -5.0448
    -5.0448  -4.9871  -4.8696  -4.8461   3.1609   6.3593   6.3593   6.5348
     7.8315   7.8315   8.3578   9.0723   9.0723   9.2867

          k = 0.0000 0.0000 0.4228 (  2538 PWs)   bands (ev):

   -45.7722 -22.5025 -22.3437 -22.3437  -7.1285  -6.3304  -6.1257  -5.0514
    -5.0514  -4.9865  -4.8795  -4.8661   2.9500   6.2310   6.3679   6.3679
     7.7806   7.7806   8.3223   9.1005   9.1005   9.8974

          k = 0.0000 0.1111 0.0000 (  2525 PWs)   bands (ev):

   -45.7726 -22.4641 -22.3533 -22.3448  -7.4638  -6.4330  -6.2111  -5.0333
    -5.0216  -4.9949  -4.8820  -4.7348   3.9897   6.3232   6.3494   6.7700
     8.0569   8.1225   8.4890   8.6220   8.7552   8.9645

          k = 0.0000 0.1111 0.1057 (  2522 PWs)   bands (ev):

   -45.7725 -22.4687 -22.3531 -22.3446  -7.4206  -6.4218  -6.1977  -5.0349
    -5.0252  -4.9947  -4.8802  -4.7471   3.8111   6.2875   6.3623   6.9276
     7.9585   8.0596   8.4971   8.5196   8.7897   8.9980

          k = 0.0000 0.1111 0.2114 (  2517 PWs)   bands (ev):

   -45.7724 -22.4803 -22.3526 -22.3442  -7.3082  -6.3924  -6.1644  -5.0385
    -5.0342  -4.9941  -4.8766  -4.7787   3.4352   6.2358   6.3908   6.9886
     7.7414   7.9344   8.4668   8.5362   8.8549   9.1597

          k = 0.0000 0.1111 0.3171 (  2523 PWs)   bands (ev):

   -45.7722 -22.4935 -22.3520 -22.3436  -7.1746  -6.3573  -6.1284  -5.0445
    -5.0418  -4.9934  -4.8745  -4.8155   3.0891   6.1320   6.4140   6.7205
     7.6349   7.8320   8.5258   8.6073   8.9098   9.5388

          k = 0.0000 0.1111 0.4228 (  2524 PWs)   bands (ev):

   -45.7721 -22.5020 -22.3517 -22.3433  -7.0834  -6.3331  -6.1064  -5.0511
    -5.0438  -4.9929  -4.8744  -4.8397   2.8937   5.9845   6.4230   6.5551
     7.6003   7.7829   8.5113   8.6886   8.9400   9.9409

          k = 0.0000 0.2222 0.0000 (  2507 PWs)   bands (ev):

   -45.7722 -22.4632 -22.3737 -22.3440  -7.3004  -6.4008  -6.1843  -5.0556
    -5.0199  -5.0098  -4.8774  -4.7288   3.5719   6.3246   6.4905   6.6092
     8.1417   8.1463   8.3625   8.4227   8.6081   9.0555

          k = 0.0000 0.2222 0.1057 (  2514 PWs)   bands (ev):

   -45.7722 -22.4678 -22.3735 -22.3438  -7.2617  -6.3932  -6.1696  -5.0526
    -5.0237  -5.0097  -4.8759  -4.7330   3.4554   6.2341   6.5064   6.7203
     7.9871   8.0463   8.3538   8.4318   8.5476   9.1833

          k = 0.0000 0.2222 0.2114 (  2513 PWs)   bands (ev):

   -45.7720 -22.4793 -22.3730 -22.3433  -7.1633  -6.3728  -6.1307  -5.0432
    -5.0330  -5.0095  -4.8766  -4.7418   3.1870   6.0902   6.5408   6.8099
     7.6610   7.9039   8.0370   8.5215   8.7176   9.4112

          k = 0.0000 0.2222 0.3171 (  2518 PWs)   bands (ev):

   -45.7718 -22.4924 -22.3723 -22.3428  -7.0521  -6.3459  -6.0834  -5.0436
    -5.0305  -5.0092  -4.8841  -4.7487   2.9176   5.9002   6.5674   6.7206
     7.3976   7.8065   7.9343   8.5835   8.8481   9.6492

          k = 0.0000 0.2222 0.4228 (  2510 PWs)   bands (ev):

   -45.7717 -22.5008 -22.3719 -22.3424  -6.9811  -6.3246  -6.0508  -5.0505
    -5.0215  -5.0090  -4.8915  -4.7524   2.7579   5.7273   6.5762   6.6114
     7.3046   7.7666   7.9399   8.6153   8.9015   9.8101

          k = 0.0000 0.3333 0.0000 (  2514 PWs)   bands (ev):

   -45.7718 -22.4622 -22.3969 -22.3430  -7.0998  -6.3603  -6.1658  -5.0752
    -5.0268  -5.0179  -4.8619  -4.7408   3.2170   5.9852   6.6636   6.6992
     7.8307   7.8785   8.2309   8.3338   8.6785   9.5977

          k = 0.0000 0.3333 0.1057 (  2512 PWs)   bands (ev):

   -45.7717 -22.4667 -22.3967 -22.3428  -7.0699  -6.3532  -6.1492  -5.0685
    -5.0269  -5.0217  -4.8577  -4.7373   3.1378   5.9610   6.6528   6.7207
     7.6425   7.8197   8.2640   8.4097   8.5209   9.6548

          k = 0.0000 0.3333 0.2114 (  2505 PWs)   bands (ev):

   -45.7716 -22.4781 -22.3960 -22.3423  -7.0000  -6.3315  -6.1007  -5.0499
    -5.0318  -5.0268  -4.8593  -4.7194   2.9469   5.8821   6.5860   6.7655
     7.3320   7.7187   7.9652   8.3173   8.8102   9.6860

          k = 0.0000 0.3333 0.3171 (  2508 PWs)   bands (ev):

   -45.7714 -22.4910 -22.3953 -22.3418  -6.9328  -6.2969  -6.0348  -5.0427
    -5.0270  -5.0256  -4.8770  -4.6896   2.7445   5.7192   6.4390   6.7940
     7.1936   7.5813   7.6608   8.3563   9.0948   9.6193

          k = 0.0000 0.3333 0.4228 (  2521 PWs)   bands (ev):

   -45.7713 -22.4994 -22.3948 -22.3414  -6.8973  -6.2673  -5.9849  -5.0499
    -5.0271  -5.0068  -4.8952  -4.6685   2.6198   5.5473   6.3499   6.7969
     7.1710   7.4010   7.6514   8.3762   9.2321   9.5578

          k = 0.0000 0.4444 0.0000 (  2498 PWs)   bands (ev):

   -45.7715 -22.4614 -22.4120 -22.3424  -6.9576  -6.3213  -6.1733  -5.0862
    -5.0377  -5.0167  -4.8292  -4.7749   3.0323   5.6846   6.8572   6.9211
     7.4431   7.5389   8.2563   8.2625   8.7073  10.2253

          k = 0.0000 0.4444 0.1057 (  2511 PWs)   bands (ev):

   -45.7714 -22.4659 -22.4118 -22.3422  -6.9385  -6.3078  -6.1571  -5.0787
    -5.0379  -5.0206  -4.8182  -4.7697   2.9690   5.6789   6.8082   6.9569
     7.2493   7.4937   8.2655   8.4311   8.5056  10.1370

          k = 0.0000 0.4444 0.2114 (  2517 PWs)   bands (ev):

   -45.7713 -22.4772 -22.4111 -22.3417  -6.9003  -6.2710  -6.1022  -5.0588
    -5.0383  -5.0307  -4.8270  -4.7238   2.8143   5.6511   6.6332   6.9210
     7.0354   7.4051   8.0591   8.2833   8.8080   9.8931

          k = 0.0000 0.4444 0.3171 (  2510 PWs)   bands (ev):

   -45.7711 -22.4901 -22.4103 -22.3411  -6.8744  -6.2241  -6.0161  -5.0421
    -5.0386  -5.0335  -4.8548  -4.6618   2.6472   5.5630   6.2709   6.8739
     7.0661   7.3824   7.6528   8.2977   9.1386   9.6180

          k = 0.0000 0.4444 0.4228 (  2524 PWs)   bands (ev):

   -45.7710 -22.4985 -22.4098 -22.3408  -6.8662  -6.1910  -5.9469  -5.0494
    -5.0389  -5.0140  -4.8781  -4.6225   2.5428   5.4325   6.0919   6.9055
     7.0384   7.4227   7.4252   8.3051   9.2000   9.5560

          k = 0.1111 0.1111 0.0000 (  2513 PWs)   bands (ev):

   -45.7725 -22.4638 -22.3530 -22.3528  -7.4026  -6.4198  -6.2037  -5.0345
    -5.0306  -5.0002  -4.8742  -4.7294   3.8163   6.3088   6.4095   6.8018
     7.8496   8.2106   8.3511   8.5397   8.9356   8.9534

          k = 0.1111 0.1111 0.1057 (  2509 PWs)   bands (ev):

   -45.7724 -22.4684 -22.3528 -22.3526  -7.3604  -6.4103  -6.1904  -5.0349
    -5.0335  -5.0000  -4.8724  -4.7386   3.6724   6.2906   6.3389   6.9580
     7.8008   8.0808   8.3277   8.5667   8.9388   8.9544

          k = 0.1111 0.1111 0.2114 (  2520 PWs)   bands (ev):

   -45.7722 -22.4799 -22.3523 -22.3522  -7.2514  -6.3857  -6.1567  -5.0454
    -5.0295  -4.9996  -4.8692  -4.7630   3.3513   6.2390   6.2741   7.0221
     7.7139   7.7931   8.3176   8.6058   8.9492   9.1491

          k = 0.1111 0.1111 0.3171 (  2527 PWs)   bands (ev):

   -45.7721 -22.4931 -22.3518 -22.3516  -7.1230  -6.3568  -6.1186  -5.0567
    -5.0218  -4.9993  -4.8686  -4.7924   3.0401   6.1585   6.1719   6.8201
     7.6566   7.6800   8.3371   8.6195   8.9661   9.5437

          k = 0.1111 0.1111 0.4228 (  2515 PWs)   bands (ev):

   -45.7719 -22.5016 -22.3514 -22.3513  -7.0364  -6.3373  -6.0940  -5.0636
    -5.0143  -4.9996  -4.8703  -4.8126   2.8596   5.9857   6.1245   6.7235
     7.6354   7.6530   8.3593   8.6173   8.9802   9.8753

          k = 0.1111 0.2222 0.0000 (  2506 PWs)   bands (ev):

   -45.7721 -22.4629 -22.3734 -22.3520  -7.2411  -6.3871  -6.1880  -5.0565
    -5.0285  -5.0057  -4.8604  -4.7235   3.4521   6.2880   6.5373   6.6443
     7.7732   7.8673   8.3953   8.5552   8.8007   9.1880

          k = 0.1111 0.2222 0.1057 (  2506 PWs)   bands (ev):

   -45.7720 -22.4674 -22.3732 -22.3519  -7.2028  -6.3816  -6.1740  -5.0531
    -5.0314  -5.0047  -4.8580  -4.7254   3.3639   6.2267   6.3814   6.8065
     7.6643   7.8850   8.3108   8.6018   8.7422   9.2378

          k = 0.1111 0.2222 0.2114 (  2507 PWs)   bands (ev):

   -45.7719 -22.4789 -22.3726 -22.3514  -7.1062  -6.3672  -6.1366  -5.0492
    -5.0320  -5.0013  -4.8555  -4.7297   3.1473   6.0723   6.2895   6.8498
     7.4770   7.6817   8.2580   8.6483   8.7908   9.3794

          k = 0.1111 0.2222 0.3171 (  2519 PWs)   bands (ev):

   -45.7717 -22.4919 -22.3720 -22.3508  -6.9978  -6.3487  -6.0895  -5.0551
    -5.0204  -4.9929  -4.8601  -4.7340   2.9150   5.8858   6.2309   6.6926
     7.3246   7.5600   8.2060   8.6920   8.9110   9.5498

          k = 0.1111 0.2222 0.4228 (  2518 PWs)   bands (ev):

   -45.7716 -22.5004 -22.3716 -22.3504  -6.9290  -6.3348  -6.0555  -5.0597
    -5.0139  -4.9804  -4.8685  -4.7368   2.7716   5.7296   6.1534   6.5960
     7.3053   7.5190   8.1624   8.7215   8.9696   9.6516

          k = 0.1111 0.3333 0.0000 (  2510 PWs)   bands (ev):

   -45.7716 -22.4618 -22.3965 -22.3510  -7.0434  -6.3473  -6.1816  -5.0734
    -5.0229  -5.0061  -4.8439  -4.7348   3.1258   5.9895   6.5797   6.7777
     7.4374   7.8697   8.0743   8.5525   8.7927   9.6420

          k = 0.1111 0.3333 0.1057 (  2507 PWs)   bands (ev):

   -45.7716 -22.4663 -22.3963 -22.3509  -7.0132  -6.3433  -6.1665  -5.0674
    -5.0256  -5.0038  -4.8387  -4.7292   3.0736   5.9642   6.4059   6.8242
     7.3615   7.8602   8.0888   8.5988   8.6802   9.6390

          k = 0.1111 0.3333 0.2114 (  2504 PWs)   bands (ev):

   -45.7714 -22.4777 -22.3956 -22.3504  -6.9426  -6.3299  -6.1218  -5.0543
    -5.0294  -4.9965  -4.8351  -4.7086   2.9375   5.8746   6.2377   6.7065
     7.1076   7.7415   8.2020   8.4309   8.8642   9.5826

          k = 0.1111 0.3333 0.3171 (  2516 PWs)   bands (ev):

   -45.7712 -22.4906 -22.3949 -22.3498  -6.8756  -6.3067  -6.0587  -5.0511
    -5.0224  -4.9820  -4.8453  -4.6781   2.7791   5.6977   6.1849   6.5259
     6.8017   7.6298   8.2808   8.3633   9.0905   9.4624

          k = 0.1111 0.3333 0.4228 (  2517 PWs)   bands (ev):

   -45.7711 -22.4990 -22.3945 -22.3494  -6.8409  -6.2863  -6.0095  -5.0535
    -5.0153  -4.9645  -4.8601  -4.6569   2.6754   5.5271   6.1963   6.3731
     6.6839   7.5851   8.2370   8.4163   9.1392   9.4280

          k = 0.1111 0.4444 0.0000 (  2519 PWs)   bands (ev):

   -45.7714 -22.4610 -22.4116 -22.3504  -6.9037  -6.3095  -6.1967  -5.0792
    -5.0186  -5.0047  -4.8157  -4.7679   2.9508   5.6931   6.6840   7.0493
     7.1621   7.5716   8.0131   8.5155   8.8142  10.0912

          k = 0.1111 0.4444 0.1057 (  2514 PWs)   bands (ev):

   -45.7713 -22.4655 -22.4113 -22.3502  -6.8832  -6.2999  -6.1828  -5.0722
    -5.0210  -5.0024  -4.8046  -4.7597   2.9145   5.6864   6.4499   6.9458
     7.2601   7.5657   8.0363   8.6080   8.6663   9.9762

          k = 0.1111 0.4444 0.2114 (  2519 PWs)   bands (ev):

   -45.7711 -22.4769 -22.4106 -22.3497  -6.8430  -6.2735  -6.1329  -5.0567
    -5.0233  -4.9969  -4.8062  -4.7127   2.8172   5.6544   6.2211   6.5750
     7.0573   7.7792   7.9888   8.4539   8.8713   9.6819

          k = 0.1111 0.4444 0.3171 (  2509 PWs)   bands (ev):

   -45.7710 -22.4897 -22.4099 -22.3491  -6.8170  -6.2396  -6.0514  -5.0504
    -5.0119  -4.9883  -4.8240  -4.6509   2.6996   5.5563   6.1146   6.2571
     6.7418   7.7893   8.0547   8.3477   9.0541   9.4518

          k = 0.1111 0.4444 0.4228 (  2524 PWs)   bands (ev):

   -45.7708 -22.4981 -22.4094 -22.3488  -6.8097  -6.2162  -5.9846  -5.0517
    -4.9997  -4.9769  -4.8412  -4.6116   2.6201   5.4175   6.0326   6.1999
     6.5406   7.7406   8.1380   8.2993   8.9029   9.5468

          k = 0.2222 0.2222 0.0000 (  2508 PWs)   bands (ev):

   -45.7717 -22.4620 -22.3726 -22.3722  -7.0862  -6.3534  -6.1989  -5.0588
    -5.0347  -4.9914  -4.8277  -4.7168   3.1748   6.2582   6.4934   6.7125
     7.3918   7.4581   8.4383   8.5506   8.9383   9.4235

          k = 0.2222 0.2222 0.1057 (  2510 PWs)   bands (ev):

   -45.7716 -22.4665 -22.3724 -22.3720  -7.0500  -6.3531  -6.1865  -5.0530
    -5.0375  -4.9876  -4.8231  -4.7127   3.1386   6.1758   6.2876   6.7047
     7.3819   7.5177   8.4282   8.5693   8.9535   9.3702

          k = 0.2222 0.2222 0.2114 (  2500 PWs)   bands (ev):

   -45.7715 -22.4779 -22.3718 -22.3715  -6.9603  -6.3526  -6.1510  -5.0431
    -5.0376  -4.9758  -4.8135  -4.7035   3.0337   5.9733   6.0342   6.6327
     7.2800   7.3347   8.4310   8.7785   9.0067   9.2985

          k = 0.2222 0.2222 0.3171 (  2517 PWs)   bands (ev):

   -45.7713 -22.4909 -22.3712 -22.3709  -6.8636  -6.3522  -6.1009  -5.0472
    -5.0216  -4.9541  -4.8087  -4.6950   2.8961   5.7599   5.9028   6.4248
     7.0528   7.2286   8.4860   8.8889   9.0970   9.2682

          k = 0.2222 0.2222 0.4228 (  2520 PWs)   bands (ev):

   -45.7712 -22.4993 -22.3708 -22.3705  -6.8050  -6.3521  -6.0608  -5.0486
    -5.0131  -4.9310  -4.8119  -4.6905   2.7993   5.6309   5.8084   6.2662
     6.9650   7.2110   8.4692   8.9259   9.1571   9.2319

          k = 0.2222 0.3333 0.0000 (  2520 PWs)   bands (ev):

   -45.7713 -22.4609 -22.3954 -22.3713  -6.9004  -6.3152  -6.2170  -5.0616
    -5.0238  -4.9646  -4.7998  -4.7258   2.8995   6.0073   6.4149   6.8972
     7.0099   7.4724   8.0512   8.6432   9.0328   9.6133

          k = 0.2222 0.3333 0.1057 (  2518 PWs)   bands (ev):

   -45.7712 -22.4654 -22.3952 -22.3711  -6.8688  -6.3188  -6.2065  -5.0546
    -5.0245  -4.9578  -4.7922  -4.7146   2.9008   5.9675   6.2212   6.5481
     7.1489   7.5364   8.1990   8.5982   9.0422   9.5088

          k = 0.2222 0.3333 0.2114 (  2512 PWs)   bands (ev):

   -45.7710 -22.4767 -22.3946 -22.3706  -6.7961  -6.3261  -6.1714  -5.0397
    -5.0220  -4.9400  -4.7764  -4.6848   2.8917   5.8167   5.8713   6.3192
     6.9403   7.3828   8.4427   8.7705   9.0842   9.2688

          k = 0.2222 0.3333 0.3171 (  2508 PWs)   bands (ev):

   -45.7709 -22.4896 -22.3940 -22.3700  -6.7304  -6.3306  -6.1132  -5.0337
    -5.0067  -4.9154  -4.7648  -4.6495   2.8570   5.5909   5.6695   6.1611
     6.6067   7.1882   8.5441   8.9100   9.0169   9.2640

          k = 0.2222 0.3333 0.4228 (  2512 PWs)   bands (ev):

   -45.7708 -22.4980 -22.3935 -22.3696  -6.6987  -6.3315  -6.0629  -5.0323
    -4.9941  -4.8939  -4.7621  -4.6263   2.8201   5.4186   5.6282   6.0136
     6.4183   7.1350   8.4264   8.8978   9.0152   9.3882

          k = 0.2222 0.4444 0.0000 (  2527 PWs)   bands (ev):

   -45.7710 -22.4601 -22.4105 -22.3706  -6.7721  -6.2820  -6.2414  -5.0601
    -5.0142  -4.9322  -4.7795  -4.7534   2.7411   5.7090   6.5213   6.7100
     7.1771   7.5658   7.6263   8.7311   9.0240   9.7183

          k = 0.2222 0.4444 0.1057 (  2518 PWs)   bands (ev):

   -45.7709 -22.4646 -22.4102 -22.3704  -6.7465  -6.2828  -6.2346  -5.0526
    -5.0138  -4.9236  -4.7704  -4.7363   2.7595   5.7000   6.2093   6.4756
     7.1354   7.6722   7.8686   8.6711   9.0442   9.5487

          k = 0.2222 0.4444 0.2114 (  2514 PWs)   bands (ev):

   -45.7708 -22.4759 -22.4096 -22.3699  -6.6970  -6.2817  -6.2011  -5.0365
    -5.0078  -4.9047  -4.7553  -4.6846   2.7988   5.6531   5.7657   6.1365
     6.8491   7.4926   8.2967   8.7680   9.1311   9.1676

          k = 0.2222 0.4444 0.3171 (  2504 PWs)   bands (ev):

   -45.7706 -22.4887 -22.4089 -22.3693  -6.6694  -6.2779  -6.1303  -5.0278
    -4.9885  -4.8841  -4.7430  -4.6228   2.8262   5.5021   5.5190   5.8777
     6.4916   7.2706   8.2932   8.8705   8.9685   9.3581

          k = 0.2222 0.4444 0.4228 (  2510 PWs)   bands (ev):

   -45.7705 -22.4971 -22.4084 -22.3689  -6.6650  -6.2756  -6.0667  -5.0250
    -4.9714  -4.8692  -4.7368  -4.5830   2.8313   5.3405   5.4337   5.7827
     6.2432   7.2023   8.0276   8.8983   8.9818   9.5552

          k = 0.3333 0.3333 0.0000 (  2522 PWs)   bands (ev):

   -45.7708 -22.4598 -22.3944 -22.3941  -6.7413  -6.2789  -6.2471  -5.0494
    -5.0070  -4.9131  -4.7531  -4.7308   2.6537   5.9480   6.1235   6.8989
     7.0859   7.1572   7.9182   8.4837   9.3670   9.3935

          k = 0.3333 0.3333 0.1057 (  2507 PWs)   bands (ev):

   -45.7708 -22.4642 -22.3942 -22.3939  -6.7072  -6.2898  -6.2443  -5.0410
    -5.0059  -4.9010  -4.7426  -4.7130   2.6957   5.9211   6.0280   6.3264
     6.8871   7.5034   8.2973   8.3650   9.2207   9.3696

          k = 0.3333 0.3333 0.2114 (  2520 PWs)   bands (ev):

   -45.7706 -22.4756 -22.3936 -22.3934  -6.6318  -6.3168  -6.2237  -5.0194
    -5.0029  -4.8713  -4.7147  -4.6688   2.8023   5.6719   5.7363   5.9712
     6.6569   7.2049   8.4373   8.8363   8.9455   9.3773

          k = 0.3333 0.3333 0.3171 (  2506 PWs)   bands (ev):

   -45.7704 -22.4884 -22.3929 -22.3928  -6.5724  -6.3460  -6.1690  -4.9994
    -4.9951  -4.8369  -4.6817  -4.6196   2.9190   5.3447   5.4104   5.8535
     6.5808   6.6711   8.0638   9.1262   9.2189   9.3947

          k = 0.3333 0.3333 0.4228 (  2505 PWs)   bands (ev):

   -45.7703 -22.4967 -22.3925 -22.3924  -6.5504  -6.3643  -6.1140  -4.9970
    -4.9795  -4.8122  -4.6606  -4.5882   2.9872   5.2176   5.2185   5.7247
     6.3896   6.5596   7.7219   9.2671   9.3512   9.4565

          k = 0.3333 0.4444 0.0000 (  2514 PWs)   bands (ev):

   -45.7706 -22.4590 -22.4092 -22.3935  -6.6456  -6.2624  -6.2478  -5.0429
    -4.9882  -4.8580  -4.7592  -4.7235   2.5015   5.6723   6.1504   6.7470
     7.1865   7.3165   7.6172   8.4710   9.1387   9.5406

          k = 0.3333 0.4444 0.1057 (  2523 PWs)   bands (ev):

   -45.7705 -22.4634 -22.4090 -22.3932  -6.6093  -6.2724  -6.2568  -5.0341
    -4.9862  -4.8405  -4.7411  -4.7075   2.5618   5.6636   6.0668   6.2441
     6.7571   7.6819   8.0124   8.4349   8.9276   9.5290

          k = 0.3333 0.4444 0.2114 (  2516 PWs)   bands (ev):

   -45.7703 -22.4747 -22.4084 -22.3927  -6.5339  -6.2933  -6.2623  -5.0124
    -4.9812  -4.8033  -4.6983  -4.6579   2.7262   5.5790   5.6725   5.7731
     6.4667   7.2633   8.1444   8.8261   8.8535   9.5219

          k = 0.3333 0.4444 0.3171 (  2504 PWs)   bands (ev):

   -45.7702 -22.4875 -22.4077 -22.3921  -6.4969  -6.3196  -6.2094  -4.9907
    -4.9728  -4.7681  -4.6503  -4.5940   2.9379   5.1892   5.3676   5.6065
     6.3405   6.7372   7.5416   9.1996   9.2874   9.5253

          k = 0.3333 0.4444 0.4228 (  2500 PWs)   bands (ev):

   -45.7700 -22.4959 -22.4073 -22.3917  -6.4983  -6.3370  -6.1450  -4.9825
    -4.9616  -4.7457  -4.6185  -4.5514   3.0924   4.9951   5.1464   5.5273
     6.2009   6.5397   7.1057   9.3629   9.4927   9.5769

          k = 0.4444 0.4444 0.0000 (  2512 PWs)   bands (ev):

   -45.7703 -22.4582 -22.4084 -22.4083  -6.5930  -6.2364  -6.2314  -5.0345
    -4.9568  -4.8012  -4.7690  -4.6982   2.3466   5.5274   6.0321   6.8970
     6.9573   7.4507   7.5675   8.2876   8.7554   9.7587

          k = 0.4444 0.4444 0.1057 (  2517 PWs)   bands (ev):

   -45.7702 -22.4626 -22.4082 -22.4081  -6.5495  -6.2534  -6.2501  -5.0256
    -4.9555  -4.7748  -4.7396  -4.6888   2.4250   5.5187   6.0062   6.3480
     6.4576   7.8193   8.1242   8.1554   8.4768   9.7559

          k = 0.4444 0.4444 0.2114 (  2525 PWs)   bands (ev):

   -45.7701 -22.4739 -22.4076 -22.4076  -6.4428  -6.2947  -6.2886  -5.0030
    -4.9529  -4.7198  -4.6670  -4.6537   2.6492   5.4818   5.7030   5.7078
     6.1294   7.2429   7.6899   8.8204   8.8207   9.7488

          k = 0.4444 0.4444 0.3171 (  2509 PWs)   bands (ev):

   -45.7699 -22.4867 -22.4070 -22.4070  -6.3783  -6.3414  -6.2653  -4.9774
    -4.9506  -4.6794  -4.5912  -4.5870   2.9707   5.1952   5.2634   5.4529
     6.1019   6.6189   6.8970   9.3199   9.3320   9.7406

          k = 0.4444 0.4444 0.4228 (  2498 PWs)   bands (ev):

   -45.7698 -22.4950 -22.4066 -22.4066  -6.3920  -6.3700  -6.1912  -4.9607
    -4.9493  -4.6574  -4.5448  -4.5361   3.2501   4.9377   5.0200   5.3789
     6.0990   6.2477   6.3825   9.5694   9.5867   9.7345

     highest occupied level (ev):    10.2253

!    total energy              =    -380.57203674 Ry
     estimated scf accuracy    <          1.2E-10 Ry

     The total energy is the sum of the following terms:
     one-electron contribution =     -84.95726917 Ry
     hartree contribution      =      71.62708077 Ry
     xc contribution           =    -102.57222231 Ry
     ewald contribution        =    -264.66962603 Ry

     convergence has been achieved in  10 iterations

     negative rho (up, down):  1.489E-02 0.000E+00

     Forces acting on atoms (cartesian axes, Ry/au):

     atom    1 type  1   force =     0.00000000    0.00000000   -0.00703451
     atom    2 type  2   force =     0.00000000    0.00000000    0.00536856
     atom    3 type  3   force =     0.00000000    0.00000000   -0.00363983
     atom    4 type  3   force =     0.00000000    0.00000000    0.00265289
     atom    5 type  3   force =     0.00000000    0.00000000    0.00265289

     Total force =     0.010278     Total SCF correction =     0.000017


     Computing stress (Cartesian axis) and pressure


     negative rho (up, down):  1.489E-02 0.000E+00
          total   stress  (Ry/bohr**3)                   (kbar)     P=      -49.64
  -0.00038910   0.00000000   0.00000000          -57.24        0.00        0.00
   0.00000000  -0.00038910   0.00000000            0.00      -57.24        0.00
   0.00000000   0.00000000  -0.00023415            0.00        0.00      -34.45

     Energy error            =      1.4E-04 Ry
     Gradient error          =      7.0E-03 Ry/Bohr

     number of scf cycles    =   4
     number of bfgs steps    =   3

     energy             old  =    -380.5718921999 Ry
     energy             new  =    -380.5720367416 Ry

     CASE: energy            _new < energy            _old

     new trust radius        =       0.0329820810 bohr
     new conv_thr            =       0.0000000001 Ry


ATOMIC_POSITIONS (crystal)
Pb               0.0000000000        0.0000000000        0.9966085148
Ti               0.5000000000        0.5000000000        0.5377334507
O                0.5000000000        0.5000000000        0.1074556807
O                0.5000000000        0.0000000000        0.6127433209
O                0.0000000000        0.5000000000        0.6127433209



     Writing config-only to output data dir ./pto_k9.save/ :
     XML data file
     NEW-OLD atomic charge density approx. for the potential

     Check: negative core charge=   -0.000004

     negative rho (up, down):  1.529E-02 0.000E+00

     total cpu time spent up to now is      108.0 secs

     Self-consistent Calculation

     iteration #  1     ecut=    50.00 Ry     beta= 0.70
     CG style diagonalization
     c_bands:  1 eigenvalues not converged
     c_bands:  1 eigenvalues not converged
     c_bands:  2 eigenvalues not converged
     c_bands:  1 eigenvalues not converged
     ethr =  1.00E-06,  avg # of iterations =  6.8

     negative rho (up, down):  1.524E-02 0.000E+00

     total cpu time spent up to now is      111.5 secs

     total energy              =    -380.57217849 Ry
     estimated scf accuracy    <       0.00004981 Ry

     iteration #  2     ecut=    50.00 Ry     beta= 0.70
     CG style diagonalization
     ethr =  1.13E-07,  avg # of iterations =  4.6

     negative rho (up, down):  1.522E-02 0.000E+00

     total cpu time spent up to now is      113.6 secs

     total energy              =    -380.57219058 Ry
     estimated scf accuracy    <       0.00003625 Ry

     iteration #  3     ecut=    50.00 Ry     beta= 0.70
     CG style diagonalization
     ethr =  8.24E-08,  avg # of iterations =  4.3

     negative rho (up, down):  1.521E-02 0.000E+00

     total cpu time spent up to now is      115.6 secs

     total energy              =    -380.57220047 Ry
     estimated scf accuracy    <       0.00002927 Ry

     iteration #  4     ecut=    50.00 Ry     beta= 0.70
     CG style diagonalization
     ethr =  6.65E-08,  avg # of iterations =  3.6

     negative rho (up, down):  1.521E-02 0.000E+00

     total cpu time spent up to now is      117.3 secs

     total energy              =    -380.57220499 Ry
     estimated scf accuracy    <       0.00000041 Ry

     iteration #  5     ecut=    50.00 Ry     beta= 0.70
     CG style diagonalization
     ethr =  9.21E-10,  avg # of iterations =  6.0

     negative rho (up, down):  1.521E-02 0.000E+00

     total cpu time spent up to now is      120.1 secs

     total energy              =    -380.57220625 Ry
     estimated scf accuracy    <       0.00000040 Ry

     iteration #  6     ecut=    50.00 Ry     beta= 0.70
     CG style diagonalization
     ethr =  9.18E-10,  avg # of iterations =  3.5

     negative rho (up, down):  1.521E-02 0.000E+00

     total cpu time spent up to now is      121.7 secs

     total energy              =    -380.57220628 Ry
     estimated scf accuracy    <       0.00000008 Ry

     iteration #  7     ecut=    50.00 Ry     beta= 0.70
     CG style diagonalization
     ethr =  1.73E-10,  avg # of iterations =  4.7

     negative rho (up, down):  1.521E-02 0.000E+00

     total cpu time spent up to now is      123.9 secs

     total energy              =    -380.57220633 Ry
     estimated scf accuracy    <          6.9E-09 Ry

     iteration #  8     ecut=    50.00 Ry     beta= 0.70
     CG style diagonalization
     ethr =  1.58E-11,  avg # of iterations =  6.6

     negative rho (up, down):  1.521E-02 0.000E+00

     total cpu time spent up to now is      127.1 secs

     total energy              =    -380.57220634 Ry
     estimated scf accuracy    <          1.7E-09 Ry

     iteration #  9     ecut=    50.00 Ry     beta= 0.70
     CG style diagonalization
     ethr =  3.89E-12,  avg # of iterations =  5.4

     negative rho (up, down):  1.521E-02 0.000E+00

     total cpu time spent up to now is      129.6 secs

     total energy              =    -380.57220634 Ry
     estimated scf accuracy    <          4.2E-10 Ry

     iteration # 10     ecut=    50.00 Ry     beta= 0.70
     CG style diagonalization
     ethr =  9.55E-13,  avg # of iterations =  5.6

     negative rho (up, down):  1.521E-02 0.000E+00

     total cpu time spent up to now is      132.3 secs

     total energy              =    -380.57220634 Ry
     estimated scf accuracy    <          1.8E-10 Ry

     iteration # 11     ecut=    50.00 Ry     beta= 0.70
     CG style diagonalization
     ethr =  4.15E-13,  avg # of iterations =  4.6

     negative rho (up, down):  1.521E-02 0.000E+00

     total cpu time spent up to now is      134.4 secs

     End of self-consistent calculation

          k = 0.0000 0.0000 0.0000 (  2525 PWs)   bands (ev):

   -45.7714 -22.4679 -22.3453 -22.3453  -7.5497  -6.4804  -6.2174  -5.0082
    -5.0082  -4.9713  -4.8776  -4.7116   4.2020   6.2771   6.2771   6.7776
     8.0979   8.0979   8.4689   8.6144   8.9082   8.9082

          k = 0.0000 0.0000 0.1057 (  2533 PWs)   bands (ev):

   -45.7714 -22.4725 -22.3451 -22.3451  -7.5062  -6.4680  -6.2036  -5.0117
    -5.0117  -4.9710  -4.8748  -4.7268   3.9840   6.2884   6.2884   6.9445
     8.0416   8.0416   8.4486   8.5070   8.9358   8.9358

          k = 0.0000 0.0000 0.2114 (  2517 PWs)   bands (ev):

   -45.7712 -22.4841 -22.3446 -22.3446  -7.3927  -6.4357  -6.1699  -5.0206
    -5.0206  -4.9703  -4.8678  -4.7663   3.5514   6.3129   6.3129   6.9447
     7.9247   7.9247   8.3984   8.6466   8.9913   8.9913

          k = 0.0000 0.0000 0.3171 (  2510 PWs)   bands (ev):

   -45.7710 -22.4973 -22.3441 -22.3441  -7.2570  -6.3971  -6.1343  -5.0307
    -5.0307  -4.9694  -4.8602  -4.8130   3.1705   6.3324   6.3324   6.5533
     7.8256   7.8256   8.3429   9.0400   9.0400   9.2843

          k = 0.0000 0.0000 0.4228 (  2538 PWs)   bands (ev):

   -45.7709 -22.5059 -22.3438 -22.3438  -7.1638  -6.3706  -6.1132  -5.0373
    -5.0373  -4.9689  -4.8555  -4.8448   2.9599   6.2478   6.3397   6.3397
     7.7767   7.7767   8.3075   9.0672   9.0672   9.8922

          k = 0.0000 0.1111 0.0000 (  2525 PWs)   bands (ev):

   -45.7713 -22.4675 -22.3534 -22.3449  -7.4878  -6.4678  -6.2072  -5.0193
    -5.0075  -4.9773  -4.8741  -4.7059   3.9909   6.3059   6.3266   6.7984
     8.0536   8.1097   8.4727   8.6017   8.7265   8.9408

          k = 0.0000 0.1111 0.1057 (  2522 PWs)   bands (ev):

   -45.7712 -22.4721 -22.3532 -22.3448  -7.4456  -6.4571  -6.1931  -5.0207
    -5.0111  -4.9770  -4.8721  -4.7177   3.8152   6.2693   6.3390   6.9518
     7.9543   8.0475   8.4795   8.5033   8.7611   8.9751

          k = 0.0000 0.1111 0.2114 (  2517 PWs)   bands (ev):

   -45.7710 -22.4837 -22.3527 -22.3443  -7.3360  -6.4290  -6.1581  -5.0236
    -5.0201  -4.9764  -4.8676  -4.7483   3.4433   6.2154   6.3657   7.0063
     7.7319   7.9246   8.4498   8.5216   8.8258   9.1441

          k = 0.0000 0.1111 0.3171 (  2523 PWs)   bands (ev):

   -45.7709 -22.4968 -22.3522 -22.3438  -7.2065  -6.3956  -6.1193  -5.0304
    -5.0263  -4.9757  -4.8639  -4.7840   3.0991   6.1151   6.3869   6.7272
     7.6268   7.8249   8.5119   8.5797   8.8796   9.5350

          k = 0.0000 0.1111 0.4228 (  2524 PWs)   bands (ev):

   -45.7707 -22.5054 -22.3518 -22.3434  -7.1186  -6.3727  -6.0950  -5.0370
    -5.0279  -4.9752  -4.8622  -4.8079   2.9041   5.9762   6.3948   6.5508
     7.5941   7.7776   8.4980   8.6540   8.9088   9.9410

          k = 0.0000 0.2222 0.0000 (  2507 PWs)   bands (ev):

   -45.7709 -22.4666 -22.3739 -22.3441  -7.3244  -6.4364  -6.1843  -5.0411
    -5.0058  -4.9921  -4.8645  -4.6995   3.5747   6.3020   6.4666   6.6204
     8.1301   8.1411   8.3336   8.4013   8.5885   9.0575

          k = 0.0000 0.2222 0.1057 (  2514 PWs)   bands (ev):

   -45.7708 -22.4712 -22.3737 -22.3439  -7.2866  -6.4290  -6.1689  -5.0376
    -5.0095  -4.9920  -4.8633  -4.7035   3.4601   6.2145   6.4820   6.7245
     7.9824   8.0322   8.3349   8.4061   8.5300   9.1826

          k = 0.0000 0.2222 0.2114 (  2513 PWs)   bands (ev):

   -45.7707 -22.4827 -22.3732 -22.3434  -7.1912  -6.4091  -6.1278  -5.0272
    -5.0189  -4.9918  -4.8638  -4.7121   3.1953   6.0695   6.5151   6.8109
     7.6530   7.8903   8.0197   8.4967   8.7013   9.4116

          k = 0.0000 0.2222 0.3171 (  2518 PWs)   bands (ev):

   -45.7705 -22.4957 -22.3725 -22.3429  -7.0839  -6.3830  -6.0775  -5.0295
    -5.0132  -4.9915  -4.8702  -4.7196   2.9283   5.8810   6.5401   6.7216
     7.3876   7.7947   7.9083   8.5583   8.8337   9.6543

          k = 0.0000 0.2222 0.4228 (  2510 PWs)   bands (ev):

   -45.7704 -22.5042 -22.3721 -22.3425  -7.0156  -6.3628  -6.0424  -5.0364
    -5.0033  -4.9913  -4.8769  -4.7237   2.7695   5.7117   6.5481   6.6092
     7.2973   7.7561   7.9048   8.5893   8.8882   9.8196

          k = 0.0000 0.3333 0.0000 (  2514 PWs)   bands (ev):

   -45.7704 -22.4655 -22.3972 -22.3431  -7.1239  -6.3962  -6.1711  -5.0593
    -5.0091  -5.0037  -4.8427  -4.7121   3.2210   5.9659   6.6616   6.6733
     7.8125   7.8613   8.2082   8.3132   8.6591   9.6148

          k = 0.0000 0.3333 0.1057 (  2512 PWs)   bands (ev):

   -45.7704 -22.4701 -22.3969 -22.3429  -7.0953  -6.3891  -6.1533  -5.0522
    -5.0094  -5.0073  -4.8396  -4.7080   3.1434   5.9414   6.6474   6.6945
     7.6250   7.8013   8.2430   8.3928   8.5041   9.6678

          k = 0.0000 0.3333 0.2114 (  2505 PWs)   bands (ev):

   -45.7702 -22.4815 -22.3963 -22.3424  -7.0284  -6.3673  -6.1018  -5.0330
    -5.0176  -5.0091  -4.8419  -4.6903   2.9559   5.8611   6.5786   6.7388
     7.3091   7.6990   7.9583   8.2983   8.7929   9.6975

          k = 0.0000 0.3333 0.3171 (  2508 PWs)   bands (ev):

   -45.7700 -22.4944 -22.3956 -22.3419  -6.9643  -6.3339  -6.0320  -5.0285
    -5.0093  -5.0079  -4.8585  -4.6623   2.7563   5.6981   6.4340   6.7670
     7.1592   7.5781   7.6402   8.3381   9.0804   9.6332

          k = 0.0000 0.3333 0.4228 (  2521 PWs)   bands (ev):

   -45.7699 -22.5028 -22.3951 -22.3415  -6.9303  -6.3062  -5.9794  -5.0357
    -5.0094  -4.9883  -4.8758  -4.6425   2.6331   5.5281   6.3440   6.7700
     7.1358   7.3926   7.6302   8.3580   9.2249   9.5700

          k = 0.0000 0.4444 0.0000 (  2498 PWs)   bands (ev):

   -45.7702 -22.4648 -22.4123 -22.3425  -6.9823  -6.3567  -6.1825  -5.0691
    -5.0200  -5.0025  -4.8025  -4.7500   3.0373   5.6668   6.8473   6.8912
     7.4270   7.5243   8.2337   8.2404   8.6868  10.2398

          k = 0.0000 0.4444 0.1057 (  2511 PWs)   bands (ev):

   -45.7701 -22.4693 -22.4120 -22.3423  -6.9646  -6.3435  -6.1641  -5.0614
    -5.0201  -5.0065  -4.7959  -4.7412   2.9755   5.6608   6.7942   6.9269
     7.2337   7.4777   8.2446   8.4109   8.4887  10.1520

          k = 0.0000 0.4444 0.2114 (  2517 PWs)   bands (ev):

   -45.7699 -22.4806 -22.4113 -22.3418  -6.9295  -6.3080  -6.1042  -5.0410
    -5.0205  -5.0165  -4.8067  -4.6950   2.8240   5.6321   6.6195   6.8969
     7.0059   7.3853   8.0489   8.2656   8.7908   9.9105

          k = 0.0000 0.4444 0.3171 (  2510 PWs)   bands (ev):

   -45.7698 -22.4934 -22.4106 -22.3412  -6.9057  -6.2634  -6.0136  -5.0279
    -5.0209  -5.0152  -4.8330  -4.6358   2.6602   5.5430   6.2611   6.8366
     7.0413   7.3549   7.6487   8.2826   9.1299   9.6333

          k = 0.0000 0.4444 0.4228 (  2524 PWs)   bands (ev):

   -45.7696 -22.5018 -22.4100 -22.3409  -6.8980  -6.2322  -5.9421  -5.0352
    -5.0212  -4.9954  -4.8550  -4.5981   2.5576   5.4129   6.0817   6.8604
     7.0168   7.3928   7.4218   8.2911   9.2217   9.5461

          k = 0.1111 0.1111 0.0000 (  2513 PWs)   bands (ev):

   -45.7711 -22.4672 -22.3532 -22.3530  -7.4265  -6.4550  -6.2011  -5.0206
    -5.0162  -4.9827  -4.8644  -4.7003   3.8170   6.2881   6.3955   6.8170
     7.8380   8.2017   8.3335   8.5244   8.9073   8.9383

          k = 0.1111 0.1111 0.1057 (  2509 PWs)   bands (ev):

   -45.7710 -22.4717 -22.3530 -22.3528  -7.3853  -6.4459  -6.1871  -5.0204
    -5.0193  -4.9825  -4.8625  -4.7093   3.6756   6.2698   6.3238   6.9696
     7.7902   8.0720   8.3095   8.5511   8.9099   8.9426

          k = 0.1111 0.1111 0.2114 (  2520 PWs)   bands (ev):

   -45.7709 -22.4833 -22.3525 -22.3523  -7.2792  -6.4224  -6.1513  -5.0306
    -5.0146  -4.9822  -4.8591  -4.7329   3.3585   6.2177   6.2550   7.0311
     7.7054   7.7768   8.3022   8.5904   8.9185   9.1441

          k = 0.1111 0.1111 0.3171 (  2527 PWs)   bands (ev):

   -45.7707 -22.4964 -22.3519 -22.3518  -7.1549  -6.3949  -6.1102  -5.0415
    -5.0065  -4.9819  -4.8576  -4.7613   3.0496   6.1437   6.1504   6.8190
     7.6497   7.6630   8.3185   8.6048   8.9331   9.5445

          k = 0.1111 0.1111 0.4228 (  2515 PWs)   bands (ev):

   -45.7706 -22.5049 -22.3515 -22.3514  -7.0716  -6.3764  -6.0830  -5.0481
    -4.9991  -4.9821  -4.8584  -4.7808   2.8698   5.9793   6.1030   6.7107
     7.6292   7.6386   8.3365   8.6032   8.9456   9.8787

          k = 0.1111 0.2222 0.0000 (  2506 PWs)   bands (ev):

   -45.7707 -22.4663 -22.3735 -22.3522  -7.2647  -6.4232  -6.1889  -5.0415
    -5.0139  -4.9884  -4.8465  -4.6940   3.4520   6.2672   6.5165   6.6517
     7.7584   7.8502   8.3864   8.5404   8.7729   9.1891

          k = 0.1111 0.2222 0.1057 (  2506 PWs)   bands (ev):

   -45.7707 -22.4708 -22.3733 -22.3520  -7.2275  -6.4179  -6.1741  -5.0377
    -5.0167  -4.9875  -4.8444  -4.6958   3.3657   6.2070   6.3660   6.8032
     7.6498   7.8730   8.2986   8.5859   8.7161   9.2387

          k = 0.1111 0.2222 0.2114 (  2507 PWs)   bands (ev):

   -45.7705 -22.4823 -22.3728 -22.3515  -7.1339  -6.4037  -6.1340  -5.0336
    -5.0163  -4.9844  -4.8421  -4.7003   3.1531   6.0528   6.2697   6.8470
     7.4605   7.6718   8.2455   8.6218   8.7738   9.3815

          k = 0.1111 0.2222 0.3171 (  2519 PWs)   bands (ev):

   -45.7703 -22.4953 -22.3722 -22.3509  -7.0296  -6.3858  -6.0834  -5.0397
    -5.0033  -4.9765  -4.8462  -4.7049   2.9237   5.8674   6.2107   6.6908
     7.3015   7.5475   8.1975   8.6604   8.8957   9.5561

          k = 0.1111 0.2222 0.4228 (  2518 PWs)   bands (ev):

   -45.7702 -22.5037 -22.3717 -22.3506  -6.9636  -6.3725  -6.0466  -5.0443
    -4.9964  -4.9642  -4.8540  -4.7080   2.7816   5.7140   6.1381   6.5858
     7.2795   7.5050   8.1558   8.6883   8.9543   9.6622

          k = 0.1111 0.3333 0.0000 (  2510 PWs)   bands (ev):

   -45.7703 -22.4652 -22.3967 -22.3512  -7.0667  -6.3838  -6.1875  -5.0571
    -5.0081  -4.9890  -4.8247  -4.7058   3.1254   5.9704   6.5649   6.7687
     7.4140   7.8622   8.0584   8.5304   8.7712   9.6540

          k = 0.1111 0.3333 0.1057 (  2507 PWs)   bands (ev):

   -45.7702 -22.4697 -22.3965 -22.3510  -7.0378  -6.3796  -6.1710  -5.0508
    -5.0108  -4.9868  -4.8204  -4.6999   3.0748   5.9449   6.3899   6.8135
     7.3409   7.8536   8.0705   8.5816   8.6561   9.6499

          k = 0.1111 0.3333 0.2114 (  2504 PWs)   bands (ev):

   -45.7701 -22.4811 -22.3959 -22.3505  -6.9707  -6.3659  -6.1226  -5.0377
    -5.0139  -4.9800  -4.8175  -4.6797   2.9424   5.8544   6.2175   6.6969
     7.0907   7.7319   8.1805   8.4128   8.8456   9.5938

          k = 0.1111 0.3333 0.3171 (  2516 PWs)   bands (ev):

   -45.7699 -22.4940 -22.3952 -22.3499  -6.9071  -6.3433  -6.0550  -5.0354
    -5.0055  -4.9658  -4.8269  -4.6510   2.7875   5.6778   6.1618   6.5198
     6.7818   7.6165   8.2693   8.3337   9.0785   9.4739

          k = 0.1111 0.3333 0.4228 (  2517 PWs)   bands (ev):

   -45.7698 -22.5024 -22.3947 -22.3495  -6.8741  -6.3242  -6.0025  -5.0381
    -4.9982  -4.9485  -4.8407  -4.6311   2.6857   5.5090   6.1721   6.3694
     6.6577   7.5699   8.2298   8.3815   9.1467   9.4267

          k = 0.1111 0.4444 0.0000 (  2519 PWs)   bands (ev):

   -45.7700 -22.4644 -22.4119 -22.3505  -6.9272  -6.3455  -6.2065  -5.0623
    -5.0039  -4.9876  -4.7896  -4.7420   2.9505   5.6755   6.6649   7.0356
     7.1418   7.5612   7.9996   8.4898   8.7935  10.1049

          k = 0.1111 0.4444 0.1057 (  2514 PWs)   bands (ev):

   -45.7699 -22.4689 -22.4116 -22.3503  -6.9084  -6.3361  -6.1900  -5.0551
    -5.0062  -4.9856  -4.7821  -4.7312   2.9156   5.6685   6.4300   6.9297
     7.2443   7.5501   8.0247   8.5847   8.6452   9.9913

          k = 0.1111 0.4444 0.2114 (  2519 PWs)   bands (ev):

   -45.7698 -22.4802 -22.4109 -22.3498  -6.8718  -6.3103  -6.1343  -5.0397
    -5.0080  -4.9806  -4.7855  -4.6844   2.8221   5.6358   6.1959   6.5615
     7.0464   7.7556   7.9754   8.4362   8.8517   9.7003

          k = 0.1111 0.4444 0.3171 (  2509 PWs)   bands (ev):

   -45.7696 -22.4930 -22.4102 -22.3492  -6.8482  -6.2780  -6.0474  -5.0346
    -4.9953  -4.9724  -4.8023  -4.6253   2.7083   5.5369   6.0892   6.2374
     6.7344   7.7737   8.0244   8.3354   9.0554   9.4575

          k = 0.1111 0.4444 0.4228 (  2524 PWs)   bands (ev):

   -45.7695 -22.5014 -22.4096 -22.3489  -6.8416  -6.2558  -5.9779  -5.0364
    -4.9833  -4.9611  -4.8182  -4.5876   2.6311   5.3987   6.0188   6.1613
     6.5355   7.7251   8.1023   8.2903   8.9297   9.5336

          k = 0.2222 0.2222 0.0000 (  2508 PWs)   bands (ev):

   -45.7703 -22.4653 -22.3728 -22.3723  -7.1086  -6.3908  -6.2028  -5.0432
    -5.0194  -4.9740  -4.8119  -4.6870   3.1690   6.2410   6.4721   6.7137
     7.3722   7.4539   8.4242   8.5436   8.9067   9.4285

          k = 0.2222 0.2222 0.1057 (  2510 PWs)   bands (ev):

   -45.7703 -22.4699 -22.3726 -22.3721  -7.0737  -6.3904  -6.1890  -5.0369
    -5.0220  -4.9706  -4.8075  -4.6831   3.1344   6.1595   6.2725   6.6926
     7.3778   7.5054   8.4172   8.5528   8.9229   9.3775

          k = 0.2222 0.2222 0.2114 (  2500 PWs)   bands (ev):

   -45.7701 -22.4813 -22.3720 -22.3716  -6.9875  -6.3895  -6.1496  -5.0275
    -5.0208  -4.9595  -4.7985  -4.6745   3.0333   5.9591   6.0147   6.6190
     7.2757   7.3256   8.4158   8.7547   8.9813   9.3087

          k = 0.2222 0.2222 0.3171 (  2517 PWs)   bands (ev):

   -45.7699 -22.4942 -22.3714 -22.3711  -6.8953  -6.3888  -6.0947  -5.0316
    -5.0044  -4.9385  -4.7939  -4.6666   2.8997   5.7477   5.8778   6.4177
     7.0340   7.2238   8.4760   8.8574   9.0777   9.2798

          k = 0.2222 0.2222 0.4228 (  2520 PWs)   bands (ev):

   -45.7698 -22.5026 -22.3709 -22.3707  -6.8395  -6.3884  -6.0514  -5.0331
    -4.9959  -4.9162  -4.7969  -4.6624   2.8049   5.6197   5.7867   6.2546
     6.9408   7.2059   8.4641   8.8922   9.1392   9.2459

          k = 0.2222 0.3333 0.0000 (  2520 PWs)   bands (ev):

   -45.7699 -22.4642 -22.3957 -22.3715  -6.9207  -6.3533  -6.2259  -5.0451
    -5.0080  -4.9468  -4.7810  -4.6960   2.8889   5.9890   6.3995   6.8923
     6.9913   7.4716   8.0376   8.6332   9.0023   9.6227

          k = 0.2222 0.3333 0.1057 (  2518 PWs)   bands (ev):

   -45.7699 -22.4687 -22.3954 -22.3713  -6.8908  -6.3563  -6.2132  -5.0380
    -5.0087  -4.9407  -4.7739  -4.6852   2.8913   5.9498   6.2078   6.5334
     7.1419   7.5322   8.1860   8.5835   9.0126   9.5193

          k = 0.2222 0.3333 0.2114 (  2512 PWs)   bands (ev):

   -45.7697 -22.4801 -22.3949 -22.3708  -6.8227  -6.3625  -6.1723  -5.0231
    -5.0058  -4.9243  -4.7586  -4.6567   2.8853   5.8001   5.8551   6.3047
     6.9340   7.3806   8.4266   8.7517   9.0588   9.2798

          k = 0.2222 0.3333 0.3171 (  2508 PWs)   bands (ev):

   -45.7695 -22.4929 -22.3942 -22.3702  -6.7616  -6.3664  -6.1074  -5.0178
    -4.9899  -4.9010  -4.7470  -4.6232   2.8548   5.5785   5.6436   6.1491
     6.6009   7.1813   8.5439   8.8968   8.9985   9.2530

          k = 0.2222 0.3333 0.4228 (  2512 PWs)   bands (ev):

   -45.7694 -22.5013 -22.3938 -22.3698  -6.7321  -6.3672  -6.0532  -5.0167
    -4.9774  -4.8805  -4.7439  -4.6012   2.8206   5.4075   5.5961   6.0058
     6.4084   7.1268   8.4453   8.8919   8.9796   9.3750

          k = 0.2222 0.4444 0.0000 (  2527 PWs)   bands (ev):

   -45.7696 -22.4635 -22.4107 -22.3708  -6.7901  -6.3193  -6.2557  -5.0434
    -4.9981  -4.9147  -4.7566  -4.7250   2.7280   5.6918   6.5066   6.6963
     7.1643   7.5632   7.6158   8.7183   8.9967   9.7301

          k = 0.2222 0.4444 0.1057 (  2518 PWs)   bands (ev):

   -45.7696 -22.4679 -22.4105 -22.3706  -6.7670  -6.3194  -6.2456  -5.0358
    -4.9977  -4.9072  -4.7483  -4.7079   2.7472   5.6828   6.1975   6.4597
     7.1268   7.6657   7.8590   8.6546   9.0181   9.5618

          k = 0.2222 0.4444 0.2114 (  2514 PWs)   bands (ev):

   -45.7694 -22.4792 -22.4099 -22.3701  -6.7236  -6.3178  -6.2029  -5.0200
    -4.9915  -4.8903  -4.7336  -4.6579   2.7891   5.6357   5.7490   6.1254
     6.8403   7.4908   8.2831   8.7504   9.1026   9.1851

          k = 0.2222 0.4444 0.3171 (  2504 PWs)   bands (ev):

   -45.7692 -22.4920 -22.4091 -22.3695  -6.7004  -6.3143  -6.1236  -5.0118
    -4.9720  -4.8714  -4.7216  -4.5985   2.8205   5.4775   5.5024   5.8679
     6.4863   7.2636   8.3119   8.8561   8.9424   9.3460

          k = 0.2222 0.4444 0.4228 (  2510 PWs)   bands (ev):

   -45.7691 -22.5004 -22.4087 -22.3691  -6.6972  -6.3121  -6.0565  -5.0094
    -4.9550  -4.8574  -4.7155  -4.5602   2.8287   5.3267   5.3993   5.7735
     6.2387   7.1931   8.0630   8.8847   8.9473   9.5419

          k = 0.3333 0.3333 0.0000 (  2522 PWs)   bands (ev):

   -45.7695 -22.4631 -22.3946 -22.3943  -6.7544  -6.3189  -6.2631  -5.0327
    -4.9902  -4.8937  -4.7349  -4.7005   2.6333   5.9281   6.1095   6.8935
     7.0751   7.1638   7.8999   8.4803   9.3326   9.4089

          k = 0.3333 0.3333 0.1057 (  2507 PWs)   bands (ev):

   -45.7694 -22.4676 -22.3944 -22.3941  -6.7229  -6.3290  -6.2569  -5.0242
    -4.9892  -4.8827  -4.7245  -4.6835   2.6753   5.9021   6.0157   6.3175
     6.8885   7.4991   8.2823   8.3566   9.2376   9.3353

          k = 0.3333 0.3333 0.2114 (  2520 PWs)   bands (ev):

   -45.7693 -22.4789 -22.3938 -22.3936  -6.6546  -6.3539  -6.2267  -5.0026
    -4.9866  -4.8558  -4.6967  -4.6413   2.7823   5.6592   5.7288   5.9539
     6.6535   7.2054   8.4397   8.8208   8.9506   9.3437

          k = 0.3333 0.3333 0.3171 (  2506 PWs)   bands (ev):

   -45.7691 -22.4917 -22.3932 -22.3930  -6.6027  -6.3810  -6.1619  -4.9834
    -4.9782  -4.8242  -4.6641  -4.5943   2.9008   5.3257   5.4066   5.8381
     6.5748   6.6700   8.0924   9.1131   9.1987   9.3654

          k = 0.3333 0.3333 0.4228 (  2505 PWs)   bands (ev):

   -45.7690 -22.5000 -22.3927 -22.3926  -6.5836  -6.3982  -6.1022  -4.9812
    -4.9627  -4.8013  -4.6433  -4.5642   2.9712   5.1905   5.2154   5.7140
     6.3862   6.5527   7.7590   9.2531   9.3166   9.4415

          k = 0.3333 0.4444 0.0000 (  2514 PWs)   bands (ev):

   -45.7692 -22.4623 -22.4095 -22.3937  -6.6501  -6.2942  -6.2823  -5.0261
    -4.9711  -4.8365  -4.7321  -4.7026   2.4755   5.6542   6.1363   6.7493
     7.1934   7.3023   7.5993   8.4672   9.1573   9.5070

          k = 0.3333 0.4444 0.1057 (  2523 PWs)   bands (ev):

   -45.7691 -22.4668 -22.4092 -22.3935  -6.6168  -6.3044  -6.2855  -5.0173
    -4.9693  -4.8215  -4.7157  -4.6851   2.5350   5.6457   6.0547   6.2411
     6.7563   7.6793   8.0009   8.4238   8.9498   9.4940

          k = 0.3333 0.4444 0.2114 (  2516 PWs)   bands (ev):

   -45.7690 -22.4781 -22.4086 -22.3929  -6.5527  -6.3284  -6.2710  -4.9956
    -4.9646  -4.7892  -4.6757  -4.6342   2.6977   5.5688   5.6618   5.7659
     6.4602   7.2647   8.1639   8.8196   8.8419   9.4871

          k = 0.3333 0.4444 0.3171 (  2504 PWs)   bands (ev):

   -45.7688 -22.4908 -22.4080 -22.3923  -6.5269  -6.3543  -6.2012  -4.9741
    -4.9563  -4.7576  -4.6294  -4.5716   2.9074   5.1799   5.3640   5.5922
     6.3326   6.7360   7.5798   9.1859   9.2719   9.4929

          k = 0.3333 0.4444 0.4228 (  2500 PWs)   bands (ev):

   -45.7687 -22.4992 -22.4076 -22.3920  -6.5305  -6.3708  -6.1320  -4.9662
    -4.9450  -4.7370  -4.5987  -4.5303   3.0611   4.9788   5.1443   5.5157
     6.1946   6.5349   7.1534   9.3498   9.4576   9.5635

          k = 0.4444 0.4444 0.0000 (  2512 PWs)   bands (ev):

   -45.7689 -22.4615 -22.4086 -22.4086  -6.5844  -6.2750  -6.2731  -5.0177
    -4.9395  -4.7739  -4.7379  -4.6857   2.3128   5.5089   6.0208   6.9074
     6.9705   7.4310   7.5456   8.2896   8.7765   9.7225

          k = 0.4444 0.4444 0.1057 (  2517 PWs)   bands (ev):

   -45.7689 -22.4660 -22.4084 -22.4084  -6.5415  -6.2904  -6.2896  -5.0088
    -4.9384  -4.7506  -4.7100  -4.6751   2.3897   5.5005   5.9956   6.3503
     6.4612   7.8181   8.1113   8.1487   8.4996   9.7197

          k = 0.4444 0.4444 0.2114 (  2525 PWs)   bands (ev):

   -45.7687 -22.4773 -22.4079 -22.4078  -6.4419  -6.3319  -6.3138  -4.9862
    -4.9360  -4.7051  -4.6409  -4.6351   2.6085   5.4656   5.7034   5.7088
     6.1219   7.2442   7.7231   8.8088   8.8095   9.7127

          k = 0.4444 0.4444 0.3171 (  2509 PWs)   bands (ev):

   -45.7685 -22.4900 -22.4073 -22.4072  -6.4077  -6.3756  -6.2562  -4.9606
    -4.9338  -4.6711  -4.5710  -4.5644   2.9200   5.1972   5.2671   5.4384
     6.0921   6.6188   6.9438   9.3083   9.3204   9.7046

          k = 0.4444 0.4444 0.4228 (  2498 PWs)   bands (ev):

   -45.7684 -22.4983 -22.4068 -22.4068  -6.4243  -6.4024  -6.1766  -4.9440
    -4.9325  -4.6511  -4.5257  -4.5156   3.1871   4.9403   5.0249   5.3668
     6.0889   6.2616   6.4271   9.5581   9.5758   9.6984

     highest occupied level (ev):    10.2398

!    total energy              =    -380.57220634 Ry
     estimated scf accuracy    <          3.5E-12 Ry

     The total energy is the sum of the following terms:
     one-electron contribution =     -85.44121858 Ry
     hartree contribution      =      71.86921659 Ry
     xc contribution           =    -102.58203483 Ry
     ewald contribution        =    -264.41816953 Ry

     convergence has been achieved in  11 iterations

     negative rho (up, down):  1.521E-02 0.000E+00

     Forces acting on atoms (cartesian axes, Ry/au):

     atom    1 type  1   force =     0.00000000    0.00000000   -0.00339335
     atom    2 type  2   force =     0.00000000    0.00000000    0.00449167
     atom    3 type  3   force =     0.00000000    0.00000000   -0.00598057
     atom    4 type  3   force =     0.00000000    0.00000000    0.00244112
     atom    5 type  3   force =     0.00000000    0.00000000    0.00244112

     Total force =     0.008909     Total SCF correction =     0.000011


     Computing stress (Cartesian axis) and pressure


     negative rho (up, down):  1.521E-02 0.000E+00
          total   stress  (Ry/bohr**3)                   (kbar)     P=      -44.75
  -0.00036317   0.00000000   0.00000000          -53.42        0.00        0.00
   0.00000000  -0.00036317   0.00000000            0.00      -53.42        0.00
   0.00000000   0.00000000  -0.00018628            0.00        0.00      -27.40

     Energy error            =      1.7E-04 Ry
     Gradient error          =      6.0E-03 Ry/Bohr

     number of scf cycles    =   5
     number of bfgs steps    =   4

     energy             old  =    -380.5720367416 Ry
     energy             new  =    -380.5722063438 Ry

     CASE: energy            _new < energy            _old

     new trust radius        =       0.0216612842 bohr
     new conv_thr            =       0.0000000002 Ry


ATOMIC_POSITIONS (crystal)
Pb               0.0000000000        0.0000000000        0.9938127446
Ti               0.5000000000        0.5000000000        0.5384442219
O                0.5000000000        0.5000000000        0.1076535205
O                0.5000000000        0.0000000000        0.6136869005
O                0.0000000000        0.5000000000        0.6136869005



     Writing config-only to output data dir ./pto_k9.save/ :
     XML data file
     NEW-OLD atomic charge density approx. for the potential

     Check: negative core charge=   -0.000004

     negative rho (up, down):  1.557E-02 0.000E+00

     total cpu time spent up to now is      136.8 secs

     Self-consistent Calculation

     iteration #  1     ecut=    50.00 Ry     beta= 0.70
     CG style diagonalization
     c_bands:  1 eigenvalues not converged
     c_bands:  1 eigenvalues not converged
     c_bands:  1 eigenvalues not converged
     c_bands:  1 eigenvalues not converged
     c_bands:  1 eigenvalues not converged
     c_bands:  1 eigenvalues not converged
     c_bands:  1 eigenvalues not converged
     ethr =  1.00E-06,  avg # of iterations =  6.2

     Threshold (ethr) on eigenvalues was too large:
     Diagonalizing with lowered threshold

     CG style diagonalization
     c_bands:  1 eigenvalues not converged
     c_bands:  1 eigenvalues not converged
     c_bands:  1 eigenvalues not converged
     c_bands:  1 eigenvalues not converged
     c_bands:  1 eigenvalues not converged
     c_bands:  1 eigenvalues not converged
     c_bands:  1 eigenvalues not converged
     c_bands:  1 eigenvalues not converged
     c_bands:  1 eigenvalues not converged
     c_bands:  1 eigenvalues not converged
     c_bands:  1 eigenvalues not converged
     c_bands:  2 eigenvalues not converged
     c_bands:  1 eigenvalues not converged
     c_bands:  1 eigenvalues not converged
     c_bands:  1 eigenvalues not converged
     c_bands:  2 eigenvalues not converged
     c_bands:  2 eigenvalues not converged
     c_bands:  1 eigenvalues not converged
     c_bands:  1 eigenvalues not converged
     c_bands:  2 eigenvalues not converged
     c_bands:  1 eigenvalues not converged
     c_bands:  3 eigenvalues not converged
     c_bands:  1 eigenvalues not converged
     c_bands:  1 eigenvalues not converged
     c_bands:  1 eigenvalues not converged
     c_bands:  1 eigenvalues not converged
     ethr =  7.90E-08,  avg # of iterations =  5.9

     negative rho (up, down):  1.554E-02 0.000E+00

     total cpu time spent up to now is      143.0 secs

     total energy              =    -380.57226678 Ry
     estimated scf accuracy    <       0.00003370 Ry

     iteration #  2     ecut=    50.00 Ry     beta= 0.70
     CG style diagonalization
     ethr =  7.66E-08,  avg # of iterations =  4.5

     negative rho (up, down):  1.553E-02 0.000E+00

     total cpu time spent up to now is      145.2 secs

     total energy              =    -380.57226790 Ry
     estimated scf accuracy    <       0.00004157 Ry

     iteration #  3     ecut=    50.00 Ry     beta= 0.70
     CG style diagonalization
     ethr =  7.66E-08,  avg # of iterations =  4.0

     negative rho (up, down):  1.552E-02 0.000E+00

     total cpu time spent up to now is      147.0 secs

     total energy              =    -380.57227762 Ry
     estimated scf accuracy    <       0.00001277 Ry

     iteration #  4     ecut=    50.00 Ry     beta= 0.70
     CG style diagonalization
     ethr =  2.90E-08,  avg # of iterations =  3.6

     negative rho (up, down):  1.552E-02 0.000E+00

     total cpu time spent up to now is      148.7 secs

     total energy              =    -380.57228000 Ry
     estimated scf accuracy    <       0.00000124 Ry

     iteration #  5     ecut=    50.00 Ry     beta= 0.70
     CG style diagonalization
     ethr =  2.82E-09,  avg # of iterations =  4.1

     negative rho (up, down):  1.552E-02 0.000E+00

     total cpu time spent up to now is      150.6 secs

     total energy              =    -380.57228062 Ry
     estimated scf accuracy    <       0.00000029 Ry

     iteration #  6     ecut=    50.00 Ry     beta= 0.70
     CG style diagonalization
     ethr =  6.49E-10,  avg # of iterations =  4.1

     negative rho (up, down):  1.552E-02 0.000E+00

     total cpu time spent up to now is      152.5 secs

     total energy              =    -380.57228072 Ry
     estimated scf accuracy    <       0.00000005 Ry

     iteration #  7     ecut=    50.00 Ry     beta= 0.70
     CG style diagonalization
     ethr =  1.10E-10,  avg # of iterations =  5.1

     negative rho (up, down):  1.552E-02 0.000E+00

     total cpu time spent up to now is      154.9 secs

     total energy              =    -380.57228076 Ry
     estimated scf accuracy    <          4.2E-09 Ry

     iteration #  8     ecut=    50.00 Ry     beta= 0.70
     CG style diagonalization
     ethr =  9.53E-12,  avg # of iterations =  6.3

     negative rho (up, down):  1.552E-02 0.000E+00

     total cpu time spent up to now is      157.9 secs

     total energy              =    -380.57228077 Ry
     estimated scf accuracy    <          4.1E-10 Ry

     iteration #  9     ecut=    50.00 Ry     beta= 0.70
     CG style diagonalization
     ethr =  9.21E-13,  avg # of iterations =  7.2

     negative rho (up, down):  1.552E-02 0.000E+00

     total cpu time spent up to now is      161.4 secs

     End of self-consistent calculation

          k = 0.0000 0.0000 0.0000 (  2525 PWs)   bands (ev):

   -45.7842 -22.4745 -22.3594 -22.3594  -7.5701  -6.5088  -6.2095  -4.9962
    -4.9962  -4.9558  -4.8701  -4.6896   4.2066   6.2573   6.2573   6.8026
     8.1119   8.1119   8.4559   8.6201   8.8815   8.8815

          k = 0.0000 0.0000 0.1057 (  2533 PWs)   bands (ev):

   -45.7841 -22.4791 -22.3593 -22.3593  -7.5274  -6.4969  -6.1953  -4.9997
    -4.9997  -4.9555  -4.8669  -4.7043   3.9915   6.2687   6.2687   6.9660
     8.0542   8.0542   8.4356   8.5116   8.9096   8.9096

          k = 0.0000 0.0000 0.2114 (  2517 PWs)   bands (ev):

   -45.7840 -22.4907 -22.3588 -22.3588  -7.4166  -6.4658  -6.1599  -5.0086
    -5.0086  -4.9548  -4.8588  -4.7425   3.5632   6.2936   6.2936   6.9588
     7.9351   7.9351   8.3855   8.6503   8.9651   8.9651

          k = 0.0000 0.0000 0.3171 (  2510 PWs)   bands (ev):

   -45.7838 -22.5039 -22.3583 -22.3583  -7.2846  -6.4286  -6.1218  -5.0187
    -5.0187  -4.9539  -4.8500  -4.7877   3.1850   6.3138   6.3138   6.5626
     7.8339   7.8339   8.3302   9.0131   9.0131   9.2847

          k = 0.0000 0.0000 0.4228 (  2538 PWs)   bands (ev):

   -45.7837 -22.5124 -22.3579 -22.3579  -7.1944  -6.4033  -6.0986  -5.0252
    -5.0252  -4.9534  -4.8443  -4.8184   2.9756   6.2554   6.3218   6.3218
     7.7836   7.7836   8.2949   9.0396   9.0396   9.8878

          k = 0.0000 0.1111 0.0000 (  2525 PWs)   bands (ev):

   -45.7840 -22.4742 -22.3676 -22.3591  -7.5081  -6.4965  -6.2002  -5.0072
    -4.9955  -4.9618  -4.8654  -4.6837   3.9949   6.2902   6.3065   6.8128
     8.0674   8.1237   8.4608   8.5987   8.7006   8.9269

          k = 0.0000 0.1111 0.1057 (  2522 PWs)   bands (ev):

   -45.7840 -22.4788 -22.3674 -22.3589  -7.4668  -6.4861  -6.1856  -5.0084
    -4.9991  -4.9615  -4.8631  -4.6952   3.8217   6.2535   6.3189   6.9635
     7.9650   8.0596   8.4740   8.4960   8.7362   8.9603

          k = 0.0000 0.1111 0.2114 (  2517 PWs)   bands (ev):

   -45.7838 -22.4903 -22.3669 -22.3585  -7.3599  -6.4590  -6.1488  -5.0110
    -5.0081  -4.9609  -4.8580  -4.7250   3.4540   6.1998   6.3461   7.0138
     7.7373   7.9339   8.4399   8.5134   8.8014   9.1342

          k = 0.0000 0.1111 0.3171 (  2523 PWs)   bands (ev):

   -45.7836 -22.5034 -22.3664 -22.3579  -7.2340  -6.4268  -6.1074  -5.0183
    -5.0133  -4.9602  -4.8531  -4.7598   3.1128   6.1040   6.3682   6.7278
     7.6303   7.8321   8.5038   8.5573   8.8544   9.5328

          k = 0.0000 0.1111 0.4228 (  2524 PWs)   bands (ev):

   -45.7835 -22.5120 -22.3660 -22.3576  -7.1490  -6.4048  -6.0809  -5.0250
    -5.0147  -4.9597  -4.8505  -4.7831   2.9192   5.9710   6.3767   6.5449
     7.5968   7.7834   8.4902   8.6255   8.8830   9.9402

          k = 0.0000 0.2222 0.0000 (  2507 PWs)   bands (ev):

   -45.7836 -22.4733 -22.3881 -22.3583  -7.3445  -6.4655  -6.1799  -5.0284
    -4.9938  -4.9767  -4.8528  -4.6771   3.5781   6.2840   6.4455   6.6281
     8.1440   8.1447   8.3092   8.3834   8.5836   9.0664

          k = 0.0000 0.2222 0.1057 (  2514 PWs)   bands (ev):

   -45.7836 -22.4778 -22.3879 -22.3581  -7.3078  -6.4583  -6.1637  -5.0246
    -4.9975  -4.9765  -4.8517  -4.6810   3.4654   6.1988   6.4610   6.7275
     7.9834   8.0387   8.3269   8.3881   8.5204   9.1873

          k = 0.0000 0.2222 0.2114 (  2513 PWs)   bands (ev):

   -45.7834 -22.4893 -22.3873 -22.3576  -7.2151  -6.4387  -6.1206  -5.0135
    -5.0069  -4.9763  -4.8520  -4.6895   3.2043   6.0550   6.4946   6.8107
     7.6514   7.8940   8.0085   8.4791   8.6940   9.4140

          k = 0.0000 0.2222 0.3171 (  2518 PWs)   bands (ev):

   -45.7832 -22.5023 -22.3867 -22.3571  -7.1112  -6.4133  -6.0675  -5.0175
    -4.9988  -4.9760  -4.8576  -4.6973   2.9403   5.8700   6.5209   6.7187
     7.3849   7.7966   7.8872   8.5392   8.8295   9.6577

          k = 0.0000 0.2222 0.4228 (  2510 PWs)   bands (ev):

   -45.7831 -22.5108 -22.3863 -22.3567  -7.0452  -6.3940  -6.0301  -5.0244
    -4.9883  -4.9758  -4.8637  -4.7017   2.7831   5.7040   6.5299   6.6028
     7.2960   7.7566   7.8760   8.5691   8.8854   9.8252

          k = 0.0000 0.3333 0.0000 (  2514 PWs)   bands (ev):

   -45.7832 -22.4722 -22.4114 -22.3573  -7.1441  -6.4254  -6.1698  -5.0457
    -4.9937  -4.9916  -4.8273  -4.6899   3.2246   5.9488   6.6504   6.6635
     7.8016   7.8447   8.2155   8.2952   8.6573   9.6322

          k = 0.0000 0.3333 0.1057 (  2512 PWs)   bands (ev):

   -45.7831 -22.4767 -22.4111 -22.3571  -7.1167  -6.4181  -6.1510  -5.0384
    -4.9959  -4.9934  -4.8247  -4.6856   3.1484   5.9244   6.6461   6.6718
     7.6145   7.7883   8.2458   8.3833   8.4971   9.6821

          k = 0.0000 0.3333 0.2114 (  2505 PWs)   bands (ev):

   -45.7830 -22.4881 -22.4105 -22.3566  -7.0526  -6.3964  -6.0969  -5.0187
    -5.0055  -4.9936  -4.8273  -4.6682   2.9639   5.8448   6.5743   6.7171
     7.2953   7.6890   7.9542   8.2952   8.7846   9.7092

          k = 0.0000 0.3333 0.3171 (  2508 PWs)   bands (ev):

   -45.7828 -22.5010 -22.4098 -22.3561  -6.9911  -6.3640  -6.0238  -5.0165
    -4.9938  -4.9930  -4.8429  -4.6415   2.7672   5.6850   6.4295   6.7476
     7.1364   7.5727   7.6297   8.3311   9.0776   9.6444

          k = 0.0000 0.3333 0.4228 (  2521 PWs)   bands (ev):

   -45.7827 -22.5093 -22.4093 -22.3557  -6.9584  -6.3377  -5.9688  -5.0237
    -4.9939  -4.9731  -4.8595  -4.6227   2.6456   5.5184   6.3374   6.7527
     7.1107   7.3828   7.6181   8.3491   9.2306   9.5774

          k = 0.0000 0.4444 0.0000 (  2498 PWs)   bands (ev):

   -45.7829 -22.4714 -22.4265 -22.3567  -7.0033  -6.3856  -6.1833  -5.0549
    -5.0045  -4.9905  -4.7830  -4.7296   3.0413   5.6491   6.8485   6.8650
     7.4127   7.5090   8.2216   8.2425   8.6843  10.2556

          k = 0.0000 0.4444 0.1057 (  2511 PWs)   bands (ev):

   -45.7829 -22.4759 -22.4262 -22.3565  -6.9868  -6.3727  -6.1630  -5.0471
    -5.0046  -4.9945  -4.7787  -4.7190   2.9807   5.6431   6.7902   6.9006
     7.2218   7.4638   8.2513   8.3957   8.4846  10.1682

          k = 0.0000 0.4444 0.2114 (  2517 PWs)   bands (ev):

   -45.7827 -22.4872 -22.4256 -22.3560  -6.9542  -6.3381  -6.0991  -5.0263
    -5.0052  -5.0043  -4.7901  -4.6733   2.8321   5.6147   6.6117   6.8834
     6.9810   7.3722   8.0425   8.2685   8.7812   9.9285

          k = 0.0000 0.4444 0.3171 (  2510 PWs)   bands (ev):

   -45.7825 -22.5000 -22.4248 -22.3554  -6.9320  -6.2952  -6.0050  -5.0158
    -5.0054  -5.0002  -4.8153  -4.6161   2.6709   5.5276   6.2557   6.8121
     7.0237   7.3354   7.6418   8.2824   9.1285   9.6502

          k = 0.0000 0.4444 0.4228 (  2524 PWs)   bands (ev):

   -45.7824 -22.5084 -22.4243 -22.3550  -6.9249  -6.2653  -5.9318  -5.0232
    -5.0057  -4.9802  -4.8364  -4.5796   2.5698   5.4009   6.0742   6.8291
     7.0049   7.3674   7.4153   8.2894   9.2439   9.5443

          k = 0.1111 0.1111 0.0000 (  2513 PWs)   bands (ev):

   -45.7839 -22.4738 -22.3673 -22.3671  -7.4466  -6.4839  -6.1950  -5.0085
    -5.0039  -4.9675  -4.8544  -4.6780   3.8198   6.2690   6.3824   6.8252
     7.8475   8.2048   8.3279   8.5137   8.8827   8.9422

          k = 0.1111 0.1111 0.1057 (  2509 PWs)   bands (ev):

   -45.7838 -22.4784 -22.3671 -22.3669  -7.4064  -6.4751  -6.1803  -5.0080
    -5.0070  -4.9673  -4.8525  -4.6868   3.6807   6.2514   6.3103   6.9750
     7.7981   8.0747   8.3047   8.5411   8.8849   8.9443

          k = 0.1111 0.1111 0.2114 (  2520 PWs)   bands (ev):

   -45.7837 -22.4899 -22.3666 -22.3665  -7.3030  -6.4525  -6.1426  -5.0180
    -5.0019  -4.9669  -4.8487  -4.7098   3.3679   6.2013   6.2403   7.0340
     7.7100   7.7747   8.2978   8.5814   8.8922   9.1443

          k = 0.1111 0.1111 0.3171 (  2527 PWs)   bands (ev):

   -45.7835 -22.5030 -22.3661 -22.3659  -7.1824  -6.4259  -6.0987  -5.0286
    -4.9937  -4.9667  -4.8465  -4.7375   3.0622   6.1336   6.1363   6.8137
     7.6513   7.6610   8.3076   8.5966   8.9051   9.5457

          k = 0.1111 0.1111 0.4228 (  2515 PWs)   bands (ev):

   -45.7834 -22.5115 -22.3657 -22.3656  -7.1018  -6.4081  -6.0693  -5.0351
    -4.9864  -4.9667  -4.8467  -4.7565   2.8840   5.9750   6.0903   6.6974
     7.6291   7.6383   8.3204   8.5953   8.9166   9.8806

          k = 0.1111 0.2222 0.0000 (  2506 PWs)   bands (ev):

   -45.7835 -22.4729 -22.3877 -22.3664  -7.2845  -6.4527  -6.1852  -5.0286
    -5.0014  -4.9734  -4.8341  -4.6715   3.4529   6.2482   6.4992   6.6578
     7.7568   7.8467   8.3865   8.5313   8.7529   9.2023

          k = 0.1111 0.2222 0.1057 (  2506 PWs)   bands (ev):

   -45.7834 -22.4775 -22.3875 -22.3662  -7.2484  -6.4474  -6.1695  -5.0245
    -5.0042  -4.9725  -4.8321  -4.6733   3.3685   6.1903   6.3531   6.8006
     7.6485   7.8694   8.3002   8.5752   8.6976   9.2475

          k = 0.1111 0.2222 0.2114 (  2507 PWs)   bands (ev):

   -45.7833 -22.4889 -22.3870 -22.3657  -7.1576  -6.4335  -6.1270  -5.0203
    -5.0029  -4.9697  -4.8299  -4.6778   3.1598   6.0389   6.2547   6.8439
     7.4527   7.6688   8.2494   8.5987   8.7657   9.3861

          k = 0.1111 0.2222 0.3171 (  2519 PWs)   bands (ev):

   -45.7831 -22.5019 -22.3863 -22.3651  -7.0568  -6.4160  -6.0732  -5.0265
    -4.9887  -4.9624  -4.8335  -4.6827   2.9339   5.8567   6.1966   6.6869
     7.2853   7.5417   8.2028   8.6331   8.8902   9.5607

          k = 0.1111 0.2222 0.4228 (  2518 PWs)   bands (ev):

   -45.7830 -22.5103 -22.3859 -22.3647  -6.9932  -6.4032  -6.0340  -5.0311
    -4.9813  -4.9505  -4.8407  -4.6860   2.7936   5.7062   6.1280   6.5749
     7.2603   7.4977   8.1606   8.6599   8.9493   9.6690

          k = 0.1111 0.3333 0.0000 (  2510 PWs)   bands (ev):

   -45.7831 -22.4718 -22.4109 -22.3654  -7.0863  -6.4134  -6.1869  -5.0434
    -4.9956  -4.9738  -4.8091  -4.6835   3.1253   5.9528   6.5546   6.7616
     7.3957   7.8709   8.0531   8.5144   8.7632   9.6702

          k = 0.1111 0.3333 0.1057 (  2507 PWs)   bands (ev):

   -45.7830 -22.4763 -22.4107 -22.3652  -7.0586  -6.4090  -6.1692  -5.0369
    -4.9982  -4.9718  -4.8052  -4.6775   3.0762   5.9278   6.3793   6.8032
     7.3291   7.8554   8.0661   8.5742   8.6411   9.6640

          k = 0.1111 0.3333 0.2114 (  2504 PWs)   bands (ev):

   -45.7828 -22.4877 -22.4101 -22.3647  -6.9945  -6.3950  -6.1176  -5.0237
    -5.0008  -4.9654  -4.8028  -4.6579   2.9472   5.8388   6.2037   6.6874
     7.0821   7.7290   8.1684   8.4067   8.8359   9.6056

          k = 0.1111 0.3333 0.3171 (  2516 PWs)   bands (ev):

   -45.7827 -22.5006 -22.4094 -22.3641  -6.9338  -6.3731  -6.0461  -5.0222
    -4.9910  -4.9516  -4.8116  -4.6304   2.7957   5.6657   6.1453   6.5124
     6.7696   7.6068   8.2707   8.3112   9.0767   9.4838

          k = 0.1111 0.3333 0.4228 (  2517 PWs)   bands (ev):

   -45.7825 -22.5089 -22.4089 -22.3637  -6.9022  -6.3550  -5.9912  -5.0251
    -4.9834  -4.9345  -4.8246  -4.6114   2.6958   5.5000   6.1542   6.3646
     6.6383   7.5579   8.2357   8.3526   9.1602   9.4264

          k = 0.1111 0.4444 0.0000 (  2519 PWs)   bands (ev):

   -45.7828 -22.4710 -22.4261 -22.3647  -6.9470  -6.3749  -6.2079  -5.0481
    -4.9914  -4.9725  -4.7703  -4.7212   2.9502   5.6579   6.6562   7.0243
     7.1224   7.5511   8.0139   8.4694   8.7880  10.1198

          k = 0.1111 0.4444 0.1057 (  2514 PWs)   bands (ev):

   -45.7827 -22.4755 -22.4258 -22.3645  -6.9297  -6.3655  -6.1894  -5.0409
    -4.9936  -4.9706  -4.7647  -4.7090   2.9167   5.6510   6.4188   6.9149
     7.2334   7.5381   8.0354   8.5676   8.6375  10.0070

          k = 0.1111 0.4444 0.2114 (  2519 PWs)   bands (ev):

   -45.7826 -22.4868 -22.4251 -22.3640  -6.8960  -6.3402  -6.1291  -5.0256
    -4.9950  -4.9658  -4.7688  -4.6630   2.8262   5.6187   6.1793   6.5525
     7.0395   7.7391   7.9711   8.4331   8.8396   9.7187

          k = 0.1111 0.4444 0.3171 (  2509 PWs)   bands (ev):

   -45.7824 -22.4996 -22.4244 -22.3634  -6.8745  -6.3090  -6.0381  -5.0213
    -4.9813  -4.9580  -4.7848  -4.6058   2.7158   5.5224   6.0707   6.2247
     6.7304   7.7608   8.0002   8.3384   9.0591   9.4686

          k = 0.1111 0.4444 0.4228 (  2524 PWs)   bands (ev):

   -45.7823 -22.5080 -22.4239 -22.3631  -6.8684  -6.2877  -5.9667  -5.0234
    -4.9690  -4.9470  -4.8000  -4.5694   2.6405   5.3879   6.0078   6.1333
     6.5324   7.7104   8.0736   8.2953   8.9536   9.5304

          k = 0.2222 0.2222 0.0000 (  2508 PWs)   bands (ev):

   -45.7831 -22.4720 -22.3870 -22.3865  -7.1274  -6.4211  -6.2011  -5.0299
    -5.0062  -4.9590  -4.7979  -4.6643   3.1649   6.2226   6.4574   6.7134
     7.3602   7.4689   8.4077   8.5485   8.8828   9.4444

          k = 0.2222 0.2222 0.1057 (  2510 PWs)   bands (ev):

   -45.7831 -22.4765 -22.3868 -22.3863  -7.0936  -6.4206  -6.1862  -5.0234
    -5.0088  -4.9558  -4.7937  -4.6606   3.1318   6.1437   6.2629   6.6818
     7.3875   7.4984   8.4199   8.5374   8.9006   9.3925

          k = 0.2222 0.2222 0.2114 (  2500 PWs)   bands (ev):

   -45.7829 -22.4879 -22.3862 -22.3858  -7.0106  -6.4195  -6.1434  -5.0141
    -5.0067  -4.9452  -4.7851  -4.6525   3.0345   5.9483   6.0021   6.6073
     7.2777   7.3192   8.4179   8.7343   8.9657   9.3202

          k = 0.2222 0.2222 0.3171 (  2517 PWs)   bands (ev):

   -45.7827 -22.5008 -22.3855 -22.3853  -6.9222  -6.4185  -6.0844  -5.0181
    -4.9898  -4.9249  -4.7806  -4.6451   2.9049   5.7407   5.8612   6.4112
     7.0185   7.2210   8.4838   8.8306   9.0686   9.2881

          k = 0.2222 0.2222 0.4228 (  2520 PWs)   bands (ev):

   -45.7826 -22.5092 -22.3851 -22.3849  -6.8688  -6.4180  -6.0386  -5.0197
    -4.9812  -4.9032  -4.7833  -4.6411   2.8126   5.6145   5.7721   6.2445
     6.9211   7.2011   8.4755   8.8639   9.1316   9.2547

          k = 0.2222 0.3333 0.0000 (  2520 PWs)   bands (ev):

   -45.7827 -22.4709 -22.4099 -22.3857  -6.9376  -6.3840  -6.2278  -5.0314
    -4.9945  -4.9315  -4.7651  -4.6734   2.8808   5.9715   6.3860   6.8892
     6.9804   7.4903   8.0230   8.6321   8.9790   9.6373

          k = 0.2222 0.3333 0.1057 (  2518 PWs)   bands (ev):

   -45.7826 -22.4754 -22.4096 -22.3855  -6.9093  -6.3866  -6.2134  -5.0241
    -4.9952  -4.9257  -4.7582  -4.6629   2.8842   5.9334   6.1998   6.5199
     7.1432   7.5368   8.1793   8.5776   8.9903   9.5336

          k = 0.2222 0.3333 0.2114 (  2512 PWs)   bands (ev):

   -45.7825 -22.4867 -22.4091 -22.3849  -6.8452  -6.3920  -6.1676  -5.0092
    -4.9921  -4.9100  -4.7434  -4.6354   2.8810   5.7877   5.8452   6.2915
     6.9310   7.3819   8.4218   8.7414   9.0415   9.2922

          k = 0.2222 0.3333 0.3171 (  2508 PWs)   bands (ev):

   -45.7823 -22.4995 -22.4084 -22.3843  -6.7879  -6.3955  -6.0975  -5.0042
    -4.9758  -4.8875  -4.7320  -4.6032   2.8544   5.5720   5.6263   6.1374
     6.5966   7.1754   8.5529   8.8864   8.9879   9.2507

          k = 0.2222 0.3333 0.4228 (  2512 PWs)   bands (ev):

   -45.7822 -22.5079 -22.4080 -22.3840  -6.7602  -6.3963  -6.0406  -5.0032
    -4.9633  -4.8677  -4.7287  -4.5820   2.8229   5.4033   5.5731   5.9980
     6.3997   7.1184   8.4683   8.8917   8.9510   9.3717

          k = 0.2222 0.4444 0.0000 (  2527 PWs)   bands (ev):

   -45.7824 -22.4701 -22.4249 -22.3849  -6.8054  -6.3495  -6.2612  -5.0295
    -4.9845  -4.8993  -4.7384  -4.7031   2.7178   5.6745   6.4939   6.6908
     7.1527   7.5686   7.6190   8.7143   8.9753   9.7421

          k = 0.2222 0.4444 0.1057 (  2518 PWs)   bands (ev):

   -45.7823 -22.4746 -22.4247 -22.3847  -6.7846  -6.3492  -6.2482  -5.0218
    -4.9841  -4.8924  -4.7305  -4.6860   2.7378   5.6656   6.1932   6.4446
     7.1234   7.6676   7.8586   8.6481   8.9977   9.5749

          k = 0.2222 0.4444 0.2114 (  2514 PWs)   bands (ev):

   -45.7822 -22.4859 -22.4241 -22.3842  -6.7462  -6.3473  -6.1984  -5.0060
    -4.9779  -4.8765  -4.7164  -4.6374   2.7818   5.6201   5.7393   6.1172
     6.8335   7.4946   8.2755   8.7454   9.0805   9.2031

          k = 0.2222 0.4444 0.3171 (  2504 PWs)   bands (ev):

   -45.7820 -22.4986 -22.4234 -22.3837  -6.7263  -6.3438  -6.1131  -4.9982
    -4.9582  -4.8583  -4.7048  -4.5798   2.8165   5.4603   5.4923   5.8588
     6.4824   7.2581   8.3282   8.8543   8.9216   9.3438

          k = 0.2222 0.4444 0.4228 (  2510 PWs)   bands (ev):

   -45.7819 -22.5069 -22.4229 -22.3833  -6.7239  -6.3415  -6.0436  -4.9959
    -4.9412  -4.8448  -4.6988  -4.5427   2.8275   5.3213   5.3747   5.7629
     6.2351   7.1841   8.0928   8.8814   8.9209   9.5394

          k = 0.3333 0.3333 0.0000 (  2522 PWs)   bands (ev):

   -45.7823 -22.4698 -22.4088 -22.4085  -6.7656  -6.3507  -6.2710  -5.0189
    -4.9759  -4.8774  -4.7187  -4.6776   2.6176   5.9110   6.0918   6.8966
     7.0679   7.1866   7.8795   8.4837   9.3052   9.4248

          k = 0.3333 0.3333 0.1057 (  2507 PWs)   bands (ev):

   -45.7822 -22.4743 -22.4086 -22.4083  -6.7363  -6.3603  -6.2618  -5.0103
    -4.9750  -4.8672  -4.7084  -4.6613   2.6597   5.8864   6.0016   6.3139
     6.8976   7.4993   8.2720   8.3569   9.2545   9.3081

          k = 0.3333 0.3333 0.2114 (  2520 PWs)   bands (ev):

   -45.7820 -22.4855 -22.4080 -22.4078  -6.6743  -6.3837  -6.2238  -4.9886
    -4.9725  -4.8417  -4.6811  -4.6206   2.7673   5.6529   5.7234   5.9383
     6.6506   7.2081   8.4464   8.8130   8.9612   9.3175

          k = 0.3333 0.3333 0.3171 (  2506 PWs)   bands (ev):

   -45.7819 -22.4983 -22.4074 -22.4072  -6.6282  -6.4094  -6.1515  -4.9695
    -4.9642  -4.8115  -4.6491  -4.5753   2.8876   5.3145   5.4064   5.8232
     6.5662   6.6706   8.1172   9.1121   9.1848   9.3462

          k = 0.3333 0.3333 0.4228 (  2505 PWs)   bands (ev):

   -45.7817 -22.5066 -22.4069 -22.4068  -6.6112  -6.4256  -6.0886  -4.9674
    -4.9487  -4.7894  -4.6288  -4.5462   2.9601   5.1720   5.2171   5.7027
     6.3844   6.5422   7.7900   9.2517   9.2873   9.4381

          k = 0.3333 0.4444 0.0000 (  2514 PWs)   bands (ev):

   -45.7820 -22.4690 -22.4237 -22.4079  -6.6538  -6.3239  -6.3006  -5.0122
    -4.9565  -4.8193  -4.7117  -4.6838   2.4555   5.6371   6.1185   6.7614
     7.2118   7.2942   7.5820   8.4681   9.1721   9.4797

          k = 0.3333 0.4444 0.1057 (  2523 PWs)   bands (ev):

   -45.7819 -22.4734 -22.4234 -22.4077  -6.6237  -6.3339  -6.2992  -5.0034
    -4.9548  -4.8055  -4.6964  -4.6658   2.5146   5.6288   6.0406   6.2441
     6.7616   7.6819   7.9955   8.4196   8.9681   9.4654

          k = 0.3333 0.4444 0.2114 (  2516 PWs)   bands (ev):

   -45.7818 -22.4847 -22.4229 -22.4071  -6.5699  -6.3575  -6.2708  -4.9816
    -4.9503  -4.7756  -4.6579  -4.6151   2.6761   5.5605   5.6556   5.7604
     6.4536   7.2688   8.1789   8.8192   8.8422   9.4589

          k = 0.3333 0.4444 0.3171 (  2504 PWs)   bands (ev):

   -45.7816 -22.4974 -22.4222 -22.4065  -6.5521  -6.3825  -6.1901  -4.9601
    -4.9422  -4.7456  -4.6131  -4.5541   2.8844   5.1760   5.3653   5.5768
     6.3226   6.7363   7.6095   9.1841   9.2651   9.4686

          k = 0.3333 0.4444 0.4228 (  2500 PWs)   bands (ev):

   -45.7815 -22.5057 -22.4218 -22.4062  -6.5570  -6.3981  -6.1178  -4.9522
    -4.9310  -4.7258  -4.5833  -4.5140   3.0377   4.9692   5.1475   5.5019
     6.1881   6.5292   7.1904   9.3484   9.4287   9.5613

          k = 0.4444 0.4444 0.0000 (  2512 PWs)   bands (ev):

   -45.7817 -22.4682 -22.4228 -22.4228  -6.5748  -6.3060  -6.3041  -5.0037
    -4.9247  -4.7535  -4.7148  -4.6717   2.2872   5.4919   6.0040   6.9271
     6.9943   7.4151   7.5264   8.2944   8.7907   9.6925

          k = 0.4444 0.4444 0.1057 (  2517 PWs)   bands (ev):

   -45.7816 -22.4726 -22.4226 -22.4226  -6.5331  -6.3223  -6.3164  -4.9948
    -4.9236  -4.7323  -4.6880  -4.6604   2.3628   5.4836   5.9805   6.3584
     6.4701   7.8204   8.1057   8.1468   8.5165   9.6897

          k = 0.4444 0.4444 0.2114 (  2525 PWs)   bands (ev):

   -45.7815 -22.4839 -22.4221 -22.4221  -6.4453  -6.3615  -6.3261  -4.9723
    -4.9213  -4.6916  -4.6214  -4.6184   2.5778   5.4499   5.7062   5.7144
     6.1109   7.2478   7.7468   8.8061   8.8080   9.6828

          k = 0.4444 0.4444 0.3171 (  2509 PWs)   bands (ev):

   -45.7813 -22.4966 -22.4215 -22.4214  -6.4329  -6.4030  -6.2439  -4.9467
    -4.9191  -4.6600  -4.5550  -4.5475   2.8822   5.2021   5.2741   5.4237
     6.0771   6.6213   6.9782   9.3073   9.3189   9.6749

          k = 0.4444 0.4444 0.4228 (  2498 PWs)   bands (ev):

   -45.7812 -22.5049 -22.4211 -22.4210  -6.4506  -6.4287  -6.1617  -4.9300
    -4.9179  -4.6407  -4.5108  -4.5001   3.1406   4.9459   5.0327   5.3525
     6.0733   6.2686   6.4658   9.5577   9.5750   9.6687

     highest occupied level (ev):    10.2556

!    total energy              =    -380.57228077 Ry
     estimated scf accuracy    <          5.4E-11 Ry

     The total energy is the sum of the following terms:
     one-electron contribution =     -85.71953192 Ry
     hartree contribution      =      72.00495115 Ry
     xc contribution           =    -102.58551207 Ry
     ewald contribution        =    -264.27218794 Ry

     convergence has been achieved in   9 iterations

     negative rho (up, down):  1.552E-02 0.000E+00

     Forces acting on atoms (cartesian axes, Ry/au):

     atom    1 type  1   force =     0.00000000    0.00000000   -0.00024983
     atom    2 type  2   force =     0.00000000    0.00000000    0.00057319
     atom    3 type  3   force =     0.00000000    0.00000000   -0.00342044
     atom    4 type  3   force =     0.00000000    0.00000000    0.00154854
     atom    5 type  3   force =     0.00000000    0.00000000    0.00154854

     Total force =     0.004109     Total SCF correction =     0.000027


     Computing stress (Cartesian axis) and pressure


     negative rho (up, down):  1.552E-02 0.000E+00
          total   stress  (Ry/bohr**3)                   (kbar)     P=      -43.22
  -0.00034770   0.00000000   0.00000000          -51.15        0.00        0.00
   0.00000000  -0.00034770   0.00000000            0.00      -51.15        0.00
   0.00000000   0.00000000  -0.00018608            0.00        0.00      -27.37

     Energy error            =      7.4E-05 Ry
     Gradient error          =      3.4E-03 Ry/Bohr

     number of scf cycles    =   6
     number of bfgs steps    =   5

     energy             old  =    -380.5722063438 Ry
     energy             new  =    -380.5722807689 Ry

     CASE: energy            _new < energy            _old

     new trust radius        =       0.0039567374 bohr
     new conv_thr            =            1.0E-10 Ry


ATOMIC_POSITIONS (crystal)
Pb               0.0000000000        0.0000000000        0.9935240440
Ti               0.5000000000        0.5000000000        0.5385840285
O                0.5000000000        0.5000000000        0.1071428339
O                0.5000000000        0.0000000000        0.6140166908
O                0.0000000000        0.5000000000        0.6140166908



     Writing config-only to output data dir ./pto_k9.save/ :
     XML data file
     NEW-OLD atomic charge density approx. for the potential

     Check: negative core charge=   -0.000004

     negative rho (up, down):  1.555E-02 0.000E+00

     total cpu time spent up to now is      163.7 secs

     Self-consistent Calculation

     iteration #  1     ecut=    50.00 Ry     beta= 0.70
     CG style diagonalization
     ethr =  1.00E-06,  avg # of iterations =  3.2

     Threshold (ethr) on eigenvalues was too large:
     Diagonalizing with lowered threshold

     CG style diagonalization
     c_bands:  1 eigenvalues not converged
     c_bands:  1 eigenvalues not converged
     c_bands:  1 eigenvalues not converged
     c_bands:  1 eigenvalues not converged
     c_bands:  1 eigenvalues not converged
     c_bands:  1 eigenvalues not converged
     c_bands:  1 eigenvalues not converged
     c_bands:  1 eigenvalues not converged
     c_bands:  1 eigenvalues not converged
     c_bands:  2 eigenvalues not converged
     c_bands:  1 eigenvalues not converged
     c_bands:  2 eigenvalues not converged
     c_bands:  2 eigenvalues not converged
     c_bands:  1 eigenvalues not converged
     c_bands:  1 eigenvalues not converged
     c_bands:  1 eigenvalues not converged
     c_bands:  1 eigenvalues not converged
     c_bands:  1 eigenvalues not converged
     c_bands:  1 eigenvalues not converged
     c_bands:  1 eigenvalues not converged
     c_bands:  2 eigenvalues not converged
     c_bands:  1 eigenvalues not converged
     c_bands:  1 eigenvalues not converged
     c_bands:  1 eigenvalues not converged
     c_bands:  1 eigenvalues not converged
     c_bands:  1 eigenvalues not converged
     c_bands:  1 eigenvalues not converged
     c_bands:  1 eigenvalues not converged
     c_bands:  1 eigenvalues not converged
     ethr =  2.47E-08,  avg # of iterations =  6.4

     negative rho (up, down):  1.555E-02 0.000E+00

     total cpu time spent up to now is      168.8 secs

     total energy              =    -380.57228865 Ry
     estimated scf accuracy    <       0.00001158 Ry

     iteration #  2     ecut=    50.00 Ry     beta= 0.70
     CG style diagonalization
     ethr =  2.63E-08,  avg # of iterations =  4.8

     negative rho (up, down):  1.555E-02 0.000E+00

     total cpu time spent up to now is      171.0 secs

     total energy              =    -380.57228686 Ry
     estimated scf accuracy    <       0.00003928 Ry

     iteration #  3     ecut=    50.00 Ry     beta= 0.70
     CG style diagonalization
     ethr =  2.63E-08,  avg # of iterations =  4.3

     negative rho (up, down):  1.555E-02 0.000E+00

     total cpu time spent up to now is      173.0 secs

     total energy              =    -380.57229420 Ry
     estimated scf accuracy    <       0.00000216 Ry

     iteration #  4     ecut=    50.00 Ry     beta= 0.70
     CG style diagonalization
     ethr =  4.91E-09,  avg # of iterations =  3.7

     negative rho (up, down):  1.555E-02 0.000E+00

     total cpu time spent up to now is      174.7 secs

     total energy              =    -380.57229477 Ry
     estimated scf accuracy    <       0.00000020 Ry

     iteration #  5     ecut=    50.00 Ry     beta= 0.70
     CG style diagonalization
     ethr =  4.46E-10,  avg # of iterations =  4.3

     negative rho (up, down):  1.555E-02 0.000E+00

     total cpu time spent up to now is      176.7 secs

     total energy              =    -380.57229488 Ry
     estimated scf accuracy    <       0.00000004 Ry

     iteration #  6     ecut=    50.00 Ry     beta= 0.70
     CG style diagonalization
     ethr =  8.41E-11,  avg # of iterations =  4.3

     negative rho (up, down):  1.555E-02 0.000E+00

     total cpu time spent up to now is      178.7 secs

     total energy              =    -380.57229490 Ry
     estimated scf accuracy    <          8.5E-09 Ry

     iteration #  7     ecut=    50.00 Ry     beta= 0.70
     CG style diagonalization
     ethr =  1.94E-11,  avg # of iterations =  4.3

     negative rho (up, down):  1.555E-02 0.000E+00

     total cpu time spent up to now is      180.7 secs

     total energy              =    -380.57229490 Ry
     estimated scf accuracy    <          1.2E-09 Ry

     iteration #  8     ecut=    50.00 Ry     beta= 0.70
     CG style diagonalization
     ethr =  2.67E-12,  avg # of iterations =  5.2

     negative rho (up, down):  1.555E-02 0.000E+00

     total cpu time spent up to now is      183.2 secs

     End of self-consistent calculation

          k = 0.0000 0.0000 0.0000 (  2525 PWs)   bands (ev):

   -45.7921 -22.4776 -22.3675 -22.3675  -7.5743  -6.5139  -6.2067  -4.9930
    -4.9930  -4.9517  -4.8670  -4.6849   4.2101   6.2523   6.2523   6.8015
     8.1218   8.1218   8.4521   8.6286   8.8754   8.8754

          k = 0.0000 0.0000 0.1057 (  2533 PWs)   bands (ev):

   -45.7920 -22.4822 -22.3674 -22.3674  -7.5319  -6.5020  -6.1923  -4.9965
    -4.9965  -4.9514  -4.8637  -4.6995   3.9953   6.2637   6.2637   6.9645
     8.0635   8.0635   8.4318   8.5191   8.9038   8.9038

          k = 0.0000 0.0000 0.2114 (  2517 PWs)   bands (ev):

   -45.7918 -22.4938 -22.3669 -22.3669  -7.4216  -6.4711  -6.1566  -5.0054
    -5.0054  -4.9506  -4.8555  -4.7375   3.5679   6.2888   6.2888   6.9578
     7.9432   7.9432   8.3818   8.6544   8.9597   8.9597

          k = 0.0000 0.0000 0.3171 (  2510 PWs)   bands (ev):

   -45.7917 -22.5069 -22.3664 -22.3664  -7.2904  -6.4342  -6.1180  -5.0155
    -5.0155  -4.9498  -4.8464  -4.7825   3.1907   6.3094   6.3094   6.5619
     7.8411   7.8411   8.3265   9.0077   9.0077   9.2858

          k = 0.0000 0.0000 0.4228 (  2538 PWs)   bands (ev):

   -45.7915 -22.5155 -22.3660 -22.3660  -7.2008  -6.4091  -6.0943  -5.0221
    -5.0221  -4.9492  -4.8406  -4.8129   2.9819   6.2544   6.3176   6.3176
     7.7902   7.7902   8.2912   9.0341   9.0341   9.8873

          k = 0.0000 0.1111 0.0000 (  2525 PWs)   bands (ev):

   -45.7919 -22.4772 -22.3757 -22.3672  -7.5124  -6.5016  -6.1974  -5.0040
    -4.9923  -4.9576  -4.8622  -4.6790   3.9975   6.2867   6.3014   6.8114
     8.0750   8.1339   8.4582   8.6023   8.6944   8.9266

          k = 0.0000 0.1111 0.1057 (  2522 PWs)   bands (ev):

   -45.7918 -22.4818 -22.3755 -22.3670  -7.4712  -6.4913  -6.1827  -5.0051
    -4.9959  -4.9574  -4.8599  -4.6905   3.8248   6.2497   6.3139   6.9619
     7.9716   8.0688   8.4747   8.4970   8.7307   8.9589

          k = 0.0000 0.1111 0.2114 (  2517 PWs)   bands (ev):

   -45.7917 -22.4934 -22.3750 -22.3666  -7.3649  -6.4644  -6.1455  -5.0076
    -5.0050  -4.9567  -4.8547  -4.7201   3.4582   6.1963   6.3413   7.0120
     7.7430   7.9418   8.4394   8.5124   8.7964   9.1335

          k = 0.0000 0.1111 0.3171 (  2523 PWs)   bands (ev):

   -45.7915 -22.5065 -22.3744 -22.3660  -7.2397  -6.4324  -6.1037  -5.0152
    -5.0100  -4.9560  -4.8496  -4.7548   3.1179   6.1016   6.3637   6.7254
     7.6355   7.8390   8.5024   8.5533   8.8495   9.5331

          k = 0.0000 0.1111 0.4228 (  2524 PWs)   bands (ev):

   -45.7914 -22.5150 -22.3741 -22.3657  -7.1553  -6.4106  -6.0767  -5.0218
    -5.0113  -4.9556  -4.8467  -4.7780   2.9249   5.9694   6.3725   6.5415
     7.6016   7.7897   8.4890   8.6198   8.8779   9.9405

          k = 0.0000 0.2222 0.0000 (  2507 PWs)   bands (ev):

   -45.7915 -22.4764 -22.3962 -22.3664  -7.3487  -6.4708  -6.1773  -5.0250
    -4.9906  -4.9725  -4.8495  -4.6724   3.5796   6.2807   6.4403   6.6289
     8.1490   8.1540   8.3035   8.3791   8.5857   9.0707

          k = 0.0000 0.2222 0.1057 (  2514 PWs)   bands (ev):

   -45.7915 -22.4809 -22.3960 -22.3662  -7.3122  -6.4636  -6.1610  -5.0211
    -4.9944  -4.9724  -4.8484  -4.6763   3.4674   6.1958   6.4559   6.7276
     7.9861   8.0452   8.3276   8.3857   8.5197   9.1900

          k = 0.0000 0.2222 0.2114 (  2513 PWs)   bands (ev):

   -45.7913 -22.4924 -22.3954 -22.3657  -7.2200  -6.4441  -6.1175  -5.0100
    -5.0037  -4.9721  -4.8486  -4.6848   3.2072   6.0525   6.4897   6.8102
     7.6534   7.8995   8.0077   8.4769   8.6941   9.4153

          k = 0.0000 0.2222 0.3171 (  2518 PWs)   bands (ev):

   -45.7911 -22.5054 -22.3948 -22.3652  -7.1169  -6.4188  -6.0639  -5.0143
    -4.9951  -4.9718  -4.8540  -4.6926   2.9442   5.8686   6.5163   6.7171
     7.3869   7.8015   7.8834   8.5365   8.8305   9.6588

          k = 0.0000 0.2222 0.4228 (  2510 PWs)   bands (ev):

   -45.7910 -22.5138 -22.3944 -22.3648  -7.0513  -6.3997  -6.0261  -5.0212
    -4.9845  -4.9716  -4.8599  -4.6971   2.7876   5.7033   6.5257   6.6002
     7.2984   7.7612   7.8702   8.5661   8.8867   9.8267

          k = 0.0000 0.3333 0.0000 (  2514 PWs)   bands (ev):

   -45.7911 -22.4753 -22.4194 -22.3654  -7.1483  -6.4308  -6.1676  -5.0422
    -4.9897  -4.9883  -4.8236  -4.6853   3.2256   5.9456   6.6451   6.6659
     7.8023   7.8403   8.2248   8.2906   8.6612   9.6366

          k = 0.0000 0.3333 0.1057 (  2512 PWs)   bands (ev):

   -45.7910 -22.4798 -22.4191 -22.3652  -7.1210  -6.4236  -6.1486  -5.0349
    -4.9927  -4.9893  -4.8211  -4.6809   3.1498   5.9214   6.6475   6.6666
     7.6151   7.7857   8.2529   8.3824   8.4980   9.6860

          k = 0.0000 0.3333 0.2114 (  2505 PWs)   bands (ev):

   -45.7909 -22.4911 -22.4185 -22.3647  -7.0575  -6.4019  -6.0940  -5.0151
    -5.0023  -4.9895  -4.8236  -4.6636   2.9661   5.8423   6.5745   6.7120
     7.2956   7.6885   7.9537   8.2995   8.7849   9.7123

          k = 0.0000 0.3333 0.3171 (  2508 PWs)   bands (ev):

   -45.7907 -22.5040 -22.4178 -22.3642  -6.9965  -6.3697  -6.0203  -5.0133
    -4.9897  -4.9893  -4.8391  -4.6372   2.7702   5.6835   6.4297   6.7431
     7.1345   7.5706   7.6297   8.3336   9.0800   9.6469

          k = 0.0000 0.3333 0.4228 (  2521 PWs)   bands (ev):

   -45.7906 -22.5124 -22.4173 -22.3638  -6.9639  -6.3437  -5.9650  -5.0205
    -4.9898  -4.9693  -4.8555  -4.6185   2.6490   5.5178   6.3372   6.7488
     7.1080   7.3793   7.6180   8.3507   9.2354   9.5788

          k = 0.0000 0.4444 0.0000 (  2498 PWs)   bands (ev):

   -45.7908 -22.4745 -22.4345 -22.3648  -7.0075  -6.3913  -6.1811  -5.0513
    -5.0004  -4.9873  -4.7788  -4.7252   3.0422   5.6460   6.8536   6.8596
     7.4103   7.5040   8.2170   8.2527   8.6882  10.2600

          k = 0.0000 0.4444 0.1057 (  2511 PWs)   bands (ev):

   -45.7907 -22.4790 -22.4343 -22.3646  -6.9912  -6.3785  -6.1606  -5.0435
    -5.0005  -4.9913  -4.7748  -4.7144   2.9820   5.6400   6.7933   6.8952
     7.2206   7.4597   8.2604   8.3928   8.4867  10.1727

          k = 0.0000 0.4444 0.2114 (  2517 PWs)   bands (ev):

   -45.7906 -22.4903 -22.4336 -22.3641  -6.9590  -6.3441  -6.0960  -5.0227
    -5.0015  -5.0007  -4.7862  -4.6689   2.8340   5.6117   6.6120   6.8840
     6.9757   7.3692   8.0417   8.2755   8.7809   9.9334

          k = 0.0000 0.4444 0.3171 (  2510 PWs)   bands (ev):

   -45.7904 -22.5031 -22.4328 -22.3635  -6.9371  -6.3014  -6.0013  -5.0127
    -5.0013  -4.9965  -4.8112  -4.6120   2.6735   5.5252   6.2568   6.8102
     7.0198   7.3320   7.6392   8.2879   9.1308   9.6548

          k = 0.0000 0.4444 0.4228 (  2524 PWs)   bands (ev):

   -45.7903 -22.5114 -22.4323 -22.3631  -6.9299  -6.2718  -5.9279  -5.0200
    -5.0016  -4.9766  -4.8321  -4.5757   2.5728   5.3997   6.0750   6.8254
     7.0024   7.3630   7.4120   8.2941   9.2509   9.5459

          k = 0.1111 0.1111 0.0000 (  2513 PWs)   bands (ev):

   -45.7918 -22.4769 -22.3754 -22.3752  -7.4509  -6.4891  -6.1923  -5.0052
    -5.0007  -4.9634  -4.8511  -4.6733   3.8217   6.2638   6.3798   6.8238
     7.8553   8.2084   8.3297   8.5115   8.8778   8.9485

          k = 0.1111 0.1111 0.1057 (  2509 PWs)   bands (ev):

   -45.7917 -22.4815 -22.3752 -22.3750  -7.4109  -6.4804  -6.1774  -5.0047
    -5.0037  -4.9632  -4.8492  -4.6820   3.6832   6.2465   6.3075   6.9735
     7.8051   8.0783   8.3072   8.5393   8.8799   8.9486

          k = 0.1111 0.1111 0.2114 (  2520 PWs)   bands (ev):

   -45.7915 -22.4930 -22.3747 -22.3746  -7.3080  -6.4579  -6.1393  -5.0146
    -4.9986  -4.9629  -4.8453  -4.7050   3.3715   6.1971   6.2373   7.0321
     7.7155   7.7779   8.3000   8.5800   8.8870   9.1463

          k = 0.1111 0.1111 0.3171 (  2527 PWs)   bands (ev):

   -45.7914 -22.5061 -22.3741 -22.3740  -7.1881  -6.4315  -6.0949  -5.0252
    -4.9904  -4.9626  -4.8429  -4.7326   3.0668   6.1316   6.1329   6.8105
     7.6554   7.6646   8.3075   8.5955   8.8996   9.5469

          k = 0.1111 0.1111 0.4228 (  2515 PWs)   bands (ev):

   -45.7912 -22.5145 -22.3738 -22.3737  -7.1081  -6.4138  -6.0651  -5.0316
    -4.9832  -4.9626  -4.8429  -4.7515   2.8892   5.9737   6.0875   6.6929
     7.6325   7.6426   8.3186   8.5943   8.9108   9.8816

          k = 0.1111 0.2222 0.0000 (  2506 PWs)   bands (ev):

   -45.7914 -22.4760 -22.3958 -22.3744  -7.2887  -6.4581  -6.1828  -5.0252
    -4.9981  -4.9694  -4.8306  -4.6668   3.4538   6.2435   6.4959   6.6586
     7.7591   7.8502   8.3893   8.5299   8.7502   9.2089

          k = 0.1111 0.2222 0.1057 (  2506 PWs)   bands (ev):

   -45.7913 -22.4805 -22.3956 -22.3742  -7.2527  -6.4528  -6.1669  -5.0211
    -5.0009  -4.9685  -4.8286  -4.6686   3.3699   6.1866   6.3504   6.7996
     7.6518   7.8711   8.3046   8.5733   8.6953   9.2521

          k = 0.1111 0.2222 0.2114 (  2507 PWs)   bands (ev):

   -45.7911 -22.4920 -22.3950 -22.3738  -7.1626  -6.4390  -6.1240  -5.0168
    -4.9994  -4.9658  -4.8264  -4.6732   3.1622   6.0364   6.2516   6.8423
     7.4537   7.6706   8.2552   8.5939   8.7658   9.3884

          k = 0.1111 0.2222 0.3171 (  2519 PWs)   bands (ev):

   -45.7910 -22.5049 -22.3944 -22.3732  -7.0624  -6.4216  -6.0695  -5.0231
    -4.9850  -4.9587  -4.8298  -4.6781   2.9373   5.8551   6.1938   6.6853
     7.2836   7.5427   8.2086   8.6276   8.8909   9.5622

          k = 0.1111 0.2222 0.4228 (  2518 PWs)   bands (ev):

   -45.7909 -22.5134 -22.3940 -22.3728  -6.9993  -6.4088  -6.0300  -5.0277
    -4.9774  -4.9470  -4.8369  -4.6814   2.7977   5.7053   6.1257   6.5725
     7.2577   7.4981   8.1659   8.6543   8.9502   9.6707

          k = 0.1111 0.3333 0.0000 (  2510 PWs)   bands (ev):

   -45.7909 -22.4749 -22.4190 -22.3734  -7.0904  -6.4189  -6.1850  -5.0399
    -4.9923  -4.9697  -4.8053  -4.6789   3.1256   5.9494   6.5529   6.7612
     7.3922   7.8778   8.0556   8.5113   8.7647   9.6754

          k = 0.1111 0.3333 0.1057 (  2507 PWs)   bands (ev):

   -45.7909 -22.4794 -22.4187 -22.3732  -7.0629  -6.4145  -6.1670  -5.0334
    -4.9949  -4.9677  -4.8015  -4.6729   3.0769   5.9246   6.3782   6.8006
     7.3285   7.8589   8.0695   8.5743   8.6398   9.6684

          k = 0.1111 0.3333 0.2114 (  2504 PWs)   bands (ev):

   -45.7907 -22.4908 -22.4181 -22.3727  -6.9993  -6.4005  -6.1149  -5.0201
    -4.9974  -4.9614  -4.7990  -4.6533   2.9488   5.8363   6.2020   6.6848
     7.0822   7.7310   8.1686   8.4083   8.8356   9.6090

          k = 0.1111 0.3333 0.3171 (  2516 PWs)   bands (ev):

   -45.7905 -22.5036 -22.4174 -22.3722  -6.9392  -6.3788  -6.0427  -5.0187
    -4.9874  -4.9477  -4.8077  -4.6261   2.7981   5.6644   6.1431   6.5106
     6.7683   7.6060   8.2745   8.3083   9.0791   9.4861

          k = 0.1111 0.3333 0.4228 (  2517 PWs)   bands (ev):

   -45.7904 -22.5120 -22.4170 -22.3718  -6.9077  -6.3609  -5.9874  -5.0216
    -4.9796  -4.9308  -4.8206  -4.6072   2.6988   5.4996   6.1515   6.3639
     6.6350   7.5559   8.2414   8.3474   9.1660   9.4266

          k = 0.1111 0.4444 0.0000 (  2519 PWs)   bands (ev):

   -45.7907 -22.4741 -22.4341 -22.3728  -6.9510  -6.3806  -6.2061  -5.0446
    -4.9881  -4.9683  -4.7661  -4.7167   2.9504   5.6548   6.6571   7.0234
     7.1169   7.5495   8.0250   8.4652   8.7904  10.1239

          k = 0.1111 0.4444 0.1057 (  2514 PWs)   bands (ev):

   -45.7906 -22.4786 -22.4338 -22.3726  -6.9339  -6.3713  -6.1872  -5.0374
    -4.9904  -4.9665  -4.7607  -4.7045   2.9172   5.6479   6.4191   6.9109
     7.2322   7.5371   8.0445   8.5644   8.6388  10.0113

          k = 0.1111 0.4444 0.2114 (  2519 PWs)   bands (ev):

   -45.7904 -22.4899 -22.4332 -22.3721  -6.9008  -6.3461  -6.1262  -5.0220
    -4.9917  -4.9617  -4.7649  -4.6586   2.8275   5.6158   6.1781   6.5515
     7.0381   7.7378   7.9735   8.4360   8.8385   9.7234

          k = 0.1111 0.4444 0.3171 (  2509 PWs)   bands (ev):

   -45.7903 -22.5027 -22.4324 -22.3715  -6.8796  -6.3151  -6.0345  -5.0178
    -4.9778  -4.9540  -4.7808  -4.6018   2.7178   5.5202   6.0687   6.2240
     6.7292   7.7590   7.9963   8.3435   9.0617   9.4722

          k = 0.1111 0.4444 0.4228 (  2524 PWs)   bands (ev):

   -45.7901 -22.5110 -22.4319 -22.3711  -6.8735  -6.2940  -5.9629  -5.0200
    -4.9652  -4.9432  -4.7959  -4.5655   2.6430   5.3870   6.0073   6.1296
     6.5310   7.7072   8.0686   8.3011   8.9596   9.5322

          k = 0.2222 0.2222 0.0000 (  2508 PWs)   bands (ev):

   -45.7910 -22.4751 -22.3950 -22.3946  -7.1313  -6.4267  -6.1991  -5.0265
    -5.0027  -4.9550  -4.7941  -4.6596   3.1647   6.2173   6.4551   6.7134
     7.3593   7.4783   8.4034   8.5536   8.8791   9.4514

          k = 0.2222 0.2222 0.1057 (  2510 PWs)   bands (ev):

   -45.7909 -22.4796 -22.3948 -22.3944  -7.0978  -6.4262  -6.1839  -5.0199
    -5.0053  -4.9518  -4.7900  -4.6560   3.1320   6.1392   6.2622   6.6792
     7.3945   7.4982   8.4250   8.5339   8.8974   9.3985

          k = 0.2222 0.2222 0.2114 (  2500 PWs)   bands (ev):

   -45.7908 -22.4910 -22.3943 -22.3939  -7.0155  -6.4251  -6.1405  -5.0105
    -5.0032  -4.9413  -4.7814  -4.6480   3.0357   5.9456   6.0010   6.6042
     7.2815   7.3188   8.4236   8.7301   8.9644   9.3241

          k = 0.2222 0.2222 0.3171 (  2517 PWs)   bands (ev):

   -45.7906 -22.5039 -22.3936 -22.3933  -6.9277  -6.4240  -6.0809  -5.0146
    -4.9861  -4.9212  -4.7769  -4.6406   2.9072   5.7394   5.8594   6.4092
     7.0159   7.2228   8.4909   8.8251   9.0688   9.2903

          k = 0.2222 0.2222 0.4228 (  2520 PWs)   bands (ev):

   -45.7905 -22.5122 -22.3932 -22.3930  -6.8748  -6.4234  -6.0346  -5.0162
    -4.9775  -4.8996  -4.7795  -4.6367   2.8156   5.6138   5.7700   6.2426
     6.9171   7.2020   8.4834   8.8582   9.1320   9.2565

          k = 0.2222 0.3333 0.0000 (  2520 PWs)   bands (ev):

   -45.7906 -22.4740 -22.4179 -22.3937  -6.9412  -6.3897  -6.2266  -5.0280
    -4.9910  -4.9273  -4.7611  -4.6687   2.8797   5.9677   6.3826   6.8895
     6.9802   7.5008   8.0202   8.6347   8.9751   9.6425

          k = 0.2222 0.3333 0.1057 (  2518 PWs)   bands (ev):

   -45.7905 -22.4785 -22.4177 -22.3935  -6.9132  -6.3923  -6.2117  -5.0207
    -4.9916  -4.9216  -4.7542  -4.6583   2.8834   5.9300   6.1991   6.5169
     7.1466   7.5408   8.1803   8.5788   8.9866   9.5384

          k = 0.2222 0.3333 0.2114 (  2512 PWs)   bands (ev):

   -45.7903 -22.4898 -22.4171 -22.3930  -6.8499  -6.3976  -6.1651  -5.0056
    -4.9886  -4.9060  -4.7395  -4.6310   2.8809   5.7858   5.8446   6.2882
     6.9322   7.3843   8.4248   8.7413   9.0393   9.2958

          k = 0.2222 0.3333 0.3171 (  2508 PWs)   bands (ev):

   -45.7902 -22.5026 -22.4164 -22.3924  -6.7933  -6.4010  -6.0941  -5.0006
    -4.9723  -4.8836  -4.7282  -4.5990   2.8552   5.5716   5.6245   6.1339
     6.5972   7.1757   8.5589   8.8855   8.9865   9.2521

          k = 0.2222 0.3333 0.4228 (  2512 PWs)   bands (ev):

   -45.7900 -22.5109 -22.4160 -22.3920  -6.7658  -6.4018  -6.0368  -4.9996
    -4.9597  -4.8638  -4.7249  -4.5780   2.8245   5.4037   5.5701   5.9951
     6.3993   7.1178   8.4766   8.8928   8.9458   9.3732

          k = 0.2222 0.4444 0.0000 (  2527 PWs)   bands (ev):

   -45.7903 -22.4732 -22.4330 -22.3930  -6.8085  -6.3554  -6.2605  -5.0260
    -4.9810  -4.8950  -4.7342  -4.6985   2.7164   5.6713   6.4905   6.6917
     7.1516   7.5711   7.6260   8.7161   8.9714   9.7452

          k = 0.2222 0.4444 0.1057 (  2518 PWs)   bands (ev):

   -45.7902 -22.4776 -22.4327 -22.3928  -6.7882  -6.3550  -6.2469  -5.0183
    -4.9805  -4.8882  -4.7265  -4.6815   2.7365   5.6625   6.1945   6.4405
     7.1248   7.6713   7.8620   8.6494   8.9939   9.5782

          k = 0.2222 0.4444 0.2114 (  2514 PWs)   bands (ev):

   -45.7901 -22.4889 -22.4321 -22.3923  -6.7508  -6.3531  -6.1959  -5.0025
    -4.9744  -4.8723  -4.7126  -4.6330   2.7810   5.6175   5.7394   6.1154
     6.8330   7.4983   8.2766   8.7475   9.0766   9.2074

          k = 0.2222 0.4444 0.3171 (  2504 PWs)   bands (ev):

   -45.7899 -22.5017 -22.4314 -22.3917  -6.7314  -6.3496  -6.1097  -4.9946
    -4.9547  -4.8541  -4.7010  -4.5758   2.8165   5.4585   5.4915   5.8567
     6.4822   7.2589   8.3331   8.8568   8.9177   9.3456

          k = 0.2222 0.4444 0.4228 (  2510 PWs)   bands (ev):

   -45.7898 -22.5100 -22.4309 -22.3913  -6.7291  -6.3473  -6.0399  -4.9923
    -4.9377  -4.8406  -4.6952  -4.5389   2.8282   5.3220   5.3715   5.7597
     6.2354   7.1837   8.0998   8.8826   8.9171   9.5416

          k = 0.3333 0.3333 0.0000 (  2522 PWs)   bands (ev):

   -45.7901 -22.4729 -22.4168 -22.4166  -6.7679  -6.3568  -6.2711  -5.0155
    -4.9721  -4.8732  -4.7145  -4.6730   2.6153   5.9077   6.0869   6.8989
     7.0689   7.1969   7.8753   8.4875   9.3001   9.4292

          k = 0.3333 0.3333 0.1057 (  2507 PWs)   bands (ev):

   -45.7901 -22.4773 -22.4166 -22.4163  -6.7392  -6.3662  -6.2614  -5.0069
    -4.9712  -4.8630  -4.7042  -4.6568   2.6575   5.8833   5.9978   6.3149
     6.9031   7.5010   8.2714   8.3605   9.2589   9.3031

          k = 0.3333 0.3333 0.2114 (  2520 PWs)   bands (ev):

   -45.7899 -22.4886 -22.4160 -22.4158  -6.6785  -6.3894  -6.2219  -4.9851
    -4.9688  -4.8377  -4.6770  -4.6164   2.7653   5.6532   5.7225   5.9351
     6.6520   7.2099   8.4509   8.8134   8.9648   9.3128

          k = 0.3333 0.3333 0.3171 (  2506 PWs)   bands (ev):

   -45.7897 -22.5014 -22.4154 -22.4152  -6.6334  -6.4148  -6.1483  -4.9657
    -4.9607  -4.8074  -4.6452  -4.5714   2.8860   5.3142   5.4073   5.8191
     6.5655   6.6724   8.1236   9.1149   9.1830   9.3441

          k = 0.3333 0.3333 0.4228 (  2505 PWs)   bands (ev):

   -45.7896 -22.5097 -22.4150 -22.4148  -6.6168  -6.4308  -6.0849  -4.9636
    -4.9452  -4.7853  -4.6251  -4.5425   2.9592   5.1702   5.2185   5.6987
     6.3860   6.5408   7.7973   9.2546   9.2815   9.4400

          k = 0.3333 0.4444 0.0000 (  2514 PWs)   bands (ev):

   -45.7898 -22.4721 -22.4317 -22.4159  -6.6545  -6.3298  -6.3028  -5.0088
    -4.9527  -4.8149  -4.7074  -4.6791   2.4525   5.6339   6.1138   6.7667
     7.2183   7.2964   7.5796   8.4704   9.1752   9.4744

          k = 0.3333 0.4444 0.1057 (  2523 PWs)   bands (ev):

   -45.7898 -22.4765 -22.4315 -22.4157  -6.6252  -6.3398  -6.3004  -5.0000
    -4.9510  -4.8012  -4.6921  -4.6613   2.5115   5.6255   6.0370   6.2469
     6.7656   7.6846   7.9969   8.4211   8.9719   9.4599

          k = 0.3333 0.4444 0.2114 (  2516 PWs)   bands (ev):

   -45.7896 -22.4877 -22.4309 -22.4152  -6.5736  -6.3632  -6.2694  -4.9781
    -4.9465  -4.7714  -4.6540  -4.6110   2.6728   5.5593   5.6559   5.7595
     6.4536   7.2715   8.1827   8.8212   8.8449   9.4536

          k = 0.3333 0.4444 0.3171 (  2504 PWs)   bands (ev):

   -45.7894 -22.5005 -22.4302 -22.4146  -6.5570  -6.3879  -6.1869  -4.9566
    -4.9385  -4.7413  -4.6095  -4.5503   2.8811   5.1768   5.3671   5.5726
     6.3211   6.7384   7.6154   9.1867   9.2658   9.4646

          k = 0.3333 0.4444 0.4228 (  2500 PWs)   bands (ev):

   -45.7893 -22.5088 -22.4298 -22.4142  -6.5622  -6.4034  -6.1142  -4.9485
    -4.9275  -4.7214  -4.5800  -4.5105   3.0345   4.9688   5.1499   5.4972
     6.1878   6.5297   7.1976   9.3509   9.4233   9.5636

          k = 0.4444 0.4444 0.0000 (  2512 PWs)   bands (ev):

   -45.7896 -22.4712 -22.4309 -22.4308  -6.5723  -6.3123  -6.3094  -5.0003
    -4.9207  -4.7490  -4.7102  -4.6672   2.2832   5.4888   6.0002   6.9336
     7.0023   7.4143   7.5243   8.2970   8.7932   9.6867

          k = 0.4444 0.4444 0.1057 (  2517 PWs)   bands (ev):

   -45.7895 -22.4757 -22.4306 -22.4306  -6.5310  -6.3284  -6.3211  -4.9914
    -4.9196  -4.7280  -4.6837  -4.6559   2.3587   5.4804   5.9770   6.3623
     6.4743   7.8227   8.1071   8.1486   8.5196   9.6839

          k = 0.4444 0.4444 0.2114 (  2525 PWs)   bands (ev):

   -45.7893 -22.4869 -22.4301 -22.4301  -6.4466  -6.3672  -6.3270  -4.9689
    -4.9173  -4.6873  -4.6175  -4.6143   2.5731   5.4465   5.7081   5.7175
     6.1092   7.2501   7.7508   8.8082   8.8105   9.6770

          k = 0.4444 0.4444 0.3171 (  2509 PWs)   bands (ev):

   -45.7892 -22.4997 -22.4295 -22.4295  -6.4380  -6.4083  -6.2407  -4.9433
    -4.9152  -4.6555  -4.5514  -4.5440   2.8764   5.2047   5.2772   5.4200
     6.0740   6.6238   6.9840   9.3100   9.3213   9.6691

          k = 0.4444 0.4444 0.4228 (  2498 PWs)   bands (ev):

   -45.7891 -22.5079 -22.4291 -22.4291  -6.4557  -6.4338  -6.1582  -4.9266
    -4.9139  -4.6361  -4.5075  -4.4970   3.1335   4.9486   5.0360   5.3479
     6.0700   6.2719   6.4729   9.5605   9.5774   9.6631

     highest occupied level (ev):    10.2600

!    total energy              =    -380.57229490 Ry
     estimated scf accuracy    <          9.3E-11 Ry

     The total energy is the sum of the following terms:
     one-electron contribution =     -85.72266629 Ry
     hartree contribution      =      72.00475997 Ry
     xc contribution           =    -102.58439812 Ry
     ewald contribution        =    -264.26999047 Ry

     convergence has been achieved in   8 iterations

     negative rho (up, down):  1.555E-02 0.000E+00

     Forces acting on atoms (cartesian axes, Ry/au):

     atom    1 type  1   force =     0.00000000    0.00000000    0.00030177
     atom    2 type  2   force =     0.00000000    0.00000000   -0.00108717
     atom    3 type  3   force =     0.00000000    0.00000000   -0.00107694
     atom    4 type  3   force =     0.00000000    0.00000000    0.00093117
     atom    5 type  3   force =     0.00000000    0.00000000    0.00093117

     Total force =     0.002041     Total SCF correction =     0.000053


     Computing stress (Cartesian axis) and pressure


     negative rho (up, down):  1.555E-02 0.000E+00
          total   stress  (Ry/bohr**3)                   (kbar)     P=      -43.95
  -0.00034803   0.00000000   0.00000000          -51.20        0.00        0.00
   0.00000000  -0.00034803   0.00000000            0.00      -51.20        0.00
   0.00000000   0.00000000  -0.00020033            0.00        0.00      -29.47

     Energy error            =      1.4E-05 Ry
     Gradient error          =      1.1E-03 Ry/Bohr

     number of scf cycles    =   7
     number of bfgs steps    =   6

     energy             old  =    -380.5722807689 Ry
     energy             new  =    -380.5722949046 Ry

     CASE: energy            _new < energy            _old

     new trust radius        =       0.0030694051 bohr
     new conv_thr            =            1.0E-10 Ry


ATOMIC_POSITIONS (crystal)
Pb               0.0000000000        0.0000000000        0.9936052987
Ti               0.5000000000        0.5000000000        0.5384373819
O                0.5000000000        0.5000000000        0.1067466731
O                0.5000000000        0.0000000000        0.6142474672
O                0.0000000000        0.5000000000        0.6142474672



     Writing config-only to output data dir ./pto_k9.save/ :
     XML data file
     NEW-OLD atomic charge density approx. for the potential

     Check: negative core charge=   -0.000004

     negative rho (up, down):  1.554E-02 0.000E+00

     total cpu time spent up to now is      185.6 secs

     Self-consistent Calculation

     iteration #  1     ecut=    50.00 Ry     beta= 0.70
     CG style diagonalization
     ethr =  1.00E-06,  avg # of iterations =  2.9

     Threshold (ethr) on eigenvalues was too large:
     Diagonalizing with lowered threshold

     CG style diagonalization
     c_bands:  1 eigenvalues not converged
     c_bands:  1 eigenvalues not converged
     c_bands:  1 eigenvalues not converged
     c_bands:  1 eigenvalues not converged
     c_bands:  1 eigenvalues not converged
     c_bands:  1 eigenvalues not converged
     c_bands:  1 eigenvalues not converged
     c_bands:  3 eigenvalues not converged
     c_bands:  2 eigenvalues not converged
     c_bands:  3 eigenvalues not converged
     c_bands:  1 eigenvalues not converged
     c_bands:  1 eigenvalues not converged
     c_bands:  1 eigenvalues not converged
     c_bands:  3 eigenvalues not converged
     c_bands:  1 eigenvalues not converged
     c_bands:  1 eigenvalues not converged
     c_bands:  3 eigenvalues not converged
     c_bands:  1 eigenvalues not converged
     c_bands:  1 eigenvalues not converged
     c_bands:  1 eigenvalues not converged
     c_bands:  1 eigenvalues not converged
     c_bands:  2 eigenvalues not converged
     c_bands:  2 eigenvalues not converged
     c_bands:  1 eigenvalues not converged
     c_bands:  1 eigenvalues not converged
     c_bands:  1 eigenvalues not converged
     c_bands:  1 eigenvalues not converged
     c_bands:  1 eigenvalues not converged
     c_bands:  1 eigenvalues not converged
     ethr =  3.60E-09,  avg # of iterations =  7.4

     negative rho (up, down):  1.554E-02 0.000E+00

     total cpu time spent up to now is      190.9 secs

     total energy              =    -380.57229963 Ry
     estimated scf accuracy    <       0.00000320 Ry

     iteration #  2     ecut=    50.00 Ry     beta= 0.70
     CG style diagonalization
     ethr =  7.27E-09,  avg # of iterations =  4.7

     negative rho (up, down):  1.554E-02 0.000E+00

     total cpu time spent up to now is      193.1 secs

     total energy              =    -380.57229892 Ry
     estimated scf accuracy    <       0.00001225 Ry

     iteration #  3     ecut=    50.00 Ry     beta= 0.70
     CG style diagonalization
     ethr =  7.27E-09,  avg # of iterations =  4.3

     negative rho (up, down):  1.554E-02 0.000E+00

     total cpu time spent up to now is      195.1 secs

     total energy              =    -380.57230112 Ry
     estimated scf accuracy    <       0.00000050 Ry

     iteration #  4     ecut=    50.00 Ry     beta= 0.70
     CG style diagonalization
     ethr =  1.13E-09,  avg # of iterations =  3.7

     negative rho (up, down):  1.554E-02 0.000E+00

     total cpu time spent up to now is      196.8 secs

     total energy              =    -380.57230125 Ry
     estimated scf accuracy    <       0.00000006 Ry

     iteration #  5     ecut=    50.00 Ry     beta= 0.70
     CG style diagonalization
     ethr =  1.32E-10,  avg # of iterations =  4.2

     negative rho (up, down):  1.554E-02 0.000E+00

     total cpu time spent up to now is      198.8 secs

     total energy              =    -380.57230128 Ry
     estimated scf accuracy    <       0.00000001 Ry

     iteration #  6     ecut=    50.00 Ry     beta= 0.70
     CG style diagonalization
     ethr =  2.52E-11,  avg # of iterations =  4.1

     negative rho (up, down):  1.554E-02 0.000E+00

     total cpu time spent up to now is      200.7 secs

     total energy              =    -380.57230128 Ry
     estimated scf accuracy    <          1.6E-09 Ry

     iteration #  7     ecut=    50.00 Ry     beta= 0.70
     CG style diagonalization
     ethr =  3.60E-12,  avg # of iterations =  4.7

     negative rho (up, down):  1.554E-02 0.000E+00

     total cpu time spent up to now is      202.9 secs

     total energy              =    -380.57230128 Ry
     estimated scf accuracy    <          2.1E-10 Ry

     iteration #  8     ecut=    50.00 Ry     beta= 0.70
     CG style diagonalization
     ethr =  4.78E-13,  avg # of iterations =  5.7

     negative rho (up, down):  1.554E-02 0.000E+00

     total cpu time spent up to now is      205.6 secs

     End of self-consistent calculation

          k = 0.0000 0.0000 0.0000 (  2525 PWs)   bands (ev):

   -45.7951 -22.4789 -22.3705 -22.3705  -7.5751  -6.5137  -6.2058  -4.9917
    -4.9917  -4.9500  -4.8654  -4.6830   4.2126   6.2504   6.2504   6.7986
     8.1234   8.1234   8.4501   8.6313   8.8740   8.8740

          k = 0.0000 0.0000 0.1057 (  2533 PWs)   bands (ev):

   -45.7951 -22.4835 -22.3703 -22.3703  -7.5327  -6.5019  -6.1914  -4.9952
    -4.9952  -4.9497  -4.8621  -4.6977   3.9977   6.2616   6.2616   6.9616
     8.0653   8.0653   8.4299   8.5218   8.9026   8.9026

          k = 0.0000 0.0000 0.2114 (  2517 PWs)   bands (ev):

   -45.7949 -22.4951 -22.3698 -22.3698  -7.4224  -6.4710  -6.1558  -5.0041
    -5.0041  -4.9489  -4.8538  -4.7356   3.5701   6.2861   6.2861   6.9558
     7.9457   7.9457   8.3798   8.6562   8.9588   8.9588

          k = 0.0000 0.0000 0.3171 (  2510 PWs)   bands (ev):

   -45.7947 -22.5082 -22.3693 -22.3693  -7.2912  -6.4342  -6.1172  -5.0142
    -5.0142  -4.9481  -4.8447  -4.7805   3.1929   6.3060   6.3060   6.5605
     7.8446   7.8446   8.3246   9.0070   9.0070   9.2867

          k = 0.0000 0.0000 0.4228 (  2538 PWs)   bands (ev):

   -45.7946 -22.5168 -22.3690 -22.3690  -7.2015  -6.4091  -6.0937  -5.0207
    -5.0207  -4.9475  -4.8389  -4.8109   2.9842   6.2530   6.3138   6.3138
     7.7944   7.7944   8.2893   9.0335   9.0335   9.8878

          k = 0.0000 0.1111 0.0000 (  2525 PWs)   bands (ev):

   -45.7950 -22.4786 -22.3786 -22.3702  -7.5132  -6.5016  -6.1965  -5.0026
    -4.9910  -4.9559  -4.8607  -4.6771   3.9994   6.2858   6.2996   6.8087
     8.0766   8.1356   8.4567   8.6035   8.6929   8.9273

          k = 0.0000 0.1111 0.1057 (  2522 PWs)   bands (ev):

   -45.7949 -22.4832 -22.3784 -22.3700  -7.4721  -6.4912  -6.1818  -5.0037
    -4.9946  -4.9557  -4.8584  -4.6886   3.8267   6.2485   6.3119   6.9594
     7.9732   8.0707   8.4744   8.4974   8.7295   8.9593

          k = 0.0000 0.1111 0.2114 (  2517 PWs)   bands (ev):

   -45.7948 -22.4947 -22.3779 -22.3695  -7.3657  -6.4644  -6.1447  -5.0062
    -5.0036  -4.9550  -4.8530  -4.7183   3.4600   6.1944   6.3387   7.0099
     7.7452   7.9442   8.4400   8.5113   8.7957   9.1341

          k = 0.0000 0.1111 0.3171 (  2523 PWs)   bands (ev):

   -45.7946 -22.5078 -22.3774 -22.3690  -7.2405  -6.4324  -6.1029  -5.0138
    -5.0086  -4.9543  -4.8479  -4.7529   3.1198   6.0994   6.3603   6.7235
     7.6384   7.8423   8.5011   8.5531   8.8490   9.5341

          k = 0.0000 0.1111 0.4228 (  2524 PWs)   bands (ev):

   -45.7945 -22.5163 -22.3770 -22.3686  -7.1561  -6.4106  -6.0760  -5.0205
    -5.0099  -4.9539  -4.8450  -4.7761   2.9269   5.9674   6.3687   6.5391
     7.6051   7.7937   8.4878   8.6191   8.8775   9.9417

          k = 0.0000 0.2222 0.0000 (  2507 PWs)   bands (ev):

   -45.7946 -22.4777 -22.3991 -22.3693  -7.3496  -6.4710  -6.1764  -5.0235
    -4.9893  -4.9708  -4.8480  -4.6706   3.5805   6.2805   6.4387   6.6286
     8.1516   8.1565   8.3014   8.3776   8.5859   9.0720

          k = 0.0000 0.2222 0.1057 (  2514 PWs)   bands (ev):

   -45.7945 -22.4822 -22.3989 -22.3691  -7.3130  -6.4637  -6.1601  -5.0197
    -4.9930  -4.9707  -4.8469  -4.6745   3.4684   6.1955   6.4541   6.7271
     7.9880   8.0465   8.3280   8.3852   8.5192   9.1909

          k = 0.0000 0.2222 0.2114 (  2513 PWs)   bands (ev):

   -45.7944 -22.4937 -22.3983 -22.3686  -7.2209  -6.4443  -6.1167  -5.0085
    -5.0024  -4.9705  -4.8471  -4.6830   3.2085   6.0517   6.4873   6.8098
     7.6550   7.9011   8.0084   8.4771   8.6938   9.4161

          k = 0.0000 0.2222 0.3171 (  2518 PWs)   bands (ev):

   -45.7942 -22.5067 -22.3977 -22.3681  -7.1176  -6.4191  -6.0632  -5.0130
    -4.9936  -4.9702  -4.8524  -4.6909   2.9457   5.8674   6.5132   6.7170
     7.3884   7.8040   7.8836   8.5370   8.8301   9.6601

          k = 0.0000 0.2222 0.4228 (  2510 PWs)   bands (ev):

   -45.7941 -22.5151 -22.3973 -22.3677  -7.0520  -6.4000  -6.0255  -5.0199
    -4.9830  -4.9700  -4.8583  -4.6954   2.7891   5.7020   6.5221   6.6000
     7.3005   7.7643   7.8697   8.5666   8.8862   9.8285

          k = 0.0000 0.3333 0.0000 (  2514 PWs)   bands (ev):

   -45.7942 -22.4766 -22.4223 -22.3683  -7.1491  -6.4313  -6.1668  -5.0407
    -4.9882  -4.9869  -4.8222  -4.6836   3.2260   5.9461   6.6439   6.6679
     7.8049   7.8390   8.2264   8.2889   8.6621   9.6371

          k = 0.0000 0.3333 0.1057 (  2512 PWs)   bands (ev):

   -45.7941 -22.4811 -22.4220 -22.3682  -7.1218  -6.4241  -6.1478  -5.0334
    -4.9913  -4.9877  -4.8197  -4.6793   3.1503   5.9219   6.6489   6.6652
     7.6174   7.7847   8.2547   8.3820   8.4982   9.6865

          k = 0.0000 0.3333 0.2114 (  2505 PWs)   bands (ev):

   -45.7940 -22.4925 -22.4214 -22.3677  -7.0581  -6.4025  -6.0933  -5.0136
    -5.0010  -4.9879  -4.8222  -4.6620   2.9669   5.8425   6.5754   6.7101
     7.2980   7.6879   7.9534   8.3017   8.7853   9.7130

          k = 0.0000 0.3333 0.3171 (  2508 PWs)   bands (ev):

   -45.7938 -22.5053 -22.4207 -22.3671  -6.9970  -6.3704  -6.0197  -5.0120
    -4.9880  -4.9878  -4.8375  -4.6356   2.7713   5.6831   6.4315   6.7404
     7.1361   7.5698   7.6301   8.3361   9.0809   9.6480

          k = 0.0000 0.3333 0.4228 (  2521 PWs)   bands (ev):

   -45.7937 -22.5137 -22.4202 -22.3667  -6.9643  -6.3446  -5.9644  -5.0192
    -4.9881  -4.9678  -4.8539  -4.6169   2.6502   5.5172   6.3396   6.7455
     7.1088   7.3783   7.6191   8.3533   9.2362   9.5804

          k = 0.0000 0.4444 0.0000 (  2498 PWs)   bands (ev):

   -45.7939 -22.4758 -22.4374 -22.3677  -7.0081  -6.3923  -6.1802  -5.0499
    -4.9987  -4.9860  -4.7774  -4.7236   3.0425   5.6474   6.8577   6.8592
     7.4111   7.5018   8.2152   8.2547   8.6892  10.2609

          k = 0.0000 0.4444 0.1057 (  2511 PWs)   bands (ev):

   -45.7938 -22.4803 -22.4371 -22.3675  -6.9918  -6.3795  -6.1597  -5.0421
    -4.9989  -4.9900  -4.7733  -4.7128   2.9823   5.6414   6.7964   6.8947
     7.2218   7.4573   8.2628   8.3920   8.4873  10.1736

          k = 0.0000 0.4444 0.2114 (  2517 PWs)   bands (ev):

   -45.7937 -22.4916 -22.4364 -22.3670  -6.9594  -6.3451  -6.0953  -5.0213
    -5.0001  -4.9991  -4.7847  -4.6674   2.8347   5.6127   6.6133   6.8863
     6.9748   7.3671   8.0414   8.2787   8.7815   9.9343

          k = 0.0000 0.4444 0.3171 (  2510 PWs)   bands (ev):

   -45.7935 -22.5044 -22.4357 -22.3665  -6.9374  -6.3026  -6.0007  -5.0113
    -4.9996  -4.9951  -4.8096  -4.6105   2.6745   5.5256   6.2591   6.8116
     7.0175   7.3309   7.6384   8.2916   9.1325   9.6557

          k = 0.0000 0.4444 0.4228 (  2524 PWs)   bands (ev):

   -45.7934 -22.5127 -22.4352 -22.3661  -6.9301  -6.2730  -5.9274  -5.0187
    -4.9999  -4.9751  -4.8305  -4.5742   2.5740   5.3995   6.0780   6.8261
     6.9992   7.3627   7.4108   8.2981   9.2536   9.5463

          k = 0.1111 0.1111 0.0000 (  2513 PWs)   bands (ev):

   -45.7948 -22.4782 -22.3784 -22.3782  -7.4517  -6.4892  -6.1914  -5.0038
    -4.9993  -4.9618  -4.8496  -4.6715   3.8232   6.2619   6.3797   6.8213
     7.8570   8.2096   8.3299   8.5099   8.8777   8.9504

          k = 0.1111 0.1111 0.1057 (  2509 PWs)   bands (ev):

   -45.7948 -22.4828 -22.3782 -22.3780  -7.4117  -6.4804  -6.1766  -5.0034
    -5.0023  -4.9616  -4.8476  -4.6802   3.6847   6.2444   6.3068   6.9712
     7.8070   8.0794   8.3081   8.5378   8.8797   8.9502

          k = 0.1111 0.1111 0.2114 (  2520 PWs)   bands (ev):

   -45.7946 -22.4943 -22.3777 -22.3775  -7.3089  -6.4579  -6.1385  -5.0133
    -4.9972  -4.9612  -4.8437  -4.7032   3.3731   6.1947   6.2360   7.0301
     7.7180   7.7791   8.3013   8.5787   8.8866   9.1478

          k = 0.1111 0.1111 0.3171 (  2527 PWs)   bands (ev):

   -45.7944 -22.5074 -22.3771 -22.3770  -7.1889  -6.4315  -6.0942  -5.0238
    -4.9890  -4.9609  -4.8413  -4.7307   3.0685   6.1299   6.1301   6.8089
     7.6586   7.6660   8.3087   8.5943   8.8991   9.5483

          k = 0.1111 0.1111 0.4228 (  2515 PWs)   bands (ev):

   -45.7943 -22.5159 -22.3767 -22.3766  -7.1089  -6.4139  -6.0644  -5.0302
    -4.9818  -4.9610  -4.8413  -4.7496   2.8911   5.9720   6.0845   6.6909
     7.6360   7.6446   8.3194   8.5931   8.9102   9.8831

          k = 0.1111 0.2222 0.0000 (  2506 PWs)   bands (ev):

   -45.7945 -22.4773 -22.3987 -22.3774  -7.2896  -6.4583  -6.1819  -5.0237
    -4.9968  -4.9677  -4.8291  -4.6650   3.4547   6.2423   6.4956   6.6581
     7.7596   7.8517   8.3910   8.5288   8.7506   9.2106

          k = 0.1111 0.2222 0.1057 (  2506 PWs)   bands (ev):

   -45.7944 -22.4819 -22.3985 -22.3772  -7.2536  -6.4531  -6.1660  -5.0196
    -4.9995  -4.9669  -4.8271  -4.6669   3.3708   6.1856   6.3498   6.7987
     7.6530   7.8723   8.3066   8.5723   8.6955   9.2535

          k = 0.1111 0.2222 0.2114 (  2507 PWs)   bands (ev):

   -45.7942 -22.4933 -22.3979 -22.3767  -7.1634  -6.4392  -6.1232  -5.0154
    -4.9980  -4.9642  -4.8248  -4.6714   3.1633   6.0354   6.2505   6.8411
     7.4551   7.6722   8.2573   8.5933   8.7656   9.3897

          k = 0.1111 0.2222 0.3171 (  2519 PWs)   bands (ev):

   -45.7941 -22.5063 -22.3973 -22.3761  -7.0632  -6.4219  -6.0689  -5.0216
    -4.9834  -4.9571  -4.8282  -4.6764   2.9386   5.8539   6.1921   6.6850
     7.2843   7.5442   8.2111   8.6271   8.8906   9.5639

          k = 0.1111 0.2222 0.4228 (  2518 PWs)   bands (ev):

   -45.7939 -22.5147 -22.3969 -22.3758  -7.0000  -6.4092  -6.0294  -5.0262
    -4.9758  -4.9455  -4.8353  -4.6797   2.7992   5.7039   6.1235   6.5729
     7.2580   7.4993   8.1688   8.6537   8.9498   9.6726

          k = 0.1111 0.3333 0.0000 (  2510 PWs)   bands (ev):

   -45.7940 -22.4763 -22.4218 -22.3764  -7.0912  -6.4194  -6.1842  -5.0385
    -4.9909  -4.9681  -4.8039  -4.6772   3.1261   5.9498   6.5524   6.7625
     7.3914   7.8808   8.0571   8.5102   8.7653   9.6764

          k = 0.1111 0.3333 0.1057 (  2507 PWs)   bands (ev):

   -45.7940 -22.4807 -22.4216 -22.3762  -7.0637  -6.4150  -6.1663  -5.0320
    -4.9935  -4.9661  -4.8001  -4.6712   3.0774   5.9250   6.3785   6.8000
     7.3288   7.8613   8.0715   8.5739   8.6398   9.6694

          k = 0.1111 0.3333 0.2114 (  2504 PWs)   bands (ev):

   -45.7938 -22.4921 -22.4210 -22.3757  -7.0001  -6.4011  -6.1142  -5.0186
    -4.9960  -4.9597  -4.7976  -4.6517   2.9495   5.8365   6.2022   6.6840
     7.0828   7.7330   8.1703   8.4084   8.8358   9.6099

          k = 0.1111 0.3333 0.3171 (  2516 PWs)   bands (ev):

   -45.7936 -22.5049 -22.4203 -22.3751  -6.9398  -6.3795  -6.0421  -5.0173
    -4.9859  -4.9461  -4.8062  -4.6245   2.7991   5.6641   6.1432   6.5106
     6.7685   7.6071   8.2769   8.3081   9.0801   9.4870

          k = 0.1111 0.3333 0.4228 (  2517 PWs)   bands (ev):

   -45.7935 -22.5133 -22.4198 -22.3747  -6.9082  -6.3617  -5.9868  -5.0202
    -4.9780  -4.9292  -4.8190  -4.6057   2.6999   5.4990   6.1513   6.3650
     6.6345   7.5562   8.2439   8.3474   9.1676   9.4273

          k = 0.1111 0.4444 0.0000 (  2519 PWs)   bands (ev):

   -45.7937 -22.4755 -22.4370 -22.3757  -6.9517  -6.3816  -6.2052  -5.0432
    -4.9867  -4.9666  -4.7646  -4.7151   2.9506   5.6562   6.6584   7.0254
     7.1149   7.5507   8.0278   8.4639   8.7910  10.1249

          k = 0.1111 0.4444 0.1057 (  2514 PWs)   bands (ev):

   -45.7937 -22.4799 -22.4367 -22.3755  -6.9346  -6.3723  -6.1864  -5.0360
    -4.9890  -4.9648  -4.7593  -4.7029   2.9175   5.6492   6.4207   6.9093
     7.2328   7.5387   8.0474   8.5636   8.6391  10.0122

          k = 0.1111 0.4444 0.2114 (  2519 PWs)   bands (ev):

   -45.7935 -22.4912 -22.4360 -22.3750  -6.9014  -6.3472  -6.1255  -5.0206
    -4.9903  -4.9600  -4.7634  -4.6570   2.8281   5.6168   6.1793   6.5515
     7.0370   7.7394   7.9757   8.4364   8.8389   9.7242

          k = 0.1111 0.4444 0.3171 (  2509 PWs)   bands (ev):

   -45.7933 -22.5040 -22.4353 -22.3745  -6.8799  -6.3163  -6.0340  -5.0164
    -4.9764  -4.9523  -4.7793  -4.6002   2.7187   5.5206   6.0696   6.2255
     6.7275   7.7600   7.9969   8.3452   9.0636   9.4725

          k = 0.1111 0.4444 0.4228 (  2524 PWs)   bands (ev):

   -45.7932 -22.5123 -22.4348 -22.3741  -6.8738  -6.2951  -5.9625  -5.0185
    -4.9637  -4.9417  -4.7943  -4.5639   2.6440   5.3868   6.0093   6.1305
     6.5292   7.7072   8.0688   8.3037   8.9618   9.5326

          k = 0.2222 0.2222 0.0000 (  2508 PWs)   bands (ev):

   -45.7941 -22.4764 -22.3979 -22.3975  -7.1323  -6.4271  -6.1984  -5.0251
    -5.0013  -4.9534  -4.7926  -4.6578   3.1653   6.2158   6.4545   6.7142
     7.3597   7.4811   8.4034   8.5561   8.8792   9.4529

          k = 0.2222 0.2222 0.1057 (  2510 PWs)   bands (ev):

   -45.7940 -22.4809 -22.3977 -22.3973  -7.0988  -6.4266  -6.1831  -5.0185
    -5.0038  -4.9502  -4.7884  -4.6542   3.1326   6.1376   6.2625   6.6785
     7.3975   7.4987   8.4276   8.5336   8.8975   9.4000

          k = 0.2222 0.2222 0.2114 (  2500 PWs)   bands (ev):

   -45.7939 -22.4923 -22.3972 -22.3968  -7.0164  -6.4255  -6.1398  -5.0091
    -5.0017  -4.9397  -4.7798  -4.6463   3.0365   5.9441   6.0015   6.6025
     7.2847   7.3197   8.4260   8.7293   8.9647   9.3257

          k = 0.2222 0.2222 0.3171 (  2517 PWs)   bands (ev):

   -45.7937 -22.5052 -22.3965 -22.3963  -6.9287  -6.4244  -6.0802  -5.0131
    -4.9846  -4.9197  -4.7753  -4.6389   2.9083   5.7380   5.8594   6.4080
     7.0164   7.2261   8.4933   8.8243   9.0688   9.2920

          k = 0.2222 0.2222 0.4228 (  2520 PWs)   bands (ev):

   -45.7936 -22.5136 -22.3961 -22.3959  -6.8757  -6.4238  -6.0341  -5.0147
    -4.9759  -4.8981  -4.7779  -4.6351   2.8168   5.6125   5.7691   6.2429
     6.9167   7.2053   8.4860   8.8573   9.1318   9.2582

          k = 0.2222 0.3333 0.0000 (  2520 PWs)   bands (ev):

   -45.7936 -22.4753 -22.4208 -22.3966  -6.9421  -6.3903  -6.2260  -5.0266
    -4.9895  -4.9256  -4.7595  -4.6670   2.8801   5.9679   6.3813   6.8913
     6.9807   7.5038   8.0216   8.6363   8.9748   9.6437

          k = 0.2222 0.3333 0.1057 (  2518 PWs)   bands (ev):

   -45.7936 -22.4798 -22.4206 -22.3964  -6.9141  -6.3929  -6.2111  -5.0193
    -4.9902  -4.9199  -4.7527  -4.6566   2.8837   5.9300   6.1992   6.5165
     7.1487   7.5427   8.1825   8.5799   8.9862   9.5396

          k = 0.2222 0.3333 0.2114 (  2512 PWs)   bands (ev):

   -45.7934 -22.4911 -22.4200 -22.3959  -6.8508  -6.3982  -6.1645  -5.0042
    -4.9871  -4.9043  -4.7380  -4.6294   2.8814   5.7858   5.8452   6.2871
     6.9342   7.3864   8.4274   8.7415   9.0390   9.2966

          k = 0.2222 0.3333 0.3171 (  2508 PWs)   bands (ev):

   -45.7932 -22.5039 -22.4193 -22.3953  -6.7941  -6.4016  -6.0936  -4.9991
    -4.9708  -4.8819  -4.7266  -4.5974   2.8560   5.5714   5.6251   6.1321
     6.5994   7.1783   8.5618   8.8856   8.9866   9.2522

          k = 0.2222 0.3333 0.4228 (  2512 PWs)   bands (ev):

   -45.7931 -22.5122 -22.4189 -22.3949  -6.7665  -6.4025  -6.0363  -4.9981
    -4.9582  -4.8621  -4.7234  -4.5764   2.8255   5.4034   5.5704   5.9932
     6.4017   7.1201   8.4799   8.8929   8.9455   9.3734

          k = 0.2222 0.4444 0.0000 (  2527 PWs)   bands (ev):

   -45.7934 -22.4745 -22.4358 -22.3959  -6.8093  -6.3563  -6.2600  -5.0246
    -4.9795  -4.8932  -4.7327  -4.6969   2.7166   5.6726   6.4894   6.6923
     7.1537   7.5740   7.6278   8.7174   8.9708   9.7461

          k = 0.2222 0.4444 0.1057 (  2518 PWs)   bands (ev):

   -45.7933 -22.4790 -22.4356 -22.3957  -6.7890  -6.3560  -6.2464  -5.0169
    -4.9791  -4.8864  -4.7250  -4.6799   2.7367   5.6638   6.1957   6.4389
     7.1268   7.6737   7.8643   8.6503   8.9932   9.5790

          k = 0.2222 0.4444 0.2114 (  2514 PWs)   bands (ev):

   -45.7931 -22.4902 -22.4350 -22.3952  -6.7515  -6.3541  -6.1954  -5.0010
    -4.9729  -4.8705  -4.7111  -4.6315   2.7814   5.6184   5.7407   6.1145
     6.8341   7.5011   8.2791   8.7480   9.0762   9.2078

          k = 0.2222 0.4444 0.3171 (  2504 PWs)   bands (ev):

   -45.7930 -22.5030 -22.4343 -22.3946  -6.7320  -6.3506  -6.1093  -4.9931
    -4.9533  -4.8523  -4.6996  -4.5743   2.8172   5.4594   5.4921   5.8563
     6.4830   7.2618   8.3357   8.8572   8.9174   9.3458

          k = 0.2222 0.4444 0.4228 (  2510 PWs)   bands (ev):

   -45.7929 -22.5113 -22.4338 -22.3943  -6.7295  -6.3483  -6.0396  -4.9908
    -4.9363  -4.8387  -4.6938  -4.5374   2.8290   5.3224   5.3721   5.7589
     6.2369   7.1864   8.1022   8.8827   8.9170   9.5421

          k = 0.3333 0.3333 0.0000 (  2522 PWs)   bands (ev):

   -45.7932 -22.4742 -22.4197 -22.4194  -6.7688  -6.3576  -6.2709  -5.0141
    -4.9706  -4.8715  -4.7128  -4.6713   2.6155   5.9077   6.0870   6.8991
     7.0714   7.1995   7.8767   8.4899   9.2996   9.4303

          k = 0.3333 0.3333 0.1057 (  2507 PWs)   bands (ev):

   -45.7932 -22.4787 -22.4195 -22.4192  -6.7401  -6.3670  -6.2610  -5.0055
    -4.9697  -4.8613  -4.7025  -4.6551   2.6577   5.8832   5.9977   6.3163
     6.9060   7.5021   8.2726   8.3633   9.2597   9.3026

          k = 0.3333 0.3333 0.2114 (  2520 PWs)   bands (ev):

   -45.7930 -22.4899 -22.4189 -22.4187  -6.6794  -6.3901  -6.2215  -4.9838
    -4.9673  -4.8360  -4.6754  -4.6148   2.7656   5.6539   5.7224   5.9351
     6.6551   7.2113   8.4542   8.8141   8.9650   9.3124

          k = 0.3333 0.3333 0.3171 (  2506 PWs)   bands (ev):

   -45.7928 -22.5027 -22.4183 -22.4181  -6.6344  -6.4155  -6.1479  -4.9642
    -4.9593  -4.8057  -4.6437  -4.5699   2.8865   5.3152   5.4075   5.8176
     6.5685   6.6746   8.1261   9.1155   9.1831   9.3440

          k = 0.3333 0.3333 0.4228 (  2505 PWs)   bands (ev):

   -45.7927 -22.5110 -22.4179 -22.4177  -6.6176  -6.4315  -6.0846  -4.9621
    -4.9438  -4.7836  -4.6235  -4.5411   2.9598   5.1711   5.2189   5.6964
     6.3887   6.5437   7.7998   9.2552   9.2809   9.4404

          k = 0.3333 0.4444 0.0000 (  2514 PWs)   bands (ev):

   -45.7929 -22.4734 -22.4346 -22.4188  -6.6551  -6.3308  -6.3029  -5.0074
    -4.9511  -4.8131  -4.7058  -4.6774   2.4526   5.6348   6.1142   6.7674
     7.2193   7.2995   7.5817   8.4722   9.1761   9.4740

          k = 0.3333 0.4444 0.1057 (  2523 PWs)   bands (ev):

   -45.7929 -22.4778 -22.4343 -22.4186  -6.6259  -6.3407  -6.3004  -4.9986
    -4.9494  -4.7994  -4.6906  -4.6596   2.5117   5.6263   6.0371   6.2482
     6.7681   7.6861   7.9991   8.4228   8.9727   9.4594

          k = 0.3333 0.4444 0.2114 (  2516 PWs)   bands (ev):

   -45.7927 -22.4891 -22.4338 -22.4181  -6.5744  -6.3641  -6.2691  -4.9768
    -4.9450  -4.7695  -4.6525  -4.6094   2.6730   5.5599   5.6571   5.7596
     6.4562   7.2732   8.1850   8.8220   8.8457   9.4531

          k = 0.3333 0.4444 0.3171 (  2504 PWs)   bands (ev):

   -45.7925 -22.5018 -22.4331 -22.4175  -6.5578  -6.3888  -6.1866  -4.9551
    -4.9370  -4.7394  -4.6082  -4.5489   2.8813   5.1781   5.3679   5.5720
     6.3232   6.7411   7.6172   9.1874   9.2665   9.4642

          k = 0.3333 0.4444 0.4228 (  2500 PWs)   bands (ev):

   -45.7924 -22.5101 -22.4327 -22.4171  -6.5629  -6.4043  -6.1140  -4.9470
    -4.9260  -4.7195  -4.5787  -4.5091   3.0348   4.9699   5.1509   5.4956
     6.1902   6.5328   7.1995   9.3513   9.4229   9.5642

          k = 0.4444 0.4444 0.0000 (  2512 PWs)   bands (ev):

   -45.7927 -22.4726 -22.4337 -22.4337  -6.5723  -6.3134  -6.3103  -4.9989
    -4.9191  -4.7474  -4.7087  -4.6653   2.2833   5.4897   6.0022   6.9339
     7.0029   7.4171   7.5269   8.2985   8.7945   9.6861

          k = 0.4444 0.4444 0.1057 (  2517 PWs)   bands (ev):

   -45.7926 -22.4770 -22.4335 -22.4335  -6.5311  -6.3294  -6.3219  -4.9900
    -4.9180  -4.7263  -4.6822  -4.6540   2.3587   5.4811   5.9788   6.3636
     6.4761   7.8241   8.1087   8.1506   8.5206   9.6834

          k = 0.4444 0.4444 0.2114 (  2525 PWs)   bands (ev):

   -45.7924 -22.4883 -22.4330 -22.4330  -6.4472  -6.3681  -6.3272  -4.9675
    -4.9157  -4.6854  -4.6161  -4.6127   2.5731   5.4467   5.7094   5.7192
     6.1118   7.2516   7.7522   8.8094   8.8116   9.6765

          k = 0.4444 0.4444 0.3171 (  2509 PWs)   bands (ev):

   -45.7923 -22.5010 -22.4324 -22.4323  -6.4389  -6.4092  -6.2406  -4.9419
    -4.9136  -4.6535  -4.5501  -4.5428   2.8763   5.2060   5.2788   5.4197
     6.0765   6.6260   6.9854   9.3109   9.3222   9.6686

          k = 0.4444 0.4444 0.4228 (  2498 PWs)   bands (ev):

   -45.7921 -22.5093 -22.4320 -22.4319  -6.4566  -6.4346  -6.1580  -4.9252
    -4.9123  -4.6340  -4.5063  -4.4958   3.1333   4.9501   5.0377   5.3465
     6.0724   6.2747   6.4747   9.5612   9.5780   9.6626

     highest occupied level (ev):    10.2609

!    total energy              =    -380.57230128 Ry
     estimated scf accuracy    <          1.2E-11 Ry

     The total energy is the sum of the following terms:
     one-electron contribution =     -85.69833965 Ry
     hartree contribution      =      71.99223452 Ry
     xc contribution           =    -102.58354320 Ry
     ewald contribution        =    -264.28265295 Ry

     convergence has been achieved in   8 iterations

     negative rho (up, down):  1.554E-02 0.000E+00

     Forces acting on atoms (cartesian axes, Ry/au):

     atom    1 type  1   force =     0.00000000    0.00000000    0.00023883
     atom    2 type  2   force =     0.00000000    0.00000000   -0.00127237
     atom    3 type  3   force =     0.00000000    0.00000000    0.00010700
     atom    4 type  3   force =     0.00000000    0.00000000    0.00046327
     atom    5 type  3   force =     0.00000000    0.00000000    0.00046327

     Total force =     0.001455     Total SCF correction =     0.000014


     Computing stress (Cartesian axis) and pressure


     negative rho (up, down):  1.554E-02 0.000E+00
          total   stress  (Ry/bohr**3)                   (kbar)     P=      -44.49
  -0.00035029   0.00000000   0.00000000          -51.53        0.00        0.00
   0.00000000  -0.00035029   0.00000000            0.00      -51.53        0.00
   0.00000000   0.00000000  -0.00020673            0.00        0.00      -30.41

     Energy error            =      6.4E-06 Ry
     Gradient error          =      1.3E-03 Ry/Bohr

     number of scf cycles    =   8
     number of bfgs steps    =   7

     energy             old  =    -380.5722949046 Ry
     energy             new  =    -380.5723012835 Ry

     CASE: energy            _new < energy            _old

     new trust radius        =       0.0019914676 bohr
     new conv_thr            =            1.0E-10 Ry


ATOMIC_POSITIONS (crystal)
Pb               0.0000000000        0.0000000000        0.9936293571
Ti               0.5000000000        0.5000000000        0.5381803480
O                0.5000000000        0.5000000000        0.1065562785
O                0.5000000000        0.0000000000        0.6144591522
O                0.0000000000        0.5000000000        0.6144591522



     Writing config-only to output data dir ./pto_k9.save/ :
     XML data file
     NEW-OLD atomic charge density approx. for the potential

     Check: negative core charge=   -0.000004

     negative rho (up, down):  1.553E-02 0.000E+00

     total cpu time spent up to now is      208.0 secs

     Self-consistent Calculation

     iteration #  1     ecut=    50.00 Ry     beta= 0.70
     CG style diagonalization
     ethr =  1.00E-06,  avg # of iterations =  2.9

     Threshold (ethr) on eigenvalues was too large:
     Diagonalizing with lowered threshold

     CG style diagonalization
     c_bands:  1 eigenvalues not converged
     c_bands:  1 eigenvalues not converged
     c_bands:  2 eigenvalues not converged
     c_bands:  1 eigenvalues not converged
     c_bands:  1 eigenvalues not converged
     c_bands:  1 eigenvalues not converged
     c_bands:  1 eigenvalues not converged
     c_bands:  1 eigenvalues not converged
     c_bands:  2 eigenvalues not converged
     c_bands:  1 eigenvalues not converged
     c_bands:  1 eigenvalues not converged
     c_bands:  1 eigenvalues not converged
     c_bands:  4 eigenvalues not converged
     c_bands:  3 eigenvalues not converged
     c_bands:  2 eigenvalues not converged
     c_bands:  2 eigenvalues not converged
     c_bands:  1 eigenvalues not converged
     c_bands:  1 eigenvalues not converged
     c_bands:  1 eigenvalues not converged
     c_bands:  2 eigenvalues not converged
     c_bands:  3 eigenvalues not converged
     c_bands:  3 eigenvalues not converged
     c_bands:  2 eigenvalues not converged
     c_bands:  3 eigenvalues not converged
     c_bands:  1 eigenvalues not converged
     c_bands:  1 eigenvalues not converged
     c_bands:  1 eigenvalues not converged
     c_bands:  1 eigenvalues not converged
     c_bands:  1 eigenvalues not converged
     c_bands:  1 eigenvalues not converged
     c_bands:  1 eigenvalues not converged
     c_bands:  4 eigenvalues not converged
     c_bands:  2 eigenvalues not converged
     c_bands:  1 eigenvalues not converged
     c_bands:  1 eigenvalues not converged
     c_bands:  1 eigenvalues not converged
     c_bands:  2 eigenvalues not converged
     c_bands:  1 eigenvalues not converged
     c_bands:  2 eigenvalues not converged
     c_bands:  1 eigenvalues not converged
     c_bands:  1 eigenvalues not converged
     c_bands:  1 eigenvalues not converged
     c_bands:  2 eigenvalues not converged
     c_bands:  2 eigenvalues not converged
     c_bands:  1 eigenvalues not converged
     c_bands:  2 eigenvalues not converged
     c_bands:  1 eigenvalues not converged
     c_bands:  1 eigenvalues not converged
     ethr =  1.52E-09,  avg # of iterations =  8.2

     negative rho (up, down):  1.553E-02 0.000E+00

     total cpu time spent up to now is      213.7 secs

     total energy              =    -380.57230350 Ry
     estimated scf accuracy    <       0.00000079 Ry

     iteration #  2     ecut=    50.00 Ry     beta= 0.70
     CG style diagonalization
     ethr =  1.80E-09,  avg # of iterations =  4.4

     negative rho (up, down):  1.553E-02 0.000E+00

     total cpu time spent up to now is      215.8 secs

     total energy              =    -380.57230338 Ry
     estimated scf accuracy    <       0.00000204 Ry

     iteration #  3     ecut=    50.00 Ry     beta= 0.70
     CG style diagonalization
     ethr =  1.80E-09,  avg # of iterations =  4.1

     negative rho (up, down):  1.553E-02 0.000E+00

     total cpu time spent up to now is      217.7 secs

     total energy              =    -380.57230380 Ry
     estimated scf accuracy    <       0.00000015 Ry

     iteration #  4     ecut=    50.00 Ry     beta= 0.70
     CG style diagonalization
     ethr =  3.51E-10,  avg # of iterations =  3.6

     negative rho (up, down):  1.553E-02 0.000E+00

     total cpu time spent up to now is      219.4 secs

     total energy              =    -380.57230383 Ry
     estimated scf accuracy    <          7.1E-09 Ry

     iteration #  5     ecut=    50.00 Ry     beta= 0.70
     CG style diagonalization
     ethr =  1.62E-11,  avg # of iterations =  5.1

     negative rho (up, down):  1.553E-02 0.000E+00

     total cpu time spent up to now is      221.8 secs

     total energy              =    -380.57230384 Ry
     estimated scf accuracy    <          3.8E-09 Ry

     iteration #  6     ecut=    50.00 Ry     beta= 0.70
     CG style diagonalization
     ethr =  8.56E-12,  avg # of iterations =  3.8

     negative rho (up, down):  1.553E-02 0.000E+00

     total cpu time spent up to now is      223.5 secs

     total energy              =    -380.57230384 Ry
     estimated scf accuracy    <          8.0E-10 Ry

     iteration #  7     ecut=    50.00 Ry     beta= 0.70
     CG style diagonalization
     ethr =  1.82E-12,  avg # of iterations =  4.6

     negative rho (up, down):  1.553E-02 0.000E+00

     total cpu time spent up to now is      225.7 secs

     total energy              =    -380.57230384 Ry
     estimated scf accuracy    <          4.5E-10 Ry

     iteration #  8     ecut=    50.00 Ry     beta= 0.70
     CG style diagonalization
     ethr =  1.03E-12,  avg # of iterations =  4.1

     negative rho (up, down):  1.553E-02 0.000E+00

     total cpu time spent up to now is      227.6 secs

     End of self-consistent calculation

          k = 0.0000 0.0000 0.0000 (  2525 PWs)   bands (ev):

   -45.7952 -22.4793 -22.3704 -22.3704  -7.5755  -6.5130  -6.2057  -4.9906
    -4.9906  -4.9487  -4.8644  -4.6812   4.2144   6.2490   6.2490   6.7979
     8.1196   8.1196   8.4485   8.6297   8.8736   8.8736

          k = 0.0000 0.0000 0.1057 (  2533 PWs)   bands (ev):

   -45.7952 -22.4839 -22.3702 -22.3702  -7.5330  -6.5012  -6.1914  -4.9942
    -4.9942  -4.9485  -4.8611  -4.6958   3.9992   6.2598   6.2598   6.9610
     8.0622   8.0622   8.4282   8.5206   8.9023   8.9023

          k = 0.0000 0.0000 0.2114 (  2517 PWs)   bands (ev):

   -45.7950 -22.4955 -22.3697 -22.3697  -7.4226  -6.4703  -6.1560  -5.0031
    -5.0031  -4.9477  -4.8528  -4.7338   3.5712   6.2833   6.2833   6.9550
     7.9444   7.9444   8.3782   8.6561   8.9586   8.9586

          k = 0.0000 0.0000 0.3171 (  2510 PWs)   bands (ev):

   -45.7948 -22.5087 -22.3692 -22.3692  -7.2912  -6.4335  -6.1176  -5.0131
    -5.0131  -4.9468  -4.8436  -4.7787   3.1937   6.3019   6.3019   6.5599
     7.8453   7.8453   8.3229   9.0070   9.0070   9.2871

          k = 0.0000 0.0000 0.4228 (  2538 PWs)   bands (ev):

   -45.7947 -22.5172 -22.3689 -22.3689  -7.2014  -6.4084  -6.0943  -5.0197
    -5.0197  -4.9463  -4.8378  -4.8091   2.9848   6.2526   6.3089   6.3089
     7.7965   7.7965   8.2876   9.0334   9.0334   9.8886

          k = 0.0000 0.1111 0.0000 (  2525 PWs)   bands (ev):

   -45.7951 -22.4790 -22.3785 -22.3700  -7.5136  -6.5009  -6.1965  -5.0016
    -4.9900  -4.9547  -4.8597  -4.6753   4.0007   6.2854   6.2983   6.8074
     8.0745   8.1319   8.4549   8.6021   8.6924   8.9271

          k = 0.0000 0.1111 0.1057 (  2522 PWs)   bands (ev):

   -45.7950 -22.4836 -22.3783 -22.3698  -7.4725  -6.4906  -6.1819  -5.0027
    -4.9936  -4.9544  -4.8573  -4.6868   3.8278   6.2475   6.3102   6.9582
     7.9718   8.0677   8.4730   8.4960   8.7292   8.9593

          k = 0.0000 0.1111 0.2114 (  2517 PWs)   bands (ev):

   -45.7949 -22.4951 -22.3778 -22.3694  -7.3660  -6.4637  -6.1449  -5.0052
    -5.0026  -4.9538  -4.8520  -4.7164   3.4609   6.1923   6.3360   7.0089
     7.7446   7.9429   8.4401   8.5095   8.7956   9.1345

          k = 0.0000 0.1111 0.3171 (  2523 PWs)   bands (ev):

   -45.7947 -22.5082 -22.3772 -22.3688  -7.2406  -6.4318  -6.1034  -5.0128
    -5.0075  -4.9531  -4.8469  -4.7511   3.1205   6.0965   6.3564   6.7225
     7.6393   7.8430   8.4991   8.5533   8.8491   9.5352

          k = 0.0000 0.1111 0.4228 (  2524 PWs)   bands (ev):

   -45.7946 -22.5168 -22.3769 -22.3685  -7.1560  -6.4100  -6.0767  -5.0195
    -5.0088  -4.9527  -4.8440  -4.7743   2.9275   5.9647   6.3639   6.5374
     7.6071   7.7957   8.4859   8.6191   8.8777   9.9431

          k = 0.0000 0.2222 0.0000 (  2507 PWs)   bands (ev):

   -45.7947 -22.4781 -22.3989 -22.3692  -7.3501  -6.4706  -6.1765  -5.0224
    -4.9883  -4.9696  -4.8470  -4.6689   3.5812   6.2807   6.4377   6.6283
     8.1525   8.1540   8.2998   8.3763   8.5842   9.0717

          k = 0.0000 0.2222 0.1057 (  2514 PWs)   bands (ev):

   -45.7946 -22.4827 -22.3987 -22.3690  -7.3135  -6.4633  -6.1603  -5.0186
    -4.9920  -4.9695  -4.8459  -4.6727   3.4691   6.1954   6.4527   6.7267
     7.9889   8.0441   8.3272   8.3842   8.5178   9.1906

          k = 0.0000 0.2222 0.2114 (  2513 PWs)   bands (ev):

   -45.7945 -22.4941 -22.3982 -22.3685  -7.2211  -6.4439  -6.1171  -5.0074
    -5.0014  -4.9693  -4.8460  -4.6813   3.2091   6.0507   6.4850   6.8095
     7.6556   7.8997   8.0089   8.4771   8.6922   9.4166

          k = 0.0000 0.2222 0.3171 (  2518 PWs)   bands (ev):

   -45.7943 -22.5071 -22.3975 -22.3680  -7.1176  -6.4188  -6.0637  -5.0119
    -4.9925  -4.9690  -4.8514  -4.6891   2.9462   5.8654   6.5096   6.7177
     7.3889   7.8042   7.8844   8.5376   8.8281   9.6617

          k = 0.0000 0.2222 0.4228 (  2510 PWs)   bands (ev):

   -45.7942 -22.5156 -22.3971 -22.3676  -7.0518  -6.3998  -6.0262  -5.0188
    -4.9818  -4.9688  -4.8572  -4.6937   2.7896   5.6996   6.5176   6.6008
     7.3017   7.7658   7.8700   8.5674   8.8840   9.8308

          k = 0.0000 0.3333 0.0000 (  2514 PWs)   bands (ev):

   -45.7943 -22.4770 -22.4221 -22.3682  -7.1495  -6.4313  -6.1670  -5.0396
    -4.9870  -4.9858  -4.8211  -4.6820   3.2263   5.9474   6.6435   6.6694
     7.8069   7.8386   8.2224   8.2877   8.6603   9.6367

          k = 0.0000 0.3333 0.1057 (  2512 PWs)   bands (ev):

   -45.7942 -22.4815 -22.4218 -22.3680  -7.1221  -6.4241  -6.1481  -5.0323
    -4.9903  -4.9865  -4.8186  -4.6776   3.1507   5.9230   6.6499   6.6644
     7.6193   7.7834   8.2523   8.3811   8.4971   9.6861

          k = 0.0000 0.3333 0.2114 (  2505 PWs)   bands (ev):

   -45.7940 -22.4929 -22.4212 -22.3675  -7.0582  -6.4026  -6.0938  -5.0124
    -4.9999  -4.9867  -4.8211  -4.6603   2.9674   5.8429   6.5760   6.7083
     7.2999   7.6864   7.9529   8.3015   8.7847   9.7130

          k = 0.0000 0.3333 0.3171 (  2508 PWs)   bands (ev):

   -45.7939 -22.5058 -22.4205 -22.3670  -6.9968  -6.3707  -6.0204  -5.0110
    -4.9868  -4.9866  -4.8364  -4.6340   2.7719   5.6822   6.4336   6.7372
     7.1372   7.5698   7.6294   8.3373   9.0799   9.6490

          k = 0.0000 0.3333 0.4228 (  2521 PWs)   bands (ev):

   -45.7938 -22.5141 -22.4200 -22.3666  -6.9639  -6.3449  -5.9653  -5.0181
    -4.9870  -4.9666  -4.8527  -4.6153   2.6509   5.5155   6.3429   6.7413
     7.1091   7.3784   7.6194   8.3551   9.2343   9.5827

          k = 0.0000 0.4444 0.0000 (  2498 PWs)   bands (ev):

   -45.7940 -22.4762 -22.4372 -22.3676  -7.0083  -6.3927  -6.1804  -5.0488
    -4.9976  -4.9850  -4.7761  -4.7221   3.0426   5.6501   6.8597   6.8604
     7.4124   7.5003   8.2139   8.2510   8.6872  10.2607

          k = 0.0000 0.4444 0.1057 (  2511 PWs)   bands (ev):

   -45.7939 -22.4807 -22.4369 -22.3674  -6.9919  -6.3800  -6.1601  -5.0410
    -4.9977  -4.9889  -4.7721  -4.7113   2.9825   5.6439   6.7984   6.8951
     7.2230   7.4553   8.2602   8.3912   8.4859  10.1734

          k = 0.0000 0.4444 0.2114 (  2517 PWs)   bands (ev):

   -45.7938 -22.4920 -22.4362 -22.3669  -6.9593  -6.3457  -6.0959  -5.0202
    -4.9991  -4.9980  -4.7835  -4.6659   2.8351   5.6147   6.6142   6.8879
     6.9743   7.3645   8.0408   8.2782   8.7814   9.9342

          k = 0.0000 0.4444 0.3171 (  2510 PWs)   bands (ev):

   -45.7936 -22.5048 -22.4355 -22.3663  -6.9369  -6.3033  -6.0017  -5.0103
    -4.9985  -4.9939  -4.8084  -4.6089   2.6752   5.5261   6.2611   6.8124
     7.0147   7.3298   7.6383   8.2929   9.1331   9.6553

          k = 0.0000 0.4444 0.4228 (  2524 PWs)   bands (ev):

   -45.7935 -22.5132 -22.4350 -22.3660  -6.9295  -6.2738  -5.9285  -5.0176
    -4.9988  -4.9739  -4.8291  -4.5727   2.5748   5.3987   6.0813   6.8265
     6.9949   7.3628   7.4110   8.3003   9.2549   9.5456

          k = 0.1111 0.1111 0.0000 (  2513 PWs)   bands (ev):

   -45.7949 -22.4787 -22.3782 -22.3780  -7.4522  -6.4886  -6.1914  -5.0028
    -4.9983  -4.9606  -4.8486  -4.6697   3.8242   6.2607   6.3799   6.8195
     7.8545   8.2088   8.3284   8.5080   8.8784   8.9488

          k = 0.1111 0.1111 0.1057 (  2509 PWs)   bands (ev):

   -45.7949 -22.4832 -22.3780 -22.3778  -7.4122  -6.4799  -6.1766  -5.0023
    -5.0012  -4.9604  -4.8466  -4.6784   3.6857   6.2428   6.3064   6.9696
     7.8054   8.0785   8.3069   8.5358   8.8804   8.9495

          k = 0.1111 0.1111 0.2114 (  2520 PWs)   bands (ev):

   -45.7947 -22.4947 -22.3775 -22.3774  -7.3091  -6.4574  -6.1388  -5.0122
    -4.9961  -4.9600  -4.8427  -4.7014   3.3739   6.1921   6.2346   7.0288
     7.7182   7.7781   8.3009   8.5767   8.8870   9.1485

          k = 0.1111 0.1111 0.3171 (  2527 PWs)   bands (ev):

   -45.7945 -22.5078 -22.3769 -22.3768  -7.1890  -6.4310  -6.0947  -5.0228
    -4.9879  -4.9597  -4.8402  -4.7289   3.0691   6.1266   6.1275   6.8083
     7.6603   7.6650   8.3092   8.5924   8.8993   9.5498

          k = 0.1111 0.1111 0.4228 (  2515 PWs)   bands (ev):

   -45.7944 -22.5163 -22.3766 -22.3765  -7.1089  -6.4133  -6.0651  -5.0292
    -4.9807  -4.9598  -4.8402  -4.7478   2.8916   5.9698   6.0805   6.6899
     7.6387   7.6443   8.3201   8.5913   8.9104   9.8850

          k = 0.1111 0.2222 0.0000 (  2506 PWs)   bands (ev):

   -45.7945 -22.4778 -22.3985 -22.3772  -7.2901  -6.4579  -6.1820  -5.0227
    -4.9957  -4.9665  -4.8281  -4.6633   3.4553   6.2419   6.4954   6.6576
     7.7583   7.8509   8.3914   8.5269   8.7508   9.2094

          k = 0.1111 0.2222 0.1057 (  2506 PWs)   bands (ev):

   -45.7945 -22.4823 -22.3983 -22.3770  -7.2541  -6.4527  -6.1662  -5.0185
    -4.9984  -4.9657  -4.8261  -4.6651   3.3714   6.1850   6.3493   6.7978
     7.6523   7.8722   8.3062   8.5708   8.6956   9.2531

          k = 0.1111 0.2222 0.2114 (  2507 PWs)   bands (ev):

   -45.7943 -22.4937 -22.3978 -22.3766  -7.1638  -6.4389  -6.1235  -5.0143
    -4.9969  -4.9630  -4.8238  -4.6697   3.1639   6.0342   6.2492   6.8400
     7.4556   7.6729   8.2563   8.5935   8.7645   9.3905

          k = 0.1111 0.2222 0.3171 (  2519 PWs)   bands (ev):

   -45.7942 -22.5067 -22.3972 -22.3760  -7.0633  -6.4216  -6.0694  -5.0206
    -4.9823  -4.9560  -4.8272  -4.6747   2.9392   5.8518   6.1899   6.6854
     7.2847   7.5452   8.2110   8.6274   8.8890   9.5657

          k = 0.1111 0.2222 0.4228 (  2518 PWs)   bands (ev):

   -45.7940 -22.5151 -22.3967 -22.3756  -7.0000  -6.4089  -6.0301  -5.0252
    -4.9746  -4.9444  -4.8342  -4.6780   2.7997   5.7016   6.1206   6.5743
     7.2581   7.5002   8.1695   8.6540   8.9479   9.6750

          k = 0.1111 0.3333 0.0000 (  2510 PWs)   bands (ev):

   -45.7941 -22.4767 -22.4217 -22.3762  -7.0918  -6.4195  -6.1844  -5.0374
    -4.9898  -4.9669  -4.8028  -4.6755   3.1264   5.9510   6.5515   6.7642
     7.3907   7.8811   8.0569   8.5088   8.7642   9.6759

          k = 0.1111 0.3333 0.1057 (  2507 PWs)   bands (ev):

   -45.7941 -22.4812 -22.4214 -22.3760  -7.0642  -6.4151  -6.1666  -5.0308
    -4.9924  -4.9649  -4.7990  -4.6696   3.0778   5.9260   6.3786   6.7999
     7.3285   7.8624   8.0712   8.5721   8.6390   9.6692

          k = 0.1111 0.3333 0.2114 (  2504 PWs)   bands (ev):

   -45.7939 -22.4925 -22.4208 -22.3755  -7.0003  -6.4013  -6.1147  -5.0175
    -4.9949  -4.9585  -4.7964  -4.6501   2.9500   5.8368   6.2021   6.6835
     7.0827   7.7343   8.1714   8.4066   8.8351   9.6101

          k = 0.1111 0.3333 0.3171 (  2516 PWs)   bands (ev):

   -45.7937 -22.5054 -22.4201 -22.3750  -6.9397  -6.3797  -6.0428  -5.0162
    -4.9847  -4.9450  -4.8050  -4.6229   2.7997   5.6631   6.1431   6.5112
     6.7682   7.6082   8.2776   8.3075   9.0795   9.4877

          k = 0.1111 0.3333 0.4228 (  2517 PWs)   bands (ev):

   -45.7936 -22.5137 -22.4197 -22.3746  -6.9079  -6.3620  -5.9877  -5.0191
    -4.9769  -4.9281  -4.8178  -4.6041   2.7006   5.4974   6.1509   6.3666
     6.6342   7.5567   8.2440   8.3482   9.1671   9.4282

          k = 0.1111 0.4444 0.0000 (  2519 PWs)   bands (ev):

   -45.7938 -22.4759 -22.4368 -22.3756  -6.9521  -6.3821  -6.2055  -5.0421
    -4.9856  -4.9654  -4.7634  -4.7137   2.9508   5.6589   6.6587   7.0279
     7.1136   7.5525   8.0251   8.4627   8.7894  10.1248

          k = 0.1111 0.4444 0.1057 (  2514 PWs)   bands (ev):

   -45.7938 -22.4803 -22.4365 -22.3754  -6.9349  -6.3728  -6.1868  -5.0348
    -4.9879  -4.9636  -4.7580  -4.7014   2.9177   5.6517   6.4216   6.9082
     7.2332   7.5406   8.0461   8.5626   8.6375  10.0122

          k = 0.1111 0.4444 0.2114 (  2519 PWs)   bands (ev):

   -45.7936 -22.4916 -22.4358 -22.3749  -6.9013  -6.3478  -6.1261  -5.0195
    -4.9892  -4.9588  -4.7622  -4.6555   2.8285   5.6188   6.1802   6.5513
     7.0355   7.7410   7.9770   8.4344   8.8387   9.7239

          k = 0.1111 0.4444 0.3171 (  2509 PWs)   bands (ev):

   -45.7934 -22.5044 -22.4351 -22.3743  -6.8796  -6.3169  -6.0349  -5.0153
    -4.9753  -4.9512  -4.7780  -4.5987   2.7193   5.5210   6.0703   6.2269
     6.7253   7.7614   7.9980   8.3442   9.0648   9.4713

          k = 0.1111 0.4444 0.4228 (  2524 PWs)   bands (ev):

   -45.7933 -22.5128 -22.4346 -22.3739  -6.8733  -6.2959  -5.9635  -5.0175
    -4.9625  -4.9406  -4.7930  -4.5624   2.6448   5.3861   6.0115   6.1316
     6.5270   7.7079   8.0695   8.3038   8.9634   9.5315

          k = 0.2222 0.2222 0.0000 (  2508 PWs)   bands (ev):

   -45.7942 -22.4769 -22.3978 -22.3974  -7.1330  -6.4270  -6.1985  -5.0240
    -5.0002  -4.9522  -4.7915  -4.6561   3.1657   6.2154   6.4535   6.7153
     7.3596   7.4798   8.4047   8.5563   8.8793   9.4517

          k = 0.2222 0.2222 0.1057 (  2510 PWs)   bands (ev):

   -45.7941 -22.4814 -22.3976 -22.3972  -7.0994  -6.4265  -6.1834  -5.0174
    -5.0028  -4.9490  -4.7873  -4.6525   3.1331   6.1368   6.2623   6.6783
     7.3977   7.4988   8.4279   8.5340   8.8976   9.3994

          k = 0.2222 0.2222 0.2114 (  2500 PWs)   bands (ev):

   -45.7939 -22.4927 -22.3970 -22.3967  -7.0169  -6.4253  -6.1402  -5.0080
    -5.0006  -4.9386  -4.7787  -4.6446   3.0370   5.9425   6.0016   6.6011
     7.2870   7.3208   8.4256   8.7289   8.9643   9.3266

          k = 0.2222 0.2222 0.3171 (  2517 PWs)   bands (ev):

   -45.7938 -22.5056 -22.3964 -22.3961  -6.9289  -6.4242  -6.0809  -5.0120
    -4.9835  -4.9185  -4.7742  -4.6373   2.9087   5.7360   5.8588   6.4070
     7.0176   7.2294   8.4924   8.8240   9.0677   9.2939

          k = 0.2222 0.2222 0.4228 (  2520 PWs)   bands (ev):

   -45.7937 -22.5140 -22.3959 -22.3957  -6.8758  -6.4236  -6.0349  -5.0136
    -4.9748  -4.8970  -4.7768  -4.6334   2.8173   5.6104   5.7676   6.2437
     6.9168   7.2091   8.4852   8.8572   9.1303   9.2604

          k = 0.2222 0.3333 0.0000 (  2520 PWs)   bands (ev):

   -45.7937 -22.4758 -22.4206 -22.3965  -6.9429  -6.3905  -6.2262  -5.0255
    -4.9884  -4.9244  -4.7584  -4.6654   2.8803   5.9692   6.3805   6.8933
     6.9803   7.5025   8.0241   8.6366   8.9745   9.6433

          k = 0.2222 0.3333 0.1057 (  2518 PWs)   bands (ev):

   -45.7937 -22.4802 -22.4204 -22.3963  -6.9148  -6.3931  -6.2115  -5.0182
    -4.9891  -4.9187  -4.7515  -4.6550   2.8840   5.9309   6.1989   6.5167
     7.1495   7.5429   8.1841   8.5798   8.9858   9.5394

          k = 0.2222 0.3333 0.2114 (  2512 PWs)   bands (ev):

   -45.7935 -22.4915 -22.4198 -22.3958  -6.8513  -6.3984  -6.1650  -5.0031
    -4.9860  -4.9032  -4.7368  -4.6278   2.8818   5.7858   5.8454   6.2865
     6.9359   7.3881   8.4287   8.7408   9.0384   9.2967

          k = 0.2222 0.3333 0.3171 (  2508 PWs)   bands (ev):

   -45.7933 -22.5043 -22.4191 -22.3952  -6.7943  -6.4018  -6.0944  -4.9980
    -4.9697  -4.8808  -4.7255  -4.5959   2.8564   5.5704   5.6255   6.1307
     6.6019   7.1812   8.5626   8.8852   8.9868   9.2510

          k = 0.2222 0.3333 0.4228 (  2512 PWs)   bands (ev):

   -45.7932 -22.5127 -22.4187 -22.3948  -6.7665  -6.4027  -6.0372  -4.9971
    -4.9571  -4.8611  -4.7222  -4.5749   2.8259   5.4022   5.5705   5.9916
     6.4048   7.1232   8.4811   8.8922   8.9456   9.3720

          k = 0.2222 0.4444 0.0000 (  2527 PWs)   bands (ev):

   -45.7935 -22.4749 -22.4356 -22.3958  -6.8101  -6.3569  -6.2603  -5.0235
    -4.9784  -4.8920  -4.7314  -4.6954   2.7167   5.6752   6.4887   6.6918
     7.1564   7.5766   7.6258   8.7175   8.9702   9.7465

          k = 0.2222 0.4444 0.1057 (  2518 PWs)   bands (ev):

   -45.7934 -22.4794 -22.4354 -22.3956  -6.7896  -6.3566  -6.2468  -5.0158
    -4.9780  -4.8852  -4.7237  -4.6784   2.7369   5.6662   6.1961   6.4380
     7.1283   7.6746   7.8652   8.6500   8.9926   9.5793

          k = 0.2222 0.4444 0.2114 (  2514 PWs)   bands (ev):

   -45.7932 -22.4907 -22.4348 -22.3951  -6.7518  -6.3546  -6.1960  -4.9999
    -4.9718  -4.8694  -4.7098  -4.6300   2.7816   5.6201   5.7416   6.1134
     6.8353   7.5029   8.2813   8.7466   9.0760   9.2070

          k = 0.2222 0.4444 0.3171 (  2504 PWs)   bands (ev):

   -45.7931 -22.5034 -22.4341 -22.3945  -6.7320  -6.3512  -6.1101  -4.9920
    -4.9522  -4.8512  -4.6983  -4.5728   2.8176   5.4602   5.4922   5.8562
     6.4839   7.2651   8.3378   8.8554   8.9176   9.3445

          k = 0.2222 0.4444 0.4228 (  2510 PWs)   bands (ev):

   -45.7929 -22.5117 -22.4336 -22.3941  -6.7294  -6.3489  -6.0405  -4.9898
    -4.9352  -4.8377  -4.6925  -4.5360   2.8296   5.3217   5.3728   5.7588
     6.2386   7.1898   8.1039   8.8814   8.9168   9.5409

          k = 0.3333 0.3333 0.0000 (  2522 PWs)   bands (ev):

   -45.7933 -22.4746 -22.4195 -22.4193  -6.7698  -6.3579  -6.2712  -5.0130
    -4.9695  -4.8703  -4.7116  -4.6697   2.6157   5.9083   6.0889   6.8980
     7.0738   7.1979   7.8799   8.4911   9.2996   9.4304

          k = 0.3333 0.3333 0.1057 (  2507 PWs)   bands (ev):

   -45.7932 -22.4791 -22.4193 -22.4191  -6.7410  -6.3673  -6.2614  -5.0044
    -4.9686  -4.8601  -4.7013  -4.6535   2.6579   5.8834   5.9988   6.3172
     6.9073   7.5025   8.2737   8.3648   9.2597   9.3025

          k = 0.3333 0.3333 0.2114 (  2520 PWs)   bands (ev):

   -45.7931 -22.4903 -22.4188 -22.4185  -6.6802  -6.3904  -6.2220  -4.9826
    -4.9662  -4.8348  -4.6742  -4.6133   2.7658   5.6540   5.7223   5.9357
     6.6586   7.2123   8.4564   8.8140   8.9637   9.3123

          k = 0.3333 0.3333 0.3171 (  2506 PWs)   bands (ev):

   -45.7929 -22.5031 -22.4181 -22.4179  -6.6349  -6.4157  -6.1487  -4.9631
    -4.9582  -4.8046  -4.6425  -4.5685   2.8867   5.3158   5.4071   5.8167
     6.5728   6.6767   8.1281   9.1141   9.1826   9.3435

          k = 0.3333 0.3333 0.4228 (  2505 PWs)   bands (ev):

   -45.7928 -22.5114 -22.4177 -22.4176  -6.6180  -6.4317  -6.0855  -4.9610
    -4.9427  -4.7826  -4.6223  -4.5396   2.9600   5.1717   5.2186   5.6946
     6.3915   6.5482   7.8018   9.2538   9.2809   9.4390

          k = 0.3333 0.4444 0.0000 (  2514 PWs)   bands (ev):

   -45.7930 -22.4738 -22.4344 -22.4186  -6.6562  -6.3314  -6.3033  -5.0063
    -4.9500  -4.8118  -4.7044  -4.6761   2.4527   5.6367   6.1165   6.7659
     7.2177   7.3019   7.5848   8.4733   9.1769   9.4742

          k = 0.3333 0.4444 0.1057 (  2523 PWs)   bands (ev):

   -45.7930 -22.4783 -22.4341 -22.4184  -6.6269  -6.3413  -6.3008  -4.9975
    -4.9483  -4.7981  -4.6892  -4.6582   2.5117   5.6281   6.0385   6.2485
     6.7694   7.6867   8.0006   8.4237   8.9731   9.4595

          k = 0.3333 0.4444 0.2114 (  2516 PWs)   bands (ev):

   -45.7928 -22.4895 -22.4336 -22.4179  -6.5751  -6.3647  -6.2697  -4.9756
    -4.9439  -4.7684  -4.6512  -4.6080   2.6731   5.5607   5.6582   5.7598
     6.4595   7.2744   8.1873   8.8216   8.8447   9.4531

          k = 0.3333 0.4444 0.3171 (  2504 PWs)   bands (ev):

   -45.7926 -22.5022 -22.4329 -22.4173  -6.5582  -6.3894  -6.1875  -4.9540
    -4.9359  -4.7384  -4.6069  -4.5475   2.8814   5.1789   5.3679   5.5724
     6.3265   6.7438   7.6189   9.1861   9.2659   9.4640

          k = 0.3333 0.4444 0.4228 (  2500 PWs)   bands (ev):

   -45.7925 -22.5105 -22.4325 -22.4169  -6.5631  -6.4048  -6.1149  -4.9458
    -4.9249  -4.7185  -4.5775  -4.5077   3.0349   4.9707   5.1509   5.4950
     6.1932   6.5368   7.2012   9.3498   9.4231   9.5630

          k = 0.4444 0.4444 0.0000 (  2512 PWs)   bands (ev):

   -45.7927 -22.4730 -22.4335 -22.4335  -6.5734  -6.3141  -6.3109  -4.9978
    -4.9180  -4.7459  -4.7071  -4.6641   2.2833   5.4914   6.0063   6.9314
     7.0003   7.4203   7.5303   8.2994   8.7963   9.6863

          k = 0.4444 0.4444 0.1057 (  2517 PWs)   bands (ev):

   -45.7927 -22.4774 -22.4333 -22.4333  -6.5321  -6.3301  -6.3225  -4.9889
    -4.9169  -4.7249  -4.6806  -4.6528   2.3587   5.4827   5.9825   6.3635
     6.4765   7.8248   8.1096   8.1520   8.5218   9.6835

          k = 0.4444 0.4444 0.2114 (  2525 PWs)   bands (ev):

   -45.7925 -22.4887 -22.4328 -22.4328  -6.4481  -6.3687  -6.3279  -4.9664
    -4.9146  -4.6843  -4.6147  -4.6115   2.5730   5.4478   5.7101   5.7198
     6.1159   7.2526   7.7540   8.8092   8.8113   9.6766

          k = 0.4444 0.4444 0.3171 (  2509 PWs)   bands (ev):

   -45.7923 -22.5014 -22.4322 -22.4321  -6.4394  -6.4097  -6.2414  -4.9408
    -4.9124  -4.6525  -4.5488  -4.5415   2.8761   5.2067   5.2794   5.4204
     6.0810   6.6278   6.9870   9.3100   9.3213   9.6687

          k = 0.4444 0.4444 0.4228 (  2498 PWs)   bands (ev):

   -45.7922 -22.5097 -22.4318 -22.4317  -6.4570  -6.4350  -6.1589  -4.9241
    -4.9112  -4.6330  -4.5051  -4.4946   3.1331   4.9510   5.0385   5.3462
     6.0770   6.2771   6.4766   9.5599   9.5768   9.6627

     highest occupied level (ev):    10.2607

!    total energy              =    -380.57230384 Ry
     estimated scf accuracy    <          1.2E-11 Ry

     The total energy is the sum of the following terms:
     one-electron contribution =     -85.69148870 Ry
     hartree contribution      =      71.98925109 Ry
     xc contribution           =    -102.58351957 Ry
     ewald contribution        =    -264.28654666 Ry

     convergence has been achieved in   8 iterations

     negative rho (up, down):  1.553E-02 0.000E+00

     Forces acting on atoms (cartesian axes, Ry/au):

     atom    1 type  1   force =     0.00000000    0.00000000    0.00009059
     atom    2 type  2   force =     0.00000000    0.00000000   -0.00070757
     atom    3 type  3   force =     0.00000000    0.00000000    0.00040576
     atom    4 type  3   force =     0.00000000    0.00000000    0.00010561
     atom    5 type  3   force =     0.00000000    0.00000000    0.00010561

     Total force =     0.000834     Total SCF correction =     0.000007


     Computing stress (Cartesian axis) and pressure


     negative rho (up, down):  1.553E-02 0.000E+00
          total   stress  (Ry/bohr**3)                   (kbar)     P=      -44.56
  -0.00035169   0.00000000   0.00000000          -51.73        0.00        0.00
   0.00000000  -0.00035169   0.00000000            0.00      -51.73        0.00
   0.00000000   0.00000000  -0.00020543            0.00        0.00      -30.22

     Energy error            =      2.6E-06 Ry
     Gradient error          =      7.1E-04 Ry/Bohr

     bfgs converged in   9 scf cycles and   8 bfgs steps
     (criteria: energy <  1.0E-04 Ry, force <  1.0E-03 Ry/Bohr)

     End of BFGS Geometry Optimization

     Final energy             =    -380.5723038391 Ry

     File ./pto_k9.bfgs deleted, as requested
Begin final coordinates

ATOMIC_POSITIONS (crystal)
Pb               0.0000000000        0.0000000000        0.9936293571
Ti               0.5000000000        0.5000000000        0.5381803480
O                0.5000000000        0.5000000000        0.1065562785
O                0.5000000000        0.0000000000        0.6144591522
O                0.0000000000        0.5000000000        0.6144591522
End final coordinates



     Writing all to output data dir ./pto_k9.save/ :
     XML data file, charge density, pseudopotentials, collected wavefunctions
 
     init_run     :      0.61s CPU      0.70s WALL (       1 calls)
     electrons    :    195.53s CPU    207.80s WALL (       9 calls)
     update_pot   :      0.03s CPU      0.04s WALL (       8 calls)
     forces       :      1.58s CPU      1.61s WALL (       9 calls)
     stress       :     18.65s CPU     18.81s WALL (       9 calls)

     Called by init_run:
     wfcinit      :      0.39s CPU      0.42s WALL (       1 calls)
     potinit      :      0.01s CPU      0.01s WALL (       1 calls)
     hinit0       :      0.11s CPU      0.14s WALL (       1 calls)

     Called by electrons:
     c_bands      :    176.99s CPU    187.94s WALL (      90 calls)
     sum_band     :     14.66s CPU     15.34s WALL (      90 calls)
     v_of_rho     :      0.14s CPU      0.14s WALL (      95 calls)
     newd         :      3.94s CPU      4.41s WALL (      95 calls)
     mix_rho      :      0.10s CPU      0.10s WALL (      90 calls)

     Called by c_bands:
     init_us_2    :      1.50s CPU      1.57s WALL (   14925 calls)
     init_us_2:cp :      1.47s CPU      1.54s WALL (   14925 calls)
     ccgdiagg     :    160.07s CPU    170.24s WALL (    6750 calls)
     wfcrot       :     16.13s CPU     16.86s WALL (    5850 calls)

     Called by *cgdiagg:
     h_psi        :     97.83s CPU    103.79s WALL (  597343 calls)
     s_psi        :     15.98s CPU     17.05s WALL ( 1188836 calls)

     Called by h_psi:
     h_psi:calbec :     15.73s CPU     16.70s WALL (  597343 calls)
     vloc_psi     :     68.64s CPU     72.80s WALL (  597343 calls)
     add_vuspsi   :      8.74s CPU      9.31s WALL (  597343 calls)
     hs_1psi      :     96.50s CPU    102.59s WALL (  591493 calls)
     s_1psi       :     23.59s CPU     25.04s WALL (  591493 calls)

     General routines
     calbec       :     27.94s CPU     29.73s WALL ( 1198961 calls)
     fft          :      0.17s CPU      0.18s WALL (     636 calls)
     ffts         :      0.01s CPU      0.01s WALL (     185 calls)
     fftw         :     58.05s CPU     61.43s WALL ( 1590236 calls)
     interpolate  :      0.03s CPU      0.04s WALL (      95 calls)
 
     Parallel routines
 
     PWSCF        :   3m37.11s CPU   3m50.56s WALL

 
   This run was terminated on:   2:37:19  15Nov2025            

=------------------------------------------------------------------------------=
   JOB DONE.
=------------------------------------------------------------------------------=
TACC:  Shutdown complete. Exiting. 
