TACC:  Starting up job 2547123 
TACC:  Starting parallel tasks... 

     Program PWSCF v.7.3 starts on 13Nov2025 at  0:21:43 

     This program is part of the open-source Quantum ESPRESSO suite
     for quantum simulation of materials; please cite
         "P. Giannozzi et al., J. Phys.:Condens. Matter 21 395502 (2009);
         "P. Giannozzi et al., J. Phys.:Condens. Matter 29 465901 (2017);
         "P. Giannozzi et al., J. Chem. Phys. 152 154105 (2020);
          URL http://www.quantum-espresso.org", 
     in publications or presentations arising from this work. More details at
     http://www.quantum-espresso.org/quote

     Parallel version (MPI & OpenMP), running on      10 processor cores
     Number of MPI processes:                10
     Threads/MPI process:                     1

     MPI processes distributed on     1 nodes
     189284 MiB available memory on the printing compute node when the environment starts
 
     Waiting for input...
     Reading input from standard input
Warning: card &CELL ignored
Warning: card  CELL_DYNAMICS = 'BFGS', ignored
Warning: card  PRESS=0.D0, ignored
Warning: card / ignored

     Current dimensions of program PWSCF are:
     Max number of different atomic species (ntypx) = 10
     Max number of k-points (npk) =  40000
     Max angular momentum in pseudopotentials (lmaxx) =  4
     Message from routine setup:
     using ibrav=0 with symmetry is DISCOURAGED, use correct ibrav instead
 
     R & G space division:  proc/nbgrp/npool/nimage =      10
     Subspace diagonalization in iterative solution of the eigenvalue problem:
     a serial algorithm will be used

 
     Parallelization info
     --------------------
     sticks:   dense  smooth     PW     G-vecs:    dense   smooth      PW
     Min         431     174     49                22471     5678     877
     Max         432     175     50                22474     5681     880
     Sum        4317    1741    497               224729    56797    8787
 
     Using Slab Decomposition
 


     bravais-lattice index     =            0
     lattice parameter (alat)  =       7.3699  a.u.
     unit-cell volume          =     420.8329 (a.u.)^3
     number of atoms/cell      =            5
     number of atomic types    =            3
     number of electrons       =        44.00
     number of Kohn-Sham states=           22
     kinetic-energy cutoff     =     100.0000  Ry
     charge density cutoff     =    1000.0000  Ry
     scf convergence threshold =      1.0E-08
     mixing beta               =       0.7000
     number of iterations used =            8  plain     mixing
     energy convergence thresh.=      1.0E-04
     force convergence thresh. =      1.0E-03
     Exchange-correlation= SLA  PZ   NOGX NOGC
                           (   1   1   0   0   0   0   0)
     nstep                     =           50


     celldm(1)=   7.369932  celldm(2)=   0.000000  celldm(3)=   0.000000
     celldm(4)=   0.000000  celldm(5)=   0.000000  celldm(6)=   0.000000

     crystal axes: (cart. coord. in units of alat)
               a(1) = (   1.000000   0.000000   0.000000 )  
               a(2) = (   0.000000   1.000000   0.000000 )  
               a(3) = (   0.000000   0.000000   1.051282 )  

     reciprocal axes: (cart. coord. in units 2 pi/alat)
               b(1) = (  1.000000  0.000000  0.000000 )  
               b(2) = (  0.000000  1.000000  0.000000 )  
               b(3) = (  0.000000  0.000000  0.951220 )  


     PseudoPot. # 1 for Pb read from file:
     /scratch/11018/zhc/assisgnment3/input_files/Pb_LDA.UPF
     MD5 check sum: 062a37469794d955244864f8fe2e5624
     Pseudo is Ultrasoft + core correction, Zval = 14.0
     Generated by new atomic code, or converted to UPF format
     Using radial grid of  899 points,  6 beta functions with: 
                l(1) =   0
                l(2) =   0
                l(3) =   1
                l(4) =   1
                l(5) =   2
                l(6) =   2
     Q(r) pseudized with  6 coefficients,  rinner =    1.000   1.000   1.000
                                                       1.000   1.000

     PseudoPot. # 2 for Ti read from file:
     /scratch/11018/zhc/assisgnment3/input_files/Ti_LDA.UPF
     MD5 check sum: 0d9f225c038fe889ca2a701dcc8d72cb
     Pseudo is Ultrasoft + core correction, Zval = 12.0
     Generated by new atomic code, or converted to UPF format
     Using radial grid of  851 points,  6 beta functions with: 
                l(1) =   0
                l(2) =   0
                l(3) =   1
                l(4) =   1
                l(5) =   2
                l(6) =   2
     Q(r) pseudized with  6 coefficients,  rinner =    1.000   1.000   1.000
                                                       1.000   1.000

     PseudoPot. # 3 for O  read from file:
     /scratch/11018/zhc/assisgnment3/input_files/O_LDA.UPF
     MD5 check sum: 194b818514d2a7dbb603bb78519a4f40
     Pseudo is Ultrasoft + core correction, Zval =  6.0
     Generated by new atomic code, or converted to UPF format
     Using radial grid of  737 points,  5 beta functions with: 
                l(1) =   0
                l(2) =   0
                l(3) =   1
                l(4) =   1
                l(5) =   2
     Q(r) pseudized with  8 coefficients,  rinner =    0.900   0.900   0.900
                                                       0.900   0.900

     atomic species   valence    mass     pseudopotential
     Pb               14.00   207.20000     Pb( 1.00)
     Ti               12.00    47.88000     Ti( 1.00)
     O                 6.00    16.00000     O ( 1.00)

      8 Sym. Ops. (no inversion) found



   Cartesian axes

     site n.     atom                  positions (alat units)
         1        Pb     tau(   1) = (   0.0000000   0.0000000   1.0580339  )
         2        Ti     tau(   2) = (   0.5000000   0.5000000   0.5681377  )
         3        O      tau(   3) = (   0.5000000   0.5000000   0.1036357  )
         4        O      tau(   4) = (   0.5000000   0.0000000   0.6422586  )
         5        O      tau(   5) = (   0.0000000   0.5000000   0.6422586  )

     number of k points=    30
                       cart. coord. in units 2pi/alat
        k(    1) = (   0.0000000   0.0000000   0.0000000), wk =   0.0138889
        k(    2) = (   0.0000000   0.0000000   0.2378049), wk =   0.0277778
        k(    3) = (   0.0000000   0.0000000  -0.4756098), wk =   0.0138889
        k(    4) = (   0.0000000   0.1666667   0.0000000), wk =   0.0555556
        k(    5) = (   0.0000000   0.1666667   0.2378049), wk =   0.1111111
        k(    6) = (   0.0000000   0.1666667  -0.4756098), wk =   0.0555556
        k(    7) = (   0.0000000   0.3333333   0.0000000), wk =   0.0555556
        k(    8) = (   0.0000000   0.3333333   0.2378049), wk =   0.1111111
        k(    9) = (   0.0000000   0.3333333  -0.4756098), wk =   0.0555556
        k(   10) = (   0.0000000  -0.5000000   0.0000000), wk =   0.0277778
        k(   11) = (   0.0000000  -0.5000000   0.2378049), wk =   0.0555556
        k(   12) = (   0.0000000  -0.5000000  -0.4756098), wk =   0.0277778
        k(   13) = (   0.1666667   0.1666667   0.0000000), wk =   0.0555556
        k(   14) = (   0.1666667   0.1666667   0.2378049), wk =   0.1111111
        k(   15) = (   0.1666667   0.1666667  -0.4756098), wk =   0.0555556
        k(   16) = (   0.1666667   0.3333333   0.0000000), wk =   0.1111111
        k(   17) = (   0.1666667   0.3333333   0.2378049), wk =   0.2222222
        k(   18) = (   0.1666667   0.3333333  -0.4756098), wk =   0.1111111
        k(   19) = (   0.1666667  -0.5000000   0.0000000), wk =   0.0555556
        k(   20) = (   0.1666667  -0.5000000   0.2378049), wk =   0.1111111
        k(   21) = (   0.1666667  -0.5000000  -0.4756098), wk =   0.0555556
        k(   22) = (   0.3333333   0.3333333   0.0000000), wk =   0.0555556
        k(   23) = (   0.3333333   0.3333333   0.2378049), wk =   0.1111111
        k(   24) = (   0.3333333   0.3333333  -0.4756098), wk =   0.0555556
        k(   25) = (   0.3333333  -0.5000000   0.0000000), wk =   0.0555556
        k(   26) = (   0.3333333  -0.5000000   0.2378049), wk =   0.1111111
        k(   27) = (   0.3333333  -0.5000000  -0.4756098), wk =   0.0555556
        k(   28) = (  -0.5000000  -0.5000000   0.0000000), wk =   0.0138889
        k(   29) = (  -0.5000000  -0.5000000   0.2378049), wk =   0.0277778
        k(   30) = (  -0.5000000  -0.5000000  -0.4756098), wk =   0.0138889

     Dense  grid:   224729 G-vectors     FFT dimensions: (  75,  75,  80)

     Smooth grid:    56797 G-vectors     FFT dimensions: (  48,  48,  50)

     Estimated max dynamical RAM per process >      98.42 MB

     Estimated total dynamical RAM >     984.16 MB

     Initial potential from superposition of free atoms

     starting charge      42.9982, renormalised to      44.0000

     negative rho (up, down):  1.732E-02 0.000E+00
     Starting wfcs are   31 randomized atomic wfcs

     total cpu time spent up to now is        1.3 secs

     Self-consistent Calculation

     iteration #  1     ecut=   100.00 Ry     beta= 0.70
     CG style diagonalization
     ethr =  1.00E-02,  avg # of iterations =  2.1

     negative rho (up, down):  1.459E-02 0.000E+00

     total cpu time spent up to now is        3.0 secs

     total energy              =    -380.04616390 Ry
     estimated scf accuracy    <       1.03776983 Ry

     iteration #  2     ecut=   100.00 Ry     beta= 0.70
     CG style diagonalization
     ethr =  2.36E-03,  avg # of iterations =  4.9

     negative rho (up, down):  1.485E-02 0.000E+00

     total cpu time spent up to now is        5.6 secs

     total energy              =    -379.58382683 Ry
     estimated scf accuracy    <       4.98194609 Ry

     iteration #  3     ecut=   100.00 Ry     beta= 0.70
     CG style diagonalization
     ethr =  2.36E-03,  avg # of iterations =  4.5

     negative rho (up, down):  1.558E-02 0.000E+00

     total cpu time spent up to now is        8.1 secs

     total energy              =    -380.53832734 Ry
     estimated scf accuracy    <       0.30632167 Ry

     iteration #  4     ecut=   100.00 Ry     beta= 0.70
     CG style diagonalization
     ethr =  6.96E-04,  avg # of iterations =  3.5

     negative rho (up, down):  1.567E-02 0.000E+00

     total cpu time spent up to now is       10.1 secs

     total energy              =    -380.55364590 Ry
     estimated scf accuracy    <       0.07787068 Ry

     iteration #  5     ecut=   100.00 Ry     beta= 0.70
     CG style diagonalization
     ethr =  1.77E-04,  avg # of iterations =  3.7

     negative rho (up, down):  1.569E-02 0.000E+00

     total cpu time spent up to now is       12.2 secs

     total energy              =    -380.57027280 Ry
     estimated scf accuracy    <       0.00512504 Ry

     iteration #  6     ecut=   100.00 Ry     beta= 0.70
     CG style diagonalization
     ethr =  1.16E-05,  avg # of iterations =  4.4

     negative rho (up, down):  1.567E-02 0.000E+00

     total cpu time spent up to now is       14.6 secs

     total energy              =    -380.57439846 Ry
     estimated scf accuracy    <       0.00832058 Ry

     iteration #  7     ecut=   100.00 Ry     beta= 0.70
     CG style diagonalization
     ethr =  1.16E-05,  avg # of iterations =  3.2

     negative rho (up, down):  1.565E-02 0.000E+00

     total cpu time spent up to now is       16.5 secs

     total energy              =    -380.57342748 Ry
     estimated scf accuracy    <       0.00417337 Ry

     iteration #  8     ecut=   100.00 Ry     beta= 0.70
     CG style diagonalization
     ethr =  9.48E-06,  avg # of iterations =  3.6

     negative rho (up, down):  1.567E-02 0.000E+00

     total cpu time spent up to now is       18.6 secs

     total energy              =    -380.57414798 Ry
     estimated scf accuracy    <       0.00002398 Ry

     iteration #  9     ecut=   100.00 Ry     beta= 0.70
     CG style diagonalization
     c_bands:  1 eigenvalues not converged
     ethr =  5.45E-08,  avg # of iterations =  6.5

     negative rho (up, down):  1.570E-02 0.000E+00

     total cpu time spent up to now is       21.8 secs

     total energy              =    -380.57422157 Ry
     estimated scf accuracy    <       0.00000636 Ry

     iteration # 10     ecut=   100.00 Ry     beta= 0.70
     CG style diagonalization
     ethr =  1.45E-08,  avg # of iterations =  4.8

     negative rho (up, down):  1.577E-02 0.000E+00

     total cpu time spent up to now is       24.4 secs

     total energy              =    -380.57422425 Ry
     estimated scf accuracy    <       0.00000390 Ry

     iteration # 11     ecut=   100.00 Ry     beta= 0.70
     CG style diagonalization
     ethr =  8.87E-09,  avg # of iterations =  4.3

     negative rho (up, down):  1.579E-02 0.000E+00

     total cpu time spent up to now is       26.7 secs

     total energy              =    -380.57422540 Ry
     estimated scf accuracy    <       0.00000017 Ry

     iteration # 12     ecut=   100.00 Ry     beta= 0.70
     CG style diagonalization
     c_bands:  1 eigenvalues not converged
     c_bands:  1 eigenvalues not converged
     ethr =  3.87E-10,  avg # of iterations =  9.7

     negative rho (up, down):  1.579E-02 0.000E+00

     total cpu time spent up to now is       31.3 secs

     total energy              =    -380.57422646 Ry
     estimated scf accuracy    <       0.00000008 Ry

     iteration # 13     ecut=   100.00 Ry     beta= 0.70
     CG style diagonalization
     ethr =  1.83E-10,  avg # of iterations =  5.1

     negative rho (up, down):  1.579E-02 0.000E+00

     total cpu time spent up to now is       33.9 secs

     total energy              =    -380.57422652 Ry
     estimated scf accuracy    <       0.00000002 Ry

     iteration # 14     ecut=   100.00 Ry     beta= 0.70
     CG style diagonalization
     ethr =  3.51E-11,  avg # of iterations =  6.4

     negative rho (up, down):  1.579E-02 0.000E+00

     total cpu time spent up to now is       37.1 secs

     End of self-consistent calculation

          k = 0.0000 0.0000 0.0000 (  7069 PWs)   bands (ev):

   -45.8569 -22.4925 -22.4303 -22.4303  -7.5125  -6.4332  -6.1999  -5.0273
    -5.0273  -4.9923  -4.8707  -4.7662   4.2241   6.3075   6.3075   6.6261
     8.2744   8.2744   8.4909   8.7788   8.9394   8.9394

          k = 0.0000 0.0000 0.2378 (  7125 PWs)   bands (ev):

   -45.8567 -22.5120 -22.4296 -22.4296  -7.3197  -6.3743  -6.1421  -5.0425
    -5.0425  -4.9910  -4.8630  -4.8374   3.4622   6.3769   6.3769   6.7881
     8.0078   8.0078   8.4068   8.8273   9.0455   9.0455

          k = 0.0000 0.0000-0.4756 (  7128 PWs)   bands (ev):

   -45.8564 -22.5314 -22.4288 -22.4288  -7.1090  -6.3095  -6.0923  -5.0575
    -5.0575  -4.9898  -4.9146  -4.8572   2.9644   6.1479   6.4333   6.4333
     7.8240   7.8240   8.3265   9.1156   9.1156   9.9982

          k = 0.0000 0.1667 0.0000 (  7121 PWs)   bands (ev):

   -45.8566 -22.4918 -22.4475 -22.4296  -7.3776  -6.4039  -6.1710  -5.0479
    -5.0259  -5.0051  -4.8757  -4.7569   3.7956   6.3509   6.4165   6.6729
     8.1860   8.2981   8.4911   8.5694   8.6706   9.0379

          k = 0.0000 0.1667 0.2378 (  7106 PWs)   bands (ev):

   -45.8563 -22.5112 -22.4467 -22.4288  -7.2005  -6.3607  -6.1079  -5.0460
    -5.0416  -5.0043  -4.8729  -4.7935   3.2508   6.1628   6.4931   6.8884
     7.6641   7.9987   8.2716   8.6924   8.7197   9.3660

          k = 0.0000 0.1667-0.4756 (  7106 PWs)   bands (ev):

   -45.8561 -22.5304 -22.4458 -22.4281  -7.0165  -6.3117  -6.0437  -5.0571
    -5.0415  -5.0035  -4.8806  -4.8266   2.8358   5.8585   6.5524   6.5785
     7.4664   7.8269   8.3377   8.7468   8.7941   9.9273

          k = 0.0000 0.3333 0.0000 (  7106 PWs)   bands (ev):

   -45.8560 -22.4907 -22.4813 -22.4282  -7.0840  -6.3409  -6.1271  -5.0810
    -5.0305  -5.0231  -4.8735  -4.7651   3.2187   5.9804   6.6725   6.7023
     7.8543   7.8757   8.3455   8.4080   8.7755   9.6132

          k = 0.0000 0.3333 0.2378 (  7105 PWs)   bands (ev):

   -45.8557 -22.5095 -22.4806 -22.4274  -6.9698  -6.3019  -6.0443  -5.0511
    -5.0398  -5.0305  -4.8699  -4.7392   2.8950   5.8683   6.5587   6.7995
     7.3090   7.7475   7.8607   8.4049   8.9366   9.6815

          k = 0.0000 0.3333-0.4756 (  7110 PWs)   bands (ev):

   -45.8554 -22.5284 -22.4796 -22.4266  -6.8850  -6.2394  -5.9340  -5.0562
    -5.0307  -5.0130  -4.9066  -4.6901   2.6069   5.5744   6.3162   6.8544
     7.2007   7.3656   7.6888   8.4117   9.3279   9.5158

          k = 0.0000-0.5000 0.0000 (  7104 PWs)   bands (ev):

   -45.8557 -22.4988 -22.4893 -22.4275  -6.9215  -6.2941  -6.1286  -5.0964
    -5.0430  -5.0218  -4.8473  -4.7992   3.0106   5.6181   6.9600   6.9704
     7.3495   7.4683   8.2685   8.4484   8.8115  10.3558

          k = 0.0000-0.5000 0.2378 (  7102 PWs)   bands (ev):

   -45.8554 -22.5084 -22.4977 -22.4267  -6.8696  -6.2229  -6.0361  -5.0639
    -5.0436  -5.0388  -4.8402  -4.7353   2.7516   5.5903   6.5914   6.8578
     7.1643   7.3161   7.9699   8.3933   8.9297   9.8616

          k = 0.0000-0.5000-0.4756 (  7084 PWs)   bands (ev):

   -45.8551 -22.5273 -22.4965 -22.4258  -6.8550  -6.1465  -5.8820  -5.0558
    -5.0442  -5.0240  -4.8932  -4.6341   2.5125   5.4245   6.0396   6.9190
     7.1684   7.3705   7.3743   8.3569   9.1470   9.6528

          k = 0.1667 0.1667 0.0000 (  7123 PWs)   bands (ev):

   -45.8563 -22.4911 -22.4468 -22.4466  -7.2453  -6.3737  -6.1636  -5.0534
    -5.0400  -5.0073  -4.8544  -4.7482   3.4994   6.2923   6.5220   6.7210
     7.7669   7.8509   8.5441   8.5673   8.8866   9.2656

          k = 0.1667 0.1667 0.2378 (  7104 PWs)   bands (ev):

   -45.8560 -22.5104 -22.4460 -22.4458  -7.0793  -6.3498  -6.1011  -5.0559
    -5.0355  -5.0005  -4.8459  -4.7625   3.1377   6.1078   6.1885   6.8515
     7.5502   7.5527   8.3747   8.7465   8.9713   9.3175

          k = 0.1667 0.1667-0.4756 (  7110 PWs)   bands (ev):

   -45.8558 -22.5295 -22.4451 -22.4450  -6.9133  -6.3257  -6.0284  -5.0670
    -5.0167  -4.9775  -4.8534  -4.7820   2.8089   5.9086   5.9189   6.5853
     7.4560   7.4705   8.2675   8.8166   9.0313   9.6353

          k = 0.1667 0.3333 0.0000 (  7101 PWs)   bands (ev):

   -45.8557 -22.4900 -22.4804 -22.4452  -6.9607  -6.3119  -6.1629  -5.0757
    -5.0303  -4.9906  -4.8316  -4.7557   3.0304   5.9850   6.5404   6.8249
     7.2112   7.8043   8.0606   8.7213   8.8991   9.6942

          k = 0.1667 0.3333 0.2378 (  7099 PWs)   bands (ev):

   -45.8554 -22.5087 -22.4798 -22.4444  -6.8440  -6.3051  -6.0936  -5.0539
    -5.0309  -4.9671  -4.8137  -4.7152   2.9028   5.8352   6.0046   6.4891
     6.9294   7.5760   8.4101   8.7014   9.0258   9.4109

          k = 0.1667 0.3333-0.4756 (  7116 PWs)   bands (ev):

   -45.8551 -22.5276 -22.4788 -22.4435  -6.7623  -6.2850  -5.9892  -5.0508
    -5.0081  -4.9282  -4.8261  -4.6643   2.7381   5.5161   5.9214   6.2222
     6.4316   7.4287   8.5142   8.7397   8.9210   9.4491

          k = 0.1667-0.5000 0.0000 (  7110 PWs)   bands (ev):

   -45.8553 -22.4979 -22.4886 -22.4444  -6.8046  -6.2671  -6.1858  -5.0789
    -5.0232  -4.9687  -4.8123  -4.7903   2.8440   5.6346   6.6961   6.8503
     7.1890   7.4649   7.9755   8.7807   8.8788   9.9760

          k = 0.1667-0.5000 0.2378 (  7102 PWs)   bands (ev):

   -45.8551 -22.5076 -22.4968 -22.4436  -6.7434  -6.2360  -6.1145  -5.0527
    -5.0187  -4.9445  -4.7951  -4.7086   2.7939   5.5961   5.9120   6.2776
     6.8764   7.7193   8.1787   8.7162   9.0171   9.3826

          k = 0.1667-0.5000-0.4756 (  7092 PWs)   bands (ev):

   -45.8548 -22.5265 -22.4957 -22.4428  -6.7318  -6.2063  -5.9745  -5.0460
    -4.9813  -4.9209  -4.8105  -4.6089   2.7035   5.3940   5.7822   5.8874
     6.3058   7.5401   8.3015   8.6575   8.6650   9.6608

          k = 0.3333 0.3333 0.0000 (  7110 PWs)   bands (ev):

   -45.8550 -22.4887 -22.4789 -22.4784  -6.7169  -6.2545  -6.2163  -5.0582
    -5.0125  -4.9223  -4.7590  -4.7526   2.6716   5.9490   6.0847   6.9497
     7.0870   7.2644   7.8800   8.5181   9.3845   9.4057

          k = 0.3333 0.3333 0.2378 (  7106 PWs)   bands (ev):

   -45.8548 -22.5071 -22.4781 -22.4781  -6.5942  -6.3031  -6.1820  -5.0219
    -5.0059  -4.8624  -4.7083  -4.6819   2.8538   5.5996   5.6628   5.9392
     6.6060   7.0670   8.3840   8.9905   9.0196   9.4007

          k = 0.3333 0.3333-0.4756 (  7090 PWs)   bands (ev):

   -45.8545 -22.5258 -22.4773 -22.4772  -6.5327  -6.3480  -6.0764  -4.9997
    -4.9856  -4.7975  -4.6635  -4.6075   3.0204   5.2160   5.2356   5.7013
     6.3519   6.5131   7.6502   9.3557   9.3696   9.5312

          k = 0.3333-0.5000 0.0000 (  7114 PWs)   bands (ev):

   -45.8547 -22.4960 -22.4874 -22.4778  -6.6066  -6.2327  -6.2179  -5.0510
    -4.9910  -4.8605  -4.7919  -4.7187   2.5045   5.6144   6.1201   6.7799
     7.3017   7.4044   7.4992   8.4935   9.0784   9.5723

          k = 0.3333-0.5000 0.2378 (  7112 PWs)   bands (ev):

   -45.8545 -22.5060 -22.4950 -22.4772  -6.4872  -6.2654  -6.2382  -5.0139
    -4.9806  -4.7724  -4.7111  -4.6493   2.7973   5.4972   5.5740   5.6825
     6.3893   7.1409   7.9042   8.9871   9.0180   9.5530

          k = 0.3333-0.5000-0.4756 (  7080 PWs)   bands (ev):

   -45.8542 -22.5248 -22.4941 -22.4764  -6.4814  -6.3093  -6.1144  -4.9858
    -4.9631  -4.7091  -4.6301  -4.5548   3.1662   4.9603   5.1463   5.4569
     6.1409   6.5283   6.8808   9.4555   9.5248   9.6825

          k =-0.5000-0.5000 0.0000 (  7176 PWs)   bands (ev):

   -45.8544 -22.4950 -22.4950 -22.4860  -6.5564  -6.1961  -6.1961  -5.0413
    -4.9492  -4.8094  -4.8094  -4.6715   2.3352   5.4594   5.9625   6.9990
     6.9990   7.5183   7.5183   8.2481   8.5811   9.8296

          k =-0.5000-0.5000 0.2378 (  7120 PWs)   bands (ev):

   -45.8541 -22.5050 -22.4942 -22.4942  -6.3663  -6.2812  -6.2812  -5.0032
    -4.9474  -4.6710  -4.6710  -4.6376   2.7451   5.4129   5.6165   5.6165
     5.9687   7.0816   7.2557   9.0189   9.0189   9.8142

          k =-0.5000-0.5000-0.4756 (  7048 PWs)   bands (ev):

   -45.8539 -22.5238 -22.4933 -22.4933  -6.3548  -6.3548  -6.1722  -4.9650
    -4.9455  -4.5926  -4.5420  -4.5420   3.4109   4.9825   4.9825   5.2900
     5.8876   5.9749   6.2464   9.6934   9.6934   9.7987

     highest occupied level (ev):    10.3558

!    total energy              =    -380.57422654 Ry
     estimated scf accuracy    <          5.2E-09 Ry

     The total energy is the sum of the following terms:
     one-electron contribution =     -84.08934250 Ry
     hartree contribution      =      71.17207828 Ry
     xc contribution           =    -102.54280286 Ry
     ewald contribution        =    -265.11415945 Ry

     convergence has been achieved in  14 iterations

     negative rho (up, down):  1.579E-02 0.000E+00

     Forces acting on atoms (cartesian axes, Ry/au):

     atom    1 type  1   force =     0.00000000    0.00000000   -0.00767756
     atom    2 type  2   force =     0.00000000    0.00000000   -0.01236968
     atom    3 type  3   force =     0.00000000    0.00000000    0.02039564
     atom    4 type  3   force =     0.00000000    0.00000000   -0.00017420
     atom    5 type  3   force =     0.00000000    0.00000000   -0.00017420

     Total force =     0.025060     Total SCF correction =     0.000202


     Computing stress (Cartesian axis) and pressure


     negative rho (up, down):  1.579E-02 0.000E+00
          total   stress  (Ry/bohr**3)                   (kbar)     P=      -63.80
  -0.00042234   0.00000000   0.00000000          -62.13        0.00        0.00
   0.00000000  -0.00042234   0.00000000            0.00      -62.13        0.00
   0.00000000   0.00000000  -0.00045643            0.00        0.00      -67.14


     BFGS Geometry Optimization
     Energy error            =      0.0E+00 Ry
     Gradient error          =      2.0E-02 Ry/Bohr

     number of scf cycles    =   1
     number of bfgs steps    =   0

     energy             new  =    -380.5742265371 Ry

     new trust radius        =       0.0203956389 bohr
     new conv_thr            =       0.0000000100 Ry


ATOMIC_POSITIONS (crystal)
Pb               0.0000000000        0.0000000000        1.0054315834
Ti               0.5000000000        0.5000000000        0.5388271722
O                0.5000000000        0.5000000000        0.1012127174
O                0.5000000000        0.0000000000        0.6109064075
O                0.0000000000        0.5000000000        0.6109064075



     Writing config-only to output data dir ./pto_100.save/ :
     XML data file
     NEW-OLD atomic charge density approx. for the potential

     negative rho (up, down):  1.582E-02 0.000E+00

     total cpu time spent up to now is       41.5 secs

     Self-consistent Calculation

     iteration #  1     ecut=   100.00 Ry     beta= 0.70
     CG style diagonalization
     c_bands:  2 eigenvalues not converged
     c_bands:  1 eigenvalues not converged
     c_bands:  1 eigenvalues not converged
     c_bands:  1 eigenvalues not converged
     ethr =  1.00E-06,  avg # of iterations =  6.8

     negative rho (up, down):  1.579E-02 0.000E+00

     total cpu time spent up to now is       45.1 secs

     total energy              =    -380.57459173 Ry
     estimated scf accuracy    <       0.00024200 Ry

     iteration #  2     ecut=   100.00 Ry     beta= 0.70
     CG style diagonalization
     ethr =  5.50E-07,  avg # of iterations =  4.7

     negative rho (up, down):  1.580E-02 0.000E+00

     total cpu time spent up to now is       47.6 secs

     total energy              =    -380.57457845 Ry
     estimated scf accuracy    <       0.00067016 Ry

     iteration #  3     ecut=   100.00 Ry     beta= 0.70
     CG style diagonalization
     ethr =  5.50E-07,  avg # of iterations =  4.4

     negative rho (up, down):  1.580E-02 0.000E+00

     total cpu time spent up to now is       50.0 secs

     total energy              =    -380.57471089 Ry
     estimated scf accuracy    <       0.00004644 Ry

     iteration #  4     ecut=   100.00 Ry     beta= 0.70
     CG style diagonalization
     ethr =  1.06E-07,  avg # of iterations =  3.8

     negative rho (up, down):  1.580E-02 0.000E+00

     total cpu time spent up to now is       52.2 secs

     total energy              =    -380.57472184 Ry
     estimated scf accuracy    <       0.00000615 Ry

     iteration #  5     ecut=   100.00 Ry     beta= 0.70
     CG style diagonalization
     ethr =  1.40E-08,  avg # of iterations =  4.3

     negative rho (up, down):  1.579E-02 0.000E+00

     total cpu time spent up to now is       54.5 secs

     total energy              =    -380.57472504 Ry
     estimated scf accuracy    <       0.00000075 Ry

     iteration #  6     ecut=   100.00 Ry     beta= 0.70
     CG style diagonalization
     ethr =  1.71E-09,  avg # of iterations =  4.5

     negative rho (up, down):  1.579E-02 0.000E+00

     total cpu time spent up to now is       57.0 secs

     total energy              =    -380.57472544 Ry
     estimated scf accuracy    <       0.00000029 Ry

     iteration #  7     ecut=   100.00 Ry     beta= 0.70
     CG style diagonalization
     ethr =  6.59E-10,  avg # of iterations =  4.1

     negative rho (up, down):  1.579E-02 0.000E+00

     total cpu time spent up to now is       59.2 secs

     total energy              =    -380.57472552 Ry
     estimated scf accuracy    <       0.00000007 Ry

     iteration #  8     ecut=   100.00 Ry     beta= 0.70
     CG style diagonalization
     ethr =  1.52E-10,  avg # of iterations =  4.5

     negative rho (up, down):  1.579E-02 0.000E+00

     total cpu time spent up to now is       61.7 secs

     End of self-consistent calculation

          k = 0.0000 0.0000 0.0000 (  7069 PWs)   bands (ev):

   -45.8216 -22.4796 -22.3944 -22.3944  -7.5095  -6.4268  -6.2108  -5.0299
    -5.0299  -4.9968  -4.8782  -4.7641   4.2143   6.3113   6.3113   6.6558
     8.2062   8.2062   8.4924   8.7215   8.9484   8.9484

          k = 0.0000 0.0000 0.2378 (  7125 PWs)   bands (ev):

   -45.8213 -22.4992 -22.3936 -22.3936  -7.3137  -6.3677  -6.1554  -5.0451
    -5.0451  -4.9955  -4.8705  -4.8355   3.4480   6.3711   6.3711   6.8032
     7.9650   7.9650   8.4079   8.8089   9.0513   9.0513

          k = 0.0000 0.0000-0.4756 (  7128 PWs)   bands (ev):

   -45.8211 -22.5186 -22.3929 -22.3929  -7.0989  -6.3026  -6.1091  -5.0601
    -5.0601  -4.9943  -4.9128  -4.8646   2.9430   6.1610   6.4146   6.4146
     7.8037   7.8037   8.3272   9.1213   9.1213  10.0015

          k = 0.0000 0.1667 0.0000 (  7121 PWs)   bands (ev):

   -45.8213 -22.4789 -22.4116 -22.3937  -7.3751  -6.3980  -6.1828  -5.0511
    -5.0286  -5.0095  -4.8812  -4.7548   3.7906   6.3532   6.4211   6.6851
     8.1539   8.2313   8.4838   8.5765   8.6507   9.0148

          k = 0.0000 0.1667 0.2378 (  7106 PWs)   bands (ev):

   -45.8210 -22.4983 -22.4108 -22.3929  -7.1950  -6.3550  -6.1222  -5.0488
    -5.0442  -5.0087  -4.8787  -4.7915   3.2410   6.1547   6.4884   6.9006
     7.6416   7.9585   8.2700   8.6764   8.7223   9.3648

          k = 0.0000 0.1667-0.4756 (  7106 PWs)   bands (ev):

   -45.8208 -22.5176 -22.4099 -22.3921  -7.0071  -6.3059  -6.0614  -5.0597
    -5.0440  -5.0080  -4.8862  -4.8252   2.8201   5.8456   6.5347   6.5892
     7.4556   7.8068   8.3445   8.7303   8.7994   9.9346

          k = 0.0000 0.3333 0.0000 (  7106 PWs)   bands (ev):

   -45.8207 -22.4774 -22.4459 -22.3923  -7.0821  -6.3368  -6.1414  -5.0839
    -5.0349  -5.0257  -4.8750  -4.7638   3.2166   5.9887   6.6704   6.7093
     7.8509   7.8835   8.3361   8.3464   8.7400   9.6005

          k = 0.0000 0.3333 0.2378 (  7105 PWs)   bands (ev):

   -45.8204 -22.4965 -22.4448 -22.3915  -6.9644  -6.2989  -6.0610  -5.0538
    -5.0424  -5.0349  -4.8725  -4.7368   2.8911   5.8675   6.5588   6.7981
     7.3041   7.7341   7.8599   8.3756   8.9218   9.6750

          k = 0.0000 0.3333-0.4756 (  7110 PWs)   bands (ev):

   -45.8201 -22.5156 -22.4438 -22.3906  -6.8768  -6.2361  -5.9539  -5.0588
    -5.0351  -5.0154  -4.9095  -4.6878   2.6009   5.5569   6.3287   6.8384
     7.1968   7.3779   7.6797   8.4026   9.2930   9.5284

          k = 0.0000-0.5000 0.0000 (  7104 PWs)   bands (ev):

   -45.8203 -22.4764 -22.4630 -22.3916  -6.9193  -6.2905  -6.1455  -5.0984
    -5.0474  -5.0244  -4.8447  -4.8006   3.0084   5.6344   6.9431   6.9806
     7.3611   7.4752   8.2684   8.3726   8.7746  10.3431

          k = 0.0000-0.5000 0.2378 (  7102 PWs)   bands (ev):

   -45.8201 -22.4955 -22.4619 -22.3907  -6.8638  -6.2197  -6.0566  -5.0658
    -5.0480  -5.0414  -4.8415  -4.7329   2.7495   5.6019   6.5855   6.8490
     7.1751   7.3023   7.9697   8.3506   8.9235   9.8450

          k = 0.0000-0.5000-0.4756 (  7084 PWs)   bands (ev):

   -45.8198 -22.5145 -22.4607 -22.3899  -6.8474  -6.1436  -5.9044  -5.0583
    -5.0486  -5.0256  -4.8945  -4.6318   2.5107   5.4175   6.0408   6.9145
     7.1417   7.3857   7.3878   8.3364   9.1439   9.6269

          k = 0.1667 0.1667 0.0000 (  7123 PWs)   bands (ev):

   -45.8210 -22.4782 -22.4110 -22.4107  -7.2436  -6.3682  -6.1758  -5.0565
    -5.0430  -5.0111  -4.8594  -4.7460   3.4962   6.3010   6.5255   6.7212
     7.7170   7.8503   8.5069   8.5718   8.8930   9.2240

          k = 0.1667 0.1667 0.2378 (  7104 PWs)   bands (ev):

   -45.8207 -22.4975 -22.4101 -22.4099  -7.0744  -6.3442  -6.1162  -5.0591
    -5.0384  -5.0041  -4.8513  -4.7602   3.1301   6.1021   6.1831   6.8544
     7.5381   7.5503   8.3348   8.7435   8.9696   9.3149

          k = 0.1667 0.1667-0.4756 (  7110 PWs)   bands (ev):

   -45.8204 -22.5167 -22.4092 -22.4091  -6.9047  -6.3201  -6.0469  -5.0704
    -5.0205  -4.9796  -4.8596  -4.7794   2.7959   5.8989   5.9039   6.5974
     7.4496   7.4731   8.2388   8.8140   9.0268   9.6427

          k = 0.1667 0.3333 0.0000 (  7101 PWs)   bands (ev):

   -45.8203 -22.4766 -22.4450 -22.4093  -6.9607  -6.3080  -6.1751  -5.0781
    -5.0332  -4.9948  -4.8346  -4.7539   3.0288   5.9962   6.5371   6.8311
     7.2083   7.7551   8.0635   8.7070   8.8929   9.6720

          k = 0.1667 0.3333 0.2378 (  7099 PWs)   bands (ev):

   -45.8201 -22.4957 -22.4440 -22.4085  -6.8400  -6.3018  -6.1090  -5.0568
    -5.0335  -4.9719  -4.8169  -4.7130   2.8992   5.8336   6.0004   6.4935
     6.9243   7.5744   8.3976   8.6829   9.0153   9.4032

          k = 0.1667 0.3333-0.4756 (  7116 PWs)   bands (ev):

   -45.8198 -22.5148 -22.4430 -22.4076  -6.7552  -6.2813  -6.0077  -5.0543
    -5.0112  -4.9328  -4.8290  -4.6621   2.7318   5.4993   5.9191   6.2267
     6.4404   7.4367   8.4810   8.7431   8.9226   9.4318

          k = 0.1667-0.5000 0.0000 (  7110 PWs)   bands (ev):

   -45.8200 -22.4757 -22.4621 -22.4085  -6.8053  -6.2638  -6.1986  -5.0810
    -5.0259  -4.9739  -4.8116  -4.7909   2.8424   5.6511   6.6768   6.8629
     7.2001   7.4732   7.9088   8.7793   8.8599   9.9691

          k = 0.1667-0.5000 0.2378 (  7102 PWs)   bands (ev):

   -45.8197 -22.4947 -22.4610 -22.4077  -6.7392  -6.2330  -6.1316  -5.0554
    -5.0210  -4.9513  -4.7954  -4.7070   2.7917   5.6074   5.9094   6.2711
     6.8731   7.7141   8.1801   8.6857   9.0192   9.3637

          k = 0.1667-0.5000-0.4756 (  7092 PWs)   bands (ev):

   -45.8195 -22.5137 -22.4599 -22.4069  -6.7253  -6.2036  -5.9931  -5.0494
    -4.9833  -4.9292  -4.8102  -4.6070   2.7010   5.3832   5.7834   5.8904
     6.3078   7.5512   8.2965   8.6359   8.6655   9.6376

          k = 0.3333 0.3333 0.0000 (  7110 PWs)   bands (ev):

   -45.8197 -22.4751 -22.4433 -22.4431  -6.7227  -6.2513  -6.2233  -5.0600
    -5.0158  -4.9249  -4.7588  -4.7567   2.6702   5.9551   6.1064   6.9332
     7.0873   7.2157   7.9032   8.5052   9.3879   9.3954

          k = 0.3333 0.3333 0.2378 (  7106 PWs)   bands (ev):

   -45.8194 -22.4940 -22.4424 -22.4422  -6.5940  -6.2998  -6.1944  -5.0238
    -5.0097  -4.8673  -4.7134  -4.6794   2.8509   5.5933   5.6598   5.9460
     6.6174   7.0655   8.3805   8.9789   8.9950   9.4023

          k = 0.3333 0.3333-0.4756 (  7090 PWs)   bands (ev):

   -45.8192 -22.5129 -22.4415 -22.4414  -6.5279  -6.3446  -6.0921  -5.0038
    -4.9877  -4.8056  -4.6670  -4.6048   3.0144   5.2069   5.2337   5.7045
     6.3556   6.5351   7.6485   9.3286   9.3760   9.5105

          k = 0.3333-0.5000 0.0000 (  7114 PWs)   bands (ev):

   -45.8194 -22.4741 -22.4602 -22.4423  -6.6169  -6.2353  -6.2155  -5.0527
    -4.9944  -4.8613  -4.7906  -4.7258   2.5028   5.6275   6.1424   6.7529
     7.2617   7.4148   7.5020   8.4893   9.0785   9.5786

          k = 0.3333-0.5000 0.2378 (  7112 PWs)   bands (ev):

   -45.8191 -22.4931 -22.4592 -22.4415  -6.4888  -6.2630  -6.2485  -5.0159
    -4.9843  -4.7795  -4.7094  -4.6520   2.7947   5.4909   5.5837   5.6810
     6.4017   7.1371   7.9097   8.9700   8.9966   9.5576

          k = 0.3333-0.5000-0.4756 (  7080 PWs)   bands (ev):

   -45.8188 -22.5120 -22.4583 -22.4406  -6.4776  -6.3068  -6.1288  -4.9890
    -4.9659  -4.7215  -4.6284  -4.5545   3.1614   4.9597   5.1332   5.4694
     6.1512   6.5411   6.8833   9.4305   9.5318   9.6605

          k =-0.5000-0.5000 0.0000 (  7176 PWs)   bands (ev):

   -45.8191 -22.4731 -22.4592 -22.4592  -6.5717  -6.1943  -6.1943  -5.0431
    -4.9534  -4.8064  -4.8064  -4.6838   2.3331   5.4703   5.9919   6.9653
     6.9653   7.5254   7.5254   8.2425   8.5939   9.8367

          k =-0.5000-0.5000 0.2378 (  7120 PWs)   bands (ev):

   -45.8188 -22.4921 -22.4583 -22.4583  -6.3806  -6.2791  -6.2791  -5.0051
    -4.9515  -4.6683  -4.6683  -4.6516   2.7422   5.4250   5.6052   5.6052
     5.9981   7.0773   7.2663   9.0014   9.0014   9.8213

          k =-0.5000-0.5000-0.4756 (  7048 PWs)   bands (ev):

   -45.8185 -22.5110 -22.4574 -22.4574  -6.3525  -6.3525  -6.1850  -4.9670
    -4.9497  -4.6090  -4.5398  -4.5398   3.4048   4.9740   4.9740   5.3036
     5.9001   6.0044   6.2421   9.6722   9.6722   9.8059

     highest occupied level (ev):    10.3431

!    total energy              =    -380.57472556 Ry
     estimated scf accuracy    <          4.7E-09 Ry

     The total energy is the sum of the following terms:
     one-electron contribution =     -84.30453314 Ry
     hartree contribution      =      71.28903797 Ry
     xc contribution           =    -102.55259994 Ry
     ewald contribution        =    -265.00663046 Ry

     convergence has been achieved in   8 iterations

     negative rho (up, down):  1.579E-02 0.000E+00

     Forces acting on atoms (cartesian axes, Ry/au):

     atom    1 type  1   force =     0.00000000    0.00000000   -0.00861539
     atom    2 type  2   force =     0.00000000    0.00000000   -0.00503350
     atom    3 type  3   force =     0.00000000    0.00000000    0.01142569
     atom    4 type  3   force =     0.00000000    0.00000000    0.00111160
     atom    5 type  3   force =     0.00000000    0.00000000    0.00111160

     Total force =     0.015251     Total SCF correction =     0.000135


     Computing stress (Cartesian axis) and pressure


     negative rho (up, down):  1.579E-02 0.000E+00
          total   stress  (Ry/bohr**3)                   (kbar)     P=      -58.46
  -0.00041094   0.00000000   0.00000000          -60.45        0.00        0.00
   0.00000000  -0.00041094   0.00000000            0.00      -60.45        0.00
   0.00000000   0.00000000  -0.00037031            0.00        0.00      -54.47

     Energy error            =      5.0E-04 Ry
     Gradient error          =      1.1E-02 Ry/Bohr

     number of scf cycles    =   2
     number of bfgs steps    =   1

     energy             old  =    -380.5742265371 Ry
     energy             new  =    -380.5747255628 Ry

     CASE: energy            _new < energy            _old

     new trust radius        =       0.0224352028 bohr
     new conv_thr            =       0.0000000005 Ry


ATOMIC_POSITIONS (crystal)
Pb               0.0000000000        0.0000000000        1.0034047479
Ti               0.5000000000        0.5000000000        0.5374826935
O                0.5000000000        0.5000000000        0.1041083755
O                0.5000000000        0.0000000000        0.6111442356
O                0.0000000000        0.5000000000        0.6111442356



     Writing config-only to output data dir ./pto_100.save/ :
     XML data file
     NEW-OLD atomic charge density approx. for the potential

     negative rho (up, down):  1.571E-02 0.000E+00

     total cpu time spent up to now is       66.1 secs

     Self-consistent Calculation

     iteration #  1     ecut=   100.00 Ry     beta= 0.70
     CG style diagonalization
     c_bands:  1 eigenvalues not converged
     c_bands:  1 eigenvalues not converged
     c_bands:  1 eigenvalues not converged
     c_bands:  1 eigenvalues not converged
     ethr =  1.00E-06,  avg # of iterations =  7.1

     negative rho (up, down):  1.567E-02 0.000E+00

     total cpu time spent up to now is       69.8 secs

     total energy              =    -380.57488890 Ry
     estimated scf accuracy    <       0.00023912 Ry

     iteration #  2     ecut=   100.00 Ry     beta= 0.70
     CG style diagonalization
     ethr =  5.43E-07,  avg # of iterations =  4.7

     negative rho (up, down):  1.568E-02 0.000E+00

     total cpu time spent up to now is       72.3 secs

     total energy              =    -380.57488144 Ry
     estimated scf accuracy    <       0.00062585 Ry

     iteration #  3     ecut=   100.00 Ry     beta= 0.70
     CG style diagonalization
     ethr =  5.43E-07,  avg # of iterations =  4.3

     negative rho (up, down):  1.568E-02 0.000E+00

     total cpu time spent up to now is       74.7 secs

     total energy              =    -380.57500888 Ry
     estimated scf accuracy    <       0.00005163 Ry

     iteration #  4     ecut=   100.00 Ry     beta= 0.70
     CG style diagonalization
     ethr =  1.17E-07,  avg # of iterations =  3.7

     negative rho (up, down):  1.567E-02 0.000E+00

     total cpu time spent up to now is       76.8 secs

     total energy              =    -380.57501979 Ry
     estimated scf accuracy    <       0.00000626 Ry

     iteration #  5     ecut=   100.00 Ry     beta= 0.70
     CG style diagonalization
     ethr =  1.42E-08,  avg # of iterations =  4.3

     negative rho (up, down):  1.567E-02 0.000E+00

     total cpu time spent up to now is       79.2 secs

     total energy              =    -380.57502335 Ry
     estimated scf accuracy    <       0.00000086 Ry

     iteration #  6     ecut=   100.00 Ry     beta= 0.70
     CG style diagonalization
     ethr =  1.96E-09,  avg # of iterations =  4.4

     negative rho (up, down):  1.567E-02 0.000E+00

     total cpu time spent up to now is       81.6 secs

     total energy              =    -380.57502377 Ry
     estimated scf accuracy    <       0.00000029 Ry

     iteration #  7     ecut=   100.00 Ry     beta= 0.70
     CG style diagonalization
     ethr =  6.56E-10,  avg # of iterations =  4.3

     negative rho (up, down):  1.567E-02 0.000E+00

     total cpu time spent up to now is       83.9 secs

     total energy              =    -380.57502376 Ry
     estimated scf accuracy    <       0.00000007 Ry

     iteration #  8     ecut=   100.00 Ry     beta= 0.70
     CG style diagonalization
     ethr =  1.62E-10,  avg # of iterations =  4.8

     negative rho (up, down):  1.567E-02 0.000E+00

     total cpu time spent up to now is       86.5 secs

     total energy              =    -380.57502381 Ry
     estimated scf accuracy    <          3.6E-09 Ry

     iteration #  9     ecut=   100.00 Ry     beta= 0.70
     CG style diagonalization
     ethr =  8.22E-12,  avg # of iterations =  6.9

     negative rho (up, down):  1.567E-02 0.000E+00

     total cpu time spent up to now is       89.9 secs

     total energy              =    -380.57502382 Ry
     estimated scf accuracy    <          7.0E-10 Ry

     iteration # 10     ecut=   100.00 Ry     beta= 0.70
     CG style diagonalization
     ethr =  1.58E-12,  avg # of iterations =  5.5

     negative rho (up, down):  1.567E-02 0.000E+00

     total cpu time spent up to now is       92.8 secs

     End of self-consistent calculation

          k = 0.0000 0.0000 0.0000 (  7069 PWs)   bands (ev):

   -45.7864 -22.4687 -22.3588 -22.3588  -7.5125  -6.4291  -6.2193  -5.0290
    -5.0290  -4.9968  -4.8838  -4.7552   4.2049   6.3094   6.3094   6.6960
     8.1380   8.1380   8.4903   8.6622   8.9497   8.9497

          k = 0.0000 0.0000 0.2378 (  7125 PWs)   bands (ev):

   -45.7861 -22.4883 -22.3580 -22.3580  -7.3151  -6.3706  -6.1655  -5.0441
    -5.0441  -4.9955  -4.8756  -4.8259   3.4363   6.3587   6.3587   6.8235
     7.9220   7.9220   8.4054   8.7903   9.0495   9.0495

          k = 0.0000 0.0000-0.4756 (  7128 PWs)   bands (ev):

   -45.7858 -22.5078 -22.3572 -22.3572  -7.0981  -6.3063  -6.1215  -5.0591
    -5.0591  -4.9943  -4.9025  -4.8689   2.9247   6.1776   6.3889   6.3889
     7.7833   7.7833   8.3243   9.1186   9.1186  10.0030

          k = 0.0000 0.1667 0.0000 (  7121 PWs)   bands (ev):

   -45.7861 -22.4679 -22.3761 -22.3581  -7.3785  -6.4011  -6.1930  -5.0507
    -5.0277  -5.0095  -4.8838  -4.7458   3.7862   6.3515   6.4198   6.6994
     8.1215   8.1631   8.4748   8.5779   8.6218   8.9935

          k = 0.0000 0.1667 0.2378 (  7106 PWs)   bands (ev):

   -45.7858 -22.4875 -22.3752 -22.3573  -7.1967  -6.3586  -6.1340  -5.0476
    -5.0432  -5.0087  -4.8816  -4.7822   3.2335   6.1423   6.4770   6.9136
     7.6171   7.9168   8.2630   8.6584   8.7190   9.3622

          k = 0.0000 0.1667-0.4756 (  7106 PWs)   bands (ev):

   -45.7855 -22.5068 -22.3743 -22.3565  -7.0067  -6.3101  -6.0752  -5.0587
    -5.0420  -5.0079  -4.8883  -4.8165   2.8075   5.8307   6.5097   6.5982
     7.4428   7.7858   8.3421   8.7116   8.7976   9.9426

          k = 0.0000 0.3333 0.0000 (  7106 PWs)   bands (ev):

   -45.7854 -22.4664 -22.4104 -22.3567  -7.0862  -6.3418  -6.1557  -5.0828
    -5.0347  -5.0247  -4.8715  -4.7556   3.2154   5.9920   6.6666   6.7097
     7.8420   7.8854   8.2637   8.3432   8.7006   9.5929

          k = 0.0000 0.3333 0.2378 (  7105 PWs)   bands (ev):

   -45.7852 -22.4856 -22.4094 -22.3558  -6.9664  -6.3050  -6.0763  -5.0523
    -5.0414  -5.0347  -4.8708  -4.7276   2.8895   5.8612   6.5569   6.7894
     7.2922   7.7140   7.8577   8.3459   8.9029   9.6721

          k = 0.0000 0.3333-0.4756 (  7110 PWs)   bands (ev):

   -45.7849 -22.5048 -22.4083 -22.3550  -6.8771  -6.2426  -5.9709  -5.0577
    -5.0350  -5.0131  -4.9075  -4.6793   2.5982   5.5355   6.3392   6.8150
     7.1848   7.3860   7.6656   8.3904   9.2580   9.5428

          k = 0.0000-0.5000 0.0000 (  7104 PWs)   bands (ev):

   -45.7851 -22.4655 -22.4276 -22.3560  -6.9233  -6.2956  -6.1635  -5.0962
    -5.0472  -5.0234  -4.8342  -4.7974   3.0074   5.6455   6.9217   6.9827
     7.3689   7.4784   8.2633   8.2953   8.7338  10.3338

          k = 0.0000-0.5000 0.2378 (  7102 PWs)   bands (ev):

   -45.7848 -22.4846 -22.4264 -22.3551  -6.8657  -6.2259  -6.0756  -5.0632
    -5.0478  -5.0404  -4.8377  -4.7239   2.7500   5.6079   6.5775   6.8320
     7.1769   7.2833   7.9673   8.3072   8.9121   9.8346

          k = 0.0000-0.5000-0.4756 (  7084 PWs)   bands (ev):

   -45.7846 -22.5037 -22.4253 -22.3543  -6.8480  -6.1512  -5.9238  -5.0572
    -5.0484  -5.0225  -4.8900  -4.6239   2.5124   5.4047   6.0409   6.8981
     7.1106   7.3873   7.4037   8.3141   9.1438   9.6014

          k = 0.1667 0.1667 0.0000 (  7123 PWs)   bands (ev):

   -45.7857 -22.4672 -22.3755 -22.3751  -7.2477  -6.3719  -6.1870  -5.0558
    -5.0423  -5.0106  -4.8609  -4.7367   3.4928   6.3045   6.5256   6.7210
     7.6663   7.8428   8.4715   8.5722   8.8922   9.1830

          k = 0.1667 0.1667 0.2378 (  7104 PWs)   bands (ev):

   -45.7855 -22.4866 -22.3746 -22.3743  -7.0768  -6.3481  -6.1290  -5.0583
    -5.0372  -5.0035  -4.8534  -4.7508   3.1240   6.0915   6.1731   6.8561
     7.5220   7.5443   8.2944   8.7347   8.9626   9.3133

          k = 0.1667 0.1667-0.4756 (  7110 PWs)   bands (ev):

   -45.7852 -22.5059 -22.3737 -22.3735  -6.9051  -6.3241  -6.0615  -5.0698
    -5.0199  -4.9779  -4.8621  -4.7697   2.7855   5.8849   5.8875   6.6050
     7.4339   7.4737   8.2107   8.8046   9.0169   9.6519

          k = 0.1667 0.3333 0.0000 (  7101 PWs)   bands (ev):

   -45.7851 -22.4656 -22.4096 -22.3738  -6.9660  -6.3136  -6.1880  -5.0765
    -5.0323  -4.9946  -4.8327  -4.7450   3.0260   6.0021   6.5293   6.8346
     7.2008   7.7037   8.0652   8.6895   8.8802   9.6532

          k = 0.1667 0.3333 0.2378 (  7099 PWs)   bands (ev):

   -45.7848 -22.4848 -22.4085 -22.3729  -6.8432  -6.3076  -6.1230  -5.0556
    -5.0321  -4.9726  -4.8154  -4.7040   2.8959   5.8269   5.9907   6.4945
     6.9171   7.5702   8.3771   8.6633   8.9997   9.3995

          k = 0.1667 0.3333-0.4756 (  7116 PWs)   bands (ev):

   -45.7846 -22.5039 -22.4075 -22.3721  -6.7566  -6.2868  -6.0227  -5.0538
    -5.0102  -4.9338  -4.8268  -4.6538   2.7273   5.4793   5.9097   6.2293
     6.4440   7.4410   8.4462   8.7391   8.9260   9.4134

          k = 0.1667-0.5000 0.0000 (  7110 PWs)   bands (ev):

   -45.7848 -22.4647 -22.4266 -22.3730  -6.8111  -6.2696  -6.2133  -5.0789
    -5.0248  -4.9748  -4.8032  -4.7860   2.8393   5.6624   6.6523   6.8703
     7.2077   7.4785   7.8436   8.7715   8.8361   9.9656

          k = 0.1667-0.5000 0.2378 (  7102 PWs)   bands (ev):

   -45.7845 -22.4838 -22.4255 -22.3721  -6.7424  -6.2393  -6.1470  -5.0540
    -5.0192  -4.9543  -4.7903  -4.6990   2.7895   5.6130   5.9000   6.2616
     6.8683   7.7060   8.1748   8.6532   9.0147   9.3518

          k = 0.1667-0.5000-0.4756 (  7092 PWs)   bands (ev):

   -45.7842 -22.5028 -22.4244 -22.3713  -6.7271  -6.2104  -6.0081  -5.0488
    -4.9814  -4.9338  -4.8044  -4.5997   2.7000   5.3670   5.7739   5.8924
     6.3082   7.5581   8.2945   8.6055   8.6681   9.6125

          k = 0.3333 0.3333 0.0000 (  7110 PWs)   bands (ev):

   -45.7845 -22.4640 -22.4079 -22.4076  -6.7310  -6.2581  -6.2338  -5.0577
    -5.0149  -4.9225  -4.7601  -4.7471   2.6640   5.9559   6.1235   6.9099
     7.0898   7.1699   7.9205   8.4915   9.3827   9.3891

          k = 0.3333 0.3333 0.2378 (  7106 PWs)   bands (ev):

   -45.7842 -22.4831 -22.4070 -22.4067  -6.5996  -6.3056  -6.2060  -5.0216
    -5.0094  -4.8685  -4.7136  -4.6703   2.8435   5.5831   5.6540   5.9485
     6.6272   7.0637   8.3784   8.9636   8.9718   9.3959

          k = 0.3333 0.3333-0.4756 (  7090 PWs)   bands (ev):

   -45.7839 -22.5021 -22.4060 -22.4059  -6.5315  -6.3496  -6.1037  -5.0038
    -4.9857  -4.8110  -4.6656  -4.5966   3.0050   5.1968   5.2239   5.7054
     6.3581   6.5542   7.6549   9.2994   9.3732   9.4871

          k = 0.3333-0.5000 0.0000 (  7114 PWs)   bands (ev):

   -45.7841 -22.4631 -22.4247 -22.4069  -6.6270  -6.2449  -6.2231  -5.0504
    -4.9934  -4.8566  -4.7824  -4.7275   2.4948   5.6353   6.1605   6.7250
     7.2194   7.4215   7.5061   8.4834   9.0837   9.5762

          k = 0.3333-0.5000 0.2378 (  7112 PWs)   bands (ev):

   -45.7839 -22.4821 -22.4238 -22.4060  -6.4954  -6.2696  -6.2588  -5.0138
    -4.9838  -4.7836  -4.7020  -4.6485   2.7850   5.4827   5.5872   5.6784
     6.4122   7.1330   7.9210   8.9517   8.9726   9.5536

          k = 0.3333-0.5000-0.4756 (  7080 PWs)   bands (ev):

   -45.7836 -22.5011 -22.4228 -22.4051  -6.4817  -6.3127  -6.1387  -4.9882
    -4.9645  -4.7313  -4.6218  -4.5491   3.1488   4.9540   5.1194   5.4789
     6.1587   6.5515   6.8984   9.4032   9.5292   9.6363

          k =-0.5000-0.5000 0.0000 (  7176 PWs)   bands (ev):

   -45.7838 -22.4621 -22.4238 -22.4238  -6.5829  -6.2029  -6.2029  -5.0407
    -4.9532  -4.7956  -4.7956  -4.6933   2.3225   5.4763   6.0172   6.9322
     6.9322   7.5299   7.5299   8.2376   8.6109   9.8344

          k =-0.5000-0.5000 0.2378 (  7120 PWs)   bands (ev):

   -45.7836 -22.4812 -22.4229 -22.4229  -6.3905  -6.2860  -6.2860  -5.0028
    -4.9513  -4.6632  -4.6597  -4.6597   2.7281   5.4325   5.5941   5.5941
     6.0235   7.0730   7.2859   8.9819   8.9819   9.8191

          k =-0.5000-0.5000-0.4756 (  7048 PWs)   bands (ev):

   -45.7833 -22.5001 -22.4220 -22.4220  -6.3581  -6.3581  -6.1931  -4.9648
    -4.9495  -4.6233  -4.5329  -4.5329   3.3795   4.9663   4.9663   5.3140
     5.9308   6.0298   6.2363   9.6488   9.6488   9.8038

     highest occupied level (ev):    10.3338

!    total energy              =    -380.57502382 Ry
     estimated scf accuracy    <          6.1E-11 Ry

     The total energy is the sum of the following terms:
     one-electron contribution =     -84.64307365 Ry
     hartree contribution      =      71.46753565 Ry
     xc contribution           =    -102.56483444 Ry
     ewald contribution        =    -264.83465137 Ry

     convergence has been achieved in  10 iterations

     negative rho (up, down):  1.567E-02 0.000E+00

     Forces acting on atoms (cartesian axes, Ry/au):

     atom    1 type  1   force =     0.00000000    0.00000000   -0.00859578
     atom    2 type  2   force =     0.00000000    0.00000000    0.00276431
     atom    3 type  3   force =     0.00000000    0.00000000    0.00129071
     atom    4 type  3   force =     0.00000000    0.00000000    0.00227038
     atom    5 type  3   force =     0.00000000    0.00000000    0.00227038

     Total force =     0.009670     Total SCF correction =     0.000005


     Computing stress (Cartesian axis) and pressure


     negative rho (up, down):  1.567E-02 0.000E+00
          total   stress  (Ry/bohr**3)                   (kbar)     P=      -52.05
  -0.00039478   0.00000000   0.00000000          -58.07        0.00        0.00
   0.00000000  -0.00039478   0.00000000            0.00      -58.07        0.00
   0.00000000   0.00000000  -0.00027183            0.00        0.00      -39.99

     Energy error            =      3.0E-04 Ry
     Gradient error          =      8.6E-03 Ry/Bohr

     number of scf cycles    =   3
     number of bfgs steps    =   2

     energy             old  =    -380.5747255628 Ry
     energy             new  =    -380.5750238210 Ry

     CASE: energy            _new < energy            _old

     new trust radius        =       0.0190063960 bohr
     new conv_thr            =       0.0000000003 Ry


ATOMIC_POSITIONS (crystal)
Pb               0.0000000000        0.0000000000        1.0009516378
Ti               0.5000000000        0.5000000000        0.5372198015
O                0.5000000000        0.5000000000        0.1058413855
O                0.5000000000        0.0000000000        0.6116357316
O                0.0000000000        0.5000000000        0.6116357316



     Writing config-only to output data dir ./pto_100.save/ :
     XML data file
     NEW-OLD atomic charge density approx. for the potential

     negative rho (up, down):  1.555E-02 0.000E+00

     total cpu time spent up to now is       97.2 secs

     Self-consistent Calculation

     iteration #  1     ecut=   100.00 Ry     beta= 0.70
     CG style diagonalization
     c_bands:  1 eigenvalues not converged
     ethr =  1.00E-06,  avg # of iterations =  5.6

     negative rho (up, down):  1.551E-02 0.000E+00

     total cpu time spent up to now is      100.3 secs

     total energy              =    -380.57512145 Ry
     estimated scf accuracy    <       0.00005658 Ry

     iteration #  2     ecut=   100.00 Ry     beta= 0.70
     CG style diagonalization
     ethr =  1.29E-07,  avg # of iterations =  4.8

     negative rho (up, down):  1.551E-02 0.000E+00

     total cpu time spent up to now is      102.9 secs

     total energy              =    -380.57513726 Ry
     estimated scf accuracy    <       0.00012230 Ry

     iteration #  3     ecut=   100.00 Ry     beta= 0.70
     CG style diagonalization
     ethr =  1.29E-07,  avg # of iterations =  4.3

     negative rho (up, down):  1.551E-02 0.000E+00

     total cpu time spent up to now is      105.2 secs

     total energy              =    -380.57516455 Ry
     estimated scf accuracy    <       0.00001709 Ry

     iteration #  4     ecut=   100.00 Ry     beta= 0.70
     CG style diagonalization
     ethr =  3.88E-08,  avg # of iterations =  3.7

     negative rho (up, down):  1.551E-02 0.000E+00

     total cpu time spent up to now is      107.4 secs

     total energy              =    -380.57516812 Ry
     estimated scf accuracy    <       0.00000190 Ry

     iteration #  5     ecut=   100.00 Ry     beta= 0.70
     CG style diagonalization
     ethr =  4.33E-09,  avg # of iterations =  4.4

     negative rho (up, down):  1.550E-02 0.000E+00

     total cpu time spent up to now is      109.7 secs

     total energy              =    -380.57516930 Ry
     estimated scf accuracy    <       0.00000014 Ry

     iteration #  6     ecut=   100.00 Ry     beta= 0.70
     CG style diagonalization
     ethr =  3.16E-10,  avg # of iterations =  5.2

     negative rho (up, down):  1.550E-02 0.000E+00

     total cpu time spent up to now is      112.5 secs

     total energy              =    -380.57516943 Ry
     estimated scf accuracy    <       0.00000015 Ry

     iteration #  7     ecut=   100.00 Ry     beta= 0.70
     CG style diagonalization
     ethr =  3.16E-10,  avg # of iterations =  3.9

     negative rho (up, down):  1.551E-02 0.000E+00

     total cpu time spent up to now is      114.7 secs

     total energy              =    -380.57516945 Ry
     estimated scf accuracy    <       0.00000004 Ry

     iteration #  8     ecut=   100.00 Ry     beta= 0.70
     CG style diagonalization
     ethr =  9.03E-11,  avg # of iterations =  4.2

     negative rho (up, down):  1.551E-02 0.000E+00

     total cpu time spent up to now is      117.0 secs

     total energy              =    -380.57516947 Ry
     estimated scf accuracy    <          1.5E-09 Ry

     iteration #  9     ecut=   100.00 Ry     beta= 0.70
     CG style diagonalization
     c_bands:  1 eigenvalues not converged
     ethr =  3.30E-12,  avg # of iterations =  7.4

     negative rho (up, down):  1.551E-02 0.000E+00

     total cpu time spent up to now is      120.6 secs

     total energy              =    -380.57516947 Ry
     estimated scf accuracy    <          7.7E-10 Ry

     iteration # 10     ecut=   100.00 Ry     beta= 0.70
     CG style diagonalization
     ethr =  1.74E-12,  avg # of iterations =  4.1

     negative rho (up, down):  1.551E-02 0.000E+00

     total cpu time spent up to now is      122.9 secs

     End of self-consistent calculation

          k = 0.0000 0.0000 0.0000 (  7069 PWs)   bands (ev):

   -45.7730 -22.4664 -22.3458 -22.3458  -7.5228  -6.4435  -6.2201  -5.0231
    -5.0231  -4.9899  -4.8837  -4.7409   4.2014   6.3002   6.3002   6.7297
     8.1087   8.1087   8.4838   8.6333   8.9385   8.9385

          k = 0.0000 0.0000 0.2378 (  7125 PWs)   bands (ev):

   -45.7727 -22.4861 -22.3450 -22.3450  -7.3268  -6.3863  -6.1658  -5.0382
    -5.0382  -4.9886  -4.8743  -4.8102   3.4353   6.3445   6.3445   6.8405
     7.9032   7.9032   8.3988   8.7817   9.0365   9.0365

          k = 0.0000 0.0000-0.4756 (  7128 PWs)   bands (ev):

   -45.7725 -22.5056 -22.3443 -22.3443  -7.1119  -6.3236  -6.1207  -5.0532
    -5.0532  -4.9873  -4.8851  -4.8662   2.9219   6.1904   6.3688   6.3688
     7.7741   7.7741   8.3176   9.1045   9.1045  10.0011

          k = 0.0000 0.1667 0.0000 (  7121 PWs)   bands (ev):

   -45.7727 -22.4657 -22.3631 -22.3451  -7.3889  -6.4160  -6.1957  -5.0450
    -5.0217  -5.0025  -4.8808  -4.7312   3.7854   6.3442   6.4104   6.7105
     8.1106   8.1334   8.4647   8.5677   8.6019   8.9814

          k = 0.0000 0.1667 0.2378 (  7106 PWs)   bands (ev):

   -45.7724 -22.4852 -22.3623 -22.3443  -7.2085  -6.3743  -6.1359  -5.0410
    -5.0373  -5.0017  -4.8783  -4.7671   3.2342   6.1302   6.4629   6.9213
     7.6049   7.8974   8.2522   8.6464   8.7072   9.3590

          k = 0.0000 0.1667-0.4756 (  7106 PWs)   bands (ev):

   -45.7721 -22.5046 -22.3614 -22.3435  -7.0205  -6.3270  -6.0759  -5.0527
    -5.0344  -5.0010  -4.8837  -4.8016   2.8071   5.8210   6.4899   6.6003
     7.4352   7.7752   8.3270   8.6997   8.7855   9.9474

          k = 0.0000 0.3333 0.0000 (  7106 PWs)   bands (ev):

   -45.7720 -22.4641 -22.3976 -22.3437  -7.0968  -6.3577  -6.1629  -5.0761
    -5.0277  -5.0188  -4.8626  -4.7415   3.2167   5.9855   6.6637   6.6998
     7.8313   7.8790   8.2291   8.3345   8.6786   9.5970

          k = 0.0000 0.3333 0.2378 (  7105 PWs)   bands (ev):

   -45.7718 -22.4834 -22.3965 -22.3428  -6.9785  -6.3211  -6.0819  -5.0449
    -5.0355  -5.0277  -4.8632  -4.7130   2.8929   5.8504   6.5533   6.7758
     7.2773   7.6984   7.8549   8.3282   8.8893   9.6757

          k = 0.0000 0.3333-0.4756 (  7110 PWs)   bands (ev):

   -45.7715 -22.5025 -22.3954 -22.3420  -6.8903  -6.2601  -5.9745  -5.0517
    -5.0280  -5.0048  -4.8990  -4.6662   2.6025   5.5205   6.3401   6.7963
     7.1677   7.3839   7.6519   8.3787   9.2437   9.5516

          k = 0.0000-0.5000 0.0000 (  7104 PWs)   bands (ev):

   -45.7717 -22.4632 -22.4147 -22.3430  -6.9342  -6.3111  -6.1741  -5.0886
    -5.0401  -5.0174  -4.8172  -4.7887   3.0092   5.6422   6.9082   6.9709
     7.3659   7.4747   8.2532   8.2587   8.7108  10.3356

          k = 0.0000-0.5000 0.2378 (  7102 PWs)   bands (ev):

   -45.7714 -22.4824 -22.4136 -22.3421  -6.8781  -6.2430  -6.0824  -5.0552
    -5.0408  -5.0344  -4.8280  -4.7096   2.7545   5.6022   6.5701   6.8136
     7.1640   7.2703   7.9629   8.2850   8.9013   9.8385

          k = 0.0000-0.5000-0.4756 (  7084 PWs)   bands (ev):

   -45.7712 -22.5014 -22.4124 -22.3413  -6.8607  -6.1704  -5.9284  -5.0512
    -5.0414  -5.0140  -4.8790  -4.6116   2.5191   5.3921   6.0365   6.8736
     7.0929   7.3729   7.4090   8.3006   9.1536   9.5874

          k = 0.1667 0.1667 0.0000 (  7123 PWs)   bands (ev):

   -45.7724 -22.4649 -22.3626 -22.3622  -7.2581  -6.3874  -6.1911  -5.0498
    -5.0363  -5.0036  -4.8562  -4.7218   3.4911   6.2985   6.5197   6.7219
     7.6445   7.8311   8.4571   8.5669   8.8800   9.1670

          k = 0.1667 0.1667 0.2378 (  7104 PWs)   bands (ev):

   -45.7721 -22.4843 -22.3616 -22.3614  -7.0887  -6.3640  -6.1318  -5.0520
    -5.0303  -4.9968  -4.8491  -4.7358   3.1241   6.0809   6.1619   6.8559
     7.5134   7.5334   8.2755   8.7233   8.9494   9.3143

          k = 0.1667 0.1667-0.4756 (  7110 PWs)   bands (ev):

   -45.7718 -22.5036 -22.3607 -22.3605  -6.9191  -6.3404  -6.0625  -5.0634
    -5.0129  -4.9713  -4.8577  -4.7545   2.7853   5.8720   5.8796   6.6019
     7.4149   7.4713   8.1986   8.7921   9.0026   9.6590

          k = 0.1667 0.3333 0.0000 (  7101 PWs)   bands (ev):

   -45.7717 -22.4633 -22.3967 -22.3608  -6.9762  -6.3302  -6.1956  -5.0695
    -5.0259  -4.9876  -4.8244  -4.7303   3.0232   5.9967   6.5206   6.8327
     7.1896   7.6826   8.0608   8.6771   8.8649   9.6503

          k = 0.1667 0.3333 0.2378 (  7099 PWs)   bands (ev):

   -45.7714 -22.4825 -22.3957 -22.3600  -6.8553  -6.3237  -6.1279  -5.0487
    -5.0252  -4.9666  -4.8079  -4.6898   2.8952   5.8169   5.9790   6.4904
     6.9107   7.5656   8.3606   8.6490   8.9862   9.4027

          k = 0.1667 0.3333-0.4756 (  7116 PWs)   bands (ev):

   -45.7712 -22.5016 -22.3946 -22.3591  -6.7702  -6.3032  -6.0245  -5.0475
    -5.0033  -4.9285  -4.8185  -4.6409   2.7284   5.4660   5.8954   6.2281
     6.4374   7.4378   8.4310   8.7252   8.9321   9.4025

          k = 0.1667-0.5000 0.0000 (  7110 PWs)   bands (ev):

   -45.7714 -22.4624 -22.4138 -22.3600  -6.8210  -6.2861  -6.2235  -5.0715
    -5.0183  -4.9684  -4.7880  -4.7758   2.8360   5.6594   6.6365   6.8656
     7.2047   7.4763   7.8175   8.7581   8.8202   9.9696

          k = 0.1667-0.5000 0.2378 (  7102 PWs)   bands (ev):

   -45.7711 -22.4816 -22.4127 -22.3592  -6.7548  -6.2563  -6.1519  -5.0470
    -5.0122  -4.9495  -4.7799  -4.6855   2.7888   5.6075   5.8864   6.2535
     6.8637   7.6996   8.1633   8.6349   9.0044   9.3555

          k = 0.1667-0.5000-0.4756 (  7092 PWs)   bands (ev):

   -45.7709 -22.5006 -22.4116 -22.3583  -6.7402  -6.2278  -6.0096  -5.0425
    -4.9742  -4.9302  -4.7933  -4.5880   2.7023   5.3541   5.7539   5.8893
     6.3069   7.5550   8.2995   8.5902   8.6622   9.5980

          k = 0.3333 0.3333 0.0000 (  7110 PWs)   bands (ev):

   -45.7711 -22.4617 -22.3950 -22.3947  -6.7384  -6.2763  -6.2445  -5.0504
    -5.0079  -4.9139  -4.7534  -4.7316   2.6540   5.9482   6.1241   6.8986
     7.0866   7.1559   7.9191   8.4848   9.3674   9.3928

          k = 0.3333 0.3333 0.2378 (  7106 PWs)   bands (ev):

   -45.7708 -22.4808 -22.3941 -22.3938  -6.6108  -6.3221  -6.2105  -5.0141
    -5.0029  -4.8632  -4.7065  -4.6566   2.8334   5.5738   5.6493   5.9425
     6.6286   7.0629   8.3820   8.9517   8.9622   9.3805

          k = 0.3333 0.3333-0.4756 (  7090 PWs)   bands (ev):

   -45.7705 -22.4998 -22.3931 -22.3930  -6.5459  -6.3646  -6.1028  -4.9975
    -4.9784  -4.8089  -4.6582  -4.5843   2.9958   5.1923   5.2080   5.7022
     6.3571   6.5578   7.6717   9.2835   9.3584   9.4729

          k = 0.3333-0.5000 0.0000 (  7114 PWs)   bands (ev):

   -45.7708 -22.4608 -22.4119 -22.3940  -6.6307  -6.2601  -6.2417  -5.0430
    -4.9863  -4.8460  -4.7687  -4.7202   2.4816   5.6308   6.1612   6.7157
     7.2067   7.4167   7.5017   8.4792   9.0933   9.5618

          k = 0.3333-0.5000 0.2378 (  7112 PWs)   bands (ev):

   -45.7705 -22.4799 -22.4109 -22.3931  -6.5052  -6.2864  -6.2642  -5.0064
    -4.9771  -4.7803  -4.6900  -4.6382   2.7699   5.4777   5.5817   5.6752
     6.4126   7.1315   7.9359   8.9416   8.9583   9.5385

          k = 0.3333-0.5000-0.4756 (  7080 PWs)   bands (ev):

   -45.7702 -22.4988 -22.4099 -22.3922  -6.4958  -6.3279  -6.1366  -4.9815
    -4.9574  -4.7318  -4.6115  -4.5391   3.1313   4.9448   5.1134   5.4781
     6.1581   6.5519   6.9251   9.3884   9.5137   9.6230

          k =-0.5000-0.5000 0.0000 (  7176 PWs)   bands (ev):

   -45.7704 -22.4598 -22.4109 -22.4109  -6.5820  -6.2225  -6.2225  -5.0333
    -4.9464  -4.7792  -4.7792  -4.6933   2.3048   5.4710   6.0216   6.9253
     6.9253   7.5228   7.5228   8.2372   8.6249   9.8193

          k =-0.5000-0.5000 0.2378 (  7120 PWs)   bands (ev):

   -45.7702 -22.4789 -22.4100 -22.4100  -6.3885  -6.3026  -6.3026  -4.9954
    -4.9445  -4.6645  -4.6469  -4.6469   2.7050   5.4284   5.5916   5.5916
     6.0279   7.0713   7.3084   8.9703   8.9703   9.8040

          k =-0.5000-0.5000-0.4756 (  7048 PWs)   bands (ev):

   -45.7699 -22.4979 -22.4091 -22.4091  -6.3725  -6.3725  -6.1896  -4.9574
    -4.9427  -4.6264  -4.5228  -4.5228   3.3397   4.9657   4.9657   5.3133
     5.9718   6.0343   6.2316   9.6362   9.6362   9.7888

     highest occupied level (ev):    10.3356

!    total energy              =    -380.57516947 Ry
     estimated scf accuracy    <          1.0E-10 Ry

     The total energy is the sum of the following terms:
     one-electron contribution =     -84.95954709 Ry
     hartree contribution      =      71.62927023 Ry
     xc contribution           =    -102.57324359 Ry
     ewald contribution        =    -264.67164903 Ry

     convergence has been achieved in  10 iterations

     negative rho (up, down):  1.551E-02 0.000E+00

     Forces acting on atoms (cartesian axes, Ry/au):

     atom    1 type  1   force =     0.00000000    0.00000000   -0.00719053
     atom    2 type  2   force =     0.00000000    0.00000000    0.00543139
     atom    3 type  3   force =     0.00000000    0.00000000   -0.00360707
     atom    4 type  3   force =     0.00000000    0.00000000    0.00268310
     atom    5 type  3   force =     0.00000000    0.00000000    0.00268310

     Total force =     0.010422     Total SCF correction =     0.000019


     Computing stress (Cartesian axis) and pressure


     negative rho (up, down):  1.551E-02 0.000E+00
          total   stress  (Ry/bohr**3)                   (kbar)     P=      -47.67
  -0.00037838   0.00000000   0.00000000          -55.66        0.00        0.00
   0.00000000  -0.00037838   0.00000000            0.00      -55.66        0.00
   0.00000000   0.00000000  -0.00021546            0.00        0.00      -31.69

     Energy error            =      1.5E-04 Ry
     Gradient error          =      7.2E-03 Ry/Bohr

     number of scf cycles    =   4
     number of bfgs steps    =   3

     energy             old  =    -380.5750238210 Ry
     energy             new  =    -380.5751694734 Ry

     CASE: energy            _new < energy            _old

     new trust radius        =       0.0209070356 bohr
     new conv_thr            =       0.0000000001 Ry


ATOMIC_POSITIONS (crystal)
Pb               0.0000000000        0.0000000000        0.9982532166
Ti               0.5000000000        0.5000000000        0.5374975472
O                0.5000000000        0.5000000000        0.1069091377
O                0.5000000000        0.0000000000        0.6123121932
O                0.0000000000        0.5000000000        0.6123121932



     Writing config-only to output data dir ./pto_100.save/ :
     XML data file
     NEW-OLD atomic charge density approx. for the potential

     negative rho (up, down):  1.572E-02 0.000E+00

     total cpu time spent up to now is      127.3 secs

     Self-consistent Calculation

     iteration #  1     ecut=   100.00 Ry     beta= 0.70
     CG style diagonalization
     ethr =  1.00E-06,  avg # of iterations =  5.5

     Threshold (ethr) on eigenvalues was too large:
     Diagonalizing with lowered threshold

     CG style diagonalization
     c_bands:  2 eigenvalues not converged
     c_bands:  2 eigenvalues not converged
     c_bands:  1 eigenvalues not converged
     c_bands:  1 eigenvalues not converged
     c_bands:  1 eigenvalues not converged
     ethr =  4.28E-08,  avg # of iterations =  6.1

     negative rho (up, down):  1.568E-02 0.000E+00

     total cpu time spent up to now is      133.2 secs

     total energy              =    -380.57528609 Ry
     estimated scf accuracy    <       0.00002058 Ry

     iteration #  2     ecut=   100.00 Ry     beta= 0.70
     CG style diagonalization
     ethr =  4.68E-08,  avg # of iterations =  4.3

     negative rho (up, down):  1.566E-02 0.000E+00

     total cpu time spent up to now is      135.6 secs

     total energy              =    -380.57529266 Ry
     estimated scf accuracy    <       0.00001568 Ry

     iteration #  3     ecut=   100.00 Ry     beta= 0.70
     CG style diagonalization
     ethr =  3.56E-08,  avg # of iterations =  4.2

     negative rho (up, down):  1.566E-02 0.000E+00

     total cpu time spent up to now is      137.9 secs

     total energy              =    -380.57529740 Ry
     estimated scf accuracy    <       0.00001045 Ry

     iteration #  4     ecut=   100.00 Ry     beta= 0.70
     CG style diagonalization
     ethr =  2.38E-08,  avg # of iterations =  3.6

     negative rho (up, down):  1.565E-02 0.000E+00

     total cpu time spent up to now is      140.0 secs

     total energy              =    -380.57529904 Ry
     estimated scf accuracy    <       0.00000014 Ry

     iteration #  5     ecut=   100.00 Ry     beta= 0.70
     CG style diagonalization
     ethr =  3.13E-10,  avg # of iterations =  5.7

     negative rho (up, down):  1.565E-02 0.000E+00

     total cpu time spent up to now is      142.9 secs

     total energy              =    -380.57529932 Ry
     estimated scf accuracy    <       0.00000022 Ry

     iteration #  6     ecut=   100.00 Ry     beta= 0.70
     CG style diagonalization
     ethr =  3.13E-10,  avg # of iterations =  3.8

     negative rho (up, down):  1.565E-02 0.000E+00

     total cpu time spent up to now is      145.1 secs

     total energy              =    -380.57529935 Ry
     estimated scf accuracy    <       0.00000003 Ry

     iteration #  7     ecut=   100.00 Ry     beta= 0.70
     CG style diagonalization
     ethr =  6.23E-11,  avg # of iterations =  4.4

     negative rho (up, down):  1.565E-02 0.000E+00

     total cpu time spent up to now is      147.5 secs

     total energy              =    -380.57529936 Ry
     estimated scf accuracy    <          6.4E-09 Ry

     iteration #  8     ecut=   100.00 Ry     beta= 0.70
     CG style diagonalization
     ethr =  1.45E-11,  avg # of iterations =  4.9

     negative rho (up, down):  1.565E-02 0.000E+00

     total cpu time spent up to now is      150.1 secs

     total energy              =    -380.57529937 Ry
     estimated scf accuracy    <          5.1E-10 Ry

     iteration #  9     ecut=   100.00 Ry     beta= 0.70
     CG style diagonalization
     ethr =  1.16E-12,  avg # of iterations =  6.8

     negative rho (up, down):  1.566E-02 0.000E+00

     total cpu time spent up to now is      153.5 secs

     End of self-consistent calculation

          k = 0.0000 0.0000 0.0000 (  7069 PWs)   bands (ev):

   -45.7720 -22.4684 -22.3457 -22.3457  -7.5378  -6.4650  -6.2168  -5.0142
    -5.0142  -4.9787  -4.8801  -4.7229   4.2015   6.2862   6.2862   6.7601
     8.1006   8.1006   8.4743   8.6210   8.9197   8.9197

          k = 0.0000 0.0000 0.2378 (  7125 PWs)   bands (ev):

   -45.7717 -22.4881 -22.3449 -22.3449  -7.3448  -6.4095  -6.1608  -5.0293
    -5.0293  -4.9775  -4.8692  -4.7905   3.4407   6.3287   6.3287   6.8559
     7.8980   7.8980   8.3894   8.7786   9.0168   9.0168

          k = 0.0000 0.0000-0.4756 (  7128 PWs)   bands (ev):

   -45.7714 -22.5076 -22.3441 -22.3441  -7.1344  -6.3490  -6.1126  -5.0442
    -5.0442  -4.9762  -4.8630  -4.8594   2.9279   6.2009   6.3510   6.3510
     7.7718   7.7718   8.3083   9.0834   9.0834   9.9972

          k = 0.0000 0.1667 0.0000 (  7121 PWs)   bands (ev):

   -45.7716 -22.4677 -22.3630 -22.3450  -7.4038  -6.4381  -6.1944  -5.0361
    -5.0128  -4.9914  -4.8744  -4.7129   3.7867   6.3330   6.3958   6.7205
     8.1119   8.1251   8.4525   8.5502   8.5881   8.9732

          k = 0.0000 0.1667 0.2378 (  7106 PWs)   bands (ev):

   -45.7714 -22.4872 -22.3622 -22.3442  -7.2266  -6.3974  -6.1326  -5.0310
    -5.0284  -4.9906  -4.8714  -4.7482   3.2398   6.1177   6.4467   6.9264
     7.5998   7.8906   8.2391   8.6369   8.6900   9.3556

          k = 0.0000 0.1667-0.4756 (  7106 PWs)   bands (ev):

   -45.7711 -22.5066 -22.3613 -22.3434  -7.0427  -6.3514  -6.0693  -5.0437
    -5.0234  -4.9898  -4.8753  -4.7826   2.8139   5.8137   6.4720   6.5984
     7.4311   7.7707   8.3044   8.6911   8.7672   9.9508

          k = 0.0000 0.3333 0.0000 (  7106 PWs)   bands (ev):

   -45.7710 -22.4661 -22.3975 -22.3435  -7.1118  -6.3803  -6.1664  -5.0661
    -5.0165  -5.0099  -4.8504  -4.7235   3.2194   5.9734   6.6623   6.6836
     7.8198   7.8682   8.2146   8.3215   8.6662   9.6076

          k = 0.0000 0.3333 0.2378 (  7105 PWs)   bands (ev):

   -45.7707 -22.4854 -22.3965 -22.3427  -6.9968  -6.3437  -6.0821  -5.0341
    -5.0265  -5.0166  -4.8521  -4.6949   2.8991   5.8370   6.5490   6.7590
     7.2610   7.6858   7.8515   8.3163   8.8787   9.6832

          k = 0.0000 0.3333-0.4756 (  7110 PWs)   bands (ev):

   -45.7704 -22.5045 -22.3954 -22.3419  -6.9111  -6.2847  -5.9709  -5.0428
    -5.0168  -4.9931  -4.8866  -4.6499   2.6110   5.5086   6.3363   6.7794
     7.1469   7.3768   7.6385   8.3671   9.2406   9.5583

          k = 0.0000-0.5000 0.0000 (  7104 PWs)   bands (ev):

   -45.7707 -22.4652 -22.4147 -22.3428  -6.9498  -6.3332  -6.1805  -5.0777
    -5.0289  -5.0085  -4.7964  -4.7767   3.0126   5.6311   6.9007   6.9511
     7.3565   7.4666   8.2391   8.2440   8.6976  10.3439

          k = 0.0000-0.5000 0.2378 (  7102 PWs)   bands (ev):

   -45.7704 -22.4844 -22.4135 -22.3420  -6.8968  -6.2671  -6.0826  -5.0438
    -5.0295  -5.0254  -4.8147  -4.6920   2.7613   5.5902   6.5629   6.7949
     7.1423   7.2603   7.9572   8.2742   8.8911   9.8503

          k = 0.0000-0.5000-0.4756 (  7084 PWs)   bands (ev):

   -45.7701 -22.5034 -22.4124 -22.3411  -6.8806  -6.1968  -5.9253  -5.0423
    -5.0302  -5.0022  -4.8639  -4.5966   2.5287   5.3799   6.0295   6.8444
     7.0821   7.3492   7.4084   8.2920   9.1714   9.5780

          k = 0.1667 0.1667 0.0000 (  7123 PWs)   bands (ev):

   -45.7713 -22.4669 -22.3625 -22.3621  -7.2728  -6.4101  -6.1914  -5.0406
    -5.0269  -4.9928  -4.8480  -4.7032   3.4903   6.2867   6.5098   6.7242
     7.6388   7.8170   8.4538   8.5581   8.8611   9.1648

          k = 0.1667 0.1667 0.2378 (  7104 PWs)   bands (ev):

   -45.7710 -22.4863 -22.3615 -22.3612  -7.1067  -6.3872  -6.1293  -5.0423
    -5.0200  -4.9863  -4.8411  -4.7172   3.1277   6.0699   6.1493   6.8547
     7.5095   7.5199   8.2682   8.7098   8.9324   9.3174

          k = 0.1667 0.1667-0.4756 (  7110 PWs)   bands (ev):

   -45.7708 -22.5056 -22.3606 -22.3604  -6.9412  -6.3642  -6.0562  -5.0535
    -5.0018  -4.9615  -4.8493  -4.7356   2.7911   5.8618   5.8729   6.5930
     7.3942   7.4679   8.1953   8.7770   8.9857   9.6654

          k = 0.1667 0.3333 0.0000 (  7101 PWs)   bands (ev):

   -45.7707 -22.4653 -22.3966 -22.3607  -6.9900  -6.3536  -6.2001  -5.0592
    -5.0163  -4.9767  -4.8124  -4.7118   3.0200   5.9849   6.5115   6.8284
     7.1758   7.6794   8.0527   8.6670   8.8480   9.6561

          k = 0.1667 0.3333 0.2378 (  7099 PWs)   bands (ev):

   -45.7704 -22.4845 -22.3956 -22.3598  -6.8732  -6.3463  -6.1276  -5.0384
    -5.0150  -4.9567  -4.7967  -4.6721   2.8960   5.8051   5.9660   6.4831
     6.9048   7.5614   8.3474   8.6362   8.9738   9.4097

          k = 0.1667 0.3333-0.4756 (  7116 PWs)   bands (ev):

   -45.7701 -22.5036 -22.3946 -22.3590  -6.7913  -6.3264  -6.0190  -5.0377
    -4.9927  -4.9193  -4.8065  -4.6249   2.7326   5.4560   5.8777   6.2251
     6.4255   7.4306   8.4266   8.7049   8.9412   9.3949

          k = 0.1667-0.5000 0.0000 (  7110 PWs)   bands (ev):

   -45.7703 -22.4644 -22.4138 -22.3599  -6.8343  -6.3092  -6.2309  -5.0609
    -5.0086  -4.9579  -4.7686  -4.7621   2.8321   5.6486   6.6262   6.8535
     7.1963   7.4700   7.8129   8.7407   8.8089   9.9781

          k = 0.1667-0.5000 0.2378 (  7102 PWs)   bands (ev):

   -45.7701 -22.4836 -22.4127 -22.3591  -6.7730  -6.2800  -6.1509  -5.0366
    -5.0021  -4.9402  -4.7661  -4.6686   2.7887   5.5961   5.8709   6.2461
     6.8588   7.6949   8.1488   8.6238   8.9914   9.3673

          k = 0.1667-0.5000-0.4756 (  7092 PWs)   bands (ev):

   -45.7698 -22.5026 -22.4115 -22.3582  -6.7602  -6.2519  -6.0040  -5.0327
    -4.9639  -4.9218  -4.7789  -4.5735   2.7063   5.3432   5.7282   5.8828
     6.3049   7.5470   8.3073   8.5830   8.6532   9.5889

          k = 0.3333 0.3333 0.0000 (  7110 PWs)   bands (ev):

   -45.7700 -22.4637 -22.3950 -22.3947  -6.7464  -6.3015  -6.2549  -5.0399
    -4.9973  -4.9015  -4.7420  -4.7124   2.6413   5.9357   6.1154   6.8952
     7.0797   7.1600   7.9076   8.4826   9.3457   9.4024

          k = 0.3333 0.3333 0.2378 (  7106 PWs)   bands (ev):

   -45.7698 -22.4828 -22.3940 -22.3938  -6.6263  -6.3450  -6.2109  -5.0035
    -4.9926  -4.8539  -4.6953  -4.6396   2.8212   5.5652   5.6453   5.9314
     6.6259   7.0631   8.3899   8.9416   8.9597   9.3596

          k = 0.3333 0.3333-0.4756 (  7090 PWs)   bands (ev):

   -45.7695 -22.5018 -22.3931 -22.3929  -6.5669  -6.3857  -6.0951  -4.9875
    -4.9678  -4.8022  -4.6473  -4.5694   2.9861   5.1891   5.1911   5.6960
     6.3548   6.5534   7.6957   9.2747   9.3361   9.4640

          k = 0.3333-0.5000 0.0000 (  7114 PWs)   bands (ev):

   -45.7697 -22.4628 -22.4119 -22.3939  -6.6322  -6.2780  -6.2670  -5.0324
    -4.9754  -4.8320  -4.7514  -4.7075   2.4649   5.6197   6.1524   6.7176
     7.2118   7.4054   7.4917   8.4765   9.1057   9.5403

          k = 0.3333-0.5000 0.2378 (  7112 PWs)   bands (ev):

   -45.7694 -22.4818 -22.4109 -22.3931  -6.5188  -6.3094  -6.2658  -4.9958
    -4.9667  -4.7725  -4.6751  -4.6240   2.7510   5.4750   5.5717   5.6714
     6.4075   7.1320   7.9538   8.9359   8.9493   9.5167

          k = 0.3333-0.5000-0.4756 (  7080 PWs)   bands (ev):

   -45.7692 -22.5008 -22.4099 -22.3922  -6.5159  -6.3490  -6.1280  -4.9712
    -4.9470  -4.7268  -4.5988  -4.5263   3.1102   4.9345   5.1120   5.4711
     6.1534   6.5475   6.9592   9.3805   9.4906   9.6155

          k =-0.5000-0.5000 0.0000 (  7176 PWs)   bands (ev):

   -45.7694 -22.4618 -22.4109 -22.4109  -6.5745  -6.2490  -6.2490  -5.0227
    -4.9356  -4.7593  -4.7593  -4.6879   2.2824   5.4596   6.0148   6.9339
     6.9339   7.5088   7.5088   8.2397   8.6379   9.7963

          k =-0.5000-0.5000 0.2378 (  7120 PWs)   bands (ev):

   -45.7691 -22.4809 -22.4100 -22.4100  -6.3801  -6.3253  -6.3253  -4.9848
    -4.9338  -4.6601  -4.6312  -4.6312   2.6760   5.4179   5.5943   5.5943
     6.0212   7.0716   7.3334   8.9631   8.9631   9.7812

          k =-0.5000-0.5000-0.4756 (  7048 PWs)   bands (ev):

   -45.7688 -22.4998 -22.4091 -22.4091  -6.3926  -6.3926  -6.1800  -4.9469
    -4.9319  -4.6233  -4.5104  -4.5104   3.2911   4.9696   4.9696   5.3060
     6.0192   6.0275   6.2282   9.6296   9.6296   9.7662

     highest occupied level (ev):    10.3439

!    total energy              =    -380.57529937 Ry
     estimated scf accuracy    <          7.6E-11 Ry

     The total energy is the sum of the following terms:
     one-electron contribution =     -85.26359850 Ry
     hartree contribution      =      71.78144160 Ry
     xc contribution           =    -102.57944450 Ry
     ewald contribution        =    -264.51369796 Ry

     convergence has been achieved in   9 iterations

     negative rho (up, down):  1.566E-02 0.000E+00

     Forces acting on atoms (cartesian axes, Ry/au):

     atom    1 type  1   force =     0.00000000    0.00000000   -0.00494290
     atom    2 type  2   force =     0.00000000    0.00000000    0.00490058
     atom    3 type  3   force =     0.00000000    0.00000000   -0.00512735
     atom    4 type  3   force =     0.00000000    0.00000000    0.00258483
     atom    5 type  3   force =     0.00000000    0.00000000    0.00258483

     Total force =     0.009386     Total SCF correction =     0.000022


     Computing stress (Cartesian axis) and pressure


     negative rho (up, down):  1.566E-02 0.000E+00
          total   stress  (Ry/bohr**3)                   (kbar)     P=      -44.61
  -0.00036227   0.00000000   0.00000000          -53.29        0.00        0.00
   0.00000000  -0.00036227   0.00000000            0.00      -53.29        0.00
   0.00000000   0.00000000  -0.00018514            0.00        0.00      -27.23

     Energy error            =      1.3E-04 Ry
     Gradient error          =      5.1E-03 Ry/Bohr

     number of scf cycles    =   5
     number of bfgs steps    =   4

     energy             old  =    -380.5751694734 Ry
     energy             new  =    -380.5752993681 Ry

     CASE: energy            _new < energy            _old

     new trust radius        =       0.0313605534 bohr
     new conv_thr            =       0.0000000001 Ry


ATOMIC_POSITIONS (crystal)
Pb               0.0000000000        0.0000000000        0.9942055848
Ti               0.5000000000        0.5000000000        0.5382791546
O                0.5000000000        0.5000000000        0.1077150933
O                0.5000000000        0.0000000000        0.6135422276
O                0.0000000000        0.5000000000        0.6135422276



     Writing config-only to output data dir ./pto_100.save/ :
     XML data file
     NEW-OLD atomic charge density approx. for the potential

     negative rho (up, down):  1.598E-02 0.000E+00

     total cpu time spent up to now is      157.9 secs

     Self-consistent Calculation

     iteration #  1     ecut=   100.00 Ry     beta= 0.70
     CG style diagonalization
     c_bands:  1 eigenvalues not converged
     c_bands:  1 eigenvalues not converged
     c_bands:  1 eigenvalues not converged
     ethr =  1.00E-06,  avg # of iterations =  6.8

     negative rho (up, down):  1.593E-02 0.000E+00

     total cpu time spent up to now is      161.5 secs

     total energy              =    -380.57536890 Ry
     estimated scf accuracy    <       0.00004497 Ry

     iteration #  2     ecut=   100.00 Ry     beta= 0.70
     CG style diagonalization
     ethr =  1.02E-07,  avg # of iterations =  4.7

     negative rho (up, down):  1.591E-02 0.000E+00

     total cpu time spent up to now is      164.0 secs

     total energy              =    -380.57540587 Ry
     estimated scf accuracy    <       0.00003319 Ry

     iteration #  3     ecut=   100.00 Ry     beta= 0.70
     CG style diagonalization
     ethr =  7.54E-08,  avg # of iterations =  4.2

     negative rho (up, down):  1.590E-02 0.000E+00

     total cpu time spent up to now is      166.3 secs

     total energy              =    -380.57541690 Ry
     estimated scf accuracy    <       0.00001709 Ry

     iteration #  4     ecut=   100.00 Ry     beta= 0.70
     CG style diagonalization
     ethr =  3.88E-08,  avg # of iterations =  3.7

     negative rho (up, down):  1.590E-02 0.000E+00

     total cpu time spent up to now is      168.4 secs

     total energy              =    -380.57542038 Ry
     estimated scf accuracy    <       0.00000121 Ry

     iteration #  5     ecut=   100.00 Ry     beta= 0.70
     CG style diagonalization
     ethr =  2.75E-09,  avg # of iterations =  4.6

     negative rho (up, down):  1.590E-02 0.000E+00

     total cpu time spent up to now is      170.9 secs

     total energy              =    -380.57542124 Ry
     estimated scf accuracy    <       0.00000024 Ry

     iteration #  6     ecut=   100.00 Ry     beta= 0.70
     CG style diagonalization
     ethr =  5.55E-10,  avg # of iterations =  4.8

     negative rho (up, down):  1.590E-02 0.000E+00

     total cpu time spent up to now is      173.5 secs

     total energy              =    -380.57542141 Ry
     estimated scf accuracy    <       0.00000005 Ry

     iteration #  7     ecut=   100.00 Ry     beta= 0.70
     CG style diagonalization
     ethr =  1.14E-10,  avg # of iterations =  5.1

     negative rho (up, down):  1.590E-02 0.000E+00

     total cpu time spent up to now is      176.1 secs

     total energy              =    -380.57542146 Ry
     estimated scf accuracy    <          7.8E-09 Ry

     iteration #  8     ecut=   100.00 Ry     beta= 0.70
     CG style diagonalization
     ethr =  1.77E-11,  avg # of iterations =  5.7

     negative rho (up, down):  1.590E-02 0.000E+00

     total cpu time spent up to now is      179.1 secs

     total energy              =    -380.57542147 Ry
     estimated scf accuracy    <          1.3E-09 Ry

     iteration #  9     ecut=   100.00 Ry     beta= 0.70
     CG style diagonalization
     ethr =  3.02E-12,  avg # of iterations =  5.9

     negative rho (up, down):  1.590E-02 0.000E+00

     total cpu time spent up to now is      182.1 secs

     total energy              =    -380.57542147 Ry
     estimated scf accuracy    <          1.4E-10 Ry

     iteration # 10     ecut=   100.00 Ry     beta= 0.70
     CG style diagonalization
     ethr =  3.24E-13,  avg # of iterations =  6.5

     negative rho (up, down):  1.590E-02 0.000E+00

     total cpu time spent up to now is      185.3 secs

     End of self-consistent calculation

          k = 0.0000 0.0000 0.0000 (  7069 PWs)   bands (ev):

   -45.7826 -22.4755 -22.3581 -22.3581  -7.5648  -6.5029  -6.2079  -4.9985
    -4.9985  -4.9585  -4.8714  -4.6927   4.2056   6.2604   6.2604   6.8002
     8.1080   8.1080   8.4572   8.6186   8.8851   8.8851

          k = 0.0000 0.0000 0.2378 (  7125 PWs)   bands (ev):

   -45.7823 -22.4951 -22.3573 -22.3573  -7.3774  -6.4501  -6.1485  -5.0135
    -5.0135  -4.9572  -4.8581  -4.7574   3.4550   6.3023   6.3023   6.8759
     7.9034   7.9034   8.3726   8.7796   8.9820   8.9820

          k = 0.0000 0.0000-0.4756 (  7128 PWs)   bands (ev):

   -45.7820 -22.5146 -22.3565 -22.3565  -7.1751  -6.3931  -6.0947  -5.0284
    -5.0284  -4.9560  -4.8455  -4.8265   2.9455   6.2137   6.3247   6.3247
     7.7762   7.7762   8.2916   9.0465   9.0465   9.9902

          k = 0.0000 0.1667 0.0000 (  7121 PWs)   bands (ev):

   -45.7822 -22.4748 -22.3754 -22.3573  -7.4306  -6.4767  -6.1884  -5.0200
    -4.9970  -4.9711  -4.8618  -4.6823   3.7906   6.3126   6.3691   6.7342
     8.1240   8.1325   8.4323   8.5173   8.5735   8.9662

          k = 0.0000 0.1667 0.2378 (  7106 PWs)   bands (ev):

   -45.7820 -22.4943 -22.3745 -22.3565  -7.2591  -6.4376  -6.1226  -5.0134
    -5.0125  -4.9703  -4.8579  -4.7166   3.2525   6.0980   6.4196   6.9314
     7.5987   7.8925   8.2181   8.6250   8.6602   9.3518

          k = 0.0000 0.1667-0.4756 (  7106 PWs)   bands (ev):

   -45.7817 -22.5136 -22.3737 -22.3557  -7.0829  -6.3939  -6.0535  -5.0279
    -5.0044  -4.9696  -4.8595  -4.7506   2.8308   5.8038   6.4455   6.5918
     7.4293   7.7712   8.2649   8.6811   8.7354   9.9554

          k = 0.0000 0.3333 0.0000 (  7106 PWs)   bands (ev):

   -45.7816 -22.4732 -22.4100 -22.3559  -7.1388  -6.4194  -6.1672  -5.0482
    -4.9964  -4.9939  -4.8297  -4.6932   3.2240   5.9511   6.6537   6.6632
     7.8033   7.8473   8.2122   8.2979   8.6573   9.6293

          k = 0.0000 0.3333 0.2378 (  7105 PWs)   bands (ev):

   -45.7813 -22.4924 -22.4089 -22.3551  -7.0297  -6.3829  -6.0771  -5.0150
    -5.0106  -4.9963  -4.8326  -4.6649   2.9105   5.8151   6.5428   6.7302
     7.2371   7.6696   7.8457   8.3054   8.8660   9.6978

          k = 0.0000 0.3333-0.4756 (  7110 PWs)   bands (ev):

   -45.7810 -22.5115 -22.4078 -22.3543  -6.9484  -6.3274  -5.9591  -5.0269
    -4.9966  -4.9726  -4.8649  -4.6229   2.6272   5.4933   6.3278   6.7543
     7.1122   7.3634   7.6196   8.3521   9.2453   9.5679

          k = 0.0000-0.5000 0.0000 (  7104 PWs)   bands (ev):

   -45.7813 -22.4723 -22.4272 -22.3552  -6.9778  -6.3719  -6.1849  -5.0587
    -5.0086  -4.9926  -4.7624  -4.7557   3.0181   5.6089   6.8983   6.9150
     7.3370   7.4494   8.2140   8.2431   8.6875  10.3621

          k = 0.0000-0.5000 0.2378 (  7102 PWs)   bands (ev):

   -45.7810 -22.4914 -22.4260 -22.3543  -6.9303  -6.3088  -6.0769  -5.0240
    -5.0096  -5.0093  -4.7918  -4.6630   2.7731   5.5679   6.5530   6.7688
     7.1033   7.2467   7.9475   8.2699   8.8776   9.8745

          k = 0.0000-0.5000-0.4756 (  7084 PWs)   bands (ev):

   -45.7807 -22.5104 -22.4248 -22.3535  -6.9159  -6.2421  -5.9141  -5.0264
    -5.0100  -4.9819  -4.8383  -4.5717   2.5454   5.3623   6.0181   6.7988
     7.0707   7.3064   7.4019   8.2859   9.2057   9.5684

          k = 0.1667 0.1667 0.0000 (  7123 PWs)   bands (ev):

   -45.7819 -22.4740 -22.3748 -22.3745  -7.2990  -6.4497  -6.1879  -5.0239
    -5.0103  -4.9732  -4.8325  -4.6724   3.4898   6.2632   6.4915   6.7291
     7.6452   7.7947   8.4590   8.5423   8.8280   9.1746

          k = 0.1667 0.1667 0.2378 (  7104 PWs)   bands (ev):

   -45.7816 -22.4934 -22.3739 -22.3736  -7.1390  -6.4276  -6.1204  -5.0250
    -5.0016  -4.9675  -4.8260  -4.6863   3.1362   6.0521   6.1292   6.8517
     7.4983   7.5092   8.2683   8.6868   8.9056   9.3247

          k = 0.1667 0.1667-0.4756 (  7110 PWs)   bands (ev):

   -45.7814 -22.5127 -22.3730 -22.3728  -6.9810  -6.4054  -6.0406  -5.0360
    -4.9820  -4.9443  -4.8332  -4.7042   2.8051   5.8481   5.8627   6.5758
     7.3618   7.4636   8.1995   8.7509   8.9601   9.6753

          k = 0.1667 0.3333 0.0000 (  7101 PWs)   bands (ev):

   -45.7813 -22.4724 -22.4091 -22.3731  -7.0148  -6.3940  -6.2030  -5.0410
    -4.9992  -4.9569  -4.7914  -4.6810   3.0146   5.9623   6.4970   6.8211
     7.1535   7.6914   8.0383   8.6541   8.8227   9.6730

          k = 0.1667 0.3333 0.2378 (  7099 PWs)   bands (ev):

   -45.7810 -22.4916 -22.4080 -22.3722  -6.9054  -6.3856  -6.1219  -5.0202
    -4.9969  -4.9382  -4.7769  -4.6428   2.8980   5.7861   5.9463   6.4690
     6.8975   7.5571   8.3313   8.6190   8.9573   9.4243

          k = 0.1667 0.3333-0.4756 (  7116 PWs)   bands (ev):

   -45.7807 -22.5106 -22.4070 -22.3714  -6.8287  -6.3668  -6.0050  -5.0202
    -4.9738  -4.9022  -4.7854  -4.5984   2.7415   5.4438   5.8485   6.2192
     6.4049   7.4175   8.4295   8.6697   8.9593   9.3868

          k = 0.1667-0.5000 0.0000 (  7110 PWs)   bands (ev):

   -45.7809 -22.4715 -22.4262 -22.3723  -6.8585  -6.3494  -6.2375  -5.0422
    -4.9914  -4.9384  -4.7388  -4.7365   2.8253   5.6269   6.6169   6.8281
     7.1812   7.4574   7.8261   8.7112   8.7974   9.9953

          k = 0.1667-0.5000 0.2378 (  7102 PWs)   bands (ev):

   -45.7807 -22.4906 -22.4251 -22.3715  -6.8057  -6.3210  -6.1439  -5.0183
    -4.9842  -4.9223  -4.7427  -4.6406   2.7885   5.5749   5.8477   6.2353
     6.8510   7.6910   8.1255   8.6141   8.9710   9.3914

          k = 0.1667-0.5000-0.4756 (  7092 PWs)   bands (ev):

   -45.7804 -22.5096 -22.4240 -22.3706  -6.7956  -6.2936  -5.9899  -5.0153
    -4.9458  -4.9049  -4.7547  -4.5495   2.7133   5.3290   5.6867   5.8707
     6.3013   7.5318   8.3167   8.5799   8.6431   9.5807

          k = 0.3333 0.3333 0.0000 (  7110 PWs)   bands (ev):

   -45.7806 -22.4708 -22.4074 -22.4071  -6.7613  -6.3445  -6.2677  -5.0215
    -4.9784  -4.8801  -4.7210  -4.6810   2.6198   5.9133   6.0946   6.8961
     7.0690   7.1823   7.8829   8.4843   9.3087   9.4221

          k = 0.3333 0.3333 0.2378 (  7106 PWs)   bands (ev):

   -45.7803 -22.4898 -22.4065 -22.4062  -6.6547  -6.3846  -6.2064  -4.9848
    -4.9742  -4.8363  -4.6750  -4.6117   2.8008   5.5543   5.6398   5.9107
     6.6200   7.0652   8.4064   8.9283   8.9630   9.3247

          k = 0.3333 0.3333-0.4756 (  7090 PWs)   bands (ev):

   -45.7801 -22.5088 -22.4055 -22.4053  -6.6039  -6.4223  -6.0783  -4.9695
    -4.9492  -4.7878  -4.6281  -4.5447   2.9708   5.1606   5.1919   5.6830
     6.3516   6.5414   7.7380   9.2682   9.2963   9.4563

          k = 0.3333-0.5000 0.0000 (  7114 PWs)   bands (ev):

   -45.7803 -22.4699 -22.4243 -22.4064  -6.6355  -6.3102  -6.3037  -5.0138
    -4.9561  -4.8087  -4.7229  -4.6835   2.4367   5.5980   6.1313   6.7303
     7.2344   7.3851   7.4737   8.4750   9.1266   9.5031

          k = 0.3333-0.5000 0.2378 (  7112 PWs)   bands (ev):

   -45.7800 -22.4889 -22.4233 -22.4055  -6.5452  -6.3490  -6.2622  -4.9773
    -4.9480  -4.7568  -4.6503  -4.5994   2.7193   5.4742   5.5532   5.6655
     6.3966   7.1354   7.9832   8.9321   8.9412   9.4791

          k = 0.3333-0.5000-0.4756 (  7080 PWs)   bands (ev):

   -45.7797 -22.5078 -22.4224 -22.4046  -6.5511  -6.3857  -6.1102  -4.9527
    -4.9284  -4.7142  -4.5776  -4.5047   3.0750   4.9206   5.1141   5.4547
     6.1442   6.5385   7.0154   9.3749   9.4501   9.6100

          k =-0.5000-0.5000 0.0000 (  7176 PWs)   bands (ev):

   -45.7800 -22.4689 -22.4234 -22.4234  -6.5583  -6.2936  -6.2936  -5.0041
    -4.9162  -4.7271  -4.7271  -4.6747   2.2449   5.4379   5.9963   6.9594
     6.9594   7.4841   7.4841   8.2463   8.6574   9.7560

          k =-0.5000-0.5000 0.2378 (  7120 PWs)   bands (ev):

   -45.7797 -22.4879 -22.4225 -22.4225  -6.3644  -6.3644  -6.3626  -4.9662
    -4.9144  -4.6481  -4.6056  -4.6056   2.6279   5.3971   5.6033   5.6033
     6.0026   7.0744   7.3731   8.9570   8.9570   9.7411

          k =-0.5000-0.5000-0.4756 (  7048 PWs)   bands (ev):

   -45.7794 -22.5068 -22.4215 -22.4215  -6.4275  -6.4275  -6.1609  -4.9283
    -4.9125  -4.6128  -4.4900  -4.4900   3.2131   4.9797   4.9797   5.2888
     6.0089   6.0938   6.2259   9.6254   9.6254   9.7263

     highest occupied level (ev):    10.3621

!    total energy              =    -380.57542147 Ry
     estimated scf accuracy    <          1.5E-11 Ry

     The total energy is the sum of the following terms:
     one-electron contribution =     -85.69106343 Ry
     hartree contribution      =      71.99225475 Ry
     xc contribution           =    -102.58623063 Ry
     ewald contribution        =    -264.29038216 Ry

     convergence has been achieved in  10 iterations

     negative rho (up, down):  1.590E-02 0.000E+00

     Forces acting on atoms (cartesian axes, Ry/au):

     atom    1 type  1   force =     0.00000000    0.00000000   -0.00079736
     atom    2 type  2   force =     0.00000000    0.00000000    0.00116370
     atom    3 type  3   force =     0.00000000    0.00000000   -0.00379107
     atom    4 type  3   force =     0.00000000    0.00000000    0.00171237
     atom    5 type  3   force =     0.00000000    0.00000000    0.00171237

     Total force =     0.004715     Total SCF correction =     0.000010


     Computing stress (Cartesian axis) and pressure


     negative rho (up, down):  1.590E-02 0.000E+00
          total   stress  (Ry/bohr**3)                   (kbar)     P=      -41.40
  -0.00033887   0.00000000   0.00000000          -49.85        0.00        0.00
   0.00000000  -0.00033887   0.00000000            0.00      -49.85        0.00
   0.00000000   0.00000000  -0.00016660            0.00        0.00      -24.51

     Energy error            =      1.2E-04 Ry
     Gradient error          =      3.8E-03 Ry/Bohr

     number of scf cycles    =   6
     number of bfgs steps    =   5

     energy             old  =    -380.5752993681 Ry
     energy             new  =    -380.5754214713 Ry

     CASE: energy            _new < energy            _old

     new trust radius        =       0.0060727241 bohr
     new conv_thr            =       0.0000000001 Ry


ATOMIC_POSITIONS (crystal)
Pb               0.0000000000        0.0000000000        0.9934217928
Ti               0.5000000000        0.5000000000        0.5384995606
O                0.5000000000        0.5000000000        0.1073847359
O                0.5000000000        0.0000000000        0.6139890994
O                0.0000000000        0.5000000000        0.6139890994



     Writing config-only to output data dir ./pto_100.save/ :
     XML data file
     NEW-OLD atomic charge density approx. for the potential

     negative rho (up, down):  1.590E-02 0.000E+00

     total cpu time spent up to now is      189.7 secs

     Self-consistent Calculation

     iteration #  1     ecut=   100.00 Ry     beta= 0.70
     CG style diagonalization
     ethr =  1.00E-06,  avg # of iterations =  3.9

     Threshold (ethr) on eigenvalues was too large:
     Diagonalizing with lowered threshold

     CG style diagonalization
     c_bands:  1 eigenvalues not converged
     c_bands:  1 eigenvalues not converged
     c_bands:  1 eigenvalues not converged
     c_bands:  3 eigenvalues not converged
     c_bands:  1 eigenvalues not converged
     c_bands:  1 eigenvalues not converged
     c_bands:  2 eigenvalues not converged
     c_bands:  1 eigenvalues not converged
     ethr =  2.49E-08,  avg # of iterations =  6.3

     negative rho (up, down):  1.590E-02 0.000E+00

     total cpu time spent up to now is      195.1 secs

     total energy              =    -380.57543404 Ry
     estimated scf accuracy    <       0.00001169 Ry

     iteration #  2     ecut=   100.00 Ry     beta= 0.70
     CG style diagonalization
     ethr =  2.66E-08,  avg # of iterations =  4.6

     negative rho (up, down):  1.589E-02 0.000E+00

     total cpu time spent up to now is      197.6 secs

     total energy              =    -380.57543396 Ry
     estimated scf accuracy    <       0.00003108 Ry

     iteration #  3     ecut=   100.00 Ry     beta= 0.70
     CG style diagonalization
     ethr =  2.66E-08,  avg # of iterations =  4.2

     negative rho (up, down):  1.589E-02 0.000E+00

     total cpu time spent up to now is      200.0 secs

     total energy              =    -380.57544014 Ry
     estimated scf accuracy    <       0.00000241 Ry

     iteration #  4     ecut=   100.00 Ry     beta= 0.70
     CG style diagonalization
     ethr =  5.48E-09,  avg # of iterations =  3.6

     negative rho (up, down):  1.589E-02 0.000E+00

     total cpu time spent up to now is      202.0 secs

     total energy              =    -380.57544061 Ry
     estimated scf accuracy    <       0.00000027 Ry

     iteration #  5     ecut=   100.00 Ry     beta= 0.70
     CG style diagonalization
     ethr =  6.06E-10,  avg # of iterations =  4.3

     negative rho (up, down):  1.589E-02 0.000E+00

     total cpu time spent up to now is      204.4 secs

     total energy              =    -380.57544074 Ry
     estimated scf accuracy    <       0.00000005 Ry

     iteration #  6     ecut=   100.00 Ry     beta= 0.70
     CG style diagonalization
     ethr =  1.16E-10,  avg # of iterations =  4.3

     negative rho (up, down):  1.589E-02 0.000E+00

     total cpu time spent up to now is      206.8 secs

     total energy              =    -380.57544076 Ry
     estimated scf accuracy    <          8.0E-09 Ry

     iteration #  7     ecut=   100.00 Ry     beta= 0.70
     CG style diagonalization
     ethr =  1.82E-11,  avg # of iterations =  4.6

     negative rho (up, down):  1.589E-02 0.000E+00

     total cpu time spent up to now is      209.2 secs

     total energy              =    -380.57544077 Ry
     estimated scf accuracy    <          1.7E-09 Ry

     iteration #  8     ecut=   100.00 Ry     beta= 0.70
     CG style diagonalization
     ethr =  3.80E-12,  avg # of iterations =  4.9

     negative rho (up, down):  1.589E-02 0.000E+00

     total cpu time spent up to now is      211.8 secs

     total energy              =    -380.57544077 Ry
     estimated scf accuracy    <          4.6E-10 Ry

     iteration #  9     ecut=   100.00 Ry     beta= 0.70
     CG style diagonalization
     ethr =  1.04E-12,  avg # of iterations =  4.8

     negative rho (up, down):  1.589E-02 0.000E+00

     total cpu time spent up to now is      214.4 secs

     End of self-consistent calculation

          k = 0.0000 0.0000 0.0000 (  7069 PWs)   bands (ev):

   -45.7907 -22.4791 -22.3667 -22.3667  -7.5721  -6.5124  -6.2042  -4.9937
    -4.9937  -4.9523  -4.8676  -4.6846   4.2092   6.2525   6.2525   6.8046
     8.1175   8.1175   8.4517   8.6255   8.8751   8.8751

          k = 0.0000 0.0000 0.2378 (  7125 PWs)   bands (ev):

   -45.7905 -22.4987 -22.3659 -22.3659  -7.3863  -6.4603  -6.1439  -5.0087
    -5.0087  -4.9510  -4.8537  -4.7487   3.4612   6.2946   6.2946   6.8780
     7.9108   7.9108   8.3671   8.7826   8.9727   8.9727

          k = 0.0000 0.0000-0.4756 (  7128 PWs)   bands (ev):

   -45.7902 -22.5182 -22.3651 -22.3651  -7.1861  -6.4040  -6.0886  -5.0236
    -5.0236  -4.9497  -4.8404  -4.8169   2.9534   6.2145   6.3175   6.3175
     7.7824   7.7824   8.2863   9.0369   9.0369   9.9886

          k = 0.0000 0.1667 0.0000 (  7121 PWs)   bands (ev):

   -45.7904 -22.4784 -22.3840 -22.3659  -7.4380  -6.4864  -6.1853  -5.0150
    -4.9922  -4.9649  -4.8574  -4.6742   3.7928   6.3072   6.3610   6.7356
     8.1309   8.1424   8.4269   8.5075   8.5727   8.9678

          k = 0.0000 0.1667 0.2378 (  7106 PWs)   bands (ev):

   -45.7901 -22.4978 -22.3831 -22.3651  -7.2680  -6.4477  -6.1184  -5.0081
    -5.0077  -4.9641  -4.8532  -4.7083   3.2574   6.0930   6.4117   6.9307
     7.6018   7.8987   8.2138   8.6231   8.6527   9.3519

          k = 0.0000 0.1667-0.4756 (  7106 PWs)   bands (ev):

   -45.7899 -22.5172 -22.3823 -22.3644  -7.0937  -6.4046  -6.0478  -5.0231
    -4.9988  -4.9634  -4.8542  -4.7422   2.8375   5.8015   6.4382   6.5880
     7.4323   7.7762   8.2545   8.6798   8.7274   9.9569

          k = 0.0000 0.3333 0.0000 (  7106 PWs)   bands (ev):

   -45.7898 -22.4768 -22.4185 -22.3645  -7.1461  -6.4294  -6.1654  -5.0428
    -4.9903  -4.9890  -4.8238  -4.6851   3.2254   5.9454   6.6452   6.6655
     7.8017   7.8405   8.2199   8.2908   8.6595   9.6360

          k = 0.0000 0.3333 0.2378 (  7105 PWs)   bands (ev):

   -45.7895 -22.4960 -22.4175 -22.3637  -7.0385  -6.3930  -6.0738  -5.0094
    -5.0058  -4.9901  -4.8268  -4.6571   2.9140   5.8101   6.5421   6.7221
     7.2338   7.6671   7.8441   8.3072   8.8650   9.7023

          k = 0.0000 0.3333-0.4756 (  7110 PWs)   bands (ev):

   -45.7892 -22.5151 -22.4164 -22.3629  -6.9582  -6.3384  -5.9542  -5.0221
    -4.9904  -4.9667  -4.8585  -4.6158   2.6323   5.4908   6.3265   6.7476
     7.1050   7.3585   7.6169   8.3514   9.2503   9.5703

          k = 0.0000-0.5000 0.0000 (  7104 PWs)   bands (ev):

   -45.7894 -22.4759 -22.4357 -22.3638  -6.9853  -6.3822  -6.1835  -5.0531
    -5.0024  -4.9878  -4.7538  -4.7497   3.0196   5.6032   6.9037   6.9055
     7.3311   7.4427   8.2067   8.2517   8.6895  10.3683

          k = 0.0000-0.5000 0.2378 (  7102 PWs)   bands (ev):

   -45.7892 -22.4950 -22.4346 -22.3630  -6.9391  -6.3198  -6.0732  -5.0183
    -5.0048  -5.0031  -4.7853  -4.6555   2.7765   5.5623   6.5522   6.7654
     7.0930   7.2427   7.9450   8.2753   8.8760   9.8822

          k = 0.0000-0.5000-0.4756 (  7084 PWs)   bands (ev):

   -45.7889 -22.5140 -22.4334 -22.3621  -6.9250  -6.2539  -5.9093  -5.0216
    -5.0038  -4.9761  -4.8311  -4.5651   2.5501   5.3588   6.0173   6.7894
     7.0682   7.2953   7.3980   8.2894   9.2168   9.5684

          k = 0.1667 0.1667 0.0000 (  7123 PWs)   bands (ev):

   -45.7901 -22.4776 -22.3834 -22.3830  -7.3062  -6.4596  -6.1853  -5.0188
    -5.0053  -4.9672  -4.8275  -4.6642   3.4905   6.2555   6.4871   6.7296
     7.6531   7.7897   8.4647   8.5375   8.8201   9.1822

          k = 0.1667 0.1667 0.2378 (  7104 PWs)   bands (ev):

   -45.7898 -22.4970 -22.3825 -22.3822  -7.1479  -6.4378  -6.1164  -5.0198
    -4.9960  -4.9618  -4.8209  -4.6781   3.1396   6.0470   6.1247   6.8500
     7.4935   7.5128   8.2736   8.6805   8.8999   9.3281

          k = 0.1667 0.1667-0.4756 (  7110 PWs)   bands (ev):

   -45.7895 -22.5162 -22.3816 -22.3814  -6.9918  -6.4157  -6.0350  -5.0307
    -4.9760  -4.9391  -4.8278  -4.6959   2.8107   5.8448   5.8601   6.5709
     7.3540   7.4649   8.2052   8.7439   8.9548   9.6783

          k = 0.1667 0.3333 0.0000 (  7101 PWs)   bands (ev):

   -45.7894 -22.4760 -22.4176 -22.3817  -7.0216  -6.4042  -6.2018  -5.0356
    -4.9940  -4.9508  -4.7853  -4.6729   3.0135   5.9562   6.4932   6.8201
     7.1485   7.7016   8.0353   8.6521   8.8180   9.6799

          k = 0.1667 0.3333 0.2378 (  7099 PWs)   bands (ev):

   -45.7892 -22.4952 -22.4166 -22.3808  -6.9140  -6.3956  -6.1186  -5.0147
    -4.9915  -4.9323  -4.7711  -4.6351   2.8991   5.7818   5.9424   6.4645
     6.8971   7.5582   8.3302   8.6166   8.9548   9.4291

          k = 0.1667 0.3333-0.4756 (  7116 PWs)   bands (ev):

   -45.7889 -22.5142 -22.4156 -22.3800  -6.8385  -6.3771  -5.9997  -5.0149
    -4.9681  -4.8967  -4.7793  -4.5913   2.7448   5.4421   5.8416   6.2171
     6.4005   7.4149   8.4346   8.6610   8.9652   9.3864

          k = 0.1667-0.5000 0.0000 (  7110 PWs)   bands (ev):

   -45.7891 -22.4751 -22.4348 -22.3809  -6.8651  -6.3599  -6.2370  -5.0367
    -4.9863  -4.9322  -4.7324  -4.7282   2.8238   5.6213   6.6179   6.8190
     7.1787   7.4542   7.8377   8.7035   8.7975  10.0007

          k = 0.1667-0.5000 0.2378 (  7102 PWs)   bands (ev):

   -45.7888 -22.4942 -22.4337 -22.3801  -6.8143  -6.3317  -6.1403  -5.0129
    -4.9789  -4.9164  -4.7363  -4.6332   2.7888   5.5696   5.8436   6.2331
     6.8492   7.6930   8.1213   8.6150   8.9667   9.3987

          k = 0.1667-0.5000-0.4756 (  7092 PWs)   bands (ev):

   -45.7886 -22.5131 -22.4326 -22.3792  -6.8048  -6.3045  -5.9847  -5.0100
    -4.9405  -4.8991  -4.7481  -4.5430   2.7157   5.3269   5.6775   5.8681
     6.3003   7.5286   8.3193   8.5825   8.6418   9.5814

          k = 0.3333 0.3333 0.0000 (  7110 PWs)   bands (ev):

   -45.7888 -22.4744 -22.4160 -22.4157  -6.7656  -6.3554  -6.2692  -5.0161
    -4.9727  -4.8736  -4.7145  -4.6728   2.6148   5.9074   6.0876   6.8980
     7.0686   7.1941   7.8760   8.4878   9.2994   9.4286

          k = 0.3333 0.3333 0.2378 (  7106 PWs)   bands (ev):

   -45.7885 -22.4934 -22.4150 -22.4148  -6.6625  -6.3948  -6.2036  -4.9794
    -4.9686  -4.8306  -4.6688  -4.6044   2.7963   5.5533   5.6387   5.9047
     6.6198   7.0671   8.4130   8.9267   8.9662   9.3163

          k = 0.3333 0.3333-0.4756 (  7090 PWs)   bands (ev):

   -45.7882 -22.5123 -22.4140 -22.4139  -6.6137  -6.4318  -6.0728  -4.9639
    -4.9437  -4.7825  -4.6224  -4.5383   2.9678   5.1551   5.1933   5.6778
     6.3525   6.5386   7.7500   9.2697   9.2858   9.4571

          k = 0.3333-0.5000 0.0000 (  7114 PWs)   bands (ev):

   -45.7885 -22.4734 -22.4329 -22.4149  -6.6367  -6.3213  -6.3086  -5.0085
    -4.9503  -4.8018  -4.7154  -4.6763   2.4302   5.5925   6.1244   6.7367
     7.2447   7.3814   7.4706   8.4765   9.1320   9.4935

          k = 0.3333-0.5000 0.2378 (  7112 PWs)   bands (ev):

   -45.7882 -22.4925 -22.4319 -22.4141  -6.5526  -6.3593  -6.2596  -4.9718
    -4.9423  -4.7511  -4.6438  -4.5926   2.7120   5.4758   5.5483   5.6643
     6.3944   7.1383   7.9909   8.9334   8.9422   9.4695

          k = 0.3333-0.5000-0.4756 (  7080 PWs)   bands (ev):

   -45.7879 -22.5113 -22.4309 -22.4132  -6.5602  -6.3952  -6.1047  -4.9471
    -4.9229  -4.7087  -4.5720  -4.4988   3.0670   4.9187   5.1167   5.4484
     6.1426   6.5377   7.0295   9.3765   9.4397   9.6114

          k =-0.5000-0.5000 0.0000 (  7176 PWs)   bands (ev):

   -45.7881 -22.4725 -22.4319 -22.4319  -6.5531  -6.3051  -6.3051  -4.9987
    -4.9102  -4.7189  -4.7189  -4.6691   2.2362   5.4324   5.9907   6.9691
     6.9691   7.4795   7.4795   8.2495   8.6619   9.7455

          k =-0.5000-0.5000 0.2378 (  7120 PWs)   bands (ev):

   -45.7879 -22.4915 -22.4310 -22.4310  -6.3745  -6.3745  -6.3572  -4.9608
    -4.9084  -4.6426  -4.5990  -4.5990   2.6167   5.3912   5.6078   5.6078
     5.9970   7.0767   7.3822   8.9583   8.9583   9.7307

          k =-0.5000-0.5000-0.4756 (  7048 PWs)   bands (ev):

   -45.7876 -22.5104 -22.4301 -22.4301  -6.4365  -6.4365  -6.1553  -4.9229
    -4.9066  -4.6073  -4.4847  -4.4847   3.1953   4.9843   4.9843   5.2823
     6.0033   6.1108   6.2281   9.6272   9.6272   9.7159

     highest occupied level (ev):    10.3683

!    total energy              =    -380.57544077 Ry
     estimated scf accuracy    <          1.8E-11 Ry

     The total energy is the sum of the following terms:
     one-electron contribution =     -85.75204465 Ry
     hartree contribution      =      72.02080796 Ry
     xc contribution           =    -102.58619656 Ry
     ewald contribution        =    -264.25800752 Ry

     convergence has been achieved in   9 iterations

     negative rho (up, down):  1.589E-02 0.000E+00

     Forces acting on atoms (cartesian axes, Ry/au):

     atom    1 type  1   force =     0.00000000    0.00000000    0.00023790
     atom    2 type  2   force =     0.00000000    0.00000000   -0.00076159
     atom    3 type  3   force =     0.00000000    0.00000000   -0.00159093
     atom    4 type  3   force =     0.00000000    0.00000000    0.00105731
     atom    5 type  3   force =     0.00000000    0.00000000    0.00105731

     Total force =     0.002325     Total SCF correction =     0.000015


     Computing stress (Cartesian axis) and pressure


     negative rho (up, down):  1.589E-02 0.000E+00
          total   stress  (Ry/bohr**3)                   (kbar)     P=      -41.59
  -0.00033594   0.00000000   0.00000000          -49.42        0.00        0.00
   0.00000000  -0.00033594   0.00000000            0.00      -49.42        0.00
   0.00000000   0.00000000  -0.00017634            0.00        0.00      -25.94

     Energy error            =      1.9E-05 Ry
     Gradient error          =      1.6E-03 Ry/Bohr

     number of scf cycles    =   7
     number of bfgs steps    =   6

     energy             old  =    -380.5754214713 Ry
     energy             new  =    -380.5754407684 Ry

     CASE: energy            _new < energy            _old

     new trust radius        =       0.0032132983 bohr
     new conv_thr            =            1.0E-10 Ry


ATOMIC_POSITIONS (crystal)
Pb               0.0000000000        0.0000000000        0.9933969792
Ti               0.5000000000        0.5000000000        0.5384130735
O                0.5000000000        0.5000000000        0.1069700031
O                0.5000000000        0.0000000000        0.6142521161
O                0.0000000000        0.5000000000        0.6142521161



     Writing config-only to output data dir ./pto_100.save/ :
     XML data file
     NEW-OLD atomic charge density approx. for the potential

     negative rho (up, down):  1.589E-02 0.000E+00

     total cpu time spent up to now is      218.8 secs

     Self-consistent Calculation

     iteration #  1     ecut=   100.00 Ry     beta= 0.70
     CG style diagonalization
     ethr =  1.00E-06,  avg # of iterations =  2.7

     Threshold (ethr) on eigenvalues was too large:
     Diagonalizing with lowered threshold

     CG style diagonalization
     c_bands:  1 eigenvalues not converged
     c_bands:  1 eigenvalues not converged
     c_bands:  1 eigenvalues not converged
     c_bands:  1 eigenvalues not converged
     c_bands:  1 eigenvalues not converged
     c_bands:  1 eigenvalues not converged
     c_bands:  1 eigenvalues not converged
     c_bands:  1 eigenvalues not converged
     c_bands:  1 eigenvalues not converged
     ethr =  6.02E-09,  avg # of iterations =  6.0

     negative rho (up, down):  1.589E-02 0.000E+00

     total cpu time spent up to now is      223.6 secs

     total energy              =    -380.57544509 Ry
     estimated scf accuracy    <       0.00000458 Ry

     iteration #  2     ecut=   100.00 Ry     beta= 0.70
     CG style diagonalization
     ethr =  1.04E-08,  avg # of iterations =  4.7

     negative rho (up, down):  1.589E-02 0.000E+00

     total cpu time spent up to now is      226.1 secs

     total energy              =    -380.57544442 Ry
     estimated scf accuracy    <       0.00001677 Ry

     iteration #  3     ecut=   100.00 Ry     beta= 0.70
     CG style diagonalization
     ethr =  1.04E-08,  avg # of iterations =  4.3

     negative rho (up, down):  1.589E-02 0.000E+00

     total cpu time spent up to now is      228.5 secs

     total energy              =    -380.57544735 Ry
     estimated scf accuracy    <       0.00000063 Ry

     iteration #  4     ecut=   100.00 Ry     beta= 0.70
     CG style diagonalization
     ethr =  1.43E-09,  avg # of iterations =  3.6

     negative rho (up, down):  1.589E-02 0.000E+00

     total cpu time spent up to now is      230.6 secs

     total energy              =    -380.57544749 Ry
     estimated scf accuracy    <       0.00000009 Ry

     iteration #  5     ecut=   100.00 Ry     beta= 0.70
     CG style diagonalization
     ethr =  1.94E-10,  avg # of iterations =  4.2

     negative rho (up, down):  1.589E-02 0.000E+00

     total cpu time spent up to now is      232.9 secs

     total energy              =    -380.57544752 Ry
     estimated scf accuracy    <       0.00000001 Ry

     iteration #  6     ecut=   100.00 Ry     beta= 0.70
     CG style diagonalization
     ethr =  2.72E-11,  avg # of iterations =  4.5

     negative rho (up, down):  1.589E-02 0.000E+00

     total cpu time spent up to now is      235.4 secs

     total energy              =    -380.57544753 Ry
     estimated scf accuracy    <          2.1E-09 Ry

     iteration #  7     ecut=   100.00 Ry     beta= 0.70
     CG style diagonalization
     ethr =  4.78E-12,  avg # of iterations =  4.4

     negative rho (up, down):  1.589E-02 0.000E+00

     total cpu time spent up to now is      237.8 secs

     total energy              =    -380.57544753 Ry
     estimated scf accuracy    <          5.7E-10 Ry

     iteration #  8     ecut=   100.00 Ry     beta= 0.70
     CG style diagonalization
     ethr =  1.30E-12,  avg # of iterations =  4.7

     negative rho (up, down):  1.589E-02 0.000E+00

     total cpu time spent up to now is      240.3 secs

     total energy              =    -380.57544753 Ry
     estimated scf accuracy    <          1.7E-10 Ry

     iteration #  9     ecut=   100.00 Ry     beta= 0.70
     CG style diagonalization
     ethr =  3.95E-13,  avg # of iterations =  4.6

     negative rho (up, down):  1.589E-02 0.000E+00

     total cpu time spent up to now is      242.8 secs

     End of self-consistent calculation

          k = 0.0000 0.0000 0.0000 (  7069 PWs)   bands (ev):

   -45.7949 -22.4809 -22.3707 -22.3707  -7.5739  -6.5136  -6.2028  -4.9918
    -4.9918  -4.9499  -4.8655  -4.6819   4.2120   6.2498   6.2498   6.8024
     8.1207   8.1207   8.4493   8.6294   8.8725   8.8725

          k = 0.0000 0.0000 0.2378 (  7125 PWs)   bands (ev):

   -45.7946 -22.5005 -22.3700 -22.3700  -7.3882  -6.4616  -6.1424  -5.0068
    -5.0068  -4.9486  -4.8515  -4.7459   3.4640   6.2911   6.2911   6.8765
     7.9146   7.9146   8.3647   8.7844   8.9707   8.9707

          k = 0.0000 0.0000-0.4756 (  7128 PWs)   bands (ev):

   -45.7943 -22.5199 -22.3692 -22.3692  -7.1884  -6.4055  -6.0870  -5.0218
    -5.0218  -4.9473  -4.8382  -4.8139   2.9567   6.2133   6.3132   6.3132
     7.7872   7.7872   8.2839   9.0350   9.0350   9.9888

          k = 0.0000 0.1667 0.0000 (  7121 PWs)   bands (ev):

   -45.7946 -22.4801 -22.3881 -22.3700  -7.4397  -6.4878  -6.1839  -5.0131
    -4.9904  -4.9625  -4.8554  -4.6715   3.7943   6.3063   6.3584   6.7341
     8.1336   8.1461   8.4251   8.5047   8.5732   8.9695

          k = 0.0000 0.1667 0.2378 (  7106 PWs)   bands (ev):

   -45.7943 -22.4996 -22.3872 -22.3692  -7.2700  -6.4492  -6.1170  -5.0061
    -5.0059  -4.9618  -4.8511  -4.7056   3.2596   6.0911   6.4083   6.9294
     7.6040   7.9020   8.2139   8.6222   8.6514   9.3527

          k = 0.0000 0.1667-0.4756 (  7106 PWs)   bands (ev):

   -45.7940 -22.5189 -22.3863 -22.3684  -7.0959  -6.4062  -6.0463  -5.0213
    -4.9968  -4.9610  -4.8519  -4.7395   2.8402   5.7998   6.4341   6.5859
     7.4355   7.7804   8.2525   8.6790   8.7262   9.9584

          k = 0.0000 0.3333 0.0000 (  7106 PWs)   bands (ev):

   -45.7939 -22.4786 -22.4225 -22.3686  -7.1478  -6.4312  -6.1642  -5.0408
    -4.9882  -4.9870  -4.8218  -4.6826   3.2260   5.9450   6.6429   6.6676
     7.8037   7.8384   8.2230   8.2883   8.6610   9.6375

          k = 0.0000 0.3333 0.2378 (  7105 PWs)   bands (ev):

   -45.7936 -22.4978 -22.4215 -22.3678  -7.0403  -6.3949  -6.0725  -5.0073
    -5.0040  -4.9878  -4.8247  -4.6546   2.9153   5.8096   6.5428   6.7191
     7.2355   7.6666   7.8435   8.3098   8.8656   9.7036

          k = 0.0000 0.3333-0.4756 (  7110 PWs)   bands (ev):

   -45.7934 -22.5168 -22.4204 -22.3670  -6.9599  -6.3406  -5.9529  -5.0203
    -4.9881  -4.9646  -4.8563  -4.6134   2.6342   5.4901   6.3285   6.7439
     7.1048   7.3568   7.6176   8.3537   9.2520   9.5720

          k = 0.0000-0.5000 0.0000 (  7104 PWs)   bands (ev):

   -45.7936 -22.4776 -22.4398 -22.3679  -6.9868  -6.3845  -6.1823  -5.0511
    -5.0001  -4.9860  -4.7513  -4.7476   3.0199   5.6037   6.9041   6.9091
     7.3300   7.4394   8.2042   8.2554   8.6909  10.3701

          k = 0.0000-0.5000 0.2378 (  7102 PWs)   bands (ev):

   -45.7933 -22.4967 -22.4386 -22.3671  -6.9407  -6.3223  -6.0719  -5.0163
    -5.0029  -5.0008  -4.7831  -4.6531   2.7776   5.5623   6.5533   6.7670
     7.0915   7.2395   7.9443   8.2793   8.8766   9.8843

          k = 0.0000-0.5000-0.4756 (  7084 PWs)   bands (ev):

   -45.7930 -22.5157 -22.4374 -22.3662  -6.9263  -6.2566  -5.9081  -5.0198
    -5.0015  -4.9740  -4.8287  -4.5629   2.5518   5.3583   6.0200   6.7888
     7.0650   7.2937   7.3963   8.2937   9.2208   9.5691

          k = 0.1667 0.1667 0.0000 (  7123 PWs)   bands (ev):

   -45.7942 -22.4794 -22.3875 -22.3871  -7.3080  -6.4612  -6.1840  -5.0168
    -5.0033  -4.9650  -4.8254  -4.6616   3.4914   6.2527   6.4868   6.7284
     7.6566   7.7890   8.4675   8.5355   8.8197   9.1852

          k = 0.1667 0.1667 0.2378 (  7104 PWs)   bands (ev):

   -45.7940 -22.4987 -22.3866 -22.3863  -7.1499  -6.4394  -6.1151  -5.0178
    -4.9940  -4.9596  -4.8188  -4.6754   3.1412   6.0444   6.1237   6.8485
     7.4929   7.5161   8.2766   8.6786   8.8992   9.3302

          k = 0.1667 0.1667-0.4756 (  7110 PWs)   bands (ev):

   -45.7937 -22.5180 -22.3857 -22.3855  -6.9940  -6.4174  -6.0335  -5.0287
    -4.9737  -4.9372  -4.8256  -4.6933   2.8129   5.8426   5.8585   6.5703
     7.3518   7.4681   8.2087   8.7421   8.9538   9.6803

          k = 0.1667 0.3333 0.0000 (  7101 PWs)   bands (ev):

   -45.7936 -22.4778 -22.4216 -22.3858  -7.0233  -6.4062  -6.2009  -5.0336
    -4.9921  -4.9484  -4.7832  -4.6704   3.0137   5.9555   6.4919   6.8213
     7.1476   7.7062   8.0361   8.6519   8.8179   9.6821

          k = 0.1667 0.3333 0.2378 (  7099 PWs)   bands (ev):

   -45.7933 -22.4969 -22.4206 -22.3849  -6.9159  -6.3976  -6.1175  -5.0127
    -4.9895  -4.9300  -4.7689  -4.6327   2.8999   5.7813   5.9422   6.4629
     6.8982   7.5604   8.3320   8.6166   8.9548   9.4306

          k = 0.1667 0.3333-0.4756 (  7116 PWs)   bands (ev):

   -45.7930 -22.5159 -22.4196 -22.3840  -6.8404  -6.3792  -5.9985  -5.0129
    -4.9660  -4.8945  -4.7771  -4.5890   2.7462   5.4416   5.8405   6.2161
     6.4014   7.4158   8.4376   8.6596   8.9673   9.3866

          k = 0.1667-0.5000 0.0000 (  7110 PWs)   bands (ev):

   -45.7933 -22.4769 -22.4388 -22.3850  -6.8667  -6.3623  -6.2361  -5.0347
    -4.9843  -4.9298  -4.7302  -4.7257   2.8237   5.6217   6.6196   6.8154
     7.1807   7.4546   7.8425   8.7016   8.7986  10.0023

          k = 0.1667-0.5000 0.2378 (  7102 PWs)   bands (ev):

   -45.7930 -22.4959 -22.4377 -22.3841  -6.8160  -6.3342  -6.1391  -5.0109
    -4.9769  -4.9140  -4.7341  -4.6309   2.7894   5.5697   5.8441   6.2325
     6.8487   7.6958   8.1223   8.6157   8.9665   9.4001

          k = 0.1667-0.5000-0.4756 (  7092 PWs)   bands (ev):

   -45.7927 -22.5149 -22.4366 -22.3833  -6.8063  -6.3069  -5.9836  -5.0080
    -4.9385  -4.8967  -4.7459  -4.5409   2.7169   5.3268   5.6768   5.8686
     6.2999   7.5298   8.3213   8.5838   8.6420   9.5823

          k = 0.3333 0.3333 0.0000 (  7110 PWs)   bands (ev):

   -45.7929 -22.4762 -22.4200 -22.4197  -6.7670  -6.3577  -6.2691  -5.0142
    -4.9706  -4.8713  -4.7121  -4.6703   2.6143   5.9066   6.0866   6.8986
     7.0708   7.1983   7.8761   8.4905   9.2977   9.4305

          k = 0.3333 0.3333 0.2378 (  7106 PWs)   bands (ev):

   -45.7927 -22.4952 -22.4190 -22.4188  -6.6645  -6.3968  -6.2027  -4.9774
    -4.9665  -4.8282  -4.6666  -4.6022   2.7960   5.5540   5.6386   5.9035
     6.6224   7.0688   8.4167   8.9271   8.9671   9.3148

          k = 0.3333 0.3333-0.4756 (  7090 PWs)   bands (ev):

   -45.7924 -22.5141 -22.4181 -22.4180  -6.6158  -6.4336  -6.0717  -4.9618
    -4.9417  -4.7801  -4.6203  -4.5362   2.9680   5.1552   5.1939   5.6750
     6.3550   6.5406   7.7539   9.2708   9.2838   9.4577

          k = 0.3333-0.5000 0.0000 (  7114 PWs)   bands (ev):

   -45.7926 -22.4752 -22.4369 -22.4190  -6.6373  -6.3238  -6.3093  -5.0065
    -4.9481  -4.7993  -4.7131  -4.6738   2.4294   5.5925   6.1237   6.7385
     7.2474   7.3831   7.4724   8.4783   9.1336   9.4918

          k = 0.3333-0.5000 0.2378 (  7112 PWs)   bands (ev):

   -45.7923 -22.4942 -22.4359 -22.4181  -6.5543  -6.3616  -6.2589  -4.9699
    -4.9401  -4.7485  -4.6418  -4.5903   2.7111   5.4774   5.5479   5.6644
     6.3960   7.1405   7.9935   8.9344   8.9433   9.4677

          k = 0.3333-0.5000-0.4756 (  7080 PWs)   bands (ev):

   -45.7921 -22.5131 -22.4349 -22.4172  -6.5621  -6.3973  -6.1037  -4.9450
    -4.9209  -4.7061  -4.5702  -4.4968   3.0663   4.9194   5.1181   5.4460
     6.1444   6.5405   7.0328   9.3773   9.4379   9.6124

          k =-0.5000-0.5000 0.0000 (  7176 PWs)   bands (ev):

   -45.7923 -22.4743 -22.4359 -22.4359  -6.5521  -6.3076  -6.3076  -4.9968
    -4.9080  -4.7165  -4.7165  -4.6664   2.2351   5.4324   5.9918   6.9708
     6.9708   7.4813   7.4813   8.2512   8.6636   9.7436

          k =-0.5000-0.5000 0.2378 (  7120 PWs)   bands (ev):

   -45.7920 -22.4933 -22.4350 -22.4350  -6.3767  -6.3767  -6.3563  -4.9589
    -4.9062  -4.6398  -4.5970  -4.5970   2.6152   5.3905   5.6099   5.6099
     5.9981   7.0785   7.3844   8.9597   8.9597   9.7287

          k =-0.5000-0.5000-0.4756 (  7048 PWs)   bands (ev):

   -45.7918 -22.5121 -22.4341 -22.4341  -6.4385  -6.4385  -6.1544  -4.9209
    -4.9043  -4.6044  -4.4830  -4.4830   3.1926   4.9866   4.9866   5.2800
     6.0044   6.1141   6.2312   9.6282   9.6282   9.7140

     highest occupied level (ev):    10.3701

!    total energy              =    -380.57544753 Ry
     estimated scf accuracy    <          4.9E-12 Ry

     The total energy is the sum of the following terms:
     one-electron contribution =     -85.73671730 Ry
     hartree contribution      =      72.01249023 Ry
     xc contribution           =    -102.58534715 Ry
     ewald contribution        =    -264.26587331 Ry

     convergence has been achieved in   9 iterations

     negative rho (up, down):  1.589E-02 0.000E+00

     Forces acting on atoms (cartesian axes, Ry/au):

     atom    1 type  1   force =     0.00000000    0.00000000    0.00033477
     atom    2 type  2   force =     0.00000000    0.00000000   -0.00126431
     atom    3 type  3   force =     0.00000000    0.00000000   -0.00016015
     atom    4 type  3   force =     0.00000000    0.00000000    0.00054484
     atom    5 type  3   force =     0.00000000    0.00000000    0.00054484

     Total force =     0.001526     Total SCF correction =     0.000006


     Computing stress (Cartesian axis) and pressure


     negative rho (up, down):  1.589E-02 0.000E+00
          total   stress  (Ry/bohr**3)                   (kbar)     P=      -42.13
  -0.00033758   0.00000000   0.00000000          -49.66        0.00        0.00
   0.00000000  -0.00033758   0.00000000            0.00      -49.66        0.00
   0.00000000   0.00000000  -0.00018408            0.00        0.00      -27.08

     Energy error            =      6.8E-06 Ry
     Gradient error          =      1.3E-03 Ry/Bohr

     number of scf cycles    =   8
     number of bfgs steps    =   7

     energy             old  =    -380.5754407684 Ry
     energy             new  =    -380.5754475279 Ry

     CASE: energy            _new < energy            _old

     new trust radius        =       0.0020042469 bohr
     new conv_thr            =            1.0E-10 Ry


ATOMIC_POSITIONS (crystal)
Pb               0.0000000000        0.0000000000        0.9934805564
Ti               0.5000000000        0.5000000000        0.5381766685
O                0.5000000000        0.5000000000        0.1067113198
O                0.5000000000        0.0000000000        0.6144578717
O                0.0000000000        0.5000000000        0.6144578717



     Writing config-only to output data dir ./pto_100.save/ :
     XML data file
     NEW-OLD atomic charge density approx. for the potential

     negative rho (up, down):  1.589E-02 0.000E+00

     total cpu time spent up to now is      247.2 secs

     Self-consistent Calculation

     iteration #  1     ecut=   100.00 Ry     beta= 0.70
     CG style diagonalization
     ethr =  1.00E-06,  avg # of iterations =  3.1

     Threshold (ethr) on eigenvalues was too large:
     Diagonalizing with lowered threshold

     CG style diagonalization
     c_bands:  1 eigenvalues not converged
     c_bands:  1 eigenvalues not converged
     c_bands:  1 eigenvalues not converged
     c_bands:  3 eigenvalues not converged
     c_bands:  2 eigenvalues not converged
     c_bands:  1 eigenvalues not converged
     c_bands:  1 eigenvalues not converged
     ethr =  2.06E-09,  avg # of iterations =  7.6

     negative rho (up, down):  1.589E-02 0.000E+00

     total cpu time spent up to now is      252.9 secs

     total energy              =    -380.57545017 Ry
     estimated scf accuracy    <       0.00000112 Ry

     iteration #  2     ecut=   100.00 Ry     beta= 0.70
     CG style diagonalization
     ethr =  2.55E-09,  avg # of iterations =  4.5

     negative rho (up, down):  1.589E-02 0.000E+00

     total cpu time spent up to now is      255.3 secs

     total energy              =    -380.57544996 Ry
     estimated scf accuracy    <       0.00000382 Ry

     iteration #  3     ecut=   100.00 Ry     beta= 0.70
     CG style diagonalization
     ethr =  2.55E-09,  avg # of iterations =  4.2

     negative rho (up, down):  1.589E-02 0.000E+00

     total cpu time spent up to now is      257.7 secs

     total energy              =    -380.57545069 Ry
     estimated scf accuracy    <       0.00000012 Ry

     iteration #  4     ecut=   100.00 Ry     beta= 0.70
     CG style diagonalization
     ethr =  2.83E-10,  avg # of iterations =  3.7

     negative rho (up, down):  1.589E-02 0.000E+00

     total cpu time spent up to now is      259.8 secs

     total energy              =    -380.57545071 Ry
     estimated scf accuracy    <       0.00000002 Ry

     iteration #  5     ecut=   100.00 Ry     beta= 0.70
     CG style diagonalization
     ethr =  3.71E-11,  avg # of iterations =  4.6

     negative rho (up, down):  1.589E-02 0.000E+00

     total cpu time spent up to now is      262.3 secs

     total energy              =    -380.57545072 Ry
     estimated scf accuracy    <          3.8E-09 Ry

     iteration #  6     ecut=   100.00 Ry     beta= 0.70
     CG style diagonalization
     ethr =  8.57E-12,  avg # of iterations =  4.3

     negative rho (up, down):  1.589E-02 0.000E+00

     total cpu time spent up to now is      264.6 secs

     total energy              =    -380.57545072 Ry
     estimated scf accuracy    <          7.9E-10 Ry

     iteration #  7     ecut=   100.00 Ry     beta= 0.70
     CG style diagonalization
     ethr =  1.80E-12,  avg # of iterations =  4.7

     negative rho (up, down):  1.589E-02 0.000E+00

     total cpu time spent up to now is      267.2 secs

     total energy              =    -380.57545072 Ry
     estimated scf accuracy    <          2.6E-10 Ry

     iteration #  8     ecut=   100.00 Ry     beta= 0.70
     CG style diagonalization
     ethr =  5.85E-13,  avg # of iterations =  4.5

     negative rho (up, down):  1.589E-02 0.000E+00

     total cpu time spent up to now is      269.6 secs

     End of self-consistent calculation

          k = 0.0000 0.0000 0.0000 (  7069 PWs)   bands (ev):

   -45.7957 -22.4815 -22.3714 -22.3714  -7.5741  -6.5126  -6.2026  -4.9908
    -4.9908  -4.9487  -4.8644  -4.6804   4.2139   6.2485   6.2485   6.8006
     8.1183   8.1183   8.4477   8.6289   8.8722   8.8722

          k = 0.0000 0.0000 0.2378 (  7125 PWs)   bands (ev):

   -45.7954 -22.5011 -22.3706 -22.3706  -7.3882  -6.4606  -6.1425  -5.0059
    -5.0059  -4.9474  -4.8504  -4.7443   3.4652   6.2884   6.2884   6.8753
     7.9148   7.9148   8.3631   8.7848   8.9707   8.9707

          k = 0.0000 0.0000-0.4756 (  7128 PWs)   bands (ev):

   -45.7952 -22.5205 -22.3698 -22.3698  -7.1880  -6.4045  -6.0875  -5.0208
    -5.0208  -4.9462  -4.8370  -4.8124   2.9575   6.2125   6.3087   6.3087
     7.7900   7.7900   8.2823   9.0352   9.0352   9.9896

          k = 0.0000 0.1667 0.0000 (  7121 PWs)   bands (ev):

   -45.7954 -22.4808 -22.3887 -22.3706  -7.4400  -6.4870  -6.1838  -5.0121
    -4.9894  -4.9614  -4.8544  -4.6700   3.7954   6.3065   6.3573   6.7326
     8.1336   8.1440   8.4238   8.5041   8.5725   8.9699

          k = 0.0000 0.1667 0.2378 (  7106 PWs)   bands (ev):

   -45.7951 -22.5002 -22.3878 -22.3699  -7.2700  -6.4484  -6.1172  -5.0051
    -5.0049  -4.9606  -4.8500  -4.7041   3.2604   6.0896   6.4058   6.9285
     7.6046   7.9020   8.2149   8.6207   8.6517   9.3536

          k = 0.0000 0.1667-0.4756 (  7106 PWs)   bands (ev):

   -45.7948 -22.5195 -22.3869 -22.3691  -7.0956  -6.4055  -6.0468  -5.0203
    -4.9957  -4.9598  -4.8508  -4.7380   2.8409   5.7976   6.4298   6.5850
     7.4378   7.7829   8.2529   8.6773   8.7268   9.9603

          k = 0.0000 0.3333 0.0000 (  7106 PWs)   bands (ev):

   -45.7947 -22.4792 -22.4231 -22.3692  -7.1480  -6.4309  -6.1642  -5.0397
    -4.9871  -4.9859  -4.8208  -4.6812   3.2263   5.9462   6.6426   6.6692
     7.8061   7.8380   8.2206   8.2872   8.6600   9.6371

          k = 0.0000 0.3333 0.2378 (  7105 PWs)   bands (ev):

   -45.7945 -22.4984 -22.4220 -22.3684  -7.0402  -6.3948  -6.0728  -5.0063
    -5.0030  -4.9867  -4.8236  -4.6533   2.9158   5.8099   6.5438   6.7173
     7.2377   7.6657   7.8432   8.3107   8.8654   9.7038

          k = 0.0000 0.3333-0.4756 (  7110 PWs)   bands (ev):

   -45.7942 -22.5174 -22.4210 -22.3676  -6.9593  -6.3407  -5.9535  -5.0193
    -4.9869  -4.9635  -4.8552  -4.6121   2.6348   5.4887   6.3317   6.7401
     7.1056   7.3567   7.6184   8.3560   9.2506   9.5743

          k = 0.0000-0.5000 0.0000 (  7104 PWs)   bands (ev):

   -45.7944 -22.4783 -22.4403 -22.3685  -6.9868  -6.3848  -6.1821  -5.0501
    -4.9990  -4.9850  -4.7501  -4.7465   3.0200   5.6065   6.9051   6.9128
     7.3308   7.4376   8.2029   8.2533   8.6899  10.3701

          k = 0.0000-0.5000 0.2378 (  7102 PWs)   bands (ev):

   -45.7941 -22.4974 -22.4391 -22.3677  -6.9402  -6.3227  -6.0723  -5.0152
    -5.0020  -4.9997  -4.7819  -4.6519   2.7780   5.5642   6.5545   6.7688
     7.0926   7.2357   7.9439   8.2804   8.8771   9.8842

          k = 0.0000-0.5000-0.4756 (  7084 PWs)   bands (ev):

   -45.7939 -22.5163 -22.4379 -22.3668  -6.9255  -6.2571  -5.9089  -5.0188
    -5.0004  -4.9730  -4.8276  -4.5616   2.5526   5.3578   6.0234   6.7897
     7.0602   7.2949   7.3962   8.2967   9.2224   9.5687

          k = 0.1667 0.1667 0.0000 (  7123 PWs)   bands (ev):

   -45.7951 -22.4800 -22.3881 -22.3877  -7.3084  -6.4605  -6.1839  -5.0158
    -5.0023  -4.9639  -4.8244  -4.6601   3.4921   6.2518   6.4876   6.7268
     7.6559   7.7892   8.4675   8.5344   8.8212   9.1844

          k = 0.1667 0.1667 0.2378 (  7104 PWs)   bands (ev):

   -45.7948 -22.4994 -22.3872 -22.3869  -7.1500  -6.4387  -6.1153  -5.0168
    -4.9929  -4.9585  -4.8178  -4.6740   3.1419   6.0423   6.1232   6.8472
     7.4934   7.5181   8.2766   8.6777   8.8994   9.3317

          k = 0.1667 0.1667-0.4756 (  7110 PWs)   bands (ev):

   -45.7945 -22.5186 -22.3862 -22.3861  -6.9938  -6.4167  -6.0341  -5.0276
    -4.9726  -4.9362  -4.8245  -4.6919   2.8135   5.8398   5.8567   6.5714
     7.3504   7.4715   8.2098   8.7415   8.9533   9.6825

          k = 0.1667 0.3333 0.0000 (  7101 PWs)   bands (ev):

   -45.7944 -22.4784 -22.4222 -22.3863  -7.0238  -6.4060  -6.2009  -5.0326
    -4.9911  -4.9473  -4.7821  -4.6690   3.0141   5.9568   6.4909   6.8232
     7.1473   7.7061   8.0380   8.6512   8.8182   9.6819

          k = 0.1667 0.3333 0.2378 (  7099 PWs)   bands (ev):

   -45.7941 -22.4975 -22.4212 -22.3855  -6.9160  -6.3975  -6.1178  -5.0117
    -4.9885  -4.9289  -4.7679  -4.6313   2.9004   5.7814   5.9426   6.4622
     6.8993   7.5625   8.3333   8.6160   8.9545   9.4309

          k = 0.1667 0.3333-0.4756 (  7116 PWs)   bands (ev):

   -45.7939 -22.5166 -22.4202 -22.3846  -6.8401  -6.3792  -5.9992  -5.0119
    -4.9649  -4.8935  -4.7760  -4.5877   2.7469   5.4405   5.8404   6.2155
     6.4039   7.4179   8.4380   8.6600   8.9683   9.3861

          k = 0.1667-0.5000 0.0000 (  7110 PWs)   bands (ev):

   -45.7941 -22.4775 -22.4393 -22.3856  -6.8670  -6.3627  -6.2360  -5.0337
    -4.9833  -4.9286  -4.7290  -4.7245   2.8240   5.6245   6.6201   6.8140
     7.1839   7.4563   7.8416   8.7010   8.7983  10.0025

          k = 0.1667-0.5000 0.2378 (  7102 PWs)   bands (ev):

   -45.7938 -22.4965 -22.4382 -22.3847  -6.8157  -6.3345  -6.1395  -5.0099
    -4.9759  -4.9128  -4.7330  -4.6297   2.7898   5.5716   5.8454   6.2319
     6.8485   7.6982   8.1243   8.6145   8.9670   9.3993

          k = 0.1667-0.5000-0.4756 (  7092 PWs)   bands (ev):

   -45.7936 -22.5155 -22.4371 -22.3839  -6.8057  -6.3073  -5.9844  -5.0070
    -4.9375  -4.8956  -4.7448  -4.5396   2.7177   5.3264   5.6778   5.8700
     6.2998   7.5325   8.3228   8.5830   8.6426   9.5817

          k = 0.3333 0.3333 0.0000 (  7110 PWs)   bands (ev):

   -45.7938 -22.4768 -22.4205 -22.4203  -6.7678  -6.3577  -6.2692  -5.0132
    -4.9695  -4.8701  -4.7110  -4.6689   2.6147   5.9072   6.0882   6.8979
     7.0734   7.1977   7.8791   8.4920   9.2979   9.4307

          k = 0.3333 0.3333 0.2378 (  7106 PWs)   bands (ev):

   -45.7935 -22.4958 -22.4196 -22.4194  -6.6649  -6.3968  -6.2031  -4.9764
    -4.9654  -4.8271  -4.6655  -4.6009   2.7965   5.5546   5.6384   5.9038
     6.6261   7.0701   8.4191   8.9272   8.9660   9.3149

          k = 0.3333 0.3333-0.4756 (  7090 PWs)   bands (ev):

   -45.7932 -22.5147 -22.4186 -22.4185  -6.6159  -6.4336  -6.0725  -4.9607
    -4.9407  -4.7790  -4.6192  -4.5350   2.9686   5.1561   5.1938   5.6731
     6.3579   6.5448   7.7557   9.2700   9.2841   9.4568

          k = 0.3333-0.5000 0.0000 (  7114 PWs)   bands (ev):

   -45.7934 -22.4758 -22.4374 -22.4195  -6.6382  -6.3242  -6.3094  -5.0055
    -4.9471  -4.7980  -4.7119  -4.6725   2.4298   5.5946   6.1257   6.7375
     7.2458   7.3865   7.4753   8.4795   9.1343   9.4922

          k = 0.3333-0.5000 0.2378 (  7112 PWs)   bands (ev):

   -45.7932 -22.4948 -22.4365 -22.4187  -6.5546  -6.3619  -6.2594  -4.9688
    -4.9390  -4.7474  -4.6407  -4.5891   2.7116   5.4784   5.5492   5.6646
     6.3992   7.1422   7.9951   8.9342   8.9431   9.4680

          k = 0.3333-0.5000-0.4756 (  7080 PWs)   bands (ev):

   -45.7929 -22.5137 -22.4355 -22.4178  -6.5620  -6.3976  -6.1045  -4.9440
    -4.9198  -4.7050  -4.5692  -4.4957   3.0668   4.9205   5.1184   5.4454
     6.1473   6.5446   7.0338   9.3763   9.4383   9.6118

          k =-0.5000-0.5000 0.0000 (  7176 PWs)   bands (ev):

   -45.7931 -22.4749 -22.4365 -22.4365  -6.5530  -6.3080  -6.3080  -4.9958
    -4.9069  -4.7153  -4.7153  -4.6652   2.2355   5.4343   5.9959   6.9686
     6.9686   7.4848   7.4848   8.2521   8.6655   9.7440

          k =-0.5000-0.5000 0.2378 (  7120 PWs)   bands (ev):

   -45.7929 -22.4939 -22.4356 -22.4356  -6.3770  -6.3770  -6.3571  -4.9579
    -4.9051  -4.6385  -4.5959  -4.5959   2.6156   5.3917   5.6107   5.6107
     6.0023   7.0797   7.3856   8.9598   8.9598   9.7292

          k =-0.5000-0.5000-0.4756 (  7048 PWs)   bands (ev):

   -45.7926 -22.5127 -22.4347 -22.4347  -6.4387  -6.4387  -6.1552  -4.9199
    -4.9032  -4.6032  -4.4821  -4.4821   3.1931   4.9877   4.9877   5.2797
     6.0086   6.1150   6.2339   9.6275   9.6275   9.7144

     highest occupied level (ev):    10.3701

!    total energy              =    -380.57545072 Ry
     estimated scf accuracy    <          8.9E-12 Ry

     The total energy is the sum of the following terms:
     one-electron contribution =     -85.72011385 Ry
     hartree contribution      =      72.00445121 Ry
     xc contribution           =    -102.58501491 Ry
     ewald contribution        =    -264.27477317 Ry

     convergence has been achieved in   8 iterations

     negative rho (up, down):  1.589E-02 0.000E+00

     Forces acting on atoms (cartesian axes, Ry/au):

     atom    1 type  1   force =     0.00000000    0.00000000    0.00016257
     atom    2 type  2   force =     0.00000000    0.00000000   -0.00086465
     atom    3 type  3   force =     0.00000000    0.00000000    0.00037700
     atom    4 type  3   force =     0.00000000    0.00000000    0.00016254
     atom    5 type  3   force =     0.00000000    0.00000000    0.00016254

     Total force =     0.000984     Total SCF correction =     0.000006


     Computing stress (Cartesian axis) and pressure


     negative rho (up, down):  1.589E-02 0.000E+00
          total   stress  (Ry/bohr**3)                   (kbar)     P=      -42.37
  -0.00033949   0.00000000   0.00000000          -49.94        0.00        0.00
   0.00000000  -0.00033949   0.00000000            0.00      -49.94        0.00
   0.00000000   0.00000000  -0.00018513            0.00        0.00      -27.23

     Energy error            =      3.2E-06 Ry
     Gradient error          =      8.6E-04 Ry/Bohr

     bfgs converged in   9 scf cycles and   8 bfgs steps
     (criteria: energy <  1.0E-04 Ry, force <  1.0E-03 Ry/Bohr)

     End of BFGS Geometry Optimization

     Final energy             =    -380.5754507233 Ry

     File ./pto_100.bfgs deleted, as requested
Begin final coordinates

ATOMIC_POSITIONS (crystal)
Pb               0.0000000000        0.0000000000        0.9934805564
Ti               0.5000000000        0.5000000000        0.5381766685
O                0.5000000000        0.5000000000        0.1067113198
O                0.5000000000        0.0000000000        0.6144578717
O                0.0000000000        0.5000000000        0.6144578717
End final coordinates



     Writing all to output data dir ./pto_100.save/ :
     XML data file, charge density, pseudopotentials, collected wavefunctions
 
     init_run     :      0.89s CPU      1.02s WALL (       1 calls)
     electrons    :    220.72s CPU    233.30s WALL (       9 calls)
     update_pot   :      0.08s CPU      0.09s WALL (       8 calls)
     forces       :      4.67s CPU      4.96s WALL (       9 calls)
     stress       :     30.30s CPU     30.80s WALL (       9 calls)

     Called by init_run:
     wfcinit      :      0.32s CPU      0.36s WALL (       1 calls)
     potinit      :      0.02s CPU      0.02s WALL (       1 calls)
     hinit0       :      0.16s CPU      0.19s WALL (       1 calls)

     Called by electrons:
     c_bands      :    143.91s CPU    152.78s WALL (      91 calls)
     sum_band     :     46.05s CPU     47.36s WALL (      91 calls)
     v_of_rho     :      0.34s CPU      0.34s WALL (      96 calls)
     newd         :     33.15s CPU     35.43s WALL (      96 calls)
     mix_rho      :      0.24s CPU      0.25s WALL (      91 calls)

     Called by c_bands:
     init_us_2    :      3.10s CPU      3.21s WALL (    6030 calls)
     init_us_2:cp :      3.07s CPU      3.19s WALL (    6030 calls)
     ccgdiagg     :    128.77s CPU    137.02s WALL (    2730 calls)
     wfcrot       :     13.59s CPU     14.14s WALL (    2370 calls)

     Called by *cgdiagg:
     h_psi        :     86.29s CPU     91.49s WALL (  236695 calls)
     s_psi        :     17.05s CPU     18.16s WALL (  471020 calls)

     Called by h_psi:
     h_psi:calbec :     14.54s CPU     15.42s WALL (  236695 calls)
     vloc_psi     :     58.44s CPU     61.95s WALL (  236695 calls)
     add_vuspsi   :      9.45s CPU     10.05s WALL (  236695 calls)
     hs_1psi      :     86.34s CPU     91.79s WALL (  234325 calls)
     s_1psi       :     21.48s CPU     22.82s WALL (  234325 calls)

     General routines
     calbec       :     25.02s CPU     26.62s WALL (  475100 calls)
     fft          :      0.44s CPU      0.46s WALL (     642 calls)
     ffts         :      0.04s CPU      0.04s WALL (     187 calls)
     fftw         :     45.65s CPU     48.23s WALL (  633530 calls)
     interpolate  :      0.09s CPU      0.10s WALL (      96 calls)
 
     Parallel routines
 
     PWSCF        :   4m19.78s CPU   4m34.07s WALL

 
   This run was terminated on:   0:26:17  13Nov2025            

=------------------------------------------------------------------------------=
   JOB DONE.
=------------------------------------------------------------------------------=
TACC:  Shutdown complete. Exiting. 
