TACC:  Starting up job 2406378 
TACC:  Starting parallel tasks... 

     Program PWSCF v.7.3 starts on 24Sep2025 at  0:42:54 

     This program is part of the open-source Quantum ESPRESSO suite
     for quantum simulation of materials; please cite
         "P. Giannozzi et al., J. Phys.:Condens. Matter 21 395502 (2009);
         "P. Giannozzi et al., J. Phys.:Condens. Matter 29 465901 (2017);
         "P. Giannozzi et al., J. Chem. Phys. 152 154105 (2020);
          URL http://www.quantum-espresso.org", 
     in publications or presentations arising from this work. More details at
     http://www.quantum-espresso.org/quote

     Parallel version (MPI & OpenMP), running on      10 processor cores
     Number of MPI processes:                10
     Threads/MPI process:                     1

     MPI processes distributed on     1 nodes
     183232 MiB available memory on the printing compute node when the environment starts
 
     Waiting for input...
     Reading input from standard input
Warning: card &CELL ignored
Warning: card  CELL_DYNAMICS = 'BFGS', ignored
Warning: card  PRESS=0.D0, ignored
Warning: card / ignored
     Message from routine read_cards :
     DEPRECATED: no units specified in ATOMIC_POSITIONS card
     Message from routine read_cards :
     ATOMIC_POSITIONS: units set to alat

     Current dimensions of program PWSCF are:
     Max number of different atomic species (ntypx) = 10
     Max number of k-points (npk) =  40000
     Max angular momentum in pseudopotentials (lmaxx) =  4
 
     R & G space division:  proc/nbgrp/npool/nimage =      10
     Subspace diagonalization in iterative solution of the eigenvalue problem:
     a serial algorithm will be used

 
     Parallelization info
     --------------------
     sticks:   dense  smooth     PW     G-vecs:    dense   smooth      PW
     Min         466     187     54                24010     6093     931
     Max         467     188     55                24015     6096     932
     Sum        4669    1877    545               240129    60941    9315
 
     Using Slab Decomposition
 


     bravais-lattice index     =            1
     lattice parameter (alat)  =       7.6583  a.u.
     unit-cell volume          =     449.1525 (a.u.)^3
     number of atoms/cell      =            5
     number of atomic types    =            3
     number of electrons       =        40.00
     number of Kohn-Sham states=           20
     kinetic-energy cutoff     =     100.0000  Ry
     charge density cutoff     =    1000.0000  Ry
     scf convergence threshold =      1.0E-08
     mixing beta               =       0.7000
     number of iterations used =            8  plain     mixing
     Exchange-correlation= SLA  PZ   NOGX NOGC
                           (   1   1   0   0   0   0   0)

     celldm(1)=   7.658281  celldm(2)=   0.000000  celldm(3)=   0.000000
     celldm(4)=   0.000000  celldm(5)=   0.000000  celldm(6)=   0.000000

     crystal axes: (cart. coord. in units of alat)
               a(1) = (   1.000000   0.000000   0.000000 )  
               a(2) = (   0.000000   1.000000   0.000000 )  
               a(3) = (   0.000000   0.000000   1.000000 )  

     reciprocal axes: (cart. coord. in units 2 pi/alat)
               b(1) = (  1.000000  0.000000  0.000000 )  
               b(2) = (  0.000000  1.000000  0.000000 )  
               b(3) = (  0.000000  0.000000  1.000000 )  


     PseudoPot. # 1 for Ca read from file:
     /scratch/11018/zhc/assisgnment1/CaTiO3/Ca_LDA.UPF
     MD5 check sum: d2d4e7693e10d071152e9eeb7dd009f3
     Pseudo is Ultrasoft + core correction, Zval = 10.0
     Generated by new atomic code, or converted to UPF format
     Using radial grid of  845 points,  6 beta functions with: 
                l(1) =   0
                l(2) =   0
                l(3) =   1
                l(4) =   1
                l(5) =   2
                l(6) =   2
     Q(r) pseudized with  8 coefficients,  rinner =    1.500   1.500   1.500
                                                       1.500   1.500

     PseudoPot. # 2 for Ti read from file:
     /scratch/11018/zhc/assisgnment1/CaTiO3/Ti_LDA.UPF
     MD5 check sum: 0d9f225c038fe889ca2a701dcc8d72cb
     Pseudo is Ultrasoft + core correction, Zval = 12.0
     Generated by new atomic code, or converted to UPF format
     Using radial grid of  851 points,  6 beta functions with: 
                l(1) =   0
                l(2) =   0
                l(3) =   1
                l(4) =   1
                l(5) =   2
                l(6) =   2
     Q(r) pseudized with  6 coefficients,  rinner =    1.000   1.000   1.000
                                                       1.000   1.000

     PseudoPot. # 3 for O  read from file:
     /scratch/11018/zhc/assisgnment1/CaTiO3/O_LDA.UPF
     MD5 check sum: 194b818514d2a7dbb603bb78519a4f40
     Pseudo is Ultrasoft + core correction, Zval =  6.0
     Generated by new atomic code, or converted to UPF format
     Using radial grid of  737 points,  5 beta functions with: 
                l(1) =   0
                l(2) =   0
                l(3) =   1
                l(4) =   1
                l(5) =   2
     Q(r) pseudized with  8 coefficients,  rinner =    0.900   0.900   0.900
                                                       0.900   0.900

     atomic species   valence    mass     pseudopotential
     Ca               10.00    40.07800     Ca( 1.00)
     Ti               12.00    47.88000     Ti( 1.00)
     O                 6.00    16.00000     O ( 1.00)

     48 Sym. Ops., with inversion, found



   Cartesian axes

     site n.     atom                  positions (alat units)
         1        Ca     tau(   1) = (   0.0000000   0.0000000   0.0000000  )
         2        Ti     tau(   2) = (   0.5000000   0.5000000   0.5000000  )
         3        O      tau(   3) = (   0.5000000   0.5000000   0.0000000  )
         4        O      tau(   4) = (   0.5000000   0.0000000   0.5000000  )
         5        O      tau(   5) = (   0.0000000   0.5000000   0.5000000  )

     number of k points=    20
                       cart. coord. in units 2pi/alat
        k(    1) = (   0.0000000   0.0000000   0.0000000), wk =   0.0092593
        k(    2) = (   0.0000000   0.0000000   0.1666667), wk =   0.0555556
        k(    3) = (   0.0000000   0.0000000   0.3333333), wk =   0.0555556
        k(    4) = (   0.0000000   0.0000000  -0.5000000), wk =   0.0277778
        k(    5) = (   0.0000000   0.1666667   0.1666667), wk =   0.1111111
        k(    6) = (   0.0000000   0.1666667   0.3333333), wk =   0.2222222
        k(    7) = (   0.0000000   0.1666667  -0.5000000), wk =   0.1111111
        k(    8) = (   0.0000000   0.3333333   0.3333333), wk =   0.1111111
        k(    9) = (   0.0000000   0.3333333  -0.5000000), wk =   0.1111111
        k(   10) = (   0.0000000  -0.5000000  -0.5000000), wk =   0.0277778
        k(   11) = (   0.1666667   0.1666667   0.1666667), wk =   0.0740741
        k(   12) = (   0.1666667   0.1666667   0.3333333), wk =   0.2222222
        k(   13) = (   0.1666667   0.1666667  -0.5000000), wk =   0.1111111
        k(   14) = (   0.1666667   0.3333333   0.3333333), wk =   0.2222222
        k(   15) = (   0.1666667   0.3333333  -0.5000000), wk =   0.2222222
        k(   16) = (   0.1666667  -0.5000000  -0.5000000), wk =   0.0555556
        k(   17) = (   0.3333333   0.3333333   0.3333333), wk =   0.0740741
        k(   18) = (   0.3333333   0.3333333  -0.5000000), wk =   0.1111111
        k(   19) = (   0.3333333  -0.5000000  -0.5000000), wk =   0.0555556
        k(   20) = (  -0.5000000  -0.5000000  -0.5000000), wk =   0.0092593

     Dense  grid:   240129 G-vectors     FFT dimensions: (  80,  80,  80)

     Smooth grid:    60941 G-vectors     FFT dimensions: (  50,  50,  50)

     Estimated max dynamical RAM per process >     101.82 MB

     Estimated total dynamical RAM >    1018.19 MB

     Initial potential from superposition of free atoms

     starting charge      38.9952, renormalised to      40.0000

     negative rho (up, down):  7.791E-04 0.000E+00
     Starting wfcs are   32 randomized atomic wfcs

     total cpu time spent up to now is        1.0 secs

     Self-consistent Calculation

     iteration #  1     ecut=   100.00 Ry     beta= 0.70
     CG style diagonalization
     ethr =  1.00E-02,  avg # of iterations =  2.2

     negative rho (up, down):  1.425E-03 0.000E+00

     total cpu time spent up to now is        2.0 secs

     total energy              =    -291.20629306 Ry
     estimated scf accuracy    <       0.85625874 Ry

     iteration #  2     ecut=   100.00 Ry     beta= 0.70
     CG style diagonalization
     ethr =  2.14E-03,  avg # of iterations =  5.5

     negative rho (up, down):  4.373E-04 0.000E+00

     total cpu time spent up to now is        3.7 secs

     total energy              =    -289.78416081 Ry
     estimated scf accuracy    <      13.71883110 Ry

     iteration #  3     ecut=   100.00 Ry     beta= 0.70
     CG style diagonalization
     ethr =  2.14E-03,  avg # of iterations =  4.8

     negative rho (up, down):  5.256E-04 0.000E+00

     total cpu time spent up to now is        5.3 secs

     total energy              =    -291.64547427 Ry
     estimated scf accuracy    <       0.26177563 Ry

     iteration #  4     ecut=   100.00 Ry     beta= 0.70
     CG style diagonalization
     ethr =  6.54E-04,  avg # of iterations =  3.6

     negative rho (up, down):  5.678E-04 0.000E+00

     total cpu time spent up to now is        6.5 secs

     total energy              =    -291.67631366 Ry
     estimated scf accuracy    <       0.10028154 Ry

     iteration #  5     ecut=   100.00 Ry     beta= 0.70
     CG style diagonalization
     ethr =  2.51E-04,  avg # of iterations =  3.4

     negative rho (up, down):  6.737E-04 0.000E+00

     total cpu time spent up to now is        7.6 secs

     total energy              =    -291.68044260 Ry
     estimated scf accuracy    <       0.02117432 Ry

     iteration #  6     ecut=   100.00 Ry     beta= 0.70
     CG style diagonalization
     ethr =  5.29E-05,  avg # of iterations =  3.6

     negative rho (up, down):  7.333E-04 0.000E+00

     total cpu time spent up to now is        8.8 secs

     total energy              =    -291.68421376 Ry
     estimated scf accuracy    <       0.00069302 Ry

     iteration #  7     ecut=   100.00 Ry     beta= 0.70
     CG style diagonalization
     ethr =  1.73E-06,  avg # of iterations =  4.2

     negative rho (up, down):  7.510E-04 0.000E+00

     total cpu time spent up to now is       10.2 secs

     total energy              =    -291.68516189 Ry
     estimated scf accuracy    <       0.00018708 Ry

     iteration #  8     ecut=   100.00 Ry     beta= 0.70
     CG style diagonalization
     ethr =  4.68E-07,  avg # of iterations =  3.6

     negative rho (up, down):  7.453E-04 0.000E+00

     total cpu time spent up to now is       11.4 secs

     total energy              =    -291.68519033 Ry
     estimated scf accuracy    <       0.00007419 Ry

     iteration #  9     ecut=   100.00 Ry     beta= 0.70
     CG style diagonalization
     ethr =  1.85E-07,  avg # of iterations =  3.4

     negative rho (up, down):  7.426E-04 0.000E+00

     total cpu time spent up to now is       12.6 secs

     total energy              =    -291.68519724 Ry
     estimated scf accuracy    <       0.00001334 Ry

     iteration # 10     ecut=   100.00 Ry     beta= 0.70
     CG style diagonalization
     ethr =  3.33E-08,  avg # of iterations =  3.5

     negative rho (up, down):  7.403E-04 0.000E+00

     total cpu time spent up to now is       13.8 secs

     total energy              =    -291.68519881 Ry
     estimated scf accuracy    <       0.00000182 Ry

     iteration # 11     ecut=   100.00 Ry     beta= 0.70
     CG style diagonalization
     ethr =  4.56E-09,  avg # of iterations =  3.9

     negative rho (up, down):  7.405E-04 0.000E+00

     total cpu time spent up to now is       15.1 secs

     total energy              =    -291.68519983 Ry
     estimated scf accuracy    <       0.00000002 Ry

     iteration # 12     ecut=   100.00 Ry     beta= 0.70
     CG style diagonalization
     ethr =  5.21E-11,  avg # of iterations =  5.1

     negative rho (up, down):  7.406E-04 0.000E+00

     total cpu time spent up to now is       16.7 secs

     total energy              =    -291.68519992 Ry
     estimated scf accuracy    <       0.00000003 Ry

     iteration # 13     ecut=   100.00 Ry     beta= 0.70
     CG style diagonalization
     ethr =  5.21E-11,  avg # of iterations =  3.4

     negative rho (up, down):  7.407E-04 0.000E+00

     total cpu time spent up to now is       17.9 secs

     End of self-consistent calculation

          k = 0.0000 0.0000 0.0000 (  7521 PWs)   bands (ev):

   -49.1316 -32.1452 -25.6445 -25.6445 -25.6445 -13.3169 -13.3169 -13.3169
    -9.6004  -8.6343  -8.6343   4.2552   4.2552   4.2552   6.1751   6.1751
     6.1751   6.6595   6.6595   6.6595

          k = 0.0000 0.0000 0.1667 (  7569 PWs)   bands (ev):

   -49.1314 -32.1445 -25.6546 -25.6441 -25.6441 -13.3462 -13.3153 -13.3153
    -9.4894  -8.6272  -8.5955   3.9838   4.2849   4.2849   5.8548   5.8548
     5.9546   5.9935   6.5504   6.5504

          k = 0.0000 0.0000 0.3333 (  7592 PWs)   bands (ev):

   -49.1311 -32.1429 -25.6746 -25.6432 -25.6432 -13.4032 -13.3121 -13.3121
    -9.2596  -8.6132  -8.5176   3.4146   4.3940   4.3940   5.0147   5.2597
     5.2597   5.6725   6.4566   6.4566

          k = 0.0000 0.0000-0.5000 (  7624 PWs)   bands (ev):

   -49.1310 -32.1421 -25.6845 -25.6428 -25.6428 -13.4309 -13.3105 -13.3105
    -9.1405  -8.6061  -8.4780   3.1106   4.5356   4.5356   4.6752   4.9162
     4.9162   5.5281   6.4228   6.4228

          k = 0.0000 0.1667 0.1667 (  7563 PWs)   bands (ev):

   -49.1313 -32.1437 -25.6542 -25.6541 -25.6437 -13.3490 -13.3353 -13.3136
    -9.3850  -8.6064  -8.5722   3.8565   4.1407   4.3129   5.1711   5.6648
     5.9026   6.0458   6.3269   6.3311

          k = 0.0000 0.1667 0.3333 (  7590 PWs)   bands (ev):

   -49.1310 -32.1421 -25.6742 -25.6534 -25.6428 -13.3954 -13.3334 -13.3103
    -9.1734  -8.5868  -8.4968   3.3845   4.0150   4.4174   4.4254   5.1847
     5.3622   5.9855   6.1476   6.2699

          k = 0.0000 0.1667-0.5000 (  7580 PWs)   bands (ev):

   -49.1309 -32.1413 -25.6842 -25.6530 -25.6424 -13.4203 -13.3302 -13.3086
    -9.0680  -8.5773  -8.4531   3.1014   3.8695   4.2449   4.5627   4.8611
     5.1695   5.9751   6.0975   6.1889

          k = 0.0000 0.3333 0.3333 (  7607 PWs)   bands (ev):

   -49.1307 -32.1404 -25.6736 -25.6735 -25.6420 -13.3842 -13.3711 -13.3067
    -9.0233  -8.5114  -8.4445   3.1925   3.5739   3.6284   4.5024   4.9732
     5.4231   5.5605   5.7343   6.7551

          k = 0.0000 0.3333-0.5000 (  7580 PWs)   bands (ev):

   -49.1306 -32.1396 -25.6836 -25.6732 -25.6415 -13.3991 -13.3693 -13.3049
    -8.9657  -8.4650  -8.4035   3.0370   3.1561   3.5600   4.6394   4.7547
     5.3490   5.5455   5.5931   6.8741

          k = 0.0000-0.5000-0.5000 (  7660 PWs)   bands (ev):

   -49.1304 -32.1388 -25.6832 -25.6832 -25.6411 -13.3886 -13.3886 -13.3030
    -8.9379  -8.3787  -8.3787   2.8886   2.8978   3.3116   4.7031   4.7031
     5.3597   5.4345   5.4345   7.0857

          k = 0.1667 0.1667 0.1667 (  7559 PWs)   bands (ev):

   -49.1311 -32.1429 -25.6538 -25.6538 -25.6537 -13.3504 -13.3324 -13.3324
    -9.2831  -8.5697  -8.5697   3.7407   4.1495   4.1495   5.1218   5.1218
     5.3399   6.2430   6.2430   6.4036

          k = 0.1667 0.1667 0.3333 (  7604 PWs)   bands (ev):

   -49.1309 -32.1412 -25.6738 -25.6530 -25.6529 -13.3882 -13.3340 -13.3265
    -9.0791  -8.5645  -8.4865   3.3556   3.9344   4.1647   4.3493   4.5832
     5.2706   6.0378   6.2117   6.4067

          k = 0.1667 0.1667-0.5000 (  7600 PWs)   bands (ev):

   -49.1307 -32.1404 -25.6838 -25.6526 -25.6524 -13.4107 -13.3308 -13.3236
    -8.9794  -8.5620  -8.4369   3.0947   3.7679   4.1277   4.1623   4.3969
     5.3176   5.9101   6.1968   6.3374

          k = 0.1667 0.3333 0.3333 (  7576 PWs)   bands (ev):

   -49.1306 -32.1396 -25.6731 -25.6731 -25.6521 -13.3781 -13.3659 -13.3237
    -8.9119  -8.5026  -8.4506   3.1954   3.6244   3.6309   4.0801   4.3642
     4.7887   6.1345   6.1664   6.7801

          k = 0.1667 0.3333-0.5000 (  7578 PWs)   bands (ev):

   -49.1304 -32.1388 -25.6831 -25.6727 -25.6516 -13.3917 -13.3643 -13.3209
    -8.8486  -8.4727  -8.4048   3.0358   3.2310   3.5607   4.0790   4.2026
     4.7764   6.0965   6.1604   6.8935

          k = 0.1667-0.5000-0.5000 (  7624 PWs)   bands (ev):

   -49.1303 -32.1380 -25.6827 -25.6827 -25.6512 -13.3823 -13.3823 -13.3181
    -8.8154  -8.3888  -8.3888   2.8894   2.9969   3.3152   4.0975   4.0975
     4.6918   6.1293   6.1293   7.1047

          k = 0.3333 0.3333 0.3333 (  7583 PWs)   bands (ev):

   -49.1303 -32.1380 -25.6723 -25.6721 -25.6721 -13.3681 -13.3553 -13.3553
    -8.6990  -8.4627  -8.4627   3.1340   3.6141   3.6141   3.6603   3.8133
     3.8133   6.6122   6.6122   6.8960

          k = 0.3333 0.3333-0.5000 (  7582 PWs)   bands (ev):

   -49.1301 -32.1372 -25.6822 -25.6718 -25.6716 -13.3770 -13.3570 -13.3500
    -8.6206  -8.4688  -8.4077   2.9828   3.3308   3.4945   3.5237   3.7013
     3.8154   6.6934   6.7655   6.9851

          k = 0.3333-0.5000-0.5000 (  7580 PWs)   bands (ev):

   -49.1300 -32.1365 -25.6817 -25.6817 -25.6712 -13.3696 -13.3696 -13.3482
    -8.5567  -8.4092  -8.4092   2.8385   3.2016   3.3224   3.5156   3.5156
     3.6652   6.8785   6.8785   7.1433

          k =-0.5000-0.5000-0.5000 (  7568 PWs)   bands (ev):

   -49.1298 -32.1357 -25.6812 -25.6812 -25.6812 -13.3632 -13.3632 -13.3632
    -8.4195  -8.4195  -8.4195   2.7096   3.3076   3.3076   3.3076   3.3260
     3.3260   7.1630   7.1630   7.1630

     highest occupied level (ev):     7.1630

!    total energy              =    -291.68519991 Ry
     estimated scf accuracy    <          9.0E-09 Ry

     The total energy is the sum of the following terms:
     one-electron contribution =    -105.63964875 Ry
     hartree contribution      =      69.55497998 Ry
     xc contribution           =     -50.83282859 Ry
     ewald contribution        =    -204.76770255 Ry

     convergence has been achieved in  13 iterations

     negative rho (up, down):  7.407E-04 0.000E+00

     Forces acting on atoms (cartesian axes, Ry/au):

     atom    1 type  1   force =     0.00000000    0.00000000    0.00000000
     atom    2 type  2   force =     0.00000000    0.00000000    0.00000000
     atom    3 type  3   force =     0.00000000    0.00000000    0.00000000
     atom    4 type  3   force =     0.00000000    0.00000000    0.00000000
     atom    5 type  3   force =     0.00000000    0.00000000    0.00000000

     Total force =     0.000000     Total SCF correction =     0.000000


     Computing stress (Cartesian axis) and pressure


     negative rho (up, down):  7.407E-04 0.000E+00
          total   stress  (Ry/bohr**3)                   (kbar)     P=     -256.97
  -0.00174682   0.00000000   0.00000000         -256.97        0.00        0.00
   0.00000000  -0.00174682   0.00000000            0.00     -256.97        0.00
   0.00000000   0.00000000  -0.00174682            0.00        0.00     -256.97


     Writing all to output data dir ./CTO_CELLDM_11.save/ :
     XML data file, charge density, pseudopotentials, collected wavefunctions
 
     init_run     :      0.61s CPU      0.73s WALL (       1 calls)
     electrons    :     16.23s CPU     16.92s WALL (       1 calls)
     forces       :      0.23s CPU      0.27s WALL (       1 calls)
     stress       :      1.98s CPU      2.04s WALL (       1 calls)

     Called by init_run:
     wfcinit      :      0.28s CPU      0.31s WALL (       1 calls)
     potinit      :      0.02s CPU      0.03s WALL (       1 calls)
     hinit0       :      0.15s CPU      0.18s WALL (       1 calls)

     Called by electrons:
     c_bands      :     11.63s CPU     11.95s WALL (      13 calls)
     sum_band     :      2.91s CPU      3.06s WALL (      13 calls)
     v_of_rho     :      0.05s CPU      0.06s WALL (      14 calls)
     newd         :      1.69s CPU      1.90s WALL (      14 calls)
     mix_rho      :      0.04s CPU      0.04s WALL (      13 calls)

     Called by c_bands:
     init_us_2    :      0.17s CPU      0.18s WALL (     580 calls)
     init_us_2:cp :      0.17s CPU      0.17s WALL (     580 calls)
     ccgdiagg     :      9.83s CPU     10.12s WALL (     260 calls)
     wfcrot       :      1.93s CPU      1.99s WALL (     260 calls)

     Called by *cgdiagg:
     h_psi        :      7.99s CPU      8.20s WALL (   15545 calls)
     s_psi        :      1.33s CPU      1.38s WALL (   30830 calls)

     Called by h_psi:
     h_psi:calbec :      1.03s CPU      1.06s WALL (   15545 calls)
     vloc_psi     :      6.08s CPU      6.24s WALL (   15545 calls)
     add_vuspsi   :      0.73s CPU      0.75s WALL (   15545 calls)
     hs_1psi      :      7.04s CPU      7.24s WALL (   15285 calls)
     s_1psi       :      1.49s CPU      1.53s WALL (   15285 calls)

     General routines
     calbec       :      1.87s CPU      1.93s WALL (   31190 calls)
     fft          :      0.07s CPU      0.09s WALL (      90 calls)
     ffts         :      0.01s CPU      0.01s WALL (      27 calls)
     fftw         :      5.35s CPU      5.48s WALL (   46650 calls)
     interpolate  :      0.02s CPU      0.02s WALL (      14 calls)
 
     Parallel routines
 
     PWSCF        :     19.29s CPU     20.59s WALL

 
   This run was terminated on:   0:43:15  24Sep2025            

=------------------------------------------------------------------------------=
   JOB DONE.
=------------------------------------------------------------------------------=
TACC:  Shutdown complete. Exiting. 
