TACC:  Starting up job 2408552 
TACC:  Starting parallel tasks... 

     Program PWSCF v.7.3 starts on 24Sep2025 at 12:44:11 

     This program is part of the open-source Quantum ESPRESSO suite
     for quantum simulation of materials; please cite
         "P. Giannozzi et al., J. Phys.:Condens. Matter 21 395502 (2009);
         "P. Giannozzi et al., J. Phys.:Condens. Matter 29 465901 (2017);
         "P. Giannozzi et al., J. Chem. Phys. 152 154105 (2020);
          URL http://www.quantum-espresso.org", 
     in publications or presentations arising from this work. More details at
     http://www.quantum-espresso.org/quote

     Parallel version (MPI & OpenMP), running on      10 processor cores
     Number of MPI processes:                10
     Threads/MPI process:                     1

     MPI processes distributed on     1 nodes
     186781 MiB available memory on the printing compute node when the environment starts
 
     Waiting for input...
     Reading input from standard input
     Message from routine read_cards :
     DEPRECATED: no units specified in ATOMIC_POSITIONS card
     Message from routine read_cards :
     ATOMIC_POSITIONS: units set to alat

     Current dimensions of program PWSCF are:
     Max number of different atomic species (ntypx) = 10
     Max number of k-points (npk) =  40000
     Max angular momentum in pseudopotentials (lmaxx) =  4
 
     R & G space division:  proc/nbgrp/npool/nimage =      10
     Subspace diagonalization in iterative solution of the eigenvalue problem:
     a serial algorithm will be used

 
     Parallelization info
     --------------------
     sticks:   dense  smooth     PW     G-vecs:    dense   smooth      PW
     Min         430     173     49                21291     5381     837
     Max         431     175     50                21292     5382     840
     Sum        4309    1733    497               212911    53811    8385
 
     Using Slab Decomposition
 


     bravais-lattice index     =            1
     lattice parameter (alat)  =       7.3573  a.u.
     unit-cell volume          =     398.2496 (a.u.)^3
     number of atoms/cell      =            5
     number of atomic types    =            3
     number of electrons       =        40.00
     number of Kohn-Sham states=           20
     kinetic-energy cutoff     =     100.0000  Ry
     charge density cutoff     =    1000.0000  Ry
     scf convergence threshold =      1.0E-08
     mixing beta               =       0.7000
     number of iterations used =            8  plain     mixing
     energy convergence thresh.=      1.0E-04
     force convergence thresh. =      1.0E-03
     press convergence thresh. =      5.0E-01
     Exchange-correlation= SLA  PZ   NOGX NOGC
                           (   1   1   0   0   0   0   0)
     nstep                     =           50


     celldm(1)=   7.357300  celldm(2)=   0.000000  celldm(3)=   0.000000
     celldm(4)=   0.000000  celldm(5)=   0.000000  celldm(6)=   0.000000

     crystal axes: (cart. coord. in units of alat)
               a(1) = (   1.000000   0.000000   0.000000 )  
               a(2) = (   0.000000   1.000000   0.000000 )  
               a(3) = (   0.000000   0.000000   1.000000 )  

     reciprocal axes: (cart. coord. in units 2 pi/alat)
               b(1) = (  1.000000  0.000000  0.000000 )  
               b(2) = (  0.000000  1.000000  0.000000 )  
               b(3) = (  0.000000  0.000000  1.000000 )  


     PseudoPot. # 1 for Ca read from file:
     /scratch/11018/zhc/assisgnment1/CaTiO3/Ca_LDA.UPF
     MD5 check sum: d2d4e7693e10d071152e9eeb7dd009f3
     Pseudo is Ultrasoft + core correction, Zval = 10.0
     Generated by new atomic code, or converted to UPF format
     Using radial grid of  845 points,  6 beta functions with: 
                l(1) =   0
                l(2) =   0
                l(3) =   1
                l(4) =   1
                l(5) =   2
                l(6) =   2
     Q(r) pseudized with  8 coefficients,  rinner =    1.500   1.500   1.500
                                                       1.500   1.500

     PseudoPot. # 2 for Ti read from file:
     /scratch/11018/zhc/assisgnment1/CaTiO3/Ti_LDA.UPF
     MD5 check sum: 0d9f225c038fe889ca2a701dcc8d72cb
     Pseudo is Ultrasoft + core correction, Zval = 12.0
     Generated by new atomic code, or converted to UPF format
     Using radial grid of  851 points,  6 beta functions with: 
                l(1) =   0
                l(2) =   0
                l(3) =   1
                l(4) =   1
                l(5) =   2
                l(6) =   2
     Q(r) pseudized with  6 coefficients,  rinner =    1.000   1.000   1.000
                                                       1.000   1.000

     PseudoPot. # 3 for O  read from file:
     /scratch/11018/zhc/assisgnment1/CaTiO3/O_LDA.UPF
     MD5 check sum: 194b818514d2a7dbb603bb78519a4f40
     Pseudo is Ultrasoft + core correction, Zval =  6.0
     Generated by new atomic code, or converted to UPF format
     Using radial grid of  737 points,  5 beta functions with: 
                l(1) =   0
                l(2) =   0
                l(3) =   1
                l(4) =   1
                l(5) =   2
     Q(r) pseudized with  8 coefficients,  rinner =    0.900   0.900   0.900
                                                       0.900   0.900

     atomic species   valence    mass     pseudopotential
     Ca               10.00    40.07800     Ca( 1.00)
     Ti               12.00    47.88000     Ti( 1.00)
     O                 6.00    16.00000     O ( 1.00)

     48 Sym. Ops., with inversion, found



   Cartesian axes

     site n.     atom                  positions (alat units)
         1        Ca     tau(   1) = (   0.0000000   0.0000000   0.0000000  )
         2        Ti     tau(   2) = (   0.5000000   0.5000000   0.5000000  )
         3        O      tau(   3) = (   0.5000000   0.5000000   0.0000000  )
         4        O      tau(   4) = (   0.5000000   0.0000000   0.5000000  )
         5        O      tau(   5) = (   0.0000000   0.5000000   0.5000000  )

     number of k points=    20
                       cart. coord. in units 2pi/alat
        k(    1) = (   0.0000000   0.0000000   0.0000000), wk =   0.0092593
        k(    2) = (   0.0000000   0.0000000   0.1666667), wk =   0.0555556
        k(    3) = (   0.0000000   0.0000000   0.3333333), wk =   0.0555556
        k(    4) = (   0.0000000   0.0000000  -0.5000000), wk =   0.0277778
        k(    5) = (   0.0000000   0.1666667   0.1666667), wk =   0.1111111
        k(    6) = (   0.0000000   0.1666667   0.3333333), wk =   0.2222222
        k(    7) = (   0.0000000   0.1666667  -0.5000000), wk =   0.1111111
        k(    8) = (   0.0000000   0.3333333   0.3333333), wk =   0.1111111
        k(    9) = (   0.0000000   0.3333333  -0.5000000), wk =   0.1111111
        k(   10) = (   0.0000000  -0.5000000  -0.5000000), wk =   0.0277778
        k(   11) = (   0.1666667   0.1666667   0.1666667), wk =   0.0740741
        k(   12) = (   0.1666667   0.1666667   0.3333333), wk =   0.2222222
        k(   13) = (   0.1666667   0.1666667  -0.5000000), wk =   0.1111111
        k(   14) = (   0.1666667   0.3333333   0.3333333), wk =   0.2222222
        k(   15) = (   0.1666667   0.3333333  -0.5000000), wk =   0.2222222
        k(   16) = (   0.1666667  -0.5000000  -0.5000000), wk =   0.0555556
        k(   17) = (   0.3333333   0.3333333   0.3333333), wk =   0.0740741
        k(   18) = (   0.3333333   0.3333333  -0.5000000), wk =   0.1111111
        k(   19) = (   0.3333333  -0.5000000  -0.5000000), wk =   0.0555556
        k(   20) = (  -0.5000000  -0.5000000  -0.5000000), wk =   0.0092593

     Dense  grid:   212911 G-vectors     FFT dimensions: (  75,  75,  75)

     Smooth grid:    53811 G-vectors     FFT dimensions: (  48,  48,  48)

     Estimated max dynamical RAM per process >      98.72 MB

     Estimated total dynamical RAM >     987.17 MB

     Check: negative core charge=   -0.000001

     Initial potential from superposition of free atoms

     starting charge      38.9952, renormalised to      40.0000

     negative rho (up, down):  8.545E-04 0.000E+00
     Starting wfcs are   32 randomized atomic wfcs

     total cpu time spent up to now is        1.1 secs

     Self-consistent Calculation

     iteration #  1     ecut=   100.00 Ry     beta= 0.70
     CG style diagonalization
     ethr =  1.00E-02,  avg # of iterations =  2.2

     negative rho (up, down):  1.118E-03 0.000E+00

     total cpu time spent up to now is        1.9 secs

     total energy              =    -291.29987262 Ry
     estimated scf accuracy    <       0.83062328 Ry

     iteration #  2     ecut=   100.00 Ry     beta= 0.70
     CG style diagonalization
     ethr =  2.08E-03,  avg # of iterations =  5.2

     negative rho (up, down):  6.419E-04 0.000E+00

     total cpu time spent up to now is        3.1 secs

     total energy              =    -290.54281136 Ry
     estimated scf accuracy    <       6.99710920 Ry

     iteration #  3     ecut=   100.00 Ry     beta= 0.70
     CG style diagonalization
     ethr =  2.08E-03,  avg # of iterations =  4.5

     negative rho (up, down):  7.400E-04 0.000E+00

     total cpu time spent up to now is        4.3 secs

     total energy              =    -291.72971568 Ry
     estimated scf accuracy    <       0.17452669 Ry

     iteration #  4     ecut=   100.00 Ry     beta= 0.70
     CG style diagonalization
     ethr =  4.36E-04,  avg # of iterations =  3.6

     negative rho (up, down):  8.136E-04 0.000E+00

     total cpu time spent up to now is        5.2 secs

     total energy              =    -291.74232617 Ry
     estimated scf accuracy    <       0.05978734 Ry

     iteration #  5     ecut=   100.00 Ry     beta= 0.70
     CG style diagonalization
     ethr =  1.49E-04,  avg # of iterations =  3.5

     negative rho (up, down):  8.552E-04 0.000E+00

     total cpu time spent up to now is        6.1 secs

     total energy              =    -291.75121494 Ry
     estimated scf accuracy    <       0.00225474 Ry

     iteration #  6     ecut=   100.00 Ry     beta= 0.70
     CG style diagonalization
     ethr =  5.64E-06,  avg # of iterations =  4.3

     negative rho (up, down):  8.580E-04 0.000E+00

     total cpu time spent up to now is        7.2 secs

     total energy              =    -291.75293277 Ry
     estimated scf accuracy    <       0.00043923 Ry

     iteration #  7     ecut=   100.00 Ry     beta= 0.70
     CG style diagonalization
     ethr =  1.10E-06,  avg # of iterations =  3.4

     negative rho (up, down):  8.529E-04 0.000E+00

     total cpu time spent up to now is        8.1 secs

     total energy              =    -291.75295767 Ry
     estimated scf accuracy    <       0.00023554 Ry

     iteration #  8     ecut=   100.00 Ry     beta= 0.70
     CG style diagonalization
     ethr =  5.89E-07,  avg # of iterations =  3.5

     negative rho (up, down):  8.521E-04 0.000E+00

     total cpu time spent up to now is        9.0 secs

     total energy              =    -291.75299490 Ry
     estimated scf accuracy    <       0.00000636 Ry

     iteration #  9     ecut=   100.00 Ry     beta= 0.70
     CG style diagonalization
     ethr =  1.59E-08,  avg # of iterations =  4.0

     negative rho (up, down):  8.515E-04 0.000E+00

     total cpu time spent up to now is       10.0 secs

     total energy              =    -291.75299844 Ry
     estimated scf accuracy    <       0.00000034 Ry

     iteration # 10     ecut=   100.00 Ry     beta= 0.70
     CG style diagonalization
     ethr =  8.62E-10,  avg # of iterations =  4.7

     negative rho (up, down):  8.518E-04 0.000E+00

     total cpu time spent up to now is       11.2 secs

     total energy              =    -291.75299913 Ry
     estimated scf accuracy    <       0.00000066 Ry

     iteration # 11     ecut=   100.00 Ry     beta= 0.70
     CG style diagonalization
     ethr =  8.62E-10,  avg # of iterations =  4.0

     negative rho (up, down):  8.518E-04 0.000E+00

     total cpu time spent up to now is       12.2 secs

     total energy              =    -291.75299925 Ry
     estimated scf accuracy    <       0.00000001 Ry

     iteration # 12     ecut=   100.00 Ry     beta= 0.70
     CG style diagonalization
     ethr =  2.71E-11,  avg # of iterations =  4.3

     negative rho (up, down):  8.518E-04 0.000E+00

     total cpu time spent up to now is       13.3 secs

     End of self-consistent calculation

          k = 0.0000 0.0000 0.0000 (  6763 PWs)   bands (ev):

   -47.1541 -30.2102 -23.7464 -23.7464 -23.7464 -11.4056 -11.4056 -11.4056
    -8.5582  -7.4444  -7.4444   5.5752   5.5752   5.5752   7.5031   7.5031
     7.5031   8.2043   8.2043   8.2043

          k = 0.0000 0.0000 0.1667 (  6751 PWs)   bands (ev):

   -47.1538 -30.2088 -23.7645 -23.7456 -23.7456 -11.4673 -11.4028 -11.4028
    -8.3990  -7.4342  -7.3682   5.2691   5.5910   5.5910   7.1395   7.1395
     7.2772   7.4001   8.0756   8.0756

          k = 0.0000 0.0000 0.3333 (  6736 PWs)   bands (ev):

   -47.1532 -30.2058 -23.8004 -23.7439 -23.7439 -11.5822 -11.3973 -11.3973
    -8.0775  -7.4138  -7.2084   4.6080   5.6753   5.6753   6.3075   6.4824
     6.4824   6.8841   7.9599   7.9599

          k = 0.0000 0.0000-0.5000 (  6696 PWs)   bands (ev):

   -47.1529 -30.2044 -23.8182 -23.7430 -23.7430 -11.6361 -11.3946 -11.3946
    -7.9162  -7.4035  -7.1215   4.2413   5.8327   5.8327   5.9138   6.0856
     6.0856   6.7091   7.9195   7.9195

          k = 0.0000 0.1667 0.1667 (  6753 PWs)   bands (ev):

   -47.1535 -30.2073 -23.7640 -23.7636 -23.7447 -11.4755 -11.4398 -11.3999
    -8.2560  -7.3944  -7.3253   5.0901   5.4441   5.6028   6.4192   6.9061
     7.3022   7.4182   7.7197   7.8436

          k = 0.0000 0.1667 0.3333 (  6717 PWs)   bands (ev):

   -47.1529 -30.2043 -23.7999 -23.7623 -23.7431 -11.5636 -11.4370 -11.3941
    -7.9757  -7.3607  -7.1732   4.5602   5.1797   5.6748   5.6833   6.3765
     6.6283   7.3713   7.6251   7.6372

          k = 0.0000 0.1667-0.5000 (  6714 PWs)   bands (ev):

   -47.1526 -30.2028 -23.8177 -23.7615 -23.7422 -11.6106 -11.4303 -11.3912
    -7.8441  -7.3440  -7.0792   4.2360   4.9171   5.5446   5.8278   6.0110
     6.4058   7.3636   7.5217   7.5784

          k = 0.0000 0.3333 0.3333 (  6716 PWs)   bands (ev):

   -47.1523 -30.2011 -23.7989 -23.7985 -23.7414 -11.5367 -11.5040 -11.3876
    -7.8303  -7.1986  -7.0807   4.2540   4.7352   4.7964   5.7034   6.1081
     6.6953   6.8686   7.2343   8.1920

          k = 0.0000 0.3333-0.5000 (  6726 PWs)   bands (ev):

   -47.1520 -30.1995 -23.8168 -23.7982 -23.7406 -11.5596 -11.5001 -11.3844
    -7.7896  -7.1126  -6.9956   4.0871   4.2021   4.7358   5.8115   5.8677
     6.6226   6.8462   7.1011   8.3311

          k = 0.0000-0.5000-0.5000 (  6728 PWs)   bands (ev):

   -47.1517 -30.1979 -23.8163 -23.8163 -23.7398 -11.5342 -11.5342 -11.3810
    -7.7917  -6.9541  -6.9541   3.7873   4.0723   4.3884   5.7988   5.7988
     6.7281   6.7281   6.9183   8.5801

          k = 0.1667 0.1667 0.1667 (  6736 PWs)   bands (ev):

   -47.1532 -30.2057 -23.7631 -23.7631 -23.7628 -11.4792 -11.4341 -11.4341
    -8.1193  -7.3238  -7.3238   4.9295   5.4302   5.4302   6.3253   6.3253
     6.7916   7.6542   7.6542   7.7719

          k = 0.1667 0.1667 0.3333 (  6720 PWs)   bands (ev):

   -47.1526 -30.2027 -23.7992 -23.7616 -23.7613 -11.5471 -11.4386 -11.4226
    -7.8546  -7.3208  -7.1568   4.5125   5.0953   5.3334   5.5586   5.8232
     6.6351   7.4081   7.5989   7.7689

          k = 0.1667 0.1667-0.5000 (  6736 PWs)   bands (ev):

   -47.1523 -30.2012 -23.8171 -23.7609 -23.7604 -11.5883 -11.4322 -11.4168
    -7.7323  -7.3194  -7.0530   4.2338   4.8051   5.2205   5.3530   5.7201
     6.6990   7.2564   7.5754   7.6818

          k = 0.1667 0.3333 0.3333 (  6716 PWs)   bands (ev):

   -47.1520 -30.1996 -23.7979 -23.7978 -23.7597 -11.5232 -11.4934 -11.4175
    -7.6727  -7.1893  -7.0953   4.2775   4.7733   4.7942   5.2164   5.4601
     6.1781   7.4913   7.5302   8.2193

          k = 0.1667 0.3333-0.5000 (  6734 PWs)   bands (ev):

   -47.1517 -30.1980 -23.8159 -23.7972 -23.7589 -11.5439 -11.4905 -11.4120
    -7.6230  -7.1328  -7.0016   4.1794   4.2074   4.7307   5.1383   5.3321
     6.1799   7.4473   7.5166   8.3532

          k = 0.1667-0.5000-0.5000 (  6696 PWs)   bands (ev):

   -47.1514 -30.1964 -23.8153 -23.8153 -23.7580 -11.5217 -11.5217 -11.4069
    -7.6178  -6.9763  -6.9763   3.9113   4.0835   4.3928   5.1591   5.1591
     6.1318   7.4833   7.4833   8.6036

          k = 0.3333 0.3333 0.3333 (  6737 PWs)   bands (ev):

   -47.1514 -30.1966 -23.7964 -23.7959 -23.7959 -11.5008 -11.4720 -11.4720
    -7.3805  -7.1249  -7.1249   4.2537   4.6993   4.6993   4.8822   4.9284
     4.9284   8.0333   8.0333   8.3560

          k = 0.3333 0.3333-0.5000 (  6720 PWs)   bands (ev):

   -47.1511 -30.1951 -23.8141 -23.7954 -23.7949 -11.5123 -11.4762 -11.4612
    -7.2993  -7.1399  -7.0144   4.1945   4.3064   4.5276   4.6039   4.8769
     4.9571   8.1229   8.2148   8.4611

          k = 0.3333-0.5000-0.5000 (  6728 PWs)   bands (ev):

   -47.1509 -30.1936 -23.8132 -23.8132 -23.7942 -11.4964 -11.4964 -11.4581
    -7.2452  -7.0212  -7.0212   4.0772   4.1669   4.4016   4.5255   4.5255
     4.8629   8.3415   8.3415   8.6515

          k =-0.5000-0.5000-0.5000 (  6776 PWs)   bands (ev):

   -47.1506 -30.1921 -23.8121 -23.8121 -23.8121 -11.4835 -11.4835 -11.4835
    -7.0439  -7.0439  -7.0439   3.9691   4.2990   4.2990   4.2990   4.4060
     4.4060   8.6760   8.6760   8.6760

     highest occupied level (ev):     8.6760

!    total energy              =    -291.75299926 Ry
     estimated scf accuracy    <          9.8E-10 Ry

     The total energy is the sum of the following terms:
     one-electron contribution =     -93.22769357 Ry
     hartree contribution      =      65.82981263 Ry
     xc contribution           =     -51.21055395 Ry
     ewald contribution        =    -213.14456438 Ry

     convergence has been achieved in  12 iterations

     negative rho (up, down):  8.518E-04 0.000E+00

     Forces acting on atoms (cartesian axes, Ry/au):

     atom    1 type  1   force =     0.00000000    0.00000000    0.00000000
     atom    2 type  2   force =     0.00000000    0.00000000    0.00000000
     atom    3 type  3   force =     0.00000000    0.00000000    0.00000000
     atom    4 type  3   force =     0.00000000    0.00000000    0.00000000
     atom    5 type  3   force =     0.00000000    0.00000000    0.00000000

     Total force =     0.000000     Total SCF correction =     0.000000


     Computing stress (Cartesian axis) and pressure


     negative rho (up, down):  8.518E-04 0.000E+00
          total   stress  (Ry/bohr**3)                   (kbar)     P=     -119.36
  -0.00081136   0.00000000   0.00000000         -119.36        0.00        0.00
   0.00000000  -0.00081136   0.00000000            0.00     -119.36        0.00
   0.00000000   0.00000000  -0.00081136            0.00        0.00     -119.36


     BFGS Geometry Optimization
     Energy error            =      0.0E+00 Ry
     Gradient error          =      0.0E+00 Ry/Bohr
     Cell gradient error     =      1.2E+02 kbar

     number of scf cycles    =   1
     number of bfgs steps    =   0

     enthalpy           new  =    -291.7529992589 Ry

     new trust radius        =       0.0809586801 bohr
     new conv_thr            =       0.0000000100 Ry

     new unit-cell volume =    374.50349 a.u.^3 (    55.49569 Ang^3 )
     density =      4.06813 g/cm^3

CELL_PARAMETERS (alat=  7.35730000)
   0.979715901   0.000000000   0.000000000
   0.000000000   0.979715901   0.000000000
   0.000000000   0.000000000   0.979715901

ATOMIC_POSITIONS (alat)
Ca               0.0000000000        0.0000000000        0.0000000000
Ti               0.4898579504        0.4898579504        0.4898579504
O                0.4898579504        0.4898579504        0.0000000000
O                0.4898579504        0.0000000000        0.4898579504
O                0.0000000000        0.4898579504        0.4898579504



     Writing config-only to output data dir ./CTO_vc.save/ :
     XML data file
     NEW-OLD atomic charge density approx. for the potential

     negative rho (up, down):  8.100E-04 0.000E+00

     total cpu time spent up to now is       15.5 secs

     Self-consistent Calculation

     iteration #  1     ecut=   100.00 Ry     beta= 0.70
     CG style diagonalization
     c_bands:  1 eigenvalues not converged
     c_bands:  1 eigenvalues not converged
     c_bands:  2 eigenvalues not converged
     c_bands:  1 eigenvalues not converged
     ethr =  1.00E-06,  avg # of iterations =  8.0

     negative rho (up, down):  8.236E-04 0.000E+00

     total cpu time spent up to now is       17.5 secs

     total energy              =    -291.76391570 Ry
     estimated scf accuracy    <       0.00020290 Ry

     iteration #  2     ecut=   100.00 Ry     beta= 0.70
     CG style diagonalization
     ethr =  5.07E-07,  avg # of iterations =  4.0

     negative rho (up, down):  8.253E-04 0.000E+00

     total cpu time spent up to now is       18.5 secs

     total energy              =    -291.76394765 Ry
     estimated scf accuracy    <       0.00009293 Ry

     iteration #  3     ecut=   100.00 Ry     beta= 0.70
     CG style diagonalization
     ethr =  2.32E-07,  avg # of iterations =  3.9

     negative rho (up, down):  8.285E-04 0.000E+00

     total cpu time spent up to now is       19.5 secs

     total energy              =    -291.76397272 Ry
     estimated scf accuracy    <       0.00003386 Ry

     iteration #  4     ecut=   100.00 Ry     beta= 0.70
     CG style diagonalization
     ethr =  8.47E-08,  avg # of iterations =  3.7

     negative rho (up, down):  8.289E-04 0.000E+00

     total cpu time spent up to now is       20.5 secs

     total energy              =    -291.76398013 Ry
     estimated scf accuracy    <       0.00000064 Ry

     iteration #  5     ecut=   100.00 Ry     beta= 0.70
     CG style diagonalization
     ethr =  1.59E-09,  avg # of iterations =  4.1

     negative rho (up, down):  8.289E-04 0.000E+00

     total cpu time spent up to now is       21.5 secs

     total energy              =    -291.76398059 Ry
     estimated scf accuracy    <       0.00000006 Ry

     iteration #  6     ecut=   100.00 Ry     beta= 0.70
     CG style diagonalization
     ethr =  1.44E-10,  avg # of iterations =  4.0

     negative rho (up, down):  8.290E-04 0.000E+00

     total cpu time spent up to now is       22.6 secs

     End of self-consistent calculation

          k = 0.0000 0.0000 0.0000 (  6763 PWs)   bands (ev):

   -46.0614 -29.1658 -22.7060 -22.7060 -22.7060 -10.3747 -10.3747 -10.3747
    -7.9653  -6.7846  -6.7846   6.3341   6.3341   6.3341   8.2419   8.2419
     8.2419   9.0837   9.0837   9.0837

          k = 0.0000 0.0000 0.1701 (  6751 PWs)   bands (ev):

   -46.0610 -29.1638 -22.7302 -22.7048 -22.7048 -10.4662 -10.3712 -10.3712
    -7.7689  -6.7725  -6.6810   6.0083   6.3386   6.3386   7.8531   7.8531
     7.9895   8.2201   8.9459   8.9459

          k = 0.0000 0.0000 0.3402 (  6736 PWs)   bands (ev):

   -46.0601 -29.1599 -22.7782 -22.7024 -22.7024 -10.6295 -10.3641 -10.3641
    -7.3811  -6.7479  -6.4621   5.2907   6.3998   6.3998   7.0386   7.1649
     7.1649   7.5539   8.8205   8.8205

          k = 0.0000 0.0000-0.5104 (  6696 PWs)   bands (ev):

   -46.0597 -29.1579 -22.8018 -22.7012 -22.7012 -10.7038 -10.3605 -10.3605
    -7.1906  -6.7356  -6.3407   4.8828   6.5632   6.5632   6.6151   6.7389
     6.7389   7.3612   8.7773   8.7773

          k = 0.0000 0.1701 0.1701 (  6753 PWs)   bands (ev):

   -46.0606 -29.1618 -22.7296 -22.7289 -22.7036 -10.4799 -10.4217 -10.3674
    -7.5991  -6.7191  -6.6238   5.7912   6.1944   6.3373   7.1129   7.5945
     8.1040   8.1802   8.5081   8.7088

          k = 0.0000 0.1701 0.3402 (  6717 PWs)   bands (ev):

   -46.0597 -29.1577 -22.7775 -22.7272 -22.7013 -10.6008 -10.4181 -10.3598
    -7.2747  -6.6744  -6.4161   5.2258   5.8310   6.3812   6.4059   7.0386
     7.3410   8.1529   8.3852   8.4951

          k = 0.0000 0.1701-0.5104 (  6714 PWs)   bands (ev):

   -46.0593 -29.1556 -22.8013 -22.7262 -22.7001 -10.6645 -10.4085 -10.3559
    -7.1291  -6.6503  -6.2855   4.8788   5.5037   6.2844   6.5329   6.6518
     7.0993   8.1520   8.2649   8.4336

          k = 0.0000 0.3402 0.3402 (  6716 PWs)   bands (ev):

   -46.0589 -29.1533 -22.7764 -22.7757 -22.6990 -10.5584 -10.5070 -10.3511
    -7.1498  -6.4433  -6.2944   4.8249   5.4266   5.4607   6.3690   6.7364
     7.4107   7.6043   8.1060   8.9937

          k = 0.0000 0.3402-0.5104 (  6726 PWs)   bands (ev):

   -46.0584 -29.1511 -22.8003 -22.7754 -22.6979 -10.5857 -10.5012 -10.3468
    -7.1256  -6.3297  -6.1770   4.6086   4.8587   5.4126   6.4546   6.4851
     7.3394   7.5781   7.9809   9.1439

          k = 0.0000-0.5104-0.5104 (  6728 PWs)   bands (ev):

   -46.0580 -29.1488 -22.7997 -22.7997 -22.6967 -10.5461 -10.5461 -10.3422
    -7.1510  -6.1235  -6.1235   4.2853   4.7507   4.9932   6.4053   6.4053
     7.4576   7.4576   7.8202   9.4138

          k = 0.1701 0.1701 0.1701 (  6736 PWs)   bands (ev):

   -46.0601 -29.1597 -22.7283 -22.7283 -22.7278 -10.4854 -10.4137 -10.4137
    -7.4401  -6.6236  -6.6236   5.5998   6.1599   6.1599   7.0011   7.0011
     7.6301   8.4496   8.4496   8.5337

          k = 0.1701 0.1701 0.3402 (  6720 PWs)   bands (ev):

   -46.0593 -29.1555 -22.7766 -22.7263 -22.7258 -10.5756 -10.4207 -10.3975
    -7.1381  -6.6235  -6.3955   5.1609   5.7540   5.9723   6.2346   6.5472
     7.4286   8.1793   8.3795   8.5262

          k = 0.1701 0.1701-0.5104 (  6736 PWs)   bands (ev):

   -46.0589 -29.1534 -22.8005 -22.7254 -22.7245 -10.6306 -10.4114 -10.3894
    -7.0026  -6.6234  -6.2519   4.8781   5.3859   5.8135   6.0368   6.4748
     7.5026   8.0120   8.3510   8.4283

          k = 0.1701 0.3402 0.3402 (  6716 PWs)   bands (ev):

   -46.0584 -29.1512 -22.7750 -22.7747 -22.7237 -10.5384 -10.4923 -10.3907
    -6.9616  -6.4358  -6.3161   4.8606   5.4473   5.4547   5.8588   6.0736
     6.9866   8.2514   8.2932   9.0219

          k = 0.1701 0.3402-0.5104 (  6734 PWs)   bands (ev):

   -46.0580 -29.1490 -22.7990 -22.7740 -22.7225 -10.5629 -10.4880 -10.3831
    -6.9271  -6.3608  -6.1869   4.7120   4.8660   5.4006   5.7324   5.9631
     6.9978   8.2027   8.2753   9.1673

          k = 0.1701-0.5104-0.5104 (  6696 PWs)   bands (ev):

   -46.0576 -29.1468 -22.7982 -22.7982 -22.7213 -10.5289 -10.5289 -10.3761
    -6.9442  -6.1554  -6.1554   4.4255   4.7665   4.9980   5.7541   5.7541
     6.9655   8.2408   8.2408   9.4400

          k = 0.3402 0.3402 0.3402 (  6737 PWs)   bands (ev):

   -46.0576 -29.1470 -22.7728 -22.7721 -22.7721 -10.5047 -10.4624 -10.4624
    -6.6157  -6.3602  -6.3602   4.8514   5.2956   5.2956   5.5777   5.5777
     5.6273   8.8266   8.8266   9.1703

          k = 0.3402 0.3402-0.5104 (  6720 PWs)   bands (ev):

   -46.0572 -29.1449 -22.7964 -22.7716 -22.7707 -10.5170 -10.4684 -10.4471
    -6.5379  -6.3826  -6.2084   4.8566   4.8695   5.0961   5.2169   5.5441
     5.6460   8.9202   9.0244   9.2844

          k = 0.3402-0.5104-0.5104 (  6728 PWs)   bands (ev):

   -46.0568 -29.1429 -22.7952 -22.7952 -22.7697 -10.4939 -10.4939 -10.4430
    -6.4970  -6.2199  -6.2199   4.7142   4.7834   5.0078   5.0978   5.0978
     5.5554   9.1582   9.1582   9.4936

          k =-0.5104-0.5104-0.5104 (  6776 PWs)   bands (ev):

   -46.0564 -29.1409 -22.7936 -22.7936 -22.7936 -10.4760 -10.4760 -10.4760
    -6.2525  -6.2525  -6.2525   4.7016   4.8631   4.8631   4.8631   5.0127
     5.0127   9.5210   9.5210   9.5210

     highest occupied level (ev):     9.5210

!    total energy              =    -291.76398062 Ry
     estimated scf accuracy    <          3.4E-09 Ry

     The total energy is the sum of the following terms:
     one-electron contribution =     -86.75112196 Ry
     hartree contribution      =      63.97013042 Ry
     xc contribution           =     -51.42546632 Ry
     ewald contribution        =    -217.55752275 Ry

     convergence has been achieved in   6 iterations

     negative rho (up, down):  8.290E-04 0.000E+00

     Forces acting on atoms (cartesian axes, Ry/au):

     atom    1 type  1   force =     0.00000000    0.00000000    0.00000000
     atom    2 type  2   force =     0.00000000    0.00000000    0.00000000
     atom    3 type  3   force =     0.00000000    0.00000000    0.00000000
     atom    4 type  3   force =     0.00000000    0.00000000    0.00000000
     atom    5 type  3   force =     0.00000000    0.00000000    0.00000000

     Total force =     0.000000     Total SCF correction =     0.000000


     Computing stress (Cartesian axis) and pressure


     negative rho (up, down):  8.290E-04 0.000E+00
          total   stress  (Ry/bohr**3)                   (kbar)     P=      -11.36
  -0.00007725   0.00000000   0.00000000          -11.36        0.00        0.00
   0.00000000  -0.00007725   0.00000000            0.00      -11.36        0.00
   0.00000000   0.00000000  -0.00007725            0.00        0.00      -11.36

     Energy error            =      1.1E-02 Ry
     Gradient error          =      0.0E+00 Ry/Bohr
     Cell gradient error     =      1.1E+01 kbar

     number of scf cycles    =   2
     number of bfgs steps    =   1

     enthalpy           old  =    -291.7529992589 Ry
     enthalpy           new  =    -291.7639806207 Ry

     CASE: enthalpy          _new < enthalpy          _old

     new trust radius        =       0.0080601680 bohr
     new conv_thr            =            1.0E-10 Ry

     new unit-cell volume =    372.16864 a.u.^3 (    55.14970 Ang^3 )
     density =      4.09365 g/cm^3

CELL_PARAMETERS (alat=  7.35730000)
   0.977675637   0.000000000   0.000000000
   0.000000000   0.977675637   0.000000000
   0.000000000   0.000000000   0.977675637

ATOMIC_POSITIONS (alat)
Ca               0.0000000000        0.0000000000        0.0000000000
Ti               0.4888378185        0.4888378185        0.4888378185
O                0.4888378185        0.4888378185        0.0000000000
O                0.4888378185        0.0000000000        0.4888378185
O                0.0000000000        0.4888378185        0.4888378185



     Writing config-only to output data dir ./CTO_vc.save/ :
     XML data file
     NEW-OLD atomic charge density approx. for the potential

     negative rho (up, down):  8.263E-04 0.000E+00

     total cpu time spent up to now is       24.8 secs

     Self-consistent Calculation

     iteration #  1     ecut=   100.00 Ry     beta= 0.70
     CG style diagonalization
     ethr =  1.00E-06,  avg # of iterations =  3.5

     Threshold (ethr) on eigenvalues was too large:
     Diagonalizing with lowered threshold

     CG style diagonalization
     c_bands:  1 eigenvalues not converged
     c_bands:  1 eigenvalues not converged
     c_bands:  1 eigenvalues not converged
     ethr =  8.47E-09,  avg # of iterations =  5.8

     negative rho (up, down):  8.264E-04 0.000E+00

     total cpu time spent up to now is       27.2 secs

     total energy              =    -291.76404763 Ry
     estimated scf accuracy    <       0.00000248 Ry

     iteration #  2     ecut=   100.00 Ry     beta= 0.70
     CG style diagonalization
     ethr =  6.20E-09,  avg # of iterations =  4.0

     negative rho (up, down):  8.263E-04 0.000E+00

     total cpu time spent up to now is       28.3 secs

     total energy              =    -291.76404843 Ry
     estimated scf accuracy    <       0.00000118 Ry

     iteration #  3     ecut=   100.00 Ry     beta= 0.70
     CG style diagonalization
     ethr =  2.96E-09,  avg # of iterations =  3.8

     negative rho (up, down):  8.265E-04 0.000E+00

     total cpu time spent up to now is       29.2 secs

     total energy              =    -291.76404877 Ry
     estimated scf accuracy    <       0.00000029 Ry

     iteration #  4     ecut=   100.00 Ry     beta= 0.70
     CG style diagonalization
     ethr =  7.13E-10,  avg # of iterations =  3.8

     negative rho (up, down):  8.265E-04 0.000E+00

     total cpu time spent up to now is       30.2 secs

     total energy              =    -291.76404884 Ry
     estimated scf accuracy    <       0.00000001 Ry

     iteration #  5     ecut=   100.00 Ry     beta= 0.70
     CG style diagonalization
     ethr =  3.37E-11,  avg # of iterations =  3.9

     negative rho (up, down):  8.265E-04 0.000E+00

     total cpu time spent up to now is       31.2 secs

     total energy              =    -291.76404885 Ry
     estimated scf accuracy    <          2.9E-10 Ry

     iteration #  6     ecut=   100.00 Ry     beta= 0.70
     CG style diagonalization
     ethr =  7.32E-13,  avg # of iterations =  4.5

     negative rho (up, down):  8.265E-04 0.000E+00

     total cpu time spent up to now is       32.3 secs

     End of self-consistent calculation

          k = 0.0000 0.0000 0.0000 (  6763 PWs)   bands (ev):

   -45.9475 -29.0572 -22.5979 -22.5979 -22.5979 -10.2676 -10.2676 -10.2676
    -7.9025  -6.7156  -6.7156   6.4147   6.4147   6.4147   8.3194   8.3194
     8.3194   9.1768   9.1768   9.1768

          k = 0.0000 0.0000 0.1705 (  6751 PWs)   bands (ev):

   -45.9471 -29.0552 -22.6229 -22.5967 -22.5967 -10.3628 -10.2640 -10.2640
    -7.7017  -6.7032  -6.6088   6.0867   6.4178   6.4178   7.9278   7.9278
     8.0641   8.3068   9.0380   9.0380

          k = 0.0000 0.0000 0.3409 (  6736 PWs)   bands (ev):

   -45.9462 -29.0511 -22.6722 -22.5942 -22.5942 -10.5320 -10.2567 -10.2567
    -7.3061  -6.6782  -6.3830   5.3630   6.4761   6.4761   7.1158   7.2365
     7.2365   7.6240   8.9118   8.9118

          k = 0.0000 0.0000-0.5114 (  6696 PWs)   bands (ev):

   -45.9458 -29.0491 -22.6965 -22.5930 -22.5930 -10.6087 -10.2530 -10.2530
    -7.1124  -6.6656  -6.2577   4.9505   6.6400   6.6400   6.6891   6.8075
     6.8075   7.4294   8.8684   8.8684

          k = 0.0000 0.1705 0.1705 (  6753 PWs)   bands (ev):

   -45.9467 -29.0531 -22.6222 -22.6215 -22.5955 -10.3772 -10.3161 -10.2601
    -7.5288  -6.6483  -6.5499   5.8652   6.2741   6.4149   7.1855   7.6665
     8.1891   8.2599   8.5914   8.8005

          k = 0.0000 0.1705 0.3409 (  6717 PWs)   bands (ev):

   -45.9458 -29.0488 -22.6715 -22.6197 -22.5930 -10.5020 -10.3124 -10.2522
    -7.1995  -6.6023  -6.3358   5.2959   5.8995   6.4555   6.4825   7.1079
     7.4161   8.2353   8.4653   8.5863

          k = 0.0000 0.1705-0.5114 (  6714 PWs)   bands (ev):

   -45.9453 -29.0467 -22.6960 -22.6187 -22.5918 -10.5676 -10.3024 -10.2483
    -7.0527  -6.5771  -6.2010   4.9466   5.5653   6.3626   6.6068   6.7190
     7.1722   8.2354   8.3429   8.5246

          k = 0.0000 0.3409 0.3409 (  6716 PWs)   bands (ev):

   -45.9449 -29.0443 -22.6705 -22.6697 -22.5907 -10.4576 -10.4039 -10.2433
    -7.0777  -6.3629  -6.2107   4.8842   5.5005   5.5308   6.4387   6.8021
     7.4861   7.6818   8.1989   9.0778

          k = 0.0000 0.3409-0.5114 (  6726 PWs)   bands (ev):

   -45.9445 -29.0420 -22.6950 -22.6694 -22.5895 -10.4853 -10.3978 -10.2389
    -7.0555  -6.2462  -6.0896   4.6634   4.9277   5.4845   6.5216   6.5498
     7.4149   7.6552   8.0747   9.2292

          k = 0.0000-0.5114-0.5114 (  6728 PWs)   bands (ev):

   -45.9440 -29.0397 -22.6945 -22.6945 -22.5884 -10.4439 -10.4439 -10.2341
    -7.0837  -6.0348  -6.0348   4.3377   4.8225   5.0567   6.4687   6.4687
     7.5345   7.5345   7.9162   9.5013

          k = 0.1705 0.1705 0.1705 (  6736 PWs)   bands (ev):

   -45.9462 -29.0509 -22.6209 -22.6209 -22.6204 -10.3830 -10.3078 -10.3078
    -7.3673  -6.5499  -6.5499   5.6704   6.2369   6.2369   7.0723   7.0723
     7.7193   8.5334   8.5334   8.6136

          k = 0.1705 0.1705 0.3409 (  6720 PWs)   bands (ev):

   -45.9453 -29.0466 -22.6706 -22.6188 -22.6183 -10.4757 -10.3151 -10.2911
    -7.0612  -6.5501  -6.3147   5.2290   5.8236   6.0389   6.3055   6.6243
     7.5133   8.2606   8.4618   8.6056

          k = 0.1705 0.1705-0.5114 (  6736 PWs)   bands (ev):

   -45.9449 -29.0445 -22.6952 -22.6179 -22.6169 -10.5323 -10.3055 -10.2826
    -6.9244  -6.5503  -6.1666   4.9459   5.4470   5.8758   6.1084   6.5545
     7.5883   8.0915   8.4327   8.5065

          k = 0.1705 0.3409 0.3409 (  6716 PWs)   bands (ev):

   -45.9445 -29.0421 -22.6690 -22.6687 -22.6161 -10.4368 -10.3887 -10.2840
    -6.8862  -6.3557  -6.2333   4.9212   5.5188   5.5243   5.9269   6.1381
     7.0727   8.3313   8.3734   9.1061

          k = 0.1705 0.3409-0.5114 (  6734 PWs)   bands (ev):

   -45.9440 -29.0399 -22.6937 -22.6679 -22.6149 -10.4617 -10.3842 -10.2762
    -6.8535  -6.2786  -6.1000   4.7681   4.9351   5.4715   5.7948   6.0295
     7.0850   8.2821   8.3551   9.2527

          k = 0.1705-0.5114-0.5114 (  6696 PWs)   bands (ev):

   -45.9436 -29.0376 -22.6929 -22.6929 -22.6136 -10.4262 -10.4262 -10.2690
    -6.8733  -6.0678  -6.0678   4.4797   4.8387   5.0616   5.8166   5.8166
     7.0542   8.3204   8.3204   9.5278

          k = 0.3409 0.3409 0.3409 (  6737 PWs)   bands (ev):

   -45.9436 -29.0378 -22.6667 -22.6660 -22.6660 -10.4017 -10.3577 -10.3577
    -6.5341  -6.2791  -6.2791   4.9133   5.3580   5.3580   5.6466   5.6466
     5.7077   8.9099   8.9099   9.2558

          k = 0.3409 0.3409-0.5114 (  6720 PWs)   bands (ev):

   -45.9432 -29.0357 -22.6910 -22.6654 -22.6645 -10.4141 -10.3639 -10.3419
    -6.4570  -6.3024  -6.1225   4.9146   4.9399   5.1561   5.2810   5.6144
     5.7206   9.0039   9.1094   9.3708

          k = 0.3409-0.5114-0.5114 (  6728 PWs)   bands (ev):

   -45.9427 -29.0335 -22.6897 -22.6897 -22.6635 -10.3901 -10.3901 -10.3377
    -6.4177  -6.1346  -6.1346   4.7720   4.8579   5.0714   5.1582   5.1582
     5.6292   9.2439   9.2439   9.5820

          k =-0.5114-0.5114-0.5114 (  6776 PWs)   bands (ev):

   -45.9423 -29.0315 -22.6881 -22.6881 -22.6881 -10.3716 -10.3716 -10.3716
    -6.1684  -6.1684  -6.1684   4.7797   4.9228   4.9228   4.9228   5.0764
     5.0764   9.6098   9.6098   9.6098

     highest occupied level (ev):     9.6098

!    total energy              =    -291.76404885 Ry
     estimated scf accuracy    <          1.5E-11 Ry

     The total energy is the sum of the following terms:
     one-electron contribution =     -86.08741498 Ry
     hartree contribution      =      63.78316380 Ry
     xc contribution           =     -51.44826469 Ry
     ewald contribution        =    -218.01153298 Ry

     convergence has been achieved in   6 iterations

     negative rho (up, down):  8.265E-04 0.000E+00

     Forces acting on atoms (cartesian axes, Ry/au):

     atom    1 type  1   force =     0.00000000    0.00000000    0.00000000
     atom    2 type  2   force =     0.00000000    0.00000000    0.00000000
     atom    3 type  3   force =     0.00000000    0.00000000    0.00000000
     atom    4 type  3   force =     0.00000000    0.00000000    0.00000000
     atom    5 type  3   force =     0.00000000    0.00000000    0.00000000

     Total force =     0.000000     Total SCF correction =     0.000000


     Computing stress (Cartesian axis) and pressure


     negative rho (up, down):  8.265E-04 0.000E+00
          total   stress  (Ry/bohr**3)                   (kbar)     P=        1.58
   0.00001075   0.00000000   0.00000000            1.58        0.00        0.00
   0.00000000   0.00001075   0.00000000            0.00        1.58        0.00
   0.00000000   0.00000000   0.00001075            0.00        0.00        1.58

     Energy error            =      6.8E-05 Ry
     Gradient error          =      0.0E+00 Ry/Bohr
     Cell gradient error     =      1.6E+00 kbar

     number of scf cycles    =   3
     number of bfgs steps    =   2

     enthalpy           old  =    -291.7639806207 Ry
     enthalpy           new  =    -291.7640488506 Ry

     CASE: enthalpy          _new < enthalpy          _old

     new trust radius        =       0.0009801070 bohr
     new conv_thr            =            1.0E-10 Ry

     new unit-cell volume =    372.45233 a.u.^3 (    55.19174 Ang^3 )
     density =      4.09053 g/cm^3

CELL_PARAMETERS (alat=  7.35730000)
   0.977923989   0.000000000   0.000000000
   0.000000000   0.977923989   0.000000000
   0.000000000   0.000000000   0.977923989

ATOMIC_POSITIONS (alat)
Ca               0.0000000000        0.0000000000        0.0000000000
Ti               0.4889619947        0.4889619947        0.4889619947
O                0.4889619947        0.4889619947        0.0000000000
O                0.4889619947        0.0000000000        0.4889619947
O                0.0000000000        0.4889619947        0.4889619947



     Writing config-only to output data dir ./CTO_vc.save/ :
     XML data file
     NEW-OLD atomic charge density approx. for the potential

     negative rho (up, down):  8.268E-04 0.000E+00

     total cpu time spent up to now is       34.6 secs

     Self-consistent Calculation

     iteration #  1     ecut=   100.00 Ry     beta= 0.70
     CG style diagonalization
     ethr =  1.00E-06,  avg # of iterations =  2.0

     Threshold (ethr) on eigenvalues was too large:
     Diagonalizing with lowered threshold

     CG style diagonalization
     ethr =  1.30E-09,  avg # of iterations =  4.7

     negative rho (up, down):  8.268E-04 0.000E+00

     total cpu time spent up to now is       36.5 secs

     total energy              =    -291.76405102 Ry
     estimated scf accuracy    <       0.00000004 Ry

     iteration #  2     ecut=   100.00 Ry     beta= 0.70
     CG style diagonalization
     ethr =  1.03E-10,  avg # of iterations =  4.4

     negative rho (up, down):  8.268E-04 0.000E+00

     total cpu time spent up to now is       37.6 secs

     total energy              =    -291.76405105 Ry
     estimated scf accuracy    <       0.00000003 Ry

     iteration #  3     ecut=   100.00 Ry     beta= 0.70
     CG style diagonalization
     ethr =  7.90E-11,  avg # of iterations =  3.7

     negative rho (up, down):  8.268E-04 0.000E+00

     total cpu time spent up to now is       38.6 secs

     total energy              =    -291.76405106 Ry
     estimated scf accuracy    <          3.0E-09 Ry

     iteration #  4     ecut=   100.00 Ry     beta= 0.70
     CG style diagonalization
     ethr =  7.52E-12,  avg # of iterations =  4.0

     negative rho (up, down):  8.268E-04 0.000E+00

     total cpu time spent up to now is       39.6 secs

     total energy              =    -291.76405106 Ry
     estimated scf accuracy    <          3.4E-10 Ry

     iteration #  5     ecut=   100.00 Ry     beta= 0.70
     CG style diagonalization
     ethr =  8.62E-13,  avg # of iterations =  3.9

     negative rho (up, down):  8.268E-04 0.000E+00

     total cpu time spent up to now is       40.6 secs

     End of self-consistent calculation

          k = 0.0000 0.0000 0.0000 (  6763 PWs)   bands (ev):

   -45.9615 -29.0704 -22.6112 -22.6112 -22.6112 -10.2807 -10.2807 -10.2807
    -7.9102  -6.7241  -6.7241   6.4048   6.4048   6.4048   8.3099   8.3099
     8.3099   9.1654   9.1654   9.1654

          k = 0.0000 0.0000 0.1704 (  6751 PWs)   bands (ev):

   -45.9611 -29.0684 -22.6361 -22.6100 -22.6100 -10.3754 -10.2770 -10.2770
    -7.7099  -6.7117  -6.6177   6.0771   6.4081   6.4081   7.9187   7.9187
     8.0550   8.2962   9.0268   9.0268

          k = 0.0000 0.0000 0.3409 (  6736 PWs)   bands (ev):

   -45.9602 -29.0644 -22.6852 -22.6075 -22.6075 -10.5439 -10.2698 -10.2698
    -7.3153  -6.6868  -6.3927   5.3542   6.4668   6.4668   7.1063   7.2278
     7.2278   7.6155   8.9006   8.9006

          k = 0.0000 0.0000-0.5113 (  6696 PWs)   bands (ev):

   -45.9598 -29.0623 -22.7095 -22.6063 -22.6063 -10.6203 -10.2661 -10.2661
    -7.1220  -6.6742  -6.2678   4.9422   6.6306   6.6306   6.6801   6.7991
     6.7991   7.4210   8.8572   8.8572

          k = 0.0000 0.1704 0.1704 (  6753 PWs)   bands (ev):

   -45.9606 -29.0663 -22.6354 -22.6346 -22.6088 -10.3897 -10.3290 -10.2731
    -7.5374  -6.6570  -6.5590   5.8561   6.2643   6.4054   7.1766   7.6577
     8.1787   8.2502   8.5812   8.7892

          k = 0.0000 0.1704 0.3409 (  6717 PWs)   bands (ev):

   -45.9598 -29.0621 -22.6845 -22.6329 -22.6063 -10.5140 -10.3253 -10.2653
    -7.2087  -6.6111  -6.3457   5.2873   5.8911   6.4464   6.4731   7.0994
     7.4069   8.2252   8.4555   8.5751

          k = 0.0000 0.1704-0.5113 (  6714 PWs)   bands (ev):

   -45.9593 -29.0600 -22.7089 -22.6319 -22.6051 -10.5794 -10.3154 -10.2614
    -7.0620  -6.5861  -6.2113   4.9383   5.5578   6.3530   6.5978   6.7108
     7.1633   8.2252   8.3334   8.5135

          k = 0.0000 0.3409 0.3409 (  6716 PWs)   bands (ev):

   -45.9589 -29.0576 -22.6835 -22.6827 -22.6040 -10.4699 -10.4165 -10.2565
    -7.0865  -6.3728  -6.2210   4.8770   5.4914   5.5222   6.4301   6.7941
     7.4769   7.6723   8.1875   9.0675

          k = 0.0000 0.3409-0.5113 (  6726 PWs)   bands (ev):

   -45.9584 -29.0553 -22.7079 -22.6824 -22.6028 -10.4975 -10.4104 -10.2520
    -7.0641  -6.2565  -6.1003   4.6567   4.9193   5.4757   6.5134   6.5419
     7.4057   7.6458   8.0632   9.2188

          k = 0.0000-0.5113-0.5113 (  6728 PWs)   bands (ev):

   -45.9580 -29.0530 -22.7074 -22.7074 -22.6017 -10.4564 -10.4564 -10.2473
    -7.0919  -6.0457  -6.0457   4.3312   4.8137   5.0489   6.4609   6.4609
     7.5251   7.5251   7.9044   9.4906

          k = 0.1704 0.1704 0.1704 (  6736 PWs)   bands (ev):

   -45.9602 -29.0642 -22.6341 -22.6341 -22.6336 -10.3955 -10.3207 -10.3207
    -7.3762  -6.5590  -6.5590   5.6618   6.2275   6.2275   7.0636   7.0636
     7.7084   8.5231   8.5231   8.6038

          k = 0.1704 0.1704 0.3409 (  6720 PWs)   bands (ev):

   -45.9593 -29.0599 -22.6836 -22.6320 -22.6315 -10.4879 -10.3279 -10.3040
    -7.0707  -6.5591  -6.3246   5.2206   5.8151   6.0307   6.2968   6.6149
     7.5029   8.2506   8.4517   8.5959

          k = 0.1704 0.1704-0.5113 (  6736 PWs)   bands (ev):

   -45.9589 -29.0577 -22.7082 -22.6311 -22.6301 -10.5443 -10.3184 -10.2956
    -6.9340  -6.5593  -6.1770   4.9376   5.4395   5.8682   6.0997   6.5448
     7.5778   8.0818   8.4227   8.4970

          k = 0.1704 0.3409 0.3409 (  6716 PWs)   bands (ev):

   -45.9585 -29.0554 -22.6820 -22.6817 -22.6293 -10.4492 -10.4013 -10.2970
    -6.8954  -6.3655  -6.2434   4.9138   5.5100   5.5158   5.9186   6.1302
     7.0621   8.3216   8.3636   9.0958

          k = 0.1704 0.3409-0.5113 (  6734 PWs)   bands (ev):

   -45.9580 -29.0532 -22.7066 -22.6809 -22.6281 -10.4740 -10.3968 -10.2892
    -6.8625  -6.2887  -6.1107   4.7612   4.9267   5.4628   5.7872   6.0213
     7.0743   8.2724   8.3453   9.2423

          k = 0.1704-0.5113-0.5113 (  6696 PWs)   bands (ev):

   -45.9576 -29.0509 -22.7058 -22.7058 -22.6268 -10.4387 -10.4387 -10.2820
    -6.8820  -6.0785  -6.0785   4.4731   4.8298   5.0538   5.8090   5.8090
     7.0433   8.3107   8.3107   9.5170

          k = 0.3409 0.3409 0.3409 (  6737 PWs)   bands (ev):

   -45.9576 -29.0511 -22.6798 -22.6790 -22.6790 -10.4142 -10.3705 -10.3705
    -6.5441  -6.2890  -6.2890   4.9057   5.3504   5.3504   5.6381   5.6381
     5.6978   8.8997   8.8997   9.2453

          k = 0.3409 0.3409-0.5113 (  6720 PWs)   bands (ev):

   -45.9572 -29.0490 -22.7040 -22.6784 -22.6775 -10.4266 -10.3767 -10.3548
    -6.4669  -6.3122  -6.1330   4.9075   4.9313   5.1488   5.2732   5.6058
     5.7114   8.9937   9.0990   9.3602

          k = 0.3409-0.5113-0.5113 (  6728 PWs)   bands (ev):

   -45.9567 -29.0469 -22.7026 -22.7026 -22.6765 -10.4027 -10.4027 -10.3505
    -6.4275  -6.1450  -6.1450   4.7649   4.8488   5.0636   5.1508   5.1508
     5.6201   9.2334   9.2334   9.5712

          k =-0.5113-0.5113-0.5113 (  6776 PWs)   bands (ev):

   -45.9563 -29.0448 -22.7011 -22.7011 -22.7011 -10.3843 -10.3843 -10.3843
    -6.1787  -6.1787  -6.1787   4.7701   4.9155   4.9155   4.9155   5.0686
     5.0686   9.5989   9.5989   9.5989

     highest occupied level (ev):     9.5989

!    total energy              =    -291.76405106 Ry
     estimated scf accuracy    <          3.1E-12 Ry

     The total energy is the sum of the following terms:
     one-electron contribution =     -86.16839820 Ry
     hartree contribution      =      63.80600482 Ry
     xc contribution           =     -51.44549066 Ry
     ewald contribution        =    -217.95616703 Ry

     convergence has been achieved in   5 iterations

     negative rho (up, down):  8.268E-04 0.000E+00

     Forces acting on atoms (cartesian axes, Ry/au):

     atom    1 type  1   force =     0.00000000    0.00000000    0.00000000
     atom    2 type  2   force =     0.00000000    0.00000000    0.00000000
     atom    3 type  3   force =     0.00000000    0.00000000    0.00000000
     atom    4 type  3   force =     0.00000000    0.00000000    0.00000000
     atom    5 type  3   force =     0.00000000    0.00000000    0.00000000

     Total force =     0.000000     Total SCF correction =     0.000000


     Computing stress (Cartesian axis) and pressure


     negative rho (up, down):  8.268E-04 0.000E+00
          total   stress  (Ry/bohr**3)                   (kbar)     P=        0.03
   0.00000021   0.00000000   0.00000000            0.03        0.00        0.00
   0.00000000   0.00000021   0.00000000            0.00        0.03        0.00
   0.00000000   0.00000000   0.00000021            0.00        0.00        0.03

     Energy error            =      2.2E-06 Ry
     Gradient error          =      0.0E+00 Ry/Bohr
     Cell gradient error     =      3.1E-02 kbar

     bfgs converged in   4 scf cycles and   3 bfgs steps
     (criteria: energy <  1.0E-04 Ry, force <  1.0E-03 Ry/Bohr, cell <  5.0E-01 kbar)

     End of BFGS Geometry Optimization

     Final enthalpy           =    -291.7640510623 Ry

     File ./CTO_vc.bfgs deleted, as requested
Begin final coordinates
     new unit-cell volume =    372.45233 a.u.^3 (    55.19174 Ang^3 )
     density =      4.09053 g/cm^3

CELL_PARAMETERS (alat=  7.35730000)
   0.977923989   0.000000000   0.000000000
   0.000000000   0.977923989   0.000000000
   0.000000000   0.000000000   0.977923989

ATOMIC_POSITIONS (alat)
Ca               0.0000000000        0.0000000000        0.0000000000
Ti               0.4889619947        0.4889619947        0.4889619947
O                0.4889619947        0.4889619947        0.0000000000
O                0.4889619947        0.0000000000        0.4889619947
O                0.0000000000        0.4889619947        0.4889619947
End final coordinates



     Writing config-only to output data dir ./CTO_vc.save/ :
     XML data file

     Final scf calculation at the relaxed structure.
     The G-vectors are recalculated for the final unit cell
     Results may differ from those at the preceding step.
 
     Parallelization info
     --------------------
     sticks:   dense  smooth     PW     G-vecs:    dense   smooth      PW
     Min         411     164     48                19887     5028     780
     Max         412     165     49                19892     5031     783
     Sum        4117    1649    481               198893    50301    7809
 
     Using Slab Decomposition
 


     bravais-lattice index     =            1
     lattice parameter (alat)  =       7.3573  a.u.
     unit-cell volume          =     372.4523 (a.u.)^3
     number of atoms/cell      =            5
     number of atomic types    =            3
     number of electrons       =        40.00
     number of Kohn-Sham states=           20
     kinetic-energy cutoff     =     100.0000  Ry
     charge density cutoff     =    1000.0000  Ry
     scf convergence threshold =      1.0E-10
     mixing beta               =       0.7000
     number of iterations used =            8  plain     mixing
     press convergence thresh. =      5.0E-01
     Exchange-correlation= SLA  PZ   NOGX NOGC
                           (   1   1   0   0   0   0   0)

     celldm(1)=   7.357300  celldm(2)=   0.000000  celldm(3)=   0.000000
     celldm(4)=   0.000000  celldm(5)=   0.000000  celldm(6)=   0.000000

     crystal axes: (cart. coord. in units of alat)
               a(1) = (   0.977924   0.000000   0.000000 )  
               a(2) = (   0.000000   0.977924   0.000000 )  
               a(3) = (   0.000000   0.000000   0.977924 )  

     reciprocal axes: (cart. coord. in units 2 pi/alat)
               b(1) = (  1.022574  0.000000  0.000000 )  
               b(2) = (  0.000000  1.022574  0.000000 )  
               b(3) = (  0.000000  0.000000  1.022574 )  


     PseudoPot. # 1 for Ca read from file:
     /scratch/11018/zhc/assisgnment1/CaTiO3/Ca_LDA.UPF
     MD5 check sum: d2d4e7693e10d071152e9eeb7dd009f3
     Pseudo is Ultrasoft + core correction, Zval = 10.0
     Generated by new atomic code, or converted to UPF format
     Using radial grid of  845 points,  6 beta functions with: 
                l(1) =   0
                l(2) =   0
                l(3) =   1
                l(4) =   1
                l(5) =   2
                l(6) =   2
     Q(r) pseudized with  8 coefficients,  rinner =    1.500   1.500   1.500
                                                       1.500   1.500

     PseudoPot. # 2 for Ti read from file:
     /scratch/11018/zhc/assisgnment1/CaTiO3/Ti_LDA.UPF
     MD5 check sum: 0d9f225c038fe889ca2a701dcc8d72cb
     Pseudo is Ultrasoft + core correction, Zval = 12.0
     Generated by new atomic code, or converted to UPF format
     Using radial grid of  851 points,  6 beta functions with: 
                l(1) =   0
                l(2) =   0
                l(3) =   1
                l(4) =   1
                l(5) =   2
                l(6) =   2
     Q(r) pseudized with  6 coefficients,  rinner =    1.000   1.000   1.000
                                                       1.000   1.000

     PseudoPot. # 3 for O  read from file:
     /scratch/11018/zhc/assisgnment1/CaTiO3/O_LDA.UPF
     MD5 check sum: 194b818514d2a7dbb603bb78519a4f40
     Pseudo is Ultrasoft + core correction, Zval =  6.0
     Generated by new atomic code, or converted to UPF format
     Using radial grid of  737 points,  5 beta functions with: 
                l(1) =   0
                l(2) =   0
                l(3) =   1
                l(4) =   1
                l(5) =   2
     Q(r) pseudized with  8 coefficients,  rinner =    0.900   0.900   0.900
                                                       0.900   0.900

     atomic species   valence    mass     pseudopotential
     Ca               10.00    40.07800     Ca( 1.00)
     Ti               12.00    47.88000     Ti( 1.00)
     O                 6.00    16.00000     O ( 1.00)

     48 Sym. Ops., with inversion, found



   Cartesian axes

     site n.     atom                  positions (alat units)
         1        Ca     tau(   1) = (   0.0000000   0.0000000   0.0000000  )
         2        Ti     tau(   2) = (   0.4889620   0.4889620   0.4889620  )
         3        O      tau(   3) = (   0.4889620   0.4889620   0.0000000  )
         4        O      tau(   4) = (   0.4889620   0.0000000   0.4889620  )
         5        O      tau(   5) = (   0.0000000   0.4889620   0.4889620  )

     number of k points=    20
                       cart. coord. in units 2pi/alat
        k(    1) = (   0.0000000   0.0000000   0.0000000), wk =   0.0092593
        k(    2) = (   0.0000000   0.0000000   0.1704291), wk =   0.0555556
        k(    3) = (   0.0000000   0.0000000   0.3408581), wk =   0.0555556
        k(    4) = (   0.0000000   0.0000000  -0.5112872), wk =   0.0277778
        k(    5) = (   0.0000000   0.1704291   0.1704291), wk =   0.1111111
        k(    6) = (   0.0000000   0.1704291   0.3408581), wk =   0.2222222
        k(    7) = (   0.0000000   0.1704291  -0.5112872), wk =   0.1111111
        k(    8) = (   0.0000000   0.3408581   0.3408581), wk =   0.1111111
        k(    9) = (   0.0000000   0.3408581  -0.5112872), wk =   0.1111111
        k(   10) = (   0.0000000  -0.5112872  -0.5112872), wk =   0.0277778
        k(   11) = (   0.1704291   0.1704291   0.1704291), wk =   0.0740741
        k(   12) = (   0.1704291   0.1704291   0.3408581), wk =   0.2222222
        k(   13) = (   0.1704291   0.1704291  -0.5112872), wk =   0.1111111
        k(   14) = (   0.1704291   0.3408581   0.3408581), wk =   0.2222222
        k(   15) = (   0.1704291   0.3408581  -0.5112872), wk =   0.2222222
        k(   16) = (   0.1704291  -0.5112872  -0.5112872), wk =   0.0555556
        k(   17) = (   0.3408581   0.3408581   0.3408581), wk =   0.0740741
        k(   18) = (   0.3408581   0.3408581  -0.5112872), wk =   0.1111111
        k(   19) = (   0.3408581  -0.5112872  -0.5112872), wk =   0.0555556
        k(   20) = (  -0.5112872  -0.5112872  -0.5112872), wk =   0.0092593

     Dense  grid:   198893 G-vectors     FFT dimensions: (  75,  75,  75)

     Smooth grid:    50301 G-vectors     FFT dimensions: (  45,  45,  45)

     Estimated max dynamical RAM per process >      93.93 MB

     Estimated total dynamical RAM >     939.27 MB

     Check: negative core charge=   -0.000001

     Initial potential from superposition of free atoms

     starting charge      38.9952, renormalised to      40.0000

     negative rho (up, down):  8.108E-04 0.000E+00
     Starting wfcs are   32 randomized atomic wfcs

     total cpu time spent up to now is       43.5 secs

     Self-consistent Calculation

     iteration #  1     ecut=   100.00 Ry     beta= 0.70
     CG style diagonalization
     c_bands:  1 eigenvalues not converged
     ethr =  1.00E-06,  avg # of iterations =  8.2

     negative rho (up, down):  1.018E-03 0.000E+00

     total cpu time spent up to now is       45.8 secs

     total energy              =    -291.40864322 Ry
     estimated scf accuracy    <       0.73444575 Ry

     iteration #  2     ecut=   100.00 Ry     beta= 0.70
     CG style diagonalization
     ethr =  1.84E-03,  avg # of iterations =  4.8

     negative rho (up, down):  6.695E-04 0.000E+00

     total cpu time spent up to now is       47.1 secs

     total energy              =    -291.07156986 Ry
     estimated scf accuracy    <       3.42289611 Ry

     iteration #  3     ecut=   100.00 Ry     beta= 0.70
     CG style diagonalization
     ethr =  1.84E-03,  avg # of iterations =  4.4

     negative rho (up, down):  7.574E-04 0.000E+00

     total cpu time spent up to now is       48.3 secs

     total energy              =    -291.74942259 Ry
     estimated scf accuracy    <       0.12895102 Ry

     iteration #  4     ecut=   100.00 Ry     beta= 0.70
     CG style diagonalization
     ethr =  3.22E-04,  avg # of iterations =  3.5

     negative rho (up, down):  8.187E-04 0.000E+00

     total cpu time spent up to now is       49.3 secs

     total energy              =    -291.75594336 Ry
     estimated scf accuracy    <       0.02948001 Ry

     iteration #  5     ecut=   100.00 Ry     beta= 0.70
     CG style diagonalization
     ethr =  7.37E-05,  avg # of iterations =  3.6

     negative rho (up, down):  8.421E-04 0.000E+00

     total cpu time spent up to now is       50.4 secs

     total energy              =    -291.76331366 Ry
     estimated scf accuracy    <       0.00053685 Ry

     iteration #  6     ecut=   100.00 Ry     beta= 0.70
     CG style diagonalization
     ethr =  1.34E-06,  avg # of iterations =  4.5

     negative rho (up, down):  8.354E-04 0.000E+00

     total cpu time spent up to now is       51.6 secs

     total energy              =    -291.76392695 Ry
     estimated scf accuracy    <       0.00105311 Ry

     iteration #  7     ecut=   100.00 Ry     beta= 0.70
     CG style diagonalization
     ethr =  1.34E-06,  avg # of iterations =  3.6

     negative rho (up, down):  8.299E-04 0.000E+00

     total cpu time spent up to now is       52.7 secs

     total energy              =    -291.76395671 Ry
     estimated scf accuracy    <       0.00016627 Ry

     iteration #  8     ecut=   100.00 Ry     beta= 0.70
     CG style diagonalization
     ethr =  4.16E-07,  avg # of iterations =  3.6

     negative rho (up, down):  8.278E-04 0.000E+00

     total cpu time spent up to now is       53.7 secs

     total energy              =    -291.76397731 Ry
     estimated scf accuracy    <       0.00000912 Ry

     iteration #  9     ecut=   100.00 Ry     beta= 0.70
     CG style diagonalization
     ethr =  2.28E-08,  avg # of iterations =  4.1

     negative rho (up, down):  8.279E-04 0.000E+00

     total cpu time spent up to now is       54.9 secs

     total energy              =    -291.76398199 Ry
     estimated scf accuracy    <       0.00000053 Ry

     iteration # 10     ecut=   100.00 Ry     beta= 0.70
     CG style diagonalization
     ethr =  1.32E-09,  avg # of iterations =  4.0

     negative rho (up, down):  8.280E-04 0.000E+00

     total cpu time spent up to now is       56.0 secs

     total energy              =    -291.76398232 Ry
     estimated scf accuracy    <       0.00000023 Ry

     iteration # 11     ecut=   100.00 Ry     beta= 0.70
     CG style diagonalization
     ethr =  5.75E-10,  avg # of iterations =  3.7

     negative rho (up, down):  8.280E-04 0.000E+00

     total cpu time spent up to now is       57.1 secs

     total energy              =    -291.76398238 Ry
     estimated scf accuracy    <          5.1E-09 Ry

     iteration # 12     ecut=   100.00 Ry     beta= 0.70
     CG style diagonalization
     ethr =  1.27E-11,  avg # of iterations =  4.5

     negative rho (up, down):  8.280E-04 0.000E+00

     total cpu time spent up to now is       58.3 secs

     total energy              =    -291.76398238 Ry
     estimated scf accuracy    <          3.0E-10 Ry

     iteration # 13     ecut=   100.00 Ry     beta= 0.70
     CG style diagonalization
     ethr =  7.40E-13,  avg # of iterations =  4.7

     negative rho (up, down):  8.280E-04 0.000E+00

     total cpu time spent up to now is       59.6 secs

     total energy              =    -291.76398238 Ry
     estimated scf accuracy    <          1.9E-10 Ry

     iteration # 14     ecut=   100.00 Ry     beta= 0.70
     CG style diagonalization
     ethr =  4.74E-13,  avg # of iterations =  3.7

     negative rho (up, down):  8.280E-04 0.000E+00

     total cpu time spent up to now is       60.7 secs

     End of self-consistent calculation

          k = 0.0000 0.0000 0.0000 (  6355 PWs)   bands (ev):

   -45.9615 -29.0705 -22.6112 -22.6112 -22.6112 -10.2807 -10.2807 -10.2807
    -7.9102  -6.7241  -6.7241   6.4048   6.4048   6.4048   8.3099   8.3099
     8.3099   9.1654   9.1654   9.1654

          k = 0.0000 0.0000 0.1704 (  6307 PWs)   bands (ev):

   -45.9611 -29.0684 -22.6361 -22.6099 -22.6099 -10.3754 -10.2770 -10.2770
    -7.7099  -6.7117  -6.6177   6.0771   6.4081   6.4081   7.9187   7.9187
     8.0550   8.2962   9.0268   9.0268

          k = 0.0000 0.0000 0.3409 (  6311 PWs)   bands (ev):

   -45.9602 -29.0644 -22.6852 -22.6075 -22.6075 -10.5439 -10.2697 -10.2697
    -7.3153  -6.6868  -6.3927   5.3542   6.4668   6.4668   7.1063   7.2278
     7.2278   7.6155   8.9006   8.9006

          k = 0.0000 0.0000-0.5113 (  6302 PWs)   bands (ev):

   -45.9597 -29.0624 -22.7094 -22.6063 -22.6063 -10.6203 -10.2661 -10.2661
    -7.1220  -6.6742  -6.2679   4.9422   6.6306   6.6306   6.6801   6.7992
     6.7992   7.4210   8.8572   8.8572

          k = 0.0000 0.1704 0.1704 (  6304 PWs)   bands (ev):

   -45.9606 -29.0663 -22.6354 -22.6346 -22.6087 -10.3897 -10.3290 -10.2731
    -7.5374  -6.6570  -6.5590   5.8561   6.2643   6.4054   7.1766   7.6577
     8.1787   8.2502   8.5812   8.7892

          k = 0.0000 0.1704 0.3409 (  6282 PWs)   bands (ev):

   -45.9597 -29.0621 -22.6845 -22.6329 -22.6063 -10.5140 -10.3252 -10.2653
    -7.2087  -6.6111  -6.3457   5.2873   5.8911   6.4464   6.4731   7.0994
     7.4069   8.2252   8.4555   8.5751

          k = 0.0000 0.1704-0.5113 (  6298 PWs)   bands (ev):

   -45.9593 -29.0600 -22.7089 -22.6319 -22.6051 -10.5794 -10.3153 -10.2614
    -7.0620  -6.5861  -6.2113   4.9383   5.5578   6.3530   6.5978   6.7108
     7.1633   8.2252   8.3334   8.5135

          k = 0.0000 0.3409 0.3409 (  6270 PWs)   bands (ev):

   -45.9589 -29.0576 -22.6835 -22.6827 -22.6040 -10.4699 -10.4164 -10.2564
    -7.0866  -6.3728  -6.2210   4.8770   5.4914   5.5222   6.4301   6.7941
     7.4769   7.6723   8.1875   9.0675

          k = 0.0000 0.3409-0.5113 (  6282 PWs)   bands (ev):

   -45.9584 -29.0553 -22.7079 -22.6824 -22.6028 -10.4975 -10.4104 -10.2520
    -7.0641  -6.2565  -6.1003   4.6567   4.9193   5.4757   6.5134   6.5419
     7.4057   7.6458   8.0633   9.2188

          k = 0.0000-0.5113-0.5113 (  6256 PWs)   bands (ev):

   -45.9580 -29.0530 -22.7074 -22.7074 -22.6016 -10.4564 -10.4564 -10.2473
    -7.0920  -6.0457  -6.0457   4.3312   4.8137   5.0489   6.4609   6.4609
     7.5251   7.5251   7.9044   9.4906

          k = 0.1704 0.1704 0.1704 (  6298 PWs)   bands (ev):

   -45.9602 -29.0642 -22.6341 -22.6341 -22.6336 -10.3954 -10.3207 -10.3207
    -7.3762  -6.5590  -6.5590   5.6618   6.2275   6.2275   7.0636   7.0636
     7.7084   8.5231   8.5231   8.6038

          k = 0.1704 0.1704 0.3409 (  6288 PWs)   bands (ev):

   -45.9593 -29.0599 -22.6836 -22.6319 -22.6314 -10.4878 -10.3279 -10.3040
    -7.0707  -6.5591  -6.3246   5.2206   5.8151   6.0307   6.2968   6.6149
     7.5029   8.2506   8.4517   8.5959

          k = 0.1704 0.1704-0.5113 (  6300 PWs)   bands (ev):

   -45.9589 -29.0578 -22.7081 -22.6311 -22.6301 -10.5443 -10.3184 -10.2956
    -6.9340  -6.5593  -6.1771   4.9376   5.4395   5.8682   6.0997   6.5448
     7.5778   8.0818   8.4227   8.4970

          k = 0.1704 0.3409 0.3409 (  6277 PWs)   bands (ev):

   -45.9584 -29.0555 -22.6820 -22.6816 -22.6293 -10.4492 -10.4013 -10.2970
    -6.8955  -6.3655  -6.2434   4.9138   5.5100   5.5158   5.9186   6.1302
     7.0621   8.3216   8.3636   9.0958

          k = 0.1704 0.3409-0.5113 (  6292 PWs)   bands (ev):

   -45.9580 -29.0532 -22.7066 -22.6809 -22.6281 -10.4740 -10.3968 -10.2892
    -6.8625  -6.2887  -6.1107   4.7612   4.9267   5.4628   5.7872   6.0213
     7.0743   8.2724   8.3453   9.2423

          k = 0.1704-0.5113-0.5113 (  6276 PWs)   bands (ev):

   -45.9576 -29.0510 -22.7058 -22.7058 -22.6268 -10.4387 -10.4387 -10.2820
    -6.8820  -6.0785  -6.0785   4.4731   4.8299   5.0538   5.8090   5.8090
     7.0433   8.3107   8.3107   9.5171

          k = 0.3409 0.3409 0.3409 (  6292 PWs)   bands (ev):

   -45.9576 -29.0512 -22.6797 -22.6790 -22.6790 -10.4142 -10.3704 -10.3704
    -6.5441  -6.2891  -6.2891   4.9057   5.3504   5.3504   5.6381   5.6381
     5.6978   8.8997   8.8997   9.2453

          k = 0.3409 0.3409-0.5113 (  6260 PWs)   bands (ev):

   -45.9571 -29.0490 -22.7039 -22.6784 -22.6775 -10.4266 -10.3766 -10.3547
    -6.4669  -6.3122  -6.1330   4.9075   4.9313   5.1488   5.2732   5.6058
     5.7114   8.9937   9.0990   9.3602

          k = 0.3409-0.5113-0.5113 (  6260 PWs)   bands (ev):

   -45.9567 -29.0469 -22.7026 -22.7026 -22.6765 -10.4027 -10.4027 -10.3505
    -6.4275  -6.1450  -6.1450   4.7650   4.8488   5.0636   5.1508   5.1508
     5.6201   9.2334   9.2334   9.5712

          k =-0.5113-0.5113-0.5113 (  6272 PWs)   bands (ev):

   -45.9563 -29.0449 -22.7010 -22.7010 -22.7010 -10.3843 -10.3843 -10.3843
    -6.1788  -6.1788  -6.1788   4.7701   4.9155   4.9155   4.9155   5.0686
     5.0686   9.5989   9.5989   9.5989

     highest occupied level (ev):     9.5989

!    total energy              =    -291.76398238 Ry
     estimated scf accuracy    <          7.8E-12 Ry

     The total energy is the sum of the following terms:
     one-electron contribution =     -86.16830329 Ry
     hartree contribution      =      63.80596120 Ry
     xc contribution           =     -51.44547327 Ry
     ewald contribution        =    -217.95616703 Ry

     convergence has been achieved in  14 iterations

     negative rho (up, down):  8.280E-04 0.000E+00

     Forces acting on atoms (cartesian axes, Ry/au):

     atom    1 type  1   force =     0.00000000    0.00000000    0.00000000
     atom    2 type  2   force =     0.00000000    0.00000000    0.00000000
     atom    3 type  3   force =     0.00000000    0.00000000    0.00000000
     atom    4 type  3   force =     0.00000000    0.00000000    0.00000000
     atom    5 type  3   force =     0.00000000    0.00000000    0.00000000

     Total force =     0.000000     Total SCF correction =     0.000000


     Computing stress (Cartesian axis) and pressure


     negative rho (up, down):  8.280E-04 0.000E+00
          total   stress  (Ry/bohr**3)                   (kbar)     P=       -0.19
  -0.00000127   0.00000000   0.00000000           -0.19        0.00        0.00
   0.00000000  -0.00000127   0.00000000            0.00       -0.19        0.00
   0.00000000   0.00000000  -0.00000127            0.00        0.00       -0.19


     Writing all to output data dir ./CTO_vc.save/ :
     XML data file, charge density, pseudopotentials, collected wavefunctions
 
     init_run     :      1.41s CPU      1.56s WALL (       2 calls)
     electrons    :     47.42s CPU     50.10s WALL (       5 calls)
     update_pot   :      0.04s CPU      0.04s WALL (       3 calls)
     forces       :      1.07s CPU      1.17s WALL (       5 calls)
     stress       :      8.76s CPU      8.96s WALL (       5 calls)

     Called by init_run:
     wfcinit      :      0.43s CPU      0.46s WALL (       2 calls)
     potinit      :      0.03s CPU      0.04s WALL (       2 calls)
     hinit0       :      0.35s CPU      0.38s WALL (       2 calls)

     Called by electrons:
     c_bands      :     34.29s CPU     35.57s WALL (      45 calls)
     sum_band     :      8.34s CPU      8.81s WALL (      45 calls)
     v_of_rho     :      0.16s CPU      0.17s WALL (      48 calls)
     newd         :      4.97s CPU      5.81s WALL (      48 calls)
     mix_rho      :      0.11s CPU      0.11s WALL (      45 calls)

     Called by c_bands:
     init_us_2    :      0.52s CPU      0.54s WALL (    2040 calls)
     init_us_2:cp :      0.52s CPU      0.53s WALL (    2040 calls)
     ccgdiagg     :     30.05s CPU     31.23s WALL (     900 calls)
     wfcrot       :      4.27s CPU      4.39s WALL (     800 calls)

     Called by *cgdiagg:
     h_psi        :     21.99s CPU     22.79s WALL (   60764 calls)
     s_psi        :      3.72s CPU      3.87s WALL (  120728 calls)

     Called by h_psi:
     h_psi:calbec :      3.49s CPU      3.62s WALL (   60764 calls)
     vloc_psi     :     15.85s CPU     16.43s WALL (   60764 calls)
     add_vuspsi   :      2.08s CPU      2.16s WALL (   60764 calls)
     hs_1psi      :     20.52s CPU     21.31s WALL (   59964 calls)
     s_1psi       :      4.47s CPU      4.63s WALL (   59964 calls)

     General routines
     calbec       :      6.00s CPU      6.23s WALL (  122128 calls)
     fft          :      0.23s CPU      0.25s WALL (     323 calls)
     ffts         :      0.02s CPU      0.02s WALL (      93 calls)
     fftw         :     13.01s CPU     13.45s WALL (  170888 calls)
     interpolate  :      0.05s CPU      0.05s WALL (      48 calls)
 
     Parallel routines
 
     PWSCF        :     59.28s CPU   1m 3.10s WALL

 
   This run was terminated on:  12:45:14  24Sep2025            

=------------------------------------------------------------------------------=
   JOB DONE.
=------------------------------------------------------------------------------=
TACC:  Shutdown complete. Exiting. 
