TACC:  Starting up job 2410662 
TACC:  Starting parallel tasks... 

     Program PWSCF v.7.3 starts on 24Sep2025 at 20: 7:47 

     This program is part of the open-source Quantum ESPRESSO suite
     for quantum simulation of materials; please cite
         "P. Giannozzi et al., J. Phys.:Condens. Matter 21 395502 (2009);
         "P. Giannozzi et al., J. Phys.:Condens. Matter 29 465901 (2017);
         "P. Giannozzi et al., J. Chem. Phys. 152 154105 (2020);
          URL http://www.quantum-espresso.org", 
     in publications or presentations arising from this work. More details at
     http://www.quantum-espresso.org/quote

     Parallel version (MPI & OpenMP), running on      10 processor cores
     Number of MPI processes:                10
     Threads/MPI process:                     1

     MPI processes distributed on     1 nodes
     186314 MiB available memory on the printing compute node when the environment starts
 
     Waiting for input...
     Reading input from standard input
Warning: card &CELL ignored
Warning: card  CELL_DYNAMICS = 'BFGS', ignored
Warning: card  PRESS=0.D0, ignored
Warning: card / ignored
     Message from routine read_cards :
     DEPRECATED: no units specified in ATOMIC_POSITIONS card
     Message from routine read_cards :
     ATOMIC_POSITIONS: units set to alat

     Current dimensions of program PWSCF are:
     Max number of different atomic species (ntypx) = 10
     Max number of k-points (npk) =  40000
     Max angular momentum in pseudopotentials (lmaxx) =  4
 
     R & G space division:  proc/nbgrp/npool/nimage =      10
     Subspace diagonalization in iterative solution of the eigenvalue problem:
     a serial algorithm will be used

 
     Parallelization info
     --------------------
     sticks:   dense  smooth     PW     G-vecs:    dense   smooth      PW
     Min         398     159     46                18864     4781     744
     Max         399     160     48                18869     4784     745
     Sum        3985    1597    465               188663    47833    7441
 
     Using Slab Decomposition
 


     bravais-lattice index     =            1
     lattice parameter (alat)  =       7.0688  a.u.
     unit-cell volume          =     353.2194 (a.u.)^3
     number of atoms/cell      =            5
     number of atomic types    =            3
     number of electrons       =        40.00
     number of Kohn-Sham states=           20
     kinetic-energy cutoff     =     100.0000  Ry
     charge density cutoff     =    1000.0000  Ry
     scf convergence threshold =      1.0E-08
     mixing beta               =       0.7000
     number of iterations used =            8  plain     mixing
     Exchange-correlation= SLA  PZ   NOGX NOGC
                           (   1   1   0   0   0   0   0)

     celldm(1)=   7.068841  celldm(2)=   0.000000  celldm(3)=   0.000000
     celldm(4)=   0.000000  celldm(5)=   0.000000  celldm(6)=   0.000000

     crystal axes: (cart. coord. in units of alat)
               a(1) = (   1.000000   0.000000   0.000000 )  
               a(2) = (   0.000000   1.000000   0.000000 )  
               a(3) = (   0.000000   0.000000   1.000000 )  

     reciprocal axes: (cart. coord. in units 2 pi/alat)
               b(1) = (  1.000000  0.000000  0.000000 )  
               b(2) = (  0.000000  1.000000  0.000000 )  
               b(3) = (  0.000000  0.000000  1.000000 )  


     PseudoPot. # 1 for Ca read from file:
     /scratch/11018/zhc/assisgnment1/CaTiO3/Ca_LDA.UPF
     MD5 check sum: d2d4e7693e10d071152e9eeb7dd009f3
     Pseudo is Ultrasoft + core correction, Zval = 10.0
     Generated by new atomic code, or converted to UPF format
     Using radial grid of  845 points,  6 beta functions with: 
                l(1) =   0
                l(2) =   0
                l(3) =   1
                l(4) =   1
                l(5) =   2
                l(6) =   2
     Q(r) pseudized with  8 coefficients,  rinner =    1.500   1.500   1.500
                                                       1.500   1.500

     PseudoPot. # 2 for Ti read from file:
     /scratch/11018/zhc/assisgnment1/CaTiO3/Ti_LDA.UPF
     MD5 check sum: 0d9f225c038fe889ca2a701dcc8d72cb
     Pseudo is Ultrasoft + core correction, Zval = 12.0
     Generated by new atomic code, or converted to UPF format
     Using radial grid of  851 points,  6 beta functions with: 
                l(1) =   0
                l(2) =   0
                l(3) =   1
                l(4) =   1
                l(5) =   2
                l(6) =   2
     Q(r) pseudized with  6 coefficients,  rinner =    1.000   1.000   1.000
                                                       1.000   1.000

     PseudoPot. # 3 for O  read from file:
     /scratch/11018/zhc/assisgnment1/CaTiO3/O_LDA.UPF
     MD5 check sum: 194b818514d2a7dbb603bb78519a4f40
     Pseudo is Ultrasoft + core correction, Zval =  6.0
     Generated by new atomic code, or converted to UPF format
     Using radial grid of  737 points,  5 beta functions with: 
                l(1) =   0
                l(2) =   0
                l(3) =   1
                l(4) =   1
                l(5) =   2
     Q(r) pseudized with  8 coefficients,  rinner =    0.900   0.900   0.900
                                                       0.900   0.900

     atomic species   valence    mass     pseudopotential
     Ca               10.00    40.07800     Ca( 1.00)
     Ti               12.00    47.88000     Ti( 1.00)
     O                 6.00    16.00000     O ( 1.00)

     48 Sym. Ops., with inversion, found



   Cartesian axes

     site n.     atom                  positions (alat units)
         1        Ca     tau(   1) = (   0.0000000   0.0000000   0.0000000  )
         2        Ti     tau(   2) = (   0.5000000   0.5000000   0.5000000  )
         3        O      tau(   3) = (   0.5000000   0.5000000   0.0000000  )
         4        O      tau(   4) = (   0.5000000   0.0000000   0.5000000  )
         5        O      tau(   5) = (   0.0000000   0.5000000   0.5000000  )

     number of k points=    20
                       cart. coord. in units 2pi/alat
        k(    1) = (   0.0000000   0.0000000   0.0000000), wk =   0.0092593
        k(    2) = (   0.0000000   0.0000000   0.1666667), wk =   0.0555556
        k(    3) = (   0.0000000   0.0000000   0.3333333), wk =   0.0555556
        k(    4) = (   0.0000000   0.0000000  -0.5000000), wk =   0.0277778
        k(    5) = (   0.0000000   0.1666667   0.1666667), wk =   0.1111111
        k(    6) = (   0.0000000   0.1666667   0.3333333), wk =   0.2222222
        k(    7) = (   0.0000000   0.1666667  -0.5000000), wk =   0.1111111
        k(    8) = (   0.0000000   0.3333333   0.3333333), wk =   0.1111111
        k(    9) = (   0.0000000   0.3333333  -0.5000000), wk =   0.1111111
        k(   10) = (   0.0000000  -0.5000000  -0.5000000), wk =   0.0277778
        k(   11) = (   0.1666667   0.1666667   0.1666667), wk =   0.0740741
        k(   12) = (   0.1666667   0.1666667   0.3333333), wk =   0.2222222
        k(   13) = (   0.1666667   0.1666667  -0.5000000), wk =   0.1111111
        k(   14) = (   0.1666667   0.3333333   0.3333333), wk =   0.2222222
        k(   15) = (   0.1666667   0.3333333  -0.5000000), wk =   0.2222222
        k(   16) = (   0.1666667  -0.5000000  -0.5000000), wk =   0.0555556
        k(   17) = (   0.3333333   0.3333333   0.3333333), wk =   0.0740741
        k(   18) = (   0.3333333   0.3333333  -0.5000000), wk =   0.1111111
        k(   19) = (   0.3333333  -0.5000000  -0.5000000), wk =   0.0555556
        k(   20) = (  -0.5000000  -0.5000000  -0.5000000), wk =   0.0092593

     Dense  grid:   188663 G-vectors     FFT dimensions: (  72,  72,  72)

     Smooth grid:    47833 G-vectors     FFT dimensions: (  45,  45,  45)

     Estimated max dynamical RAM per process >      81.72 MB

     Estimated total dynamical RAM >     817.20 MB

     Check: negative core charge=   -0.000001

     Initial potential from superposition of free atoms

     starting charge      38.9952, renormalised to      40.0000

     negative rho (up, down):  6.722E-04 0.000E+00
     Starting wfcs are   32 randomized atomic wfcs

     total cpu time spent up to now is        1.1 secs

     Self-consistent Calculation

     iteration #  1     ecut=   100.00 Ry     beta= 0.70
     CG style diagonalization
     ethr =  1.00E-02,  avg # of iterations =  2.2

     negative rho (up, down):  1.333E-03 0.000E+00

     total cpu time spent up to now is        2.0 secs

     total energy              =    -291.32100860 Ry
     estimated scf accuracy    <       0.82456720 Ry

     iteration #  2     ecut=   100.00 Ry     beta= 0.70
     CG style diagonalization
     ethr =  2.06E-03,  avg # of iterations =  4.8

     negative rho (up, down):  5.577E-04 0.000E+00

     total cpu time spent up to now is        3.2 secs

     total energy              =    -291.01341423 Ry
     estimated scf accuracy    <       3.71494940 Ry

     iteration #  3     ecut=   100.00 Ry     beta= 0.70
     CG style diagonalization
     ethr =  2.06E-03,  avg # of iterations =  4.4

     negative rho (up, down):  6.412E-04 0.000E+00

     total cpu time spent up to now is        4.4 secs

     total energy              =    -291.73851192 Ry
     estimated scf accuracy    <       0.11621776 Ry

     iteration #  4     ecut=   100.00 Ry     beta= 0.70
     CG style diagonalization
     ethr =  2.91E-04,  avg # of iterations =  3.7

     negative rho (up, down):  7.635E-04 0.000E+00

     total cpu time spent up to now is        5.5 secs

     total energy              =    -291.75040813 Ry
     estimated scf accuracy    <       0.01987740 Ry

     iteration #  5     ecut=   100.00 Ry     beta= 0.70
     CG style diagonalization
     ethr =  4.97E-05,  avg # of iterations =  3.6

     negative rho (up, down):  8.136E-04 0.000E+00

     total cpu time spent up to now is        6.5 secs

     total energy              =    -291.75583461 Ry
     estimated scf accuracy    <       0.00031705 Ry

     iteration #  6     ecut=   100.00 Ry     beta= 0.70
     CG style diagonalization
     ethr =  7.93E-07,  avg # of iterations =  4.7

     negative rho (up, down):  7.928E-04 0.000E+00

     total cpu time spent up to now is        7.7 secs

     total energy              =    -291.75626439 Ry
     estimated scf accuracy    <       0.00061553 Ry

     iteration #  7     ecut=   100.00 Ry     beta= 0.70
     CG style diagonalization
     ethr =  7.93E-07,  avg # of iterations =  3.5

     negative rho (up, down):  7.793E-04 0.000E+00

     total cpu time spent up to now is        8.7 secs

     total energy              =    -291.75625579 Ry
     estimated scf accuracy    <       0.00013971 Ry

     iteration #  8     ecut=   100.00 Ry     beta= 0.70
     CG style diagonalization
     ethr =  3.49E-07,  avg # of iterations =  3.6

     negative rho (up, down):  7.766E-04 0.000E+00

     total cpu time spent up to now is        9.7 secs

     total energy              =    -291.75628030 Ry
     estimated scf accuracy    <       0.00000236 Ry

     iteration #  9     ecut=   100.00 Ry     beta= 0.70
     CG style diagonalization
     ethr =  5.90E-09,  avg # of iterations =  4.3

     negative rho (up, down):  7.758E-04 0.000E+00

     total cpu time spent up to now is       10.8 secs

     total energy              =    -291.75628223 Ry
     estimated scf accuracy    <       0.00000029 Ry

     iteration # 10     ecut=   100.00 Ry     beta= 0.70
     CG style diagonalization
     ethr =  7.15E-10,  avg # of iterations =  3.8

     negative rho (up, down):  7.758E-04 0.000E+00

     total cpu time spent up to now is       11.9 secs

     total energy              =    -291.75628234 Ry
     estimated scf accuracy    <       0.00000007 Ry

     iteration # 11     ecut=   100.00 Ry     beta= 0.70
     CG style diagonalization
     ethr =  1.77E-10,  avg # of iterations =  3.7

     negative rho (up, down):  7.758E-04 0.000E+00

     total cpu time spent up to now is       12.9 secs

     End of self-consistent calculation

          k = 0.0000 0.0000 0.0000 (  6031 PWs)   bands (ev):

   -44.9718 -28.1353 -21.6746 -21.6746 -21.6746  -9.3579  -9.3579  -9.3579
    -7.3577  -6.1229  -6.1229   7.1142   7.1142   7.1142   8.9848   8.9848
     8.9848   9.9833   9.9833   9.9833

          k = 0.0000 0.0000 0.1667 (  5963 PWs)   bands (ev):

   -44.9712 -28.1327 -21.7064 -21.6730 -21.6730  -9.4920  -9.3534  -9.3534
    -7.1127  -6.1085  -5.9863   6.7684   7.1043   7.1043   8.5696   8.5696
     8.7044   9.0565   9.8377   9.8377

          k = 0.0000 0.0000 0.3333 (  5942 PWs)   bands (ev):

   -44.9700 -28.1275 -21.7689 -21.6697 -21.6697  -9.7172  -9.3444  -9.3444
    -6.6456  -6.0793  -5.6974   5.9905   7.1347   7.1347   7.7820   7.8528
     7.8528   8.2246   9.7049   9.7049

          k = 0.0000 0.0000-0.5000 (  5942 PWs)   bands (ev):

   -44.9694 -28.1249 -21.7997 -21.6681 -21.6681  -9.8159  -9.3399  -9.3399
    -6.4222  -6.0646  -5.5348   5.5359   7.3019   7.3019   7.3288   7.3980
     7.3980   8.0135   9.6600   9.6600

          k = 0.0000 0.1667 0.1667 (  5956 PWs)   bands (ev):

   -44.9706 -28.1300 -21.7057 -21.7044 -21.6714  -9.5134  -9.4213  -9.3486
    -6.9113  -6.0391  -5.9119   6.5052   6.9668   7.0867   7.8097   8.2849
     8.9283   8.9439   9.3122   9.5970

          k = 0.0000 0.1667 0.3333 (  5979 PWs)   bands (ev):

   -44.9694 -28.1246 -21.7682 -21.7023 -21.6682  -9.6743  -9.4165  -9.3388
    -6.5397  -5.9797  -5.6385   5.9009   6.4912   7.0948   7.1454   7.7036
     8.0643   8.9448   9.1574   9.3802

          k = 0.0000 0.1667-0.5000 (  5958 PWs)   bands (ev):

   -44.9688 -28.1218 -21.7992 -21.7010 -21.6665  -9.7577  -9.4029  -9.3339
    -6.3844  -5.9428  -5.4640   5.5324   6.0962   7.0385   7.2410   7.2970
     7.8004   8.9582   9.0139   9.3179

          k = 0.0000 0.3333 0.3333 (  5992 PWs)   bands (ev):

   -44.9682 -28.1186 -21.7672 -21.7660 -21.6651  -9.6096  -9.5318  -9.3275
    -6.4528  -5.6614  -5.4821   5.3922   6.1387   6.1461   7.0362   7.3659
     8.1360   8.3497   9.0092   9.8014

          k = 0.0000 0.3333-0.5000 (  5988 PWs)   bands (ev):

   -44.9676 -28.1155 -21.7982 -21.7658 -21.6635  -9.6403  -9.5231  -9.3218
    -6.4503  -5.5173  -5.3261   5.1356   5.5222   6.1108   7.0959   7.1046
     8.0661   8.3201   8.8936   9.9627

          k = 0.0000-0.5000-0.5000 (  6024 PWs)   bands (ev):

   -44.9671 -28.1124 -21.7977 -21.7977 -21.6620  -9.5806  -9.5806  -9.3157
    -6.5041  -5.2587  -5.2587   4.7885   5.4461   5.6043   7.0128   7.0128
     8.1982   8.1982   8.7520  10.2535

          k = 0.1667 0.1667 0.1667 (  5953 PWs)   bands (ev):

   -44.9700 -28.1272 -21.7039 -21.7039 -21.7030  -9.5207  -9.4103  -9.4103
    -6.7279  -5.9138  -5.9138   6.2794   6.9027   6.9027   7.6878   7.6878
     8.4961   9.2573   9.2573   9.2999

          k = 0.1667 0.1667 0.3333 (  5982 PWs)   bands (ev):

   -44.9688 -28.1216 -21.7671 -21.7011 -21.7004  -9.6368  -9.4202  -9.3881
    -6.3866  -5.9179  -5.6127   5.8139   6.4284   6.6091   6.9139   7.2964
     8.2522   8.9622   9.1719   9.2872

          k = 0.1667 0.1667-0.5000 (  5964 PWs)   bands (ev):

   -44.9682 -28.1188 -21.7983 -21.7000 -21.6986  -9.7080  -9.4072  -9.3769
    -6.2381  -5.9202  -5.4218   5.5324   5.9726   6.4131   6.7239   7.2453
     8.3377   8.7767   9.1384   9.1778

          k = 0.1667 0.3333 0.3333 (  5949 PWs)   bands (ev):

   -44.9677 -28.1157 -21.7652 -21.7646 -21.6975  -9.5806  -9.5120  -9.3790
    -6.2309  -5.6573  -5.5128   5.4393   6.1277   6.1362   6.5203   6.6934
     7.8233   9.0204   9.0635   9.8301

          k = 0.1667 0.3333-0.5000 (  5960 PWs)   bands (ev):

   -44.9671 -28.1128 -21.7965 -21.7638 -21.6959  -9.6084  -9.5056  -9.3687
    -6.2169  -5.5621  -5.3411   5.2513   5.5303   6.0865   6.3333   6.6033
     7.8451   8.9651   9.0418   9.9873

          k = 0.1667-0.5000-0.5000 (  5996 PWs)   bands (ev):

   -44.9665 -28.1098 -21.7956 -21.7956 -21.6943  -9.5580  -9.5580  -9.3594
    -6.2609  -5.3024  -5.3024   4.9470   5.4654   5.6097   6.3556   6.3556
     7.8274   9.0057   9.0057  10.2827

          k = 0.3333 0.3333 0.3333 (  5956 PWs)   bands (ev):

   -44.9665 -28.1101 -21.7622 -21.7612 -21.7612  -9.5314  -9.4715  -9.4715
    -5.8212  -5.5754  -5.5754   5.4424   5.8953   5.8953   6.2457   6.2457
     6.4149   9.6261   9.6261   9.9904

          k = 0.3333 0.3333-0.5000 (  5964 PWs)   bands (ev):

   -44.9659 -28.1072 -21.7930 -21.7605 -21.7591  -9.5441  -9.4796  -9.4507
    -5.7515  -5.6073  -5.3737   5.4154   5.5435   5.6756   5.8309   6.2237
     6.3812   9.7234   9.8406  10.1136

          k = 0.3333-0.5000-0.5000 (  5972 PWs)   bands (ev):

   -44.9653 -28.1045 -21.7912 -21.7912 -21.7578  -9.5116  -9.5116  -9.4454
    -5.7302  -5.3913  -5.3913   5.2727   5.5003   5.6204   5.6814   5.6814
     6.2749   9.9812   9.9812  10.3424

          k =-0.5000-0.5000-0.5000 (  5904 PWs)   bands (ev):

   -44.9647 -28.1018 -21.7891 -21.7891 -21.7891  -9.4876  -9.4876  -9.4876
    -5.4365  -5.4365  -5.4365   5.4404   5.4404   5.4404   5.4605   5.6258
     5.6258  10.3729  10.3729  10.3729

     highest occupied level (ev):    10.3729

!    total energy              =    -291.75628235 Ry
     estimated scf accuracy    <          3.6E-09 Ry

     The total energy is the sum of the following terms:
     one-electron contribution =     -80.50013614 Ry
     hartree contribution      =      62.23102225 Ry
     xc contribution           =     -51.64478328 Ry
     ewald contribution        =    -221.84238517 Ry

     convergence has been achieved in  11 iterations

     negative rho (up, down):  7.758E-04 0.000E+00

     Forces acting on atoms (cartesian axes, Ry/au):

     atom    1 type  1   force =     0.00000000    0.00000000    0.00000000
     atom    2 type  2   force =     0.00000000    0.00000000    0.00000000
     atom    3 type  3   force =     0.00000000    0.00000000    0.00000000
     atom    4 type  3   force =     0.00000000    0.00000000    0.00000000
     atom    5 type  3   force =     0.00000000    0.00000000    0.00000000

     Total force =     0.000000     Total SCF correction =     0.000000


     Computing stress (Cartesian axis) and pressure


     negative rho (up, down):  7.758E-04 0.000E+00
          total   stress  (Ry/bohr**3)                   (kbar)     P=      122.11
   0.00083006   0.00000000   0.00000000          122.11        0.00        0.00
   0.00000000   0.00083006   0.00000000            0.00      122.11        0.00
   0.00000000   0.00000000   0.00083006            0.00        0.00      122.11


     Writing all to output data dir ./CTO_module_7.save/ :
     XML data file, charge density, pseudopotentials, collected wavefunctions
 
     init_run     :      0.78s CPU      0.89s WALL (       1 calls)
     electrons    :     11.02s CPU     11.76s WALL (       1 calls)
     forces       :      0.18s CPU      0.21s WALL (       1 calls)
     stress       :      1.57s CPU      1.61s WALL (       1 calls)

     Called by init_run:
     wfcinit      :      0.23s CPU      0.26s WALL (       1 calls)
     potinit      :      0.01s CPU      0.02s WALL (       1 calls)
     hinit0       :      0.14s CPU      0.17s WALL (       1 calls)

     Called by electrons:
     c_bands      :      8.01s CPU      8.31s WALL (      11 calls)
     sum_band     :      1.96s CPU      2.10s WALL (      11 calls)
     v_of_rho     :      0.04s CPU      0.04s WALL (      12 calls)
     newd         :      1.06s CPU      1.35s WALL (      12 calls)
     mix_rho      :      0.02s CPU      0.03s WALL (      11 calls)

     Called by c_bands:
     init_us_2    :      0.12s CPU      0.12s WALL (     500 calls)
     init_us_2:cp :      0.11s CPU      0.12s WALL (     500 calls)
     ccgdiagg     :      6.76s CPU      7.01s WALL (     220 calls)
     wfcrot       :      1.38s CPU      1.44s WALL (     220 calls)

     Called by *cgdiagg:
     h_psi        :      5.64s CPU      5.84s WALL (   13144 calls)
     s_psi        :      0.75s CPU      0.78s WALL (   26068 calls)

     Called by h_psi:
     h_psi:calbec :      0.73s CPU      0.76s WALL (   13144 calls)
     vloc_psi     :      4.36s CPU      4.52s WALL (   13144 calls)
     add_vuspsi   :      0.42s CPU      0.44s WALL (   13144 calls)
     hs_1psi      :      4.86s CPU      5.04s WALL (   12924 calls)
     s_1psi       :      0.90s CPU      0.94s WALL (   12924 calls)

     General routines
     calbec       :      1.24s CPU      1.29s WALL (   26388 calls)
     fft          :      0.04s CPU      0.06s WALL (      78 calls)
     ffts         :      0.00s CPU      0.01s WALL (      23 calls)
     fftw         :      3.90s CPU      4.03s WALL (   39528 calls)
     interpolate  :      0.01s CPU      0.02s WALL (      12 calls)
 
     Parallel routines
 
     PWSCF        :     13.78s CPU     15.53s WALL

 
   This run was terminated on:  20: 8: 3  24Sep2025            

=------------------------------------------------------------------------------=
   JOB DONE.
=------------------------------------------------------------------------------=
TACC:  Shutdown complete. Exiting. 
