TACC:  Starting up job 2403622 
TACC:  Starting parallel tasks... 

     Program PWSCF v.7.3 starts on 23Sep2025 at 13:33:46 

     This program is part of the open-source Quantum ESPRESSO suite
     for quantum simulation of materials; please cite
         "P. Giannozzi et al., J. Phys.:Condens. Matter 21 395502 (2009);
         "P. Giannozzi et al., J. Phys.:Condens. Matter 29 465901 (2017);
         "P. Giannozzi et al., J. Chem. Phys. 152 154105 (2020);
          URL http://www.quantum-espresso.org", 
     in publications or presentations arising from this work. More details at
     http://www.quantum-espresso.org/quote

     Parallel version (MPI & OpenMP), running on      10 processor cores
     Number of MPI processes:                10
     Threads/MPI process:                     1

     MPI processes distributed on     1 nodes
     187432 MiB available memory on the printing compute node when the environment starts
 
     Waiting for input...
     Reading input from standard input
Warning: card &CELL ignored
Warning: card  CELL_DYNAMICS = 'BFGS', ignored
Warning: card  PRESS=0.D0, ignored
Warning: card / ignored
     Message from routine read_cards :
     DEPRECATED: no units specified in ATOMIC_POSITIONS card
     Message from routine read_cards :
     ATOMIC_POSITIONS: units set to alat

     Current dimensions of program PWSCF are:
     Max number of different atomic species (ntypx) = 10
     Max number of k-points (npk) =  40000
     Max angular momentum in pseudopotentials (lmaxx) =  4
 
     R & G space division:  proc/nbgrp/npool/nimage =      10
     Subspace diagonalization in iterative solution of the eigenvalue problem:
     a serial algorithm will be used

 
     Parallelization info
     --------------------
     sticks:   dense  smooth     PW     G-vecs:    dense   smooth      PW
     Min         430     173     49                21291     5381     837
     Max         431     175     50                21292     5382     840
     Sum        4309    1733    497               212911    53811    8385
 
     Using Slab Decomposition
 


     bravais-lattice index     =            1
     lattice parameter (alat)  =       7.3573  a.u.
     unit-cell volume          =     398.2496 (a.u.)^3
     number of atoms/cell      =            5
     number of atomic types    =            3
     number of electrons       =        40.00
     number of Kohn-Sham states=           20
     kinetic-energy cutoff     =     100.0000  Ry
     charge density cutoff     =    1000.0000  Ry
     scf convergence threshold =      1.0E-08
     mixing beta               =       0.7000
     number of iterations used =            8  plain     mixing
     Exchange-correlation= SLA  PZ   NOGX NOGC
                           (   1   1   0   0   0   0   0)

     celldm(1)=   7.357300  celldm(2)=   0.000000  celldm(3)=   0.000000
     celldm(4)=   0.000000  celldm(5)=   0.000000  celldm(6)=   0.000000

     crystal axes: (cart. coord. in units of alat)
               a(1) = (   1.000000   0.000000   0.000000 )  
               a(2) = (   0.000000   1.000000   0.000000 )  
               a(3) = (   0.000000   0.000000   1.000000 )  

     reciprocal axes: (cart. coord. in units 2 pi/alat)
               b(1) = (  1.000000  0.000000  0.000000 )  
               b(2) = (  0.000000  1.000000  0.000000 )  
               b(3) = (  0.000000  0.000000  1.000000 )  


     PseudoPot. # 1 for Ca read from file:
     /scratch/11018/zhc/assisgnment1/CaTiO3/Ca_LDA.UPF
     MD5 check sum: d2d4e7693e10d071152e9eeb7dd009f3
     Pseudo is Ultrasoft + core correction, Zval = 10.0
     Generated by new atomic code, or converted to UPF format
     Using radial grid of  845 points,  6 beta functions with: 
                l(1) =   0
                l(2) =   0
                l(3) =   1
                l(4) =   1
                l(5) =   2
                l(6) =   2
     Q(r) pseudized with  8 coefficients,  rinner =    1.500   1.500   1.500
                                                       1.500   1.500

     PseudoPot. # 2 for Ti read from file:
     /scratch/11018/zhc/assisgnment1/CaTiO3/Ti_LDA.UPF
     MD5 check sum: 0d9f225c038fe889ca2a701dcc8d72cb
     Pseudo is Ultrasoft + core correction, Zval = 12.0
     Generated by new atomic code, or converted to UPF format
     Using radial grid of  851 points,  6 beta functions with: 
                l(1) =   0
                l(2) =   0
                l(3) =   1
                l(4) =   1
                l(5) =   2
                l(6) =   2
     Q(r) pseudized with  6 coefficients,  rinner =    1.000   1.000   1.000
                                                       1.000   1.000

     PseudoPot. # 3 for O  read from file:
     /scratch/11018/zhc/assisgnment1/CaTiO3/O_LDA.UPF
     MD5 check sum: 194b818514d2a7dbb603bb78519a4f40
     Pseudo is Ultrasoft + core correction, Zval =  6.0
     Generated by new atomic code, or converted to UPF format
     Using radial grid of  737 points,  5 beta functions with: 
                l(1) =   0
                l(2) =   0
                l(3) =   1
                l(4) =   1
                l(5) =   2
     Q(r) pseudized with  8 coefficients,  rinner =    0.900   0.900   0.900
                                                       0.900   0.900

     atomic species   valence    mass     pseudopotential
     Ca               10.00    40.07800     Ca( 1.00)
     Ti               12.00    47.88000     Ti( 1.00)
     O                 6.00    16.00000     O ( 1.00)

      8 Sym. Ops. (no inversion) found



   Cartesian axes

     site n.     atom                  positions (alat units)
         1        Ca     tau(   1) = (   0.0000000   0.0000000   0.0500000  )
         2        Ti     tau(   2) = (   0.5000000   0.5000000   0.5000000  )
         3        O      tau(   3) = (   0.5000000   0.5000000   0.0000000  )
         4        O      tau(   4) = (   0.5000000   0.0000000   0.5000000  )
         5        O      tau(   5) = (   0.0000000   0.5000000   0.5000000  )

     number of k points=   196

     Number of k-points >= 100: set verbosity='high' to print them.

     Dense  grid:   212911 G-vectors     FFT dimensions: (  75,  75,  75)

     Smooth grid:    53811 G-vectors     FFT dimensions: (  48,  48,  48)

     Estimated max dynamical RAM per process >     127.20 MB

     Estimated total dynamical RAM >       1.24 GB

     Check: negative core charge=   -0.000001

     Initial potential from superposition of free atoms

     starting charge      38.9952, renormalised to      40.0000

     negative rho (up, down):  8.541E-04 0.000E+00
     Starting wfcs are   32 randomized atomic wfcs

     total cpu time spent up to now is        2.6 secs

     Self-consistent Calculation

     iteration #  1     ecut=   100.00 Ry     beta= 0.70
     CG style diagonalization
     ethr =  1.00E-02,  avg # of iterations =  2.2

     negative rho (up, down):  1.119E-03 0.000E+00

     total cpu time spent up to now is        7.8 secs

     total energy              =    -291.29634374 Ry
     estimated scf accuracy    <       0.83413204 Ry

     iteration #  2     ecut=   100.00 Ry     beta= 0.70
     CG style diagonalization
     ethr =  2.09E-03,  avg # of iterations =  5.4

     negative rho (up, down):  6.369E-04 0.000E+00

     total cpu time spent up to now is       18.4 secs

     total energy              =    -290.49803134 Ry
     estimated scf accuracy    <       7.36636287 Ry

     iteration #  3     ecut=   100.00 Ry     beta= 0.70
     CG style diagonalization
     ethr =  2.09E-03,  avg # of iterations =  4.7

     negative rho (up, down):  7.342E-04 0.000E+00

     total cpu time spent up to now is       27.5 secs

     total energy              =    -291.72667805 Ry
     estimated scf accuracy    <       0.17495322 Ry

     iteration #  4     ecut=   100.00 Ry     beta= 0.70
     CG style diagonalization
     ethr =  4.37E-04,  avg # of iterations =  3.6

     negative rho (up, down):  8.109E-04 0.000E+00

     total cpu time spent up to now is       34.5 secs

     total energy              =    -291.74180138 Ry
     estimated scf accuracy    <       0.06437457 Ry

     iteration #  5     ecut=   100.00 Ry     beta= 0.70
     CG style diagonalization
     ethr =  1.61E-04,  avg # of iterations =  3.6

     negative rho (up, down):  8.416E-04 0.000E+00

     total cpu time spent up to now is       41.4 secs

     total energy              =    -291.75113778 Ry
     estimated scf accuracy    <       0.00306868 Ry

     iteration #  6     ecut=   100.00 Ry     beta= 0.70
     CG style diagonalization
     ethr =  7.67E-06,  avg # of iterations =  4.0

     negative rho (up, down):  8.597E-04 0.000E+00

     total cpu time spent up to now is       49.2 secs

     total energy              =    -291.75275183 Ry
     estimated scf accuracy    <       0.00014078 Ry

     iteration #  7     ecut=   100.00 Ry     beta= 0.70
     CG style diagonalization
     ethr =  3.52E-07,  avg # of iterations =  4.9

     negative rho (up, down):  8.538E-04 0.000E+00

     total cpu time spent up to now is       58.8 secs

     total energy              =    -291.75285669 Ry
     estimated scf accuracy    <       0.00064054 Ry

     iteration #  8     ecut=   100.00 Ry     beta= 0.70
     CG style diagonalization
     ethr =  3.52E-07,  avg # of iterations =  4.1

     negative rho (up, down):  8.517E-04 0.000E+00

     total cpu time spent up to now is       66.8 secs

     total energy              =    -291.75288289 Ry
     estimated scf accuracy    <       0.00008993 Ry

     iteration #  9     ecut=   100.00 Ry     beta= 0.70
     CG style diagonalization
     ethr =  2.25E-07,  avg # of iterations =  3.6

     negative rho (up, down):  8.509E-04 0.000E+00

     total cpu time spent up to now is       73.7 secs

     total energy              =    -291.75289375 Ry
     estimated scf accuracy    <       0.00000386 Ry

     iteration # 10     ecut=   100.00 Ry     beta= 0.70
     CG style diagonalization
     ethr =  9.64E-09,  avg # of iterations =  4.1

     negative rho (up, down):  8.508E-04 0.000E+00

     total cpu time spent up to now is       81.7 secs

     total energy              =    -291.75289601 Ry
     estimated scf accuracy    <       0.00000016 Ry

     iteration # 11     ecut=   100.00 Ry     beta= 0.70
     CG style diagonalization
     ethr =  3.91E-10,  avg # of iterations =  4.5

     negative rho (up, down):  8.511E-04 0.000E+00

     total cpu time spent up to now is       90.3 secs

     total energy              =    -291.75289629 Ry
     estimated scf accuracy    <       0.00000035 Ry

     iteration # 12     ecut=   100.00 Ry     beta= 0.70
     CG style diagonalization
     ethr =  3.91E-10,  avg # of iterations =  4.0

     negative rho (up, down):  8.511E-04 0.000E+00

     total cpu time spent up to now is       98.1 secs

     total energy              =    -291.75289636 Ry
     estimated scf accuracy    <       0.00000002 Ry

     iteration # 13     ecut=   100.00 Ry     beta= 0.70
     CG style diagonalization
     ethr =  6.11E-11,  avg # of iterations =  3.5

     negative rho (up, down):  8.510E-04 0.000E+00

     total cpu time spent up to now is      104.8 secs

     End of self-consistent calculation

     Number of k-points >= 100: set verbosity='high' to print the bands.

     highest occupied level (ev):     8.6514

!    total energy              =    -291.75289635 Ry
     estimated scf accuracy    <          7.4E-09 Ry

     The total energy is the sum of the following terms:
     one-electron contribution =     -94.04748598 Ry
     hartree contribution      =      66.23819157 Ry
     xc contribution           =     -51.22368559 Ry
     ewald contribution        =    -212.71991636 Ry

     convergence has been achieved in  13 iterations

     negative rho (up, down):  8.510E-04 0.000E+00

     Forces acting on atoms (cartesian axes, Ry/au):

     atom    1 type  1   force =     0.00000000    0.00000000   -0.00156381
     atom    2 type  2   force =     0.00000000    0.00000000    0.01672232
     atom    3 type  3   force =     0.00000000    0.00000000    0.00789966
     atom    4 type  3   force =     0.00000000    0.00000000   -0.01152909
     atom    5 type  3   force =     0.00000000    0.00000000   -0.01152909

     Total force =     0.024705     Total SCF correction =     0.000060


     Computing stress (Cartesian axis) and pressure


     negative rho (up, down):  8.510E-04 0.000E+00
          total   stress  (Ry/bohr**3)                   (kbar)     P=     -113.59
  -0.00077322   0.00000000   0.00000000         -113.74        0.00        0.00
   0.00000000  -0.00077322   0.00000000            0.00     -113.74        0.00
   0.00000000   0.00000000  -0.00077007            0.00        0.00     -113.28


     Writing all to output data dir ./CTO_DIS_K12.save/ :
     XML data file, charge density, pseudopotentials, collected wavefunctions
 
     init_run     :      2.17s CPU      2.32s WALL (       1 calls)
     electrons    :     98.25s CPU    102.19s WALL (       1 calls)
     forces       :      0.83s CPU      0.86s WALL (       1 calls)
     stress       :     11.67s CPU     11.76s WALL (       1 calls)

     Called by init_run:
     wfcinit      :      1.85s CPU      1.92s WALL (       1 calls)
     potinit      :      0.02s CPU      0.02s WALL (       1 calls)
     hinit0       :      0.15s CPU      0.18s WALL (       1 calls)

     Called by electrons:
     c_bands      :     87.85s CPU     91.26s WALL (      13 calls)
     sum_band     :      8.91s CPU      9.20s WALL (      13 calls)
     v_of_rho     :      0.05s CPU      0.05s WALL (      14 calls)
     newd         :      1.47s CPU      1.70s WALL (      14 calls)
     mix_rho      :      0.04s CPU      0.05s WALL (      13 calls)

     Called by c_bands:
     init_us_2    :      1.46s CPU      1.52s WALL (    5684 calls)
     init_us_2:cp :      1.45s CPU      1.51s WALL (    5684 calls)
     ccgdiagg     :     76.03s CPU     79.05s WALL (    2548 calls)
     wfcrot       :     12.40s CPU     12.78s WALL (    2548 calls)

     Called by *cgdiagg:
     h_psi        :     55.11s CPU     57.20s WALL (  160238 calls)
     s_psi        :      9.97s CPU     10.37s WALL (  317928 calls)

     Called by h_psi:
     h_psi:calbec :      9.39s CPU      9.76s WALL (  160238 calls)
     vloc_psi     :     38.53s CPU     39.99s WALL (  160238 calls)
     add_vuspsi   :      5.65s CPU      5.88s WALL (  160238 calls)
     hs_1psi      :     50.50s CPU     52.49s WALL (  157690 calls)
     s_1psi       :     11.92s CPU     12.37s WALL (  157690 calls)

     General routines
     calbec       :     16.00s CPU     16.65s WALL (  321456 calls)
     fft          :      0.07s CPU      0.09s WALL (      90 calls)
     ffts         :      0.00s CPU      0.01s WALL (      27 calls)
     fftw         :     30.06s CPU     31.14s WALL (  472964 calls)
     interpolate  :      0.01s CPU      0.02s WALL (      14 calls)
 
     Parallel routines
 
     PWSCF        :   1m53.59s CPU   2m 0.28s WALL

 
   This run was terminated on:  13:35:47  23Sep2025            

=------------------------------------------------------------------------------=
   JOB DONE.
=------------------------------------------------------------------------------=
TACC:  Shutdown complete. Exiting. 
