TACC:  Starting up job 2553088 
TACC:  Starting parallel tasks... 

     Program PWSCF v.7.3 starts on 15Nov2025 at  2:31: 1 

     This program is part of the open-source Quantum ESPRESSO suite
     for quantum simulation of materials; please cite
         "P. Giannozzi et al., J. Phys.:Condens. Matter 21 395502 (2009);
         "P. Giannozzi et al., J. Phys.:Condens. Matter 29 465901 (2017);
         "P. Giannozzi et al., J. Chem. Phys. 152 154105 (2020);
          URL http://www.quantum-espresso.org", 
     in publications or presentations arising from this work. More details at
     http://www.quantum-espresso.org/quote

     Parallel version (MPI & OpenMP), running on      10 processor cores
     Number of MPI processes:                10
     Threads/MPI process:                     1

     MPI processes distributed on     1 nodes
     185582 MiB available memory on the printing compute node when the environment starts
 
     Waiting for input...
     Reading input from standard input
Warning: card &CELL ignored
Warning: card  CELL_DYNAMICS = 'BFGS', ignored
Warning: card  PRESS=0.D0, ignored
Warning: card / ignored

     Current dimensions of program PWSCF are:
     Max number of different atomic species (ntypx) = 10
     Max number of k-points (npk) =  40000
     Max angular momentum in pseudopotentials (lmaxx) =  4
     Message from routine setup:
     using ibrav=0 with symmetry is DISCOURAGED, use correct ibrav instead
 
     R & G space division:  proc/nbgrp/npool/nimage =      10
     Subspace diagonalization in iterative solution of the eigenvalue problem:
     a serial algorithm will be used

 
     Parallelization info
     --------------------
     sticks:   dense  smooth     PW     G-vecs:    dense   smooth      PW
     Min         216      86     25                 7944     2004     321
     Max         217      87     26                 7947     2007     323
     Sum        2161     869    253                79447    20063    3215
 
     Using Slab Decomposition
 


     bravais-lattice index     =            0
     lattice parameter (alat)  =       7.3699  a.u.
     unit-cell volume          =     420.8329 (a.u.)^3
     number of atoms/cell      =            5
     number of atomic types    =            3
     number of electrons       =        44.00
     number of Kohn-Sham states=           22
     kinetic-energy cutoff     =      50.0000  Ry
     charge density cutoff     =     500.0000  Ry
     scf convergence threshold =      1.0E-08
     mixing beta               =       0.7000
     number of iterations used =            8  plain     mixing
     energy convergence thresh.=      1.0E-04
     force convergence thresh. =      1.0E-03
     Exchange-correlation= SLA  PZ   NOGX NOGC
                           (   1   1   0   0   0   0   0)
     nstep                     =           50


     celldm(1)=   7.369932  celldm(2)=   0.000000  celldm(3)=   0.000000
     celldm(4)=   0.000000  celldm(5)=   0.000000  celldm(6)=   0.000000

     crystal axes: (cart. coord. in units of alat)
               a(1) = (   1.000000   0.000000   0.000000 )  
               a(2) = (   0.000000   1.000000   0.000000 )  
               a(3) = (   0.000000   0.000000   1.051282 )  

     reciprocal axes: (cart. coord. in units 2 pi/alat)
               b(1) = (  1.000000  0.000000  0.000000 )  
               b(2) = (  0.000000  1.000000  0.000000 )  
               b(3) = (  0.000000  0.000000  0.951220 )  


     PseudoPot. # 1 for Pb read from file:
     /scratch/11018/zhc/assisgnment3/input_files/Pb_LDA.UPF
     MD5 check sum: 062a37469794d955244864f8fe2e5624
     Pseudo is Ultrasoft + core correction, Zval = 14.0
     Generated by new atomic code, or converted to UPF format
     Using radial grid of  899 points,  6 beta functions with: 
                l(1) =   0
                l(2) =   0
                l(3) =   1
                l(4) =   1
                l(5) =   2
                l(6) =   2
     Q(r) pseudized with  6 coefficients,  rinner =    1.000   1.000   1.000
                                                       1.000   1.000

     PseudoPot. # 2 for Ti read from file:
     /scratch/11018/zhc/assisgnment3/input_files/Ti_LDA.UPF
     MD5 check sum: 0d9f225c038fe889ca2a701dcc8d72cb
     Pseudo is Ultrasoft + core correction, Zval = 12.0
     Generated by new atomic code, or converted to UPF format
     Using radial grid of  851 points,  6 beta functions with: 
                l(1) =   0
                l(2) =   0
                l(3) =   1
                l(4) =   1
                l(5) =   2
                l(6) =   2
     Q(r) pseudized with  6 coefficients,  rinner =    1.000   1.000   1.000
                                                       1.000   1.000

     PseudoPot. # 3 for O  read from file:
     /scratch/11018/zhc/assisgnment3/input_files/O_LDA.UPF
     MD5 check sum: 194b818514d2a7dbb603bb78519a4f40
     Pseudo is Ultrasoft + core correction, Zval =  6.0
     Generated by new atomic code, or converted to UPF format
     Using radial grid of  737 points,  5 beta functions with: 
                l(1) =   0
                l(2) =   0
                l(3) =   1
                l(4) =   1
                l(5) =   2
     Q(r) pseudized with  8 coefficients,  rinner =    0.900   0.900   0.900
                                                       0.900   0.900

     atomic species   valence    mass     pseudopotential
     Pb               14.00   207.20000     Pb( 1.00)
     Ti               12.00    47.88000     Ti( 1.00)
     O                 6.00    16.00000     O ( 1.00)

      8 Sym. Ops. (no inversion) found



   Cartesian axes

     site n.     atom                  positions (alat units)
         1        Pb     tau(   1) = (   0.0000000   0.0000000   1.0580339  )
         2        Ti     tau(   2) = (   0.5000000   0.5000000   0.5681377  )
         3        O      tau(   3) = (   0.5000000   0.5000000   0.1036357  )
         4        O      tau(   4) = (   0.5000000   0.0000000   0.6422586  )
         5        O      tau(   5) = (   0.0000000   0.5000000   0.6422586  )

     number of k points=    40
                       cart. coord. in units 2pi/alat
        k(    1) = (   0.0000000   0.0000000   0.0000000), wk =   0.0058309
        k(    2) = (   0.0000000   0.0000000   0.1358885), wk =   0.0116618
        k(    3) = (   0.0000000   0.0000000   0.2717770), wk =   0.0116618
        k(    4) = (   0.0000000   0.0000000   0.4076655), wk =   0.0116618
        k(    5) = (   0.0000000   0.1428571   0.0000000), wk =   0.0233236
        k(    6) = (   0.0000000   0.1428571   0.1358885), wk =   0.0466472
        k(    7) = (   0.0000000   0.1428571   0.2717770), wk =   0.0466472
        k(    8) = (   0.0000000   0.1428571   0.4076655), wk =   0.0466472
        k(    9) = (   0.0000000   0.2857143   0.0000000), wk =   0.0233236
        k(   10) = (   0.0000000   0.2857143   0.1358885), wk =   0.0466472
        k(   11) = (   0.0000000   0.2857143   0.2717770), wk =   0.0466472
        k(   12) = (   0.0000000   0.2857143   0.4076655), wk =   0.0466472
        k(   13) = (   0.0000000   0.4285714   0.0000000), wk =   0.0233236
        k(   14) = (   0.0000000   0.4285714   0.1358885), wk =   0.0466472
        k(   15) = (   0.0000000   0.4285714   0.2717770), wk =   0.0466472
        k(   16) = (   0.0000000   0.4285714   0.4076655), wk =   0.0466472
        k(   17) = (   0.1428571   0.1428571   0.0000000), wk =   0.0233236
        k(   18) = (   0.1428571   0.1428571   0.1358885), wk =   0.0466472
        k(   19) = (   0.1428571   0.1428571   0.2717770), wk =   0.0466472
        k(   20) = (   0.1428571   0.1428571   0.4076655), wk =   0.0466472
        k(   21) = (   0.1428571   0.2857143   0.0000000), wk =   0.0466472
        k(   22) = (   0.1428571   0.2857143   0.1358885), wk =   0.0932945
        k(   23) = (   0.1428571   0.2857143   0.2717770), wk =   0.0932945
        k(   24) = (   0.1428571   0.2857143   0.4076655), wk =   0.0932945
        k(   25) = (   0.1428571   0.4285714   0.0000000), wk =   0.0466472
        k(   26) = (   0.1428571   0.4285714   0.1358885), wk =   0.0932945
        k(   27) = (   0.1428571   0.4285714   0.2717770), wk =   0.0932945
        k(   28) = (   0.1428571   0.4285714   0.4076655), wk =   0.0932945
        k(   29) = (   0.2857143   0.2857143   0.0000000), wk =   0.0233236
        k(   30) = (   0.2857143   0.2857143   0.1358885), wk =   0.0466472
        k(   31) = (   0.2857143   0.2857143   0.2717770), wk =   0.0466472
        k(   32) = (   0.2857143   0.2857143   0.4076655), wk =   0.0466472
        k(   33) = (   0.2857143   0.4285714   0.0000000), wk =   0.0466472
        k(   34) = (   0.2857143   0.4285714   0.1358885), wk =   0.0932945
        k(   35) = (   0.2857143   0.4285714   0.2717770), wk =   0.0932945
        k(   36) = (   0.2857143   0.4285714   0.4076655), wk =   0.0932945
        k(   37) = (   0.4285714   0.4285714   0.0000000), wk =   0.0233236
        k(   38) = (   0.4285714   0.4285714   0.1358885), wk =   0.0466472
        k(   39) = (   0.4285714   0.4285714   0.2717770), wk =   0.0466472
        k(   40) = (   0.4285714   0.4285714   0.4076655), wk =   0.0466472

     Dense  grid:    79447 G-vectors     FFT dimensions: (  54,  54,  60)

     Smooth grid:    20063 G-vectors     FFT dimensions: (  36,  36,  36)

     Estimated max dynamical RAM per process >      38.44 MB

     Estimated total dynamical RAM >     384.41 MB

     Check: negative core charge=   -0.000004

     Initial potential from superposition of free atoms

     starting charge      42.9982, renormalised to      44.0000

     negative rho (up, down):  1.690E-02 0.000E+00
     Starting wfcs are   31 randomized atomic wfcs

     total cpu time spent up to now is        0.8 secs

     Self-consistent Calculation

     iteration #  1     ecut=    50.00 Ry     beta= 0.70
     CG style diagonalization
     ethr =  1.00E-02,  avg # of iterations =  2.1

     negative rho (up, down):  1.407E-02 0.000E+00

     total cpu time spent up to now is        1.5 secs

     total energy              =    -380.04670316 Ry
     estimated scf accuracy    <       1.03408268 Ry

     iteration #  2     ecut=    50.00 Ry     beta= 0.70
     CG style diagonalization
     ethr =  2.35E-03,  avg # of iterations =  5.0

     negative rho (up, down):  1.455E-02 0.000E+00

     total cpu time spent up to now is        2.8 secs

     total energy              =    -379.55807735 Ry
     estimated scf accuracy    <       5.11471486 Ry

     iteration #  3     ecut=    50.00 Ry     beta= 0.70
     CG style diagonalization
     ethr =  2.35E-03,  avg # of iterations =  4.5

     negative rho (up, down):  1.525E-02 0.000E+00

     total cpu time spent up to now is        3.9 secs

     total energy              =    -380.53358980 Ry
     estimated scf accuracy    <       0.35969823 Ry

     iteration #  4     ecut=    50.00 Ry     beta= 0.70
     CG style diagonalization
     ethr =  8.17E-04,  avg # of iterations =  3.4

     negative rho (up, down):  1.523E-02 0.000E+00

     total cpu time spent up to now is        4.8 secs

     total energy              =    -380.55253395 Ry
     estimated scf accuracy    <       0.07113803 Ry

     iteration #  5     ecut=    50.00 Ry     beta= 0.70
     CG style diagonalization
     ethr =  1.62E-04,  avg # of iterations =  3.7

     negative rho (up, down):  1.523E-02 0.000E+00

     total cpu time spent up to now is        5.8 secs

     total energy              =    -380.56675437 Ry
     estimated scf accuracy    <       0.00743987 Ry

     iteration #  6     ecut=    50.00 Ry     beta= 0.70
     CG style diagonalization
     ethr =  1.69E-05,  avg # of iterations =  4.2

     negative rho (up, down):  1.524E-02 0.000E+00

     total cpu time spent up to now is        6.8 secs

     total energy              =    -380.57089203 Ry
     estimated scf accuracy    <       0.00701396 Ry

     iteration #  7     ecut=    50.00 Ry     beta= 0.70
     CG style diagonalization
     ethr =  1.59E-05,  avg # of iterations =  3.2

     negative rho (up, down):  1.524E-02 0.000E+00

     total cpu time spent up to now is        7.6 secs

     total energy              =    -380.57053518 Ry
     estimated scf accuracy    <       0.00267388 Ry

     iteration #  8     ecut=    50.00 Ry     beta= 0.70
     CG style diagonalization
     ethr =  6.08E-06,  avg # of iterations =  3.6

     negative rho (up, down):  1.526E-02 0.000E+00

     total cpu time spent up to now is        8.6 secs

     total energy              =    -380.57104637 Ry
     estimated scf accuracy    <       0.00000980 Ry

     iteration #  9     ecut=    50.00 Ry     beta= 0.70
     CG style diagonalization
     c_bands:  1 eigenvalues not converged
     ethr =  2.23E-08,  avg # of iterations =  8.1

     negative rho (up, down):  1.531E-02 0.000E+00

     total cpu time spent up to now is       10.7 secs

     total energy              =    -380.57111167 Ry
     estimated scf accuracy    <       0.00002231 Ry

     iteration # 10     ecut=    50.00 Ry     beta= 0.70
     CG style diagonalization
     ethr =  2.23E-08,  avg # of iterations =  3.4

     negative rho (up, down):  1.540E-02 0.000E+00

     total cpu time spent up to now is       11.5 secs

     total energy              =    -380.57110749 Ry
     estimated scf accuracy    <       0.00001147 Ry

     iteration # 11     ecut=    50.00 Ry     beta= 0.70
     CG style diagonalization
     ethr =  2.23E-08,  avg # of iterations =  4.0

     negative rho (up, down):  1.540E-02 0.000E+00

     total cpu time spent up to now is       12.6 secs

     total energy              =    -380.57111064 Ry
     estimated scf accuracy    <       0.00000325 Ry

     iteration # 12     ecut=    50.00 Ry     beta= 0.70
     CG style diagonalization
     ethr =  7.38E-09,  avg # of iterations =  4.0

     negative rho (up, down):  1.540E-02 0.000E+00

     total cpu time spent up to now is       13.6 secs

     total energy              =    -380.57111149 Ry
     estimated scf accuracy    <       0.00000004 Ry

     iteration # 13     ecut=    50.00 Ry     beta= 0.70
     CG style diagonalization
     c_bands:  1 eigenvalues not converged
     c_bands:  1 eigenvalues not converged
     c_bands:  1 eigenvalues not converged
     c_bands:  1 eigenvalues not converged
     c_bands:  1 eigenvalues not converged
     c_bands:  1 eigenvalues not converged
     c_bands:  2 eigenvalues not converged
     c_bands:  1 eigenvalues not converged
     c_bands:  1 eigenvalues not converged
     c_bands:  1 eigenvalues not converged
     c_bands:  1 eigenvalues not converged
     ethr =  9.60E-11,  avg # of iterations = 12.5

     negative rho (up, down):  1.540E-02 0.000E+00

     total cpu time spent up to now is       16.9 secs

     total energy              =    -380.57111234 Ry
     estimated scf accuracy    <       0.00000004 Ry

     iteration # 14     ecut=    50.00 Ry     beta= 0.70
     CG style diagonalization
     ethr =  8.96E-11,  avg # of iterations =  4.1

     negative rho (up, down):  1.541E-02 0.000E+00

     total cpu time spent up to now is       17.9 secs

     End of self-consistent calculation

          k = 0.0000 0.0000 0.0000 (  2525 PWs)   bands (ev):

   -45.8548 -22.4896 -22.4277 -22.4277  -7.5145  -6.4344  -6.2033  -5.0268
    -5.0268  -4.9920  -4.8709  -4.7662   4.2240   6.3077   6.3077   6.6256
     8.2734   8.2734   8.4917   8.7771   8.9405   8.9405

          k = 0.0000 0.0000 0.1359 (  2529 PWs)   bands (ev):

   -45.8547 -22.4969 -22.4275 -22.4275  -7.4436  -6.4128  -6.1810  -5.0325
    -5.0325  -4.9916  -4.8678  -4.7924   3.8830   6.3350   6.3350   6.8666
     8.1592   8.1592   8.4595   8.6129   8.9886   8.9886

          k = 0.0000 0.0000 0.2718 (  2518 PWs)   bands (ev):

   -45.8545 -22.5134 -22.4268 -22.4268  -7.2763  -6.3616  -6.1339  -5.0454
    -5.0454  -4.9905  -4.8617  -4.8540   3.3370   6.3908   6.3908   6.6684
     7.9607   7.9607   8.3893   9.0137   9.0638   9.0638

          k = 0.0000 0.0000 0.4077 (  2518 PWs)   bands (ev):

   -45.8543 -22.5265 -22.4263 -22.4263  -7.1323  -6.3174  -6.1007  -5.0556
    -5.0556  -4.9896  -4.9066  -4.8578   3.0072   6.2165   6.4284   6.4284
     7.8390   7.8390   8.3350   9.1104   9.1104   9.8347

          k = 0.0000 0.1429 0.0000 (  2525 PWs)   bands (ev):

   -45.8545 -22.4891 -22.4407 -22.4272  -7.4136  -6.4122  -6.1814  -5.0428
    -5.0258  -5.0017  -4.8748  -4.7586   3.8884   6.3408   6.3885   6.6983
     8.1687   8.2932   8.5046   8.6532   8.6856   9.0275

          k = 0.0000 0.1429 0.1359 (  2517 PWs)   bands (ev):

   -45.8544 -22.4964 -22.4404 -22.4269  -7.3462  -6.3951  -6.1583  -5.0442
    -5.0317  -5.0013  -4.8722  -4.7755   3.6407   6.2688   6.4181   6.9078
     7.9619   8.1606   8.4744   8.5824   8.7228   9.0984

          k = 0.0000 0.1429 0.2718 (  2517 PWs)   bands (ev):

   -45.8542 -22.5127 -22.4397 -22.4263  -7.1899  -6.3547  -6.1067  -5.0454
    -5.0448  -5.0005  -4.8712  -4.8130   3.1945   6.1622   6.4779   6.8294
     7.6511   7.9580   8.3989   8.6478   8.8100   9.4270

          k = 0.0000 0.1429 0.4077 (  2523 PWs)   bands (ev):

   -45.8540 -22.5258 -22.4391 -22.4257  -7.0590  -6.3194  -6.0663  -5.0552
    -5.0456  -4.9999  -4.8760  -4.8410   2.9053   5.9534   6.5170   6.5912
     7.5497   7.8420   8.4869   8.6562   8.8593   9.8803

          k = 0.0000 0.2857 0.0000 (  2513 PWs)   bands (ev):

   -45.8540 -22.4880 -22.4695 -22.4260  -7.1714  -6.3612  -6.1393  -5.0720
    -5.0240  -5.0226  -4.8772  -4.7583   3.3544   6.1622   6.6014   6.6083
     8.0391   8.0547   8.3856   8.3901   8.7427   9.3345

          k = 0.0000 0.2857 0.1359 (  2513 PWs)   bands (ev):

   -45.8539 -22.4951 -22.4692 -22.4257  -7.1177  -6.3499  -6.1127  -5.0636
    -5.0297  -5.0230  -4.8721  -4.7581   3.2082   6.0902   6.6445   6.6530
     7.7621   7.9711   8.2959   8.4159   8.6430   9.4882

          k = 0.0000 0.2857 0.2718 (  2513 PWs)   bands (ev):

   -45.8537 -22.5113 -22.4684 -22.4250  -7.0044  -6.3178  -6.0437  -5.0435
    -5.0410  -5.0230  -4.8805  -4.7446   2.9098   5.9222   6.5988   6.7138
     7.4334   7.7326   7.8358   8.4538   8.9860   9.6077

          k = 0.0000 0.2857 0.4077 (  2512 PWs)   bands (ev):

   -45.8535 -22.5242 -22.4678 -22.4245  -6.9242  -6.2809  -5.9793  -5.0544
    -5.0229  -5.0197  -4.9003  -4.7273   2.6954   5.6876   6.4673   6.7520
     7.2610   7.5701   7.7683   8.4786   9.1846   9.6263

          k = 0.0000 0.4286 0.0000 (  2498 PWs)   bands (ev):

   -45.8536 -22.4931 -22.4864 -22.4250  -6.9568  -6.3068  -6.1291  -5.0928
    -5.0403  -5.0216  -4.8569  -4.7877   3.0484   5.6932   6.8640   6.8955
     7.4885   7.5705   8.2840   8.4390   8.8041  10.1744

          k = 0.0000 0.4286 0.1359 (  2511 PWs)   bands (ev):

   -45.8535 -22.4944 -22.4918 -22.4247  -6.9268  -6.2852  -6.1012  -5.0811
    -5.0405  -5.0280  -4.8372  -4.7818   2.9437   5.6847   6.7814   6.9508
     7.2118   7.5247   8.4180   8.4235   8.5717  10.0571

          k = 0.0000 0.4286 0.2718 (  2514 PWs)   bands (ev):

   -45.8533 -22.5099 -22.4914 -22.4240  -6.8800  -6.2298  -6.0110  -5.0522
    -5.0424  -5.0408  -4.8574  -4.7138   2.7210   5.6329   6.4376   6.9490
     7.0481   7.4578   7.7953   8.3831   9.0503   9.7381

          k = 0.0000 0.4286 0.4077 (  2526 PWs)   bands (ev):

   -45.8531 -22.5227 -22.4907 -22.4235  -6.8617  -6.1778  -5.9125  -5.0538
    -5.0412  -5.0244  -4.8915  -4.6531   2.5535   5.4930   6.1259   6.9735
     7.0664   7.3997   7.4750   8.3636   9.2264   9.5909

          k = 0.1429 0.1429 0.0000 (  2498 PWs)   bands (ev):

   -45.8543 -22.4885 -22.4402 -22.4400  -7.3140  -6.3895  -6.1715  -5.0461
    -5.0380  -5.0070  -4.8619  -4.7512   3.6412   6.3041   6.4694   6.7578
     7.8549   8.0497   8.4819   8.5790   8.9034   9.1687

          k = 0.1429 0.1429 0.1359 (  2506 PWs)   bands (ev):

   -45.8542 -22.4958 -22.4399 -22.4397  -7.2494  -6.3774  -6.1488  -5.0450
    -5.0421  -5.0062  -4.8583  -4.7607   3.4656   6.2579   6.3155   6.9546
     7.7535   7.9385   8.3721   8.6476   8.9239   9.1332

          k = 0.1429 0.1429 0.2718 (  2522 PWs)   bands (ev):

   -45.8540 -22.5121 -22.4392 -22.4390  -7.1015  -6.3495  -6.0958  -5.0589
    -5.0281  -5.0038  -4.8551  -4.7845   3.1119   6.1440   6.2040   6.8474
     7.6214   7.6516   8.3103   8.7272   8.9611   9.3928

          k = 0.1429 0.1429 0.4077 (  2517 PWs)   bands (ev):

   -45.8538 -22.5251 -22.4386 -22.4385  -6.9806  -6.3266  -6.0504  -5.0682
    -5.0135  -4.9979  -4.8598  -4.8061   2.8633   5.9837   6.0466   6.6847
     7.5658   7.6258   8.2388   8.7573   8.9848   9.7266

          k = 0.1429 0.2857 0.0000 (  2508 PWs)   bands (ev):

   -45.8538 -22.4875 -22.4688 -22.4388  -7.0766  -6.3386  -6.1574  -5.0721
    -5.0324  -5.0033  -4.8463  -4.7508   3.1972   6.1444   6.5570   6.6993
     7.4729   7.8518   8.2551   8.6624   8.8623   9.5274

          k = 0.1429 0.2857 0.1359 (  2505 PWs)   bands (ev):

   -45.8537 -22.4946 -22.4685 -22.4385  -7.0231  -6.3345  -6.1339  -5.0641
    -5.0363  -4.9980  -4.8388  -4.7446   3.1159   6.0780   6.2908   6.7574
     7.3805   7.7987   8.2977   8.6521   8.8344   9.4949

          k = 0.1429 0.2857 0.2718 (  2506 PWs)   bands (ev):

   -45.8535 -22.5107 -22.4678 -22.4378  -6.9113  -6.3217  -6.0704  -5.0548
    -5.0328  -4.9820  -4.8355  -4.7251   2.9208   5.8762   6.1279   6.6046
     6.9919   7.5770   8.4295   8.6391   9.0271   9.4352

          k = 0.1429 0.2857 0.4077 (  2513 PWs)   bands (ev):

   -45.8533 -22.5235 -22.4672 -22.4373  -6.8337  -6.3055  -6.0066  -5.0571
    -5.0198  -4.9574  -4.8478  -4.7068   2.7594   5.6509   6.0871   6.3663
     6.8082   7.5047   8.3921   8.6947   9.1590   9.3718

          k = 0.1429 0.4286 0.0000 (  2525 PWs)   bands (ev):

   -45.8533 -22.4924 -22.4858 -22.4378  -6.8676  -6.2864  -6.1695  -5.0821
    -5.0244  -4.9886  -4.8301  -4.7798   2.9209   5.7051   6.6666   7.0336
     7.0539   7.6204   8.0509   8.6740   8.8904   9.9860

          k = 0.1429 0.4286 0.1359 (  2520 PWs)   bands (ev):

   -45.8532 -22.4938 -22.4912 -22.4375  -6.8345  -6.2755  -6.1474  -5.0711
    -5.0269  -4.9811  -4.8121  -4.7652   2.8823   5.6937   6.2855   6.7439
     7.2110   7.7639   8.0264   8.7091   8.7996   9.7915

          k = 0.1429 0.4286 0.2718 (  2510 PWs)   bands (ev):

   -45.8530 -22.5093 -22.4908 -22.4368  -6.7848  -6.2456  -6.0686  -5.0541
    -5.0202  -4.9654  -4.8153  -4.6947   2.7777   5.6291   6.0020   6.3074
     6.7974   7.7297   8.2004   8.6014   9.0358   9.4285

          k = 0.1429 0.4286 0.4077 (  2512 PWs)   bands (ev):

   -45.8529 -22.5221 -22.4901 -22.4362  -6.7682  -6.2173  -5.9769  -5.0520
    -4.9981  -4.9485  -4.8329  -4.6344   2.6788   5.4687   5.9397   6.1008
     6.4155   7.6320   8.3578   8.5290   8.7870   9.5768

          k = 0.2857 0.2857 0.0000 (  2524 PWs)   bands (ev):

   -45.8532 -22.4864 -22.4674 -22.4673  -6.8583  -6.2885  -6.1955  -5.0642
    -5.0283  -4.9619  -4.7890  -4.7485   2.8684   6.1551   6.2133   6.9026
     7.0810   7.3890   8.1025   8.5887   9.1835   9.5723

          k = 0.2857 0.2857 0.1359 (  2517 PWs)   bands (ev):

   -45.8531 -22.4934 -22.4671 -22.4671  -6.8065  -6.2992  -6.1802  -5.0523
    -5.0285  -4.9474  -4.7761  -4.7286   2.8890   6.0141   6.0811   6.3536
     7.0794   7.4597   8.4700   8.5485   9.1964   9.3721

          k = 0.2857 0.2857 0.2718 (  2504 PWs)   bands (ev):

   -45.8529 -22.5092 -22.4665 -22.4664  -6.7053  -6.3229  -6.1254  -5.0272
    -5.0246  -4.9112  -4.7492  -4.6862   2.9101   5.6719   5.6867   6.1748
     6.8650   6.9316   8.6248   9.0314   9.0622   9.2540

          k = 0.2857 0.2857 0.4077 (  2509 PWs)   bands (ev):

   -45.8527 -22.5220 -22.4659 -22.4658  -6.6441  -6.3414  -6.0563  -5.0246
    -5.0033  -4.8726  -4.7338  -4.6540   2.8956   5.4141   5.5591   5.9355
     6.5667   6.8063   8.3466   9.1123   9.1634   9.3907

          k = 0.2857 0.4286 0.0000 (  2518 PWs)   bands (ev):

   -45.8528 -22.4908 -22.4847 -22.4662  -6.6810  -6.2452  -6.2242  -5.0579
    -5.0088  -4.9031  -4.7777  -4.7511   2.6315   5.7135   6.2616   6.7745
     7.2013   7.4559   7.6466   8.6047   9.2603   9.4917

          k = 0.2857 0.4286 0.1359 (  2511 PWs)   bands (ev):

   -45.8527 -22.4925 -22.4897 -22.4660  -6.6338  -6.2587  -6.2221  -5.0444
    -5.0058  -4.8770  -4.7576  -4.7242   2.7032   5.6957   6.0437   6.1551
     6.8537   7.6388   8.1410   8.6418   9.0827   9.3825

          k = 0.2857 0.4286 0.2718 (  2505 PWs)   bands (ev):

   -45.8525 -22.5080 -22.4893 -22.4653  -6.5667  -6.2813  -6.1770  -5.0175
    -4.9946  -4.8276  -4.7169  -4.6518   2.8670   5.4309   5.5901   5.7663
     6.5326   7.0373   8.1218   9.0632   9.1140   9.3953

          k = 0.2857 0.4286 0.4077 (  2505 PWs)   bands (ev):

   -45.8523 -22.5207 -22.4887 -22.4648  -6.5548  -6.2974  -6.0931  -5.0058
    -4.9751  -4.7896  -4.6854  -4.5904   2.9928   5.1871   5.2980   5.6290
     6.2335   6.7723   7.5634   9.2488   9.3199   9.5936

          k = 0.4286 0.4286 0.0000 (  2512 PWs)   bands (ev):

   -45.8524 -22.4898 -22.4893 -22.4831  -6.5758  -6.2148  -6.2086  -5.0445
    -4.9678  -4.8370  -4.7933  -4.6894   2.4022   5.5553   5.9864   6.9486
     7.0572   7.4095   7.5840   8.3271   8.8025   9.7342

          k = 0.4286 0.4286 0.1359 (  2521 PWs)   bands (ev):

   -45.8523 -22.4916 -22.4889 -22.4881  -6.5088  -6.2400  -6.2393  -5.0301
    -4.9646  -4.7927  -4.7467  -4.6742   2.5287   5.5378   5.9241   6.1691
     6.3738   7.6995   8.1933   8.3778   8.5102   9.7303

          k = 0.4286 0.4286 0.2718 (  2512 PWs)   bands (ev):

   -45.8521 -22.5067 -22.4882 -22.4881  -6.3891  -6.3023  -6.2574  -4.9977
    -4.9600  -4.7071  -4.6446  -4.6266   2.8724   5.3614   5.4560   5.5268
     6.1058   6.8705   7.2987   9.1804   9.1890   9.7218

          k = 0.4286 0.4286 0.4077 (  2502 PWs)   bands (ev):

   -45.8519 -22.5194 -22.4876 -22.4876  -6.3862  -6.3481  -6.1715  -4.9717
    -4.9573  -4.6543  -4.5704  -4.5654   3.2541   4.9611   5.0723   5.4040
     6.0867   6.2949   6.5253   9.5877   9.6090   9.7146

     highest occupied level (ev):    10.1744

!    total energy              =    -380.57111235 Ry
     estimated scf accuracy    <          3.1E-09 Ry

     The total energy is the sum of the following terms:
     one-electron contribution =     -84.08372977 Ry
     hartree contribution      =      71.16870561 Ry
     xc contribution           =    -102.54192874 Ry
     ewald contribution        =    -265.11415945 Ry

     convergence has been achieved in  14 iterations

     negative rho (up, down):  1.541E-02 0.000E+00

     Forces acting on atoms (cartesian axes, Ry/au):

     atom    1 type  1   force =     0.00000000    0.00000000   -0.00794357
     atom    2 type  2   force =     0.00000000    0.00000000   -0.01196804
     atom    3 type  3   force =     0.00000000    0.00000000    0.02004992
     atom    4 type  3   force =     0.00000000    0.00000000   -0.00006915
     atom    5 type  3   force =     0.00000000    0.00000000   -0.00006915

     Total force =     0.024665     Total SCF correction =     0.000196


     Computing stress (Cartesian axis) and pressure


     negative rho (up, down):  1.541E-02 0.000E+00
          total   stress  (Ry/bohr**3)                   (kbar)     P=      -65.69
  -0.00043337   0.00000000   0.00000000          -63.75        0.00        0.00
   0.00000000  -0.00043337   0.00000000            0.00      -63.75        0.00
   0.00000000   0.00000000  -0.00047298            0.00        0.00      -69.58


     BFGS Geometry Optimization
     Energy error            =      0.0E+00 Ry
     Gradient error          =      2.0E-02 Ry/Bohr

     number of scf cycles    =   1
     number of bfgs steps    =   0

     energy             new  =    -380.5711123498 Ry

     new trust radius        =       0.0200499154 bohr
     new conv_thr            =       0.0000000100 Ry


ATOMIC_POSITIONS (crystal)
Pb               0.0000000000        0.0000000000        1.0053972509
Ti               0.5000000000        0.5000000000        0.5388790100
O                0.5000000000        0.5000000000        0.1011680957
O                0.5000000000        0.0000000000        0.6109199657
O                0.0000000000        0.5000000000        0.6109199657



     Writing config-only to output data dir ./pto_k7.save/ :
     XML data file
     NEW-OLD atomic charge density approx. for the potential

     Check: negative core charge=   -0.000004

     negative rho (up, down):  1.527E-02 0.000E+00

     total cpu time spent up to now is       19.4 secs

     Self-consistent Calculation

     iteration #  1     ecut=    50.00 Ry     beta= 0.70
     CG style diagonalization
     c_bands:  2 eigenvalues not converged
     c_bands:  1 eigenvalues not converged
     c_bands:  1 eigenvalues not converged
     c_bands:  1 eigenvalues not converged
     c_bands:  1 eigenvalues not converged
     ethr =  1.00E-06,  avg # of iterations =  7.1

     negative rho (up, down):  1.525E-02 0.000E+00

     total cpu time spent up to now is       21.4 secs

     total energy              =    -380.57147180 Ry
     estimated scf accuracy    <       0.00022947 Ry

     iteration #  2     ecut=    50.00 Ry     beta= 0.70
     CG style diagonalization
     ethr =  5.22E-07,  avg # of iterations =  4.8

     negative rho (up, down):  1.525E-02 0.000E+00

     total cpu time spent up to now is       22.6 secs

     total energy              =    -380.57144462 Ry
     estimated scf accuracy    <       0.00068075 Ry

     iteration #  3     ecut=    50.00 Ry     beta= 0.70
     CG style diagonalization
     ethr =  5.22E-07,  avg # of iterations =  4.3

     negative rho (up, down):  1.525E-02 0.000E+00

     total cpu time spent up to now is       23.7 secs

     total energy              =    -380.57157737 Ry
     estimated scf accuracy    <       0.00005311 Ry

     iteration #  4     ecut=    50.00 Ry     beta= 0.70
     CG style diagonalization
     ethr =  1.21E-07,  avg # of iterations =  3.8

     negative rho (up, down):  1.525E-02 0.000E+00

     total cpu time spent up to now is       24.7 secs

     total energy              =    -380.57159060 Ry
     estimated scf accuracy    <       0.00000592 Ry

     iteration #  5     ecut=    50.00 Ry     beta= 0.70
     CG style diagonalization
     ethr =  1.35E-08,  avg # of iterations =  4.3

     negative rho (up, down):  1.525E-02 0.000E+00

     total cpu time spent up to now is       25.8 secs

     total energy              =    -380.57159388 Ry
     estimated scf accuracy    <       0.00000064 Ry

     iteration #  6     ecut=    50.00 Ry     beta= 0.70
     CG style diagonalization
     ethr =  1.45E-09,  avg # of iterations =  4.7

     negative rho (up, down):  1.525E-02 0.000E+00

     total cpu time spent up to now is       27.0 secs

     total energy              =    -380.57159426 Ry
     estimated scf accuracy    <       0.00000035 Ry

     iteration #  7     ecut=    50.00 Ry     beta= 0.70
     CG style diagonalization
     ethr =  7.91E-10,  avg # of iterations =  3.9

     negative rho (up, down):  1.525E-02 0.000E+00

     total cpu time spent up to now is       28.0 secs

     total energy              =    -380.57159433 Ry
     estimated scf accuracy    <       0.00000008 Ry

     iteration #  8     ecut=    50.00 Ry     beta= 0.70
     CG style diagonalization
     ethr =  1.74E-10,  avg # of iterations =  4.6

     negative rho (up, down):  1.525E-02 0.000E+00

     total cpu time spent up to now is       29.2 secs

     End of self-consistent calculation

          k = 0.0000 0.0000 0.0000 (  2525 PWs)   bands (ev):

   -45.8207 -22.4773 -22.3930 -22.3930  -7.5120  -6.4286  -6.2137  -5.0293
    -5.0293  -4.9963  -4.8782  -4.7640   4.2144   6.3110   6.3110   6.6552
     8.2070   8.2070   8.4929   8.7212   8.9487   8.9487

          k = 0.0000 0.0000 0.1359 (  2529 PWs)   bands (ev):

   -45.8205 -22.4847 -22.3927 -22.3927  -7.4400  -6.4070  -6.1921  -5.0350
    -5.0350  -4.9958  -4.8750  -4.7902   3.8725   6.3351   6.3351   6.8932
     8.1033   8.1033   8.4605   8.5701   8.9946   8.9946

          k = 0.0000 0.0000 0.2718 (  2518 PWs)   bands (ev):

   -45.8203 -22.5012 -22.3921 -22.3921  -7.2702  -6.3558  -6.1472  -5.0478
    -5.0478  -4.9948  -4.8689  -4.8519   3.3218   6.3823   6.3823   6.6813
     7.9239   7.9239   8.3900   9.0022   9.0688   9.0688

          k = 0.0000 0.0000 0.4077 (  2518 PWs)   bands (ev):

   -45.8201 -22.5144 -22.3916 -22.3916  -7.1235  -6.3115  -6.1163  -5.0580
    -5.0580  -4.9939  -4.9045  -4.8649   2.9872   6.2292   6.4112   6.4112
     7.8170   7.8170   8.3354   9.1154   9.1154   9.8361

          k = 0.0000 0.1429 0.0000 (  2525 PWs)   bands (ev):

   -45.8204 -22.4768 -22.4060 -22.3925  -7.4114  -6.4069  -6.1925  -5.0457
    -5.0283  -5.0059  -4.8805  -4.7563   3.8827   6.3435   6.3924   6.7137
     8.1314   8.2270   8.4970   8.6611   8.6630   9.0066

          k = 0.0000 0.1429 0.1359 (  2517 PWs)   bands (ev):

   -45.8203 -22.4841 -22.4057 -22.3922  -7.3430  -6.3898  -6.1702  -5.0470
    -5.0341  -5.0056  -4.8781  -4.7732   3.6334   6.2688   6.4190   6.9210
     7.9330   8.1071   8.4548   8.5699   8.7261   9.0897

          k = 0.0000 0.1429 0.2718 (  2517 PWs)   bands (ev):

   -45.8201 -22.5006 -22.4050 -22.3915  -7.1841  -6.3494  -6.1208  -5.0480
    -5.0472  -5.0048  -4.8772  -4.8108   3.1828   6.1521   6.4702   6.8432
     7.6273   7.9222   8.3997   8.6338   8.8139   9.4270

          k = 0.0000 0.1429 0.4077 (  2523 PWs)   bands (ev):

   -45.8199 -22.5137 -22.4044 -22.3910  -7.0507  -6.3141  -6.0826  -5.0576
    -5.0479  -5.0042  -4.8812  -4.8398   2.8894   5.9424   6.5005   6.6002
     7.5361   7.8201   8.4924   8.6429   8.8642   9.8858

          k = 0.0000 0.2857 0.0000 (  2513 PWs)   bands (ev):

   -45.8199 -22.4755 -22.4350 -22.3913  -7.1698  -6.3573  -6.1523  -5.0749
    -5.0277  -5.0256  -4.8796  -4.7563   3.3520   6.1665   6.6027   6.6139
     8.0305   8.0585   8.3251   8.3863   8.7109   9.3198

          k = 0.0000 0.2857 0.1359 (  2513 PWs)   bands (ev):

   -45.8198 -22.4828 -22.4346 -22.3910  -7.1150  -6.3463  -6.1264  -5.0664
    -5.0322  -5.0271  -4.8750  -4.7558   3.2049   6.0918   6.6475   6.6535
     7.7572   7.9561   8.2821   8.3775   8.6296   9.4781

          k = 0.0000 0.2857 0.2718 (  2513 PWs)   bands (ev):

   -45.8195 -22.4990 -22.4338 -22.3903  -6.9989  -6.3147  -6.0596  -5.0459
    -5.0437  -5.0272  -4.8838  -4.7421   2.9042   5.9127   6.6048   6.7083
     7.4269   7.7355   7.8144   8.4399   8.9661   9.6083

          k = 0.0000 0.2857 0.4077 (  2512 PWs)   bands (ev):

   -45.8194 -22.5120 -22.4331 -22.3897  -6.9167  -6.2777  -5.9972  -5.0568
    -5.0271  -5.0220  -4.9039  -4.7249   2.6876   5.6697   6.4813   6.7372
     7.2571   7.5774   7.7530   8.4743   9.1557   9.6369

          k = 0.0000 0.4286 0.0000 (  2498 PWs)   bands (ev):

   -45.8194 -22.4744 -22.4582 -22.3903  -6.9552  -6.3040  -6.1447  -5.0949
    -5.0444  -5.0240  -4.8556  -4.7876   3.0463   5.7070   6.8540   6.9039
     7.4930   7.5778   8.2838   8.3658   8.7681  10.1629

          k = 0.0000 0.4286 0.1359 (  2511 PWs)   bands (ev):

   -45.8193 -22.4816 -22.4578 -22.3900  -6.9237  -6.2828  -6.1179  -5.0831
    -5.0446  -5.0304  -4.8378  -4.7800   2.9416   5.6972   6.7745   6.9578
     7.2093   7.5241   8.3593   8.4073   8.5644  10.0448

          k = 0.0000 0.4286 0.2718 (  2514 PWs)   bands (ev):

   -45.8191 -22.4977 -22.4568 -22.3893  -6.8744  -6.2278  -6.0301  -5.0541
    -5.0453  -5.0444  -4.8588  -4.7112   2.7188   5.6388   6.4327   6.9417
     7.0462   7.4510   7.7997   8.3490   9.0421   9.7234

          k = 0.0000 0.4286 0.4077 (  2526 PWs)   bands (ev):

   -45.8189 -22.5105 -22.4561 -22.3887  -6.8548  -6.1757  -5.9332  -5.0561
    -5.0454  -5.0261  -4.8929  -4.6506   2.5512   5.4852   6.1284   6.9682
     7.0501   7.4145   7.4748   8.3437   9.2218   9.5692

          k = 0.1429 0.1429 0.0000 (  2498 PWs)   bands (ev):

   -45.8202 -22.4762 -22.4056 -22.4053  -7.3123  -6.3845  -6.1830  -5.0491
    -5.0408  -5.0108  -4.8670  -4.7489   3.6373   6.3109   6.4734   6.7615
     7.8062   8.0474   8.4419   8.5766   8.9119   9.1262

          k = 0.1429 0.1429 0.1359 (  2506 PWs)   bands (ev):

   -45.8201 -22.4835 -22.4052 -22.4050  -7.2467  -6.3723  -6.1612  -5.0478
    -5.0449  -5.0099  -4.8636  -4.7584   3.4600   6.2595   6.3161   6.9583
     7.7193   7.9341   8.3328   8.6409   8.9300   9.1102

          k = 0.1429 0.1429 0.2718 (  2522 PWs)   bands (ev):

   -45.8198 -22.4999 -22.4045 -22.4043  -7.0962  -6.3444  -6.1106  -5.0618
    -5.0307  -5.0073  -4.8608  -4.7820   3.1022   6.1355   6.1960   6.8567
     7.6077   7.6401   8.2807   8.7190   8.9641   9.3930

          k = 0.1429 0.1429 0.4077 (  2517 PWs)   bands (ev):

   -45.8197 -22.5130 -22.4039 -22.4038  -6.9728  -6.3215  -6.0675  -5.0712
    -5.0170  -5.0002  -4.8659  -4.8035   2.8498   5.9748   6.0317   6.6963
     7.5634   7.6088   8.2217   8.7487   8.9873   9.7327

          k = 0.1429 0.2857 0.0000 (  2508 PWs)   bands (ev):

   -45.8196 -22.4750 -22.4343 -22.4041  -7.0760  -6.3348  -6.1696  -5.0746
    -5.0352  -5.0071  -4.8495  -4.7486   3.1952   6.1529   6.5531   6.7053
     7.4697   7.8045   8.2556   8.6476   8.8550   9.4996

          k = 0.1429 0.2857 0.1359 (  2505 PWs)   bands (ev):

   -45.8195 -22.4822 -22.4340 -22.4038  -7.0214  -6.3309  -6.1471  -5.0667
    -5.0391  -5.0019  -4.8423  -4.7422   3.1130   6.0813   6.2884   6.7614
     7.3679   7.7830   8.2823   8.6365   8.8264   9.4798

          k = 0.1429 0.2857 0.2718 (  2506 PWs)   bands (ev):

   -45.8193 -22.4984 -22.4332 -22.4031  -6.9067  -6.3184  -6.0860  -5.0578
    -5.0354  -4.9857  -4.8392  -4.7226   2.9155   5.8674   6.1235   6.6093
     6.9895   7.5766   8.3978   8.6408   9.0100   9.4347

          k = 0.1429 0.2857 0.4077 (  2513 PWs)   bands (ev):

   -45.8191 -22.5113 -22.4325 -22.4025  -6.8270  -6.3020  -6.0243  -5.0603
    -5.0230  -4.9605  -4.8517  -4.7043   2.7517   5.6345   6.0798   6.3764
     6.8128   7.5080   8.3589   8.7021   9.1387   9.3763

          k = 0.1429 0.4286 0.0000 (  2525 PWs)   bands (ev):

   -45.8192 -22.4738 -22.4575 -22.4031  -6.8678  -6.2839  -6.1824  -5.0842
    -5.0269  -4.9933  -4.8301  -4.7790   2.9192   5.7194   6.6556   7.0417
     7.0589   7.6285   7.9866   8.6708   8.8698   9.9752

          k = 0.1429 0.4286 0.1359 (  2520 PWs)   bands (ev):

   -45.8191 -22.4810 -22.4571 -22.4028  -6.8330  -6.2735  -6.1615  -5.0732
    -5.0294  -4.9863  -4.8129  -4.7633   2.8804   5.7065   6.2799   6.7459
     7.2083   7.7646   7.9913   8.6849   8.7952   9.7811

          k = 0.1429 0.4286 0.2718 (  2510 PWs)   bands (ev):

   -45.8189 -22.4971 -22.4562 -22.4021  -6.7802  -6.2437  -6.0854  -5.0568
    -5.0223  -4.9713  -4.8161  -4.6926   2.7753   5.6339   5.9988   6.3046
     6.7918   7.7308   8.2014   8.5702   9.0353   9.4099

          k = 0.1429 0.4286 0.4077 (  2512 PWs)   bands (ev):

   -45.8187 -22.5099 -22.4555 -22.4015  -6.7622  -6.2151  -5.9952  -5.0551
    -5.0005  -4.9547  -4.8334  -4.6322   2.6759   5.4587   5.9398   6.1039
     6.4148   7.6408   8.3561   8.5021   8.7888   9.5548

          k = 0.2857 0.2857 0.0000 (  2524 PWs)   bands (ev):

   -45.8191 -22.4737 -22.4330 -22.4327  -6.8609  -6.2853  -6.2054  -5.0660
    -5.0313  -4.9650  -4.7938  -4.7460   2.8668   6.1722   6.2140   6.9107
     7.0636   7.3394   8.1264   8.5705   9.1844   9.5522

          k = 0.2857 0.2857 0.1359 (  2517 PWs)   bands (ev):

   -45.8190 -22.4809 -22.4327 -22.4324  -6.8075  -6.2960  -6.1915  -5.0541
    -5.0318  -4.9509  -4.7807  -4.7260   2.8868   6.0212   6.0744   6.3594
     7.0648   7.4554   8.4498   8.5480   9.1963   9.3557

          k = 0.2857 0.2857 0.2718 (  2504 PWs)   bands (ev):

   -45.8188 -22.4969 -22.4319 -22.4317  -6.7027  -6.3196  -6.1398  -5.0307
    -5.0266  -4.9157  -4.7536  -4.6834   2.9059   5.6660   5.6807   6.1774
     6.8740   6.9346   8.6064   9.0285   9.0466   9.2458

          k = 0.2857 0.2857 0.4077 (  2509 PWs)   bands (ev):

   -45.8186 -22.5098 -22.4313 -22.4311  -6.6391  -6.3381  -6.0725  -5.0283
    -5.0055  -4.8782  -4.7377  -4.6511   2.8890   5.4043   5.5545   5.9361
     6.5738   6.8228   8.3362   9.0911   9.1688   9.3717

          k = 0.2857 0.4286 0.0000 (  2518 PWs)   bands (ev):

   -45.8187 -22.4725 -22.4559 -22.4317  -6.6873  -6.2453  -6.2285  -5.0595
    -5.0118  -4.9055  -4.7771  -4.7548   2.6298   5.7267   6.2774   6.7519
     7.2099   7.4042   7.6612   8.5975   9.2559   9.4943

          k = 0.2857 0.4286 0.1359 (  2511 PWs)   bands (ev):

   -45.8186 -22.4796 -22.4556 -22.4314  -6.6377  -6.2585  -6.2287  -5.0462
    -5.0090  -4.8808  -4.7580  -4.7259   2.7011   5.7076   6.0379   6.1593
     6.8476   7.6274   8.1368   8.6281   9.0729   9.3868

          k = 0.2857 0.4286 0.2718 (  2505 PWs)   bands (ev):

   -45.8183 -22.4957 -22.4547 -22.4307  -6.5651  -6.2796  -6.1899  -5.0199
    -4.9975  -4.8345  -4.7175  -4.6513   2.8639   5.4274   5.5859   5.7734
     6.5396   7.0395   8.1231   9.0390   9.1019   9.3928

          k = 0.2857 0.4286 0.4077 (  2505 PWs)   bands (ev):

   -45.8182 -22.5085 -22.4541 -22.4301  -6.5508  -6.2953  -6.1079  -5.0091
    -4.9775  -4.7989  -4.6855  -4.5891   2.9885   5.1860   5.2844   5.6399
     6.2391   6.7858   7.5637   9.2250   9.3235   9.5725

          k = 0.4286 0.4286 0.0000 (  2512 PWs)   bands (ev):

   -45.8182 -22.4713 -22.4547 -22.4546  -6.5889  -6.2150  -6.2072  -5.0460
    -4.9713  -4.8356  -4.7904  -4.6993   2.3998   5.5650   6.0130   6.9205
     7.0207   7.4138   7.5951   8.3218   8.8093   9.7398

          k = 0.4286 0.4286 0.1359 (  2521 PWs)   bands (ev):

   -45.8181 -22.4784 -22.4543 -22.4543  -6.5208  -6.2408  -6.2378  -5.0317
    -4.9683  -4.7924  -4.7438  -4.6837   2.5261   5.5477   5.9418   6.1567
     6.3675   7.6944   8.1977   8.3668   8.5004   9.7360

          k = 0.4286 0.4286 0.2718 (  2512 PWs)   bands (ev):

   -45.8179 -22.4944 -22.4536 -22.4536  -6.3930  -6.3006  -6.2653  -4.9993
    -4.9639  -4.7127  -4.6419  -4.6321   2.8687   5.3575   5.4485   5.5333
     6.1298   6.8674   7.3057   9.1603   9.1715   9.7274

          k = 0.4286 0.4286 0.4077 (  2502 PWs)   bands (ev):

   -45.8177 -22.5072 -22.4530 -22.4530  -6.3841  -6.3462  -6.1843  -4.9734
    -4.9613  -4.6657  -4.5717  -4.5629   3.2482   4.9568   5.0642   5.4148
     6.1133   6.2937   6.5307   9.5655   9.5897   9.7197

     highest occupied level (ev):    10.1629

!    total energy              =    -380.57159436 Ry
     estimated scf accuracy    <          6.6E-09 Ry

     The total energy is the sum of the following terms:
     one-electron contribution =     -84.29917895 Ry
     hartree contribution      =      71.28550260 Ry
     xc contribution           =    -102.55159200 Ry
     ewald contribution        =    -265.00632602 Ry

     convergence has been achieved in   8 iterations

     negative rho (up, down):  1.525E-02 0.000E+00

     Forces acting on atoms (cartesian axes, Ry/au):

     atom    1 type  1   force =     0.00000000    0.00000000   -0.00852204
     atom    2 type  2   force =     0.00000000    0.00000000   -0.00495314
     atom    3 type  3   force =     0.00000000    0.00000000    0.01124463
     atom    4 type  3   force =     0.00000000    0.00000000    0.00111527
     atom    5 type  3   force =     0.00000000    0.00000000    0.00111527

     Total force =     0.015036     Total SCF correction =     0.000112


     Computing stress (Cartesian axis) and pressure


     negative rho (up, down):  1.525E-02 0.000E+00
          total   stress  (Ry/bohr**3)                   (kbar)     P=      -60.37
  -0.00042155   0.00000000   0.00000000          -62.01        0.00        0.00
   0.00000000  -0.00042155   0.00000000            0.00      -62.01        0.00
   0.00000000   0.00000000  -0.00038812            0.00        0.00      -57.09

     Energy error            =      4.8E-04 Ry
     Gradient error          =      1.1E-02 Ry/Bohr

     number of scf cycles    =   2
     number of bfgs steps    =   1

     energy             old  =    -380.5711123498 Ry
     energy             new  =    -380.5715943609 Ry

     CASE: energy            _new < energy            _old

     new trust radius        =       0.0220549069 bohr
     new conv_thr            =       0.0000000005 Ry


ATOMIC_POSITIONS (crystal)
Pb               0.0000000000        0.0000000000        1.0033771846
Ti               0.5000000000        0.5000000000        0.5375657516
O                0.5000000000        0.5000000000        0.1040146699
O                0.5000000000        0.0000000000        0.6111633410
O                0.0000000000        0.5000000000        0.6111633410



     Writing config-only to output data dir ./pto_k7.save/ :
     XML data file
     NEW-OLD atomic charge density approx. for the potential

     Check: negative core charge=   -0.000004

     negative rho (up, down):  1.514E-02 0.000E+00

     total cpu time spent up to now is       30.7 secs

     Self-consistent Calculation

     iteration #  1     ecut=    50.00 Ry     beta= 0.70
     CG style diagonalization
     c_bands:  1 eigenvalues not converged
     ethr =  1.00E-06,  avg # of iterations =  7.3

     negative rho (up, down):  1.511E-02 0.000E+00

     total cpu time spent up to now is       32.7 secs

     total energy              =    -380.57177025 Ry
     estimated scf accuracy    <       0.00022976 Ry

     iteration #  2     ecut=    50.00 Ry     beta= 0.70
     CG style diagonalization
     ethr =  5.22E-07,  avg # of iterations =  4.7

     negative rho (up, down):  1.511E-02 0.000E+00

     total cpu time spent up to now is       33.9 secs

     total energy              =    -380.57174243 Ry
     estimated scf accuracy    <       0.00065062 Ry

     iteration #  3     ecut=    50.00 Ry     beta= 0.70
     CG style diagonalization
     ethr =  5.22E-07,  avg # of iterations =  4.3

     negative rho (up, down):  1.511E-02 0.000E+00

     total cpu time spent up to now is       35.0 secs

     total energy              =    -380.57187156 Ry
     estimated scf accuracy    <       0.00005517 Ry

     iteration #  4     ecut=    50.00 Ry     beta= 0.70
     CG style diagonalization
     ethr =  1.25E-07,  avg # of iterations =  3.7

     negative rho (up, down):  1.511E-02 0.000E+00

     total cpu time spent up to now is       36.0 secs

     total energy              =    -380.57188479 Ry
     estimated scf accuracy    <       0.00000648 Ry

     iteration #  5     ecut=    50.00 Ry     beta= 0.70
     CG style diagonalization
     ethr =  1.47E-08,  avg # of iterations =  4.2

     negative rho (up, down):  1.511E-02 0.000E+00

     total cpu time spent up to now is       37.1 secs

     total energy              =    -380.57188838 Ry
     estimated scf accuracy    <       0.00000068 Ry

     iteration #  6     ecut=    50.00 Ry     beta= 0.70
     CG style diagonalization
     ethr =  1.56E-09,  avg # of iterations =  4.7

     negative rho (up, down):  1.511E-02 0.000E+00

     total cpu time spent up to now is       38.3 secs

     total energy              =    -380.57188886 Ry
     estimated scf accuracy    <       0.00000033 Ry

     iteration #  7     ecut=    50.00 Ry     beta= 0.70
     CG style diagonalization
     ethr =  7.59E-10,  avg # of iterations =  4.0

     negative rho (up, down):  1.511E-02 0.000E+00

     total cpu time spent up to now is       39.3 secs

     total energy              =    -380.57188894 Ry
     estimated scf accuracy    <       0.00000007 Ry

     iteration #  8     ecut=    50.00 Ry     beta= 0.70
     CG style diagonalization
     ethr =  1.48E-10,  avg # of iterations =  4.9

     negative rho (up, down):  1.511E-02 0.000E+00

     total cpu time spent up to now is       40.6 secs

     total energy              =    -380.57188898 Ry
     estimated scf accuracy    <          5.9E-09 Ry

     iteration #  9     ecut=    50.00 Ry     beta= 0.70
     CG style diagonalization
     ethr =  1.34E-11,  avg # of iterations =  6.7

     negative rho (up, down):  1.511E-02 0.000E+00

     total cpu time spent up to now is       42.4 secs

     End of self-consistent calculation

          k = 0.0000 0.0000 0.0000 (  2525 PWs)   bands (ev):

   -45.7864 -22.4668 -22.3584 -22.3584  -7.5151  -6.4313  -6.2219  -5.0282
    -5.0282  -4.9961  -4.8835  -4.7550   4.2053   6.3089   6.3089   6.6950
     8.1403   8.1403   8.4906   8.6632   8.9496   8.9496

          k = 0.0000 0.0000 0.1359 (  2529 PWs)   bands (ev):

   -45.7863 -22.4742 -22.3582 -22.3582  -7.4426  -6.4099  -6.2009  -5.0339
    -5.0339  -4.9956  -4.8802  -4.7810   3.8635   6.3295   6.3295   6.9283
     8.0468   8.0468   8.4581   8.5252   8.9935   8.9935

          k = 0.0000 0.0000 0.2718 (  2518 PWs)   bands (ev):

   -45.7861 -22.4908 -22.3575 -22.3575  -7.2714  -6.3591  -6.1573  -5.0467
    -5.0467  -4.9946  -4.8735  -4.8421   3.3093   6.3673   6.3673   6.6985
     7.8867   7.8867   8.3872   8.9906   9.0665   9.0665

          k = 0.0000 0.0000 0.4077 (  2518 PWs)   bands (ev):

   -45.7859 -22.5041 -22.3570 -22.3570  -7.1233  -6.3153  -6.1280  -5.0568
    -5.0568  -4.9937  -4.8942  -4.8690   2.9702   6.2453   6.3873   6.3873
     7.7949   7.7949   8.3324   9.1125   9.1125   9.8362

          k = 0.0000 0.1429 0.0000 (  2525 PWs)   bands (ev):

   -45.7862 -22.4663 -22.3715 -22.3579  -7.4148  -6.4101  -6.2020  -5.0451
    -5.0272  -5.0057  -4.8836  -4.7471   3.8777   6.3425   6.3907   6.7323
     8.0937   8.1598   8.4881   8.6314   8.6627   8.9866

          k = 0.0000 0.1429 0.1359 (  2517 PWs)   bands (ev):

   -45.7861 -22.4737 -22.3711 -22.3576  -7.3459  -6.3932  -6.1802  -5.0461
    -5.0330  -5.0053  -4.8813  -4.7640   3.6276   6.2646   6.4139   6.9364
     7.9036   8.0519   8.4299   8.5559   8.7240   9.0787

          k = 0.0000 0.1429 0.2718 (  2517 PWs)   bands (ev):

   -45.7859 -22.4902 -22.3704 -22.3569  -7.1856  -6.3532  -6.1322  -5.0465
    -5.0461  -5.0045  -4.8801  -4.8015   3.1737   6.1379   6.4559   6.8582
     7.6012   7.8853   8.3948   8.6177   8.8114   9.4256

          k = 0.0000 0.1429 0.4077 (  2523 PWs)   bands (ev):

   -45.7857 -22.5033 -22.3699 -22.3564  -7.0509  -6.3184  -6.0954  -5.0565
    -5.0460  -5.0039  -4.8831  -4.8311   2.8765   5.9291   6.4771   6.6079
     7.5207   7.7975   8.4896   8.6272   8.8622   9.8914

          k = 0.0000 0.2857 0.0000 (  2513 PWs)   bands (ev):

   -45.7857 -22.4650 -22.4006 -22.3567  -7.1739  -6.3620  -6.1650  -5.0740
    -5.0273  -5.0245  -4.8778  -4.7475   3.3505   6.1658   6.6035   6.6135
     8.0168   8.0537   8.2619   8.3833   8.6748   9.3099

          k = 0.0000 0.2857 0.1359 (  2513 PWs)   bands (ev):

   -45.7856 -22.4723 -22.4002 -22.3564  -7.1184  -6.3514  -6.1394  -5.0653
    -5.0311  -5.0268  -4.8740  -4.7465   3.2030   6.0887   6.6441   6.6524
     7.7479   7.9319   8.2651   8.3414   8.6136   9.4703

          k = 0.0000 0.2857 0.2718 (  2513 PWs)   bands (ev):

   -45.7853 -22.4886 -22.3993 -22.3557  -7.0009  -6.3204  -6.0737  -5.0447
    -5.0419  -5.0269  -4.8830  -4.7328   2.9011   5.8986   6.6092   6.6959
     7.4144   7.7361   7.7880   8.4238   8.9428   9.6110

          k = 0.0000 0.2857 0.4077 (  2512 PWs)   bands (ev):

   -45.7852 -22.5016 -22.3987 -22.3551  -6.9174  -6.2837  -6.0125  -5.0556
    -5.0268  -5.0197  -4.9031  -4.7161   2.6829   5.6486   6.4933   6.7153
     7.2493   7.5776   7.7342   8.4659   9.1247   9.6499

          k = 0.0000 0.4286 0.0000 (  2498 PWs)   bands (ev):

   -45.7852 -22.4638 -22.4238 -22.3557  -6.9594  -6.3096  -6.1613  -5.0928
    -5.0440  -5.0228  -4.8479  -4.7816   3.0455   5.7160   6.8403   6.9051
     7.4936   7.5808   8.2791   8.2908   8.7283  10.1552

          k = 0.0000 0.4286 0.1359 (  2511 PWs)   bands (ev):

   -45.7851 -22.4711 -22.4234 -22.3554  -6.9271  -6.2889  -6.1347  -5.0808
    -5.0442  -5.0292  -4.8332  -4.7713   2.9412   5.7048   6.7633   6.9575
     7.2026   7.5179   8.2997   8.3876   8.5534  10.0366

          k = 0.0000 0.4286 0.2718 (  2514 PWs)   bands (ev):

   -45.7849 -22.4872 -22.4224 -22.3547  -6.8762  -6.2348  -6.0476  -5.0515
    -5.0448  -5.0434  -4.8550  -4.7022   2.7192   5.6390   6.4260   6.9261
     7.0366   7.4384   7.8024   8.3140   9.0289   9.7146

          k = 0.0000 0.4286 0.4077 (  2526 PWs)   bands (ev):

   -45.7847 -22.5002 -22.4217 -22.3541  -6.8558  -6.1833  -5.9513  -5.0549
    -5.0450  -5.0232  -4.8887  -4.6424   2.5521   5.4719   6.1299   6.9518
     7.0270   7.4283   7.4680   8.3221   9.2170   9.5505

          k = 0.1429 0.1429 0.0000 (  2498 PWs)   bands (ev):

   -45.7860 -22.4657 -22.3710 -22.3707  -7.3162  -6.3881  -6.1934  -5.0484
    -5.0398  -5.0102  -4.8689  -4.7396   3.6335   6.3127   6.4746   6.7653
     7.7559   8.0380   8.4046   8.5713   8.9133   9.0834

          k = 0.1429 0.1429 0.1359 (  2506 PWs)   bands (ev):

   -45.7859 -22.4731 -22.3707 -22.3704  -7.2501  -6.3761  -6.1722  -5.0468
    -5.0439  -5.0093  -4.8657  -4.7490   3.4554   6.2560   6.3132   6.9612
     7.6832   7.9247   8.2933   8.6311   8.9295   9.0877

          k = 0.1429 0.1429 0.2718 (  2522 PWs)   bands (ev):

   -45.7856 -22.4895 -22.3700 -22.3698  -7.0982  -6.3484  -6.1230  -5.0608
    -5.0294  -5.0065  -4.8632  -4.7724   3.0947   6.1220   6.1842   6.8654
     7.5924   7.6215   8.2512   8.7066   8.9605   9.3935

          k = 0.1429 0.1429 0.4077 (  2517 PWs)   bands (ev):

   -45.7855 -22.5026 -22.3694 -22.3692  -6.9735  -6.3256  -6.0811  -5.0702
    -5.0162  -4.9985  -4.8685  -4.7937   2.8389   5.9642   6.0122   6.7042
     7.5593   7.5839   8.2042   8.7359   8.9827   9.7398

          k = 0.1429 0.2857 0.0000 (  2508 PWs)   bands (ev):

   -45.7854 -22.4644 -22.3999 -22.3696  -7.0809  -6.3399  -6.1819  -5.0732
    -5.0341  -5.0065  -4.8484  -4.7395   3.1928   6.1564   6.5451   6.7096
     7.4609   7.7555   8.2533   8.6307   8.8419   9.4750

          k = 0.1429 0.2857 0.1359 (  2505 PWs)   bands (ev):

   -45.7853 -22.4717 -22.3996 -22.3693  -7.0255  -6.3362  -6.1598  -5.0651
    -5.0380  -5.0016  -4.8417  -4.7328   3.1102   6.0796   6.2818   6.7627
     7.3507   7.7653   8.2622   8.6195   8.8132   9.4673

          k = 0.1429 0.2857 0.2718 (  2506 PWs)   bands (ev):

   -45.7851 -22.4880 -22.3987 -22.3686  -6.9093  -6.3237  -6.0998  -5.0568
    -5.0339  -4.9854  -4.8387  -4.7135   2.9115   5.8543   6.1137   6.6122
     6.9831   7.5731   8.3621   8.6376   8.9896   9.4364

          k = 0.1429 0.2857 0.4077 (  2513 PWs)   bands (ev):

   -45.7849 -22.5009 -22.3981 -22.3680  -6.8284  -6.3073  -6.0389  -5.0596
    -5.0218  -4.9596  -4.8511  -4.6955   2.7462   5.6149   6.0674   6.3842
     6.8111   7.5076   8.3250   8.7008   9.1171   9.3830

          k = 0.1429 0.4286 0.0000 (  2525 PWs)   bands (ev):

   -45.7850 -22.4633 -22.4231 -22.3686  -6.8732  -6.2902  -6.1967  -5.0820
    -5.0257  -4.9937  -4.8239  -4.7720   2.9168   5.7289   6.6389   7.0407
     7.0655   7.6330   7.9232   8.6617   8.8444   9.9679

          k = 0.1429 0.4286 0.1359 (  2520 PWs)   bands (ev):

   -45.7849 -22.4705 -22.4227 -22.3683  -6.8374  -6.2801  -6.1760  -5.0711
    -5.0281  -4.9872  -4.8085  -4.7546   2.8783   5.7143   6.2689   6.7434
     7.2029   7.7601   7.9553   8.6578   8.7851   9.7749

          k = 0.1429 0.4286 0.2718 (  2510 PWs)   bands (ev):

   -45.7847 -22.4866 -22.4218 -22.3675  -6.7829  -6.2506  -6.1006  -5.0554
    -5.0204  -4.9731  -4.8118  -4.6841   2.7738   5.6333   5.9887   6.2991
     6.7847   7.7284   8.1948   8.5377   9.0299   9.3968

          k = 0.1429 0.4286 0.4077 (  2512 PWs)   bands (ev):

   -45.7845 -22.4995 -22.4210 -22.3670  -6.7640  -6.2221  -6.0105  -5.0541
    -4.9988  -4.9568  -4.8284  -4.6243   2.6750   5.4435   5.9332   6.1023
     6.4126   7.6456   8.3458   8.4750   8.7938   9.5316

          k = 0.2857 0.2857 0.0000 (  2524 PWs)   bands (ev):

   -45.7849 -22.4631 -22.3987 -22.3983  -6.8677  -6.2915  -6.2168  -5.0638
    -5.0303  -4.9636  -4.7938  -4.7364   2.8623   6.1849   6.2096   6.9144
     7.0455   7.2920   8.1445   8.5513   9.1776   9.5349

          k = 0.2857 0.2857 0.1359 (  2517 PWs)   bands (ev):

   -45.7848 -22.4703 -22.3983 -22.3979  -6.8135  -6.3020  -6.2033  -5.0518
    -5.0309  -4.9502  -4.7807  -4.7165   2.8820   6.0240   6.0635   6.3611
     7.0496   7.4497   8.4267   8.5440   9.1888   9.3431

          k = 0.2857 0.2857 0.2718 (  2504 PWs)   bands (ev):

   -45.7846 -22.4865 -22.3975 -22.3972  -6.7069  -6.3250  -6.1524  -5.0302
    -5.0244  -4.9165  -4.7534  -4.6743   2.9000   5.6575   5.6695   6.1763
     6.8813   6.9362   8.5855   9.0190   9.0348   9.2328

          k = 0.2857 0.2857 0.4077 (  2509 PWs)   bands (ev):

   -45.7844 -22.4994 -22.3968 -22.3966  -6.6422  -6.3431  -6.0853  -5.0281
    -5.0036  -4.8805  -4.7371  -4.6422   2.8819   5.3928   5.5420   5.9349
     6.5778   6.8369   8.3298   9.0696   9.1655   9.3496

          k = 0.2857 0.4286 0.0000 (  2518 PWs)   bands (ev):

   -45.7845 -22.4619 -22.4215 -22.3973  -6.6957  -6.2542  -6.2376  -5.0571
    -5.0105  -4.9031  -4.7713  -4.7515   2.6235   5.7350   6.2887   6.7270
     7.2157   7.3548   7.6720   8.5881   9.2500   9.4945

          k = 0.2857 0.4286 0.1359 (  2511 PWs)   bands (ev):

   -45.7844 -22.4691 -22.4212 -22.3970  -6.6451  -6.2666  -6.2385  -5.0438
    -5.0079  -4.8805  -4.7533  -4.7206   2.6945   5.7146   6.0287   6.1602
     6.8402   7.6159   8.1293   8.6116   9.0686   9.3834

          k = 0.2857 0.4286 0.2718 (  2505 PWs)   bands (ev):

   -45.7841 -22.4852 -22.4203 -22.3962  -6.5700  -6.2863  -6.2012  -5.0183
    -4.9962  -4.8382  -4.7129  -4.6447   2.8566   5.4198   5.5776   5.7781
     6.5449   7.0406   8.1289   9.0124   9.0866   9.3843

          k = 0.2857 0.4286 0.4077 (  2505 PWs)   bands (ev):

   -45.7839 -22.4981 -22.4196 -22.3956  -6.5546  -6.3014  -6.1190  -5.0084
    -4.9756  -4.8055  -4.6806  -4.5825   2.9806   5.1783   5.2688   5.6477
     6.2434   6.7969   7.5725   9.1976   9.3192   9.5491

          k = 0.4286 0.4286 0.0000 (  2512 PWs)   bands (ev):

   -45.7840 -22.4607 -22.4203 -22.4202  -6.5994  -6.2238  -6.2157  -5.0435
    -4.9704  -4.8278  -4.7801  -4.7054   2.3902   5.5699   6.0358   6.8916
     6.9853   7.4162   7.6028   8.3164   8.8208   9.7366

          k = 0.4286 0.4286 0.1359 (  2521 PWs)   bands (ev):

   -45.7839 -22.4679 -22.4199 -22.4199  -6.5308  -6.2492  -6.2456  -5.0291
    -4.9677  -4.7871  -4.7341  -4.6888   2.5155   5.5528   5.9549   6.1434
     6.3617   7.6893   8.2022   8.3540   8.4942   9.7328

          k = 0.4286 0.4286 0.2718 (  2512 PWs)   bands (ev):

   -45.7837 -22.4840 -22.4192 -22.4191  -6.4003  -6.3071  -6.2740  -4.9969
    -4.9635  -4.7162  -4.6335  -4.6316   2.8552   5.3518   5.4404   5.5369
     6.1510   6.8643   7.3211   9.1380   9.1516   9.7242

          k = 0.4286 0.4286 0.4077 (  2502 PWs)   bands (ev):

   -45.7835 -22.4968 -22.4185 -22.4185  -6.3896  -6.3520  -6.1928  -4.9711
    -4.9609  -4.6754  -4.5678  -4.5556   3.2295   4.9515   5.0563   5.4225
     6.1366   6.2942   6.5463   9.5408   9.5675   9.7164

     highest occupied level (ev):    10.1552

!    total energy              =    -380.57188900 Ry
     estimated scf accuracy    <          4.1E-10 Ry

     The total energy is the sum of the following terms:
     one-electron contribution =     -84.63356829 Ry
     hartree contribution      =      71.46166526 Ry
     xc contribution           =    -102.56361369 Ry
     ewald contribution        =    -264.83637227 Ry

     convergence has been achieved in   9 iterations

     negative rho (up, down):  1.511E-02 0.000E+00

     Forces acting on atoms (cartesian axes, Ry/au):

     atom    1 type  1   force =     0.00000000    0.00000000   -0.00846202
     atom    2 type  2   force =     0.00000000    0.00000000    0.00263767
     atom    3 type  3   force =     0.00000000    0.00000000    0.00134897
     atom    4 type  3   force =     0.00000000    0.00000000    0.00223769
     atom    5 type  3   force =     0.00000000    0.00000000    0.00223769

     Total force =     0.009508     Total SCF correction =     0.000071


     Computing stress (Cartesian axis) and pressure


     negative rho (up, down):  1.511E-02 0.000E+00
          total   stress  (Ry/bohr**3)                   (kbar)     P=      -54.11
  -0.00040590   0.00000000   0.00000000          -59.71        0.00        0.00
   0.00000000  -0.00040590   0.00000000            0.00      -59.71        0.00
   0.00000000   0.00000000  -0.00029173            0.00        0.00      -42.92

     Energy error            =      2.9E-04 Ry
     Gradient error          =      8.5E-03 Ry/Bohr

     number of scf cycles    =   3
     number of bfgs steps    =   2

     energy             old  =    -380.5715943609 Ry
     energy             new  =    -380.5718890007 Ry

     CASE: energy            _new < energy            _old

     new trust radius        =       0.0193189520 bohr
     new conv_thr            =       0.0000000003 Ry


ATOMIC_POSITIONS (crystal)
Pb               0.0000000000        0.0000000000        1.0008837336
Ti               0.5000000000        0.5000000000        0.5372917136
O                0.5000000000        0.5000000000        0.1057786311
O                0.5000000000        0.0000000000        0.6116651048
O                0.0000000000        0.5000000000        0.6116651048



     Writing config-only to output data dir ./pto_k7.save/ :
     XML data file
     NEW-OLD atomic charge density approx. for the potential

     Check: negative core charge=   -0.000004

     negative rho (up, down):  1.492E-02 0.000E+00

     total cpu time spent up to now is       43.8 secs

     Self-consistent Calculation

     iteration #  1     ecut=    50.00 Ry     beta= 0.70
     CG style diagonalization
     ethr =  1.00E-06,  avg # of iterations =  5.8

     negative rho (up, down):  1.490E-02 0.000E+00

     total cpu time spent up to now is       45.5 secs

     total energy              =    -380.57199374 Ry
     estimated scf accuracy    <       0.00005865 Ry

     iteration #  2     ecut=    50.00 Ry     beta= 0.70
     CG style diagonalization
     ethr =  1.33E-07,  avg # of iterations =  4.8

     negative rho (up, down):  1.490E-02 0.000E+00

     total cpu time spent up to now is       46.8 secs

     total energy              =    -380.57199801 Ry
     estimated scf accuracy    <       0.00014624 Ry

     iteration #  3     ecut=    50.00 Ry     beta= 0.70
     CG style diagonalization
     ethr =  1.33E-07,  avg # of iterations =  4.3

     negative rho (up, down):  1.489E-02 0.000E+00

     total cpu time spent up to now is       47.9 secs

     total energy              =    -380.57202846 Ry
     estimated scf accuracy    <       0.00001723 Ry

     iteration #  4     ecut=    50.00 Ry     beta= 0.70
     CG style diagonalization
     ethr =  3.92E-08,  avg # of iterations =  3.7

     negative rho (up, down):  1.489E-02 0.000E+00

     total cpu time spent up to now is       48.8 secs

     total energy              =    -380.57203220 Ry
     estimated scf accuracy    <       0.00000232 Ry

     iteration #  5     ecut=    50.00 Ry     beta= 0.70
     CG style diagonalization
     ethr =  5.28E-09,  avg # of iterations =  4.1

     negative rho (up, down):  1.489E-02 0.000E+00

     total cpu time spent up to now is       49.9 secs

     total energy              =    -380.57203335 Ry
     estimated scf accuracy    <       0.00000009 Ry

     iteration #  6     ecut=    50.00 Ry     beta= 0.70
     CG style diagonalization
     ethr =  2.03E-10,  avg # of iterations =  6.2

     negative rho (up, down):  1.489E-02 0.000E+00

     total cpu time spent up to now is       51.5 secs

     total energy              =    -380.57203354 Ry
     estimated scf accuracy    <       0.00000019 Ry

     iteration #  7     ecut=    50.00 Ry     beta= 0.70
     CG style diagonalization
     ethr =  2.03E-10,  avg # of iterations =  4.0

     negative rho (up, down):  1.489E-02 0.000E+00

     total cpu time spent up to now is       52.5 secs

     total energy              =    -380.57203355 Ry
     estimated scf accuracy    <       0.00000004 Ry

     iteration #  8     ecut=    50.00 Ry     beta= 0.70
     CG style diagonalization
     ethr =  9.60E-11,  avg # of iterations =  4.0

     negative rho (up, down):  1.489E-02 0.000E+00

     total cpu time spent up to now is       53.6 secs

     total energy              =    -380.57203356 Ry
     estimated scf accuracy    <          3.3E-09 Ry

     iteration #  9     ecut=    50.00 Ry     beta= 0.70
     CG style diagonalization
     ethr =  7.51E-12,  avg # of iterations =  6.2

     negative rho (up, down):  1.489E-02 0.000E+00

     total cpu time spent up to now is       55.2 secs

     total energy              =    -380.57203357 Ry
     estimated scf accuracy    <          3.7E-10 Ry

     iteration # 10     ecut=    50.00 Ry     beta= 0.70
     CG style diagonalization
     ethr =  8.44E-13,  avg # of iterations =  6.2

     negative rho (up, down):  1.489E-02 0.000E+00

     total cpu time spent up to now is       56.8 secs

     End of self-consistent calculation

          k = 0.0000 0.0000 0.0000 (  2525 PWs)   bands (ev):

   -45.7728 -22.4645 -22.3452 -22.3452  -7.5255  -6.4458  -6.2227  -5.0223
    -5.0223  -4.9891  -4.8834  -4.7404   4.2018   6.2995   6.2995   6.7293
     8.1104   8.1104   8.4840   8.6337   8.9382   8.9382

          k = 0.0000 0.0000 0.1359 (  2529 PWs)   bands (ev):

   -45.7727 -22.4720 -22.3449 -22.3449  -7.4536  -6.4249  -6.2016  -5.0280
    -5.0280  -4.9886  -4.8797  -4.7660   3.8620   6.3184   6.3184   6.9575
     8.0212   8.0212   8.4514   8.5021   8.9812   8.9812

          k = 0.0000 0.0000 0.2718 (  2518 PWs)   bands (ev):

   -45.7725 -22.4886 -22.3443 -22.3443  -7.2836  -6.3754  -6.1575  -5.0407
    -5.0407  -4.9875  -4.8719  -4.8258   3.3081   6.3516   6.3516   6.7134
     7.8697   7.8697   8.3805   8.9849   9.0531   9.0531

          k = 0.0000 0.0000 0.4077 (  2518 PWs)   bands (ev):

   -45.7723 -22.5018 -22.3437 -22.3437  -7.1371  -6.3327  -6.1273  -5.0509
    -5.0509  -4.9867  -4.8767  -4.8665   2.9676   6.2582   6.3674   6.3674
     7.7846   7.7846   8.3256   9.0983   9.0983   9.8343

          k = 0.0000 0.1429 0.0000 (  2525 PWs)   bands (ev):

   -45.7726 -22.4640 -22.3583 -22.3447  -7.4254  -6.4251  -6.2043  -5.0393
    -5.0213  -4.9986  -4.8812  -4.7324   3.8763   6.3358   6.3812   6.7472
     8.0797   8.1295   8.4784   8.6100   8.6524   8.9727

          k = 0.0000 0.1429 0.1359 (  2517 PWs)   bands (ev):

   -45.7725 -22.4714 -22.3580 -22.3444  -7.3569  -6.4085  -6.1823  -5.0400
    -5.0271  -4.9983  -4.8789  -4.7489   3.6274   6.2561   6.4027   6.9478
     7.8916   8.0261   8.4127   8.5448   8.7124   9.0682

          k = 0.0000 0.1429 0.2718 (  2517 PWs)   bands (ev):

   -45.7723 -22.4879 -22.3572 -22.3437  -7.1980  -6.3694  -6.1336  -5.0401
    -5.0397  -4.9975  -4.8771  -4.7861   3.1739   6.1253   6.4403   6.8675
     7.5874   7.8676   8.3837   8.6064   8.7992   9.4228

          k = 0.0000 0.1429 0.4077 (  2523 PWs)   bands (ev):

   -45.7721 -22.5011 -22.3567 -22.3432  -7.0646  -6.3354  -6.0959  -5.0505
    -5.0387  -4.9969  -4.8788  -4.8158   2.8757   5.9199   6.4574   6.6100
     7.5118   7.7861   8.4753   8.6158   8.8496   9.8943

          k = 0.0000 0.2857 0.0000 (  2513 PWs)   bands (ev):

   -45.7720 -22.4627 -22.3874 -22.3435  -7.1846  -6.3780  -6.1709  -5.0677
    -5.0203  -5.0184  -4.8706  -4.7328   3.3514   6.1573   6.6036   6.6045
     8.0049   8.0443   8.2300   8.3747   8.6534   9.3120

          k = 0.0000 0.2857 0.1359 (  2513 PWs)   bands (ev):

   -45.7719 -22.4700 -22.3871 -22.3432  -7.1297  -6.3674  -6.1449  -5.0586
    -5.0251  -5.0197  -4.8675  -4.7313   3.2048   6.0792   6.6329   6.6506
     7.7379   7.9145   8.2538   8.3206   8.6008   9.4705

          k = 0.0000 0.2857 0.2718 (  2513 PWs)   bands (ev):

   -45.7717 -22.4863 -22.3862 -22.3425  -7.0134  -6.3368  -6.0780  -5.0387
    -5.0346  -5.0198  -4.8765  -4.7181   2.9040   5.8848   6.6095   6.6807
     7.4002   7.7329   7.7710   8.4097   8.9278   9.6154

          k = 0.0000 0.2857 0.4077 (  2512 PWs)   bands (ev):

   -45.7715 -22.4993 -22.3855 -22.3419  -6.9309  -6.3009  -6.0156  -5.0496
    -5.0197  -5.0114  -4.8960  -4.7022   2.6860   5.6336   6.4960   6.6963
     7.2407   7.5664   7.7204   8.4542   9.1083   9.6596

          k = 0.0000 0.4286 0.0000 (  2498 PWs)   bands (ev):

   -45.7716 -22.4615 -22.4108 -22.3425  -6.9704  -6.3256  -6.1713  -5.0854
    -5.0369  -5.0168  -4.8347  -4.7694   3.0472   5.7120   6.8305   6.8941
     7.4872   7.5761   8.2537   8.2690   8.7051  10.1583

          k = 0.0000 0.4286 0.1359 (  2511 PWs)   bands (ev):

   -45.7715 -22.4688 -22.4103 -22.3422  -6.9388  -6.3053  -6.1434  -5.0732
    -5.0371  -5.0232  -4.8233  -4.7564   2.9440   5.7001   6.7526   6.9458
     7.1931   7.5084   8.2697   8.3740   8.5419  10.0396

          k = 0.0000 0.4286 0.2718 (  2514 PWs)   bands (ev):

   -45.7713 -22.4850 -22.4093 -22.3415  -6.8889  -6.2522  -6.0540  -5.0435
    -5.0380  -5.0371  -4.8454  -4.6881   2.7240   5.6310   6.4195   6.9069
     7.0223   7.4241   7.8011   8.2945   9.0175   9.7186

          k = 0.0000 0.4286 0.4077 (  2526 PWs)   bands (ev):

   -45.7711 -22.4979 -22.4086 -22.3409  -6.8688  -6.2021  -5.9561  -5.0489
    -5.0379  -5.0148  -4.8781  -4.6296   2.5582   5.4588   6.1266   6.9276
     7.0092   7.4331   7.4534   8.3081   9.2204   9.5420

          k = 0.1429 0.1429 0.0000 (  2498 PWs)   bands (ev):

   -45.7723 -22.4634 -22.3579 -22.3575  -7.3268  -6.4036  -6.1969  -5.0426
    -5.0338  -5.0031  -4.8650  -4.7246   3.6320   6.3057   6.4701   6.7688
     7.7327   8.0253   8.3893   8.5637   8.9023   9.0641

          k = 0.1429 0.1429 0.1359 (  2506 PWs)   bands (ev):

   -45.7722 -22.4708 -22.3575 -22.3572  -7.2612  -6.3918  -6.1753  -5.0406
    -5.0377  -5.0023  -4.8619  -4.7339   3.4549   6.2471   6.3062   6.9626
     7.6660   7.9146   8.2738   8.6211   8.9178   9.0782

          k = 0.1429 0.1429 0.2718 (  2522 PWs)   bands (ev):

   -45.7720 -22.4872 -22.3568 -22.3566  -7.1107  -6.3647  -6.1251  -5.0544
    -5.0225  -4.9997  -4.8595  -4.7570   3.0949   6.1096   6.1726   6.8689
     7.5836   7.6044   8.2361   8.6949   8.9473   9.3945

          k = 0.1429 0.1429 0.4077 (  2517 PWs)   bands (ev):

   -45.7718 -22.5003 -22.3562 -22.3560  -6.9874  -6.3424  -6.0820  -5.0636
    -5.0091  -4.9918  -4.8645  -4.7779   2.8386   5.9568   5.9978   6.7023
     7.5549   7.5633   8.1936   8.7242   8.9683   9.7448

          k = 0.1429 0.2857 0.0000 (  2508 PWs)   bands (ev):

   -45.7718 -22.4621 -22.3868 -22.3564  -7.0914  -6.3564  -6.1883  -5.0665
    -5.0279  -4.9995  -4.8413  -4.7244   3.1910   6.1498   6.5361   6.7095
     7.4483   7.7341   8.2473   8.6184   8.8262   9.4689

          k = 0.1429 0.2857 0.1359 (  2505 PWs)   bands (ev):

   -45.7717 -22.4694 -22.3864 -22.3561  -7.0367  -6.3526  -6.1655  -5.0582
    -5.0316  -4.9948  -4.8350  -4.7178   3.1093   6.0712   6.2731   6.7594
     7.3375   7.7561   8.2475   8.6069   8.7985   9.4654

          k = 0.1429 0.2857 0.2718 (  2506 PWs)   bands (ev):

   -45.7715 -22.4857 -22.3856 -22.3554  -6.9220  -6.3400  -6.1037  -5.0501
    -5.0267  -4.9790  -4.8322  -4.6989   2.9121   5.8419   6.1013   6.6115
     6.9737   7.5675   8.3427   8.6255   8.9758   9.4402

          k = 0.1429 0.2857 0.4077 (  2513 PWs)   bands (ev):

   -45.7713 -22.4987 -22.3849 -22.3548  -6.8422  -6.3239  -6.0411  -5.0532
    -5.0147  -4.9532  -4.8441  -4.6816   2.7474   5.6012   6.0544   6.3849
     6.8005   7.5020   8.3094   8.6863   9.1068   9.3882

          k = 0.1429 0.4286 0.0000 (  2525 PWs)   bands (ev):

   -45.7714 -22.4609 -22.4100 -22.3554  -6.8837  -6.3068  -6.2064  -5.0746
    -5.0193  -4.9871  -4.8117  -4.7588   2.9147   5.7253   6.6253   7.0346
     7.0608   7.6302   7.8955   8.6484   8.8266   9.9703

          k = 0.1429 0.4286 0.1359 (  2520 PWs)   bands (ev):

   -45.7713 -22.4682 -22.4096 -22.3551  -6.8488  -6.2967  -6.1841  -5.0636
    -5.0216  -4.9812  -4.7984  -4.7399   2.8772   5.7099   6.2567   6.7364
     7.1960   7.7517   7.9376   8.6401   8.7715   9.7787

          k = 0.1429 0.4286 0.2718 (  2510 PWs)   bands (ev):

   -45.7710 -22.4843 -22.4087 -22.3543  -6.7958  -6.2675  -6.1054  -5.0485
    -5.0133  -4.9678  -4.8019  -4.6704   2.7751   5.6252   5.9739   6.2920
     6.7792   7.7230   8.1811   8.5197   9.0222   9.3979

          k = 0.1429 0.4286 0.4077 (  2512 PWs)   bands (ev):

   -45.7709 -22.4972 -22.4079 -22.3538  -6.7773  -6.2397  -6.0132  -5.0477
    -4.9918  -4.9518  -4.8177  -4.6119   2.6780   5.4304   5.9190   6.0933
     6.4103   7.6420   8.3314   8.4597   8.8029   9.5180

          k = 0.2857 0.2857 0.0000 (  2524 PWs)   bands (ev):

   -45.7713 -22.4608 -22.3856 -22.3851  -6.8771  -6.3092  -6.2251  -5.0566
    -5.0235  -4.9559  -4.7867  -4.7208   2.8554   6.1836   6.2000   6.9127
     7.0336   7.2749   8.1444   8.5416   9.1619   9.5325

          k = 0.2857 0.2857 0.1359 (  2517 PWs)   bands (ev):

   -45.7712 -22.4680 -22.3852 -22.3848  -6.8239  -6.3192  -6.2101  -5.0444
    -5.0242  -4.9433  -4.7737  -4.7014   2.8755   6.0198   6.0530   6.3551
     7.0431   7.4458   8.4127   8.5360   9.1731   9.3435

          k = 0.2857 0.2857 0.2718 (  2504 PWs)   bands (ev):

   -45.7709 -22.4842 -22.3844 -22.3841  -6.7196  -6.3414  -6.1558  -5.0237
    -5.0169  -4.9110  -4.7467  -4.6601   2.8948   5.6508   5.6565   6.1695
     6.8819   6.9352   8.5767   9.0061   9.0326   9.2173

          k = 0.2857 0.2857 0.4077 (  2509 PWs)   bands (ev):

   -45.7708 -22.4971 -22.3837 -22.3835  -6.6565  -6.3587  -6.0859  -5.0218
    -4.9962  -4.8764  -4.7302  -4.6287   2.8779   5.3860   5.5242   5.9314
     6.5749   6.8394   8.3365   9.0577   9.1503   9.3352

          k = 0.2857 0.4286 0.0000 (  2518 PWs)   bands (ev):

   -45.7708 -22.4596 -22.4085 -22.3842  -6.7027  -6.2706  -6.2517  -5.0497
    -5.0034  -4.8944  -4.7603  -4.7394   2.6132   5.7309   6.2868   6.7156
     7.2122   7.3382   7.6696   8.5813   9.2445   9.4915

          k = 0.2857 0.4286 0.1359 (  2511 PWs)   bands (ev):

   -45.7707 -22.4668 -22.4081 -22.3838  -6.6536  -6.2826  -6.2498  -5.0363
    -5.0009  -4.8738  -4.7429  -4.7079   2.6841   5.7101   6.0215   6.1556
     6.8353   7.6114   8.1211   8.5995   9.0745   9.3695

          k = 0.2857 0.4286 0.2718 (  2505 PWs)   bands (ev):

   -45.7705 -22.4829 -22.4072 -22.3831  -6.5825  -6.3024  -6.2046  -5.0112
    -4.9893  -4.8347  -4.7029  -4.6326   2.8465   5.4111   5.5697   5.7753
     6.5438   7.0402   8.1403   8.9967   9.0753   9.3693

          k = 0.2857 0.4286 0.4077 (  2505 PWs)   bands (ev):

   -45.7703 -22.4958 -22.4065 -22.3825  -6.5687  -6.3173  -6.1184  -5.0018
    -4.9684  -4.8040  -4.6708  -4.5713   2.9714   5.1651   5.2596   5.6467
     6.2426   6.7983   7.5918   9.1818   9.3034   9.5352

          k = 0.4286 0.4286 0.0000 (  2512 PWs)   bands (ev):

   -45.7704 -22.4584 -22.4072 -22.4071  -6.6003  -6.2419  -6.2354  -5.0359
    -4.9632  -4.8145  -4.7639  -4.7023   2.3738   5.5642   6.0394   6.8835
     6.9766   7.4098   7.5972   8.3146   8.8331   9.7211

          k = 0.4286 0.4286 0.1359 (  2521 PWs)   bands (ev):

   -45.7703 -22.4656 -22.4069 -22.4068  -6.5320  -6.2654  -6.2641  -5.0216
    -4.9607  -4.7766  -4.7190  -4.6847   2.4980   5.5474   5.9558   6.1383
     6.3598   7.6878   8.2051   8.3441   8.4962   9.7173

          k = 0.4286 0.4286 0.2718 (  2512 PWs)   bands (ev):

   -45.7701 -22.4817 -22.4061 -22.4060  -6.4087  -6.3235  -6.2800  -4.9894
    -4.9567  -4.7134  -4.6234  -4.6208   2.8333   5.3485   5.4378   5.5328
     6.1552   6.8631   7.3421   9.1250   9.1393   9.7088

          k = 0.4286 0.4286 0.4077 (  2502 PWs)   bands (ev):

   -45.7699 -22.4945 -22.4054 -22.4054  -6.4043  -6.3670  -6.1903  -4.9636
    -4.9542  -4.6765  -4.5587  -4.5446   3.2005   4.9487   5.0547   5.4207
     6.1411   6.2964   6.5712   9.5268   9.5546   9.7009

     highest occupied level (ev):    10.1583

!    total energy              =    -380.57203357 Ry
     estimated scf accuracy    <          1.3E-10 Ry

     The total energy is the sum of the following terms:
     one-electron contribution =     -84.95524767 Ry
     hartree contribution      =      71.62603662 Ry
     xc contribution           =    -102.57217452 Ry
     ewald contribution        =    -264.67064800 Ry

     convergence has been achieved in  10 iterations

     negative rho (up, down):  1.489E-02 0.000E+00

     Forces acting on atoms (cartesian axes, Ry/au):

     atom    1 type  1   force =     0.00000000    0.00000000   -0.00704772
     atom    2 type  2   force =     0.00000000    0.00000000    0.00536633
     atom    3 type  3   force =     0.00000000    0.00000000   -0.00362814
     atom    4 type  3   force =     0.00000000    0.00000000    0.00265476
     atom    5 type  3   force =     0.00000000    0.00000000    0.00265476

     Total force =     0.010282     Total SCF correction =     0.000017


     Computing stress (Cartesian axis) and pressure


     negative rho (up, down):  1.489E-02 0.000E+00
          total   stress  (Ry/bohr**3)                   (kbar)     P=      -49.66
  -0.00038923   0.00000000   0.00000000          -57.26        0.00        0.00
   0.00000000  -0.00038923   0.00000000            0.00      -57.26        0.00
   0.00000000   0.00000000  -0.00023433            0.00        0.00      -34.47

     Energy error            =      1.4E-04 Ry
     Gradient error          =      7.0E-03 Ry/Bohr

     number of scf cycles    =   4
     number of bfgs steps    =   3

     energy             old  =    -380.5718890007 Ry
     energy             new  =    -380.5720335681 Ry

     CASE: energy            _new < energy            _old

     new trust radius        =       0.0331879909 bohr
     new conv_thr            =       0.0000000001 Ry


ATOMIC_POSITIONS (crystal)
Pb               0.0000000000        0.0000000000        0.9966002389
Ti               0.5000000000        0.5000000000        0.5377294455
O                0.5000000000        0.5000000000        0.1074669368
O                0.5000000000        0.0000000000        0.6127438334
O                0.0000000000        0.5000000000        0.6127438334



     Writing config-only to output data dir ./pto_k7.save/ :
     XML data file
     NEW-OLD atomic charge density approx. for the potential

     Check: negative core charge=   -0.000004

     negative rho (up, down):  1.529E-02 0.000E+00

     total cpu time spent up to now is       58.3 secs

     Self-consistent Calculation

     iteration #  1     ecut=    50.00 Ry     beta= 0.70
     CG style diagonalization
     c_bands:  1 eigenvalues not converged
     c_bands:  1 eigenvalues not converged
     ethr =  1.00E-06,  avg # of iterations =  6.8

     negative rho (up, down):  1.524E-02 0.000E+00

     total cpu time spent up to now is       60.2 secs

     total energy              =    -380.57217624 Ry
     estimated scf accuracy    <       0.00004972 Ry

     iteration #  2     ecut=    50.00 Ry     beta= 0.70
     CG style diagonalization
     ethr =  1.13E-07,  avg # of iterations =  4.6

     negative rho (up, down):  1.522E-02 0.000E+00

     total cpu time spent up to now is       61.4 secs

     total energy              =    -380.57218763 Ry
     estimated scf accuracy    <       0.00003679 Ry

     iteration #  3     ecut=    50.00 Ry     beta= 0.70
     CG style diagonalization
     ethr =  8.36E-08,  avg # of iterations =  4.3

     negative rho (up, down):  1.521E-02 0.000E+00

     total cpu time spent up to now is       62.5 secs

     total energy              =    -380.57219747 Ry
     estimated scf accuracy    <       0.00002848 Ry

     iteration #  4     ecut=    50.00 Ry     beta= 0.70
     CG style diagonalization
     ethr =  6.47E-08,  avg # of iterations =  3.6

     negative rho (up, down):  1.521E-02 0.000E+00

     total cpu time spent up to now is       63.4 secs

     total energy              =    -380.57220222 Ry
     estimated scf accuracy    <       0.00000038 Ry

     iteration #  5     ecut=    50.00 Ry     beta= 0.70
     CG style diagonalization
     ethr =  8.70E-10,  avg # of iterations =  6.1

     negative rho (up, down):  1.521E-02 0.000E+00

     total cpu time spent up to now is       65.0 secs

     total energy              =    -380.57220317 Ry
     estimated scf accuracy    <       0.00000037 Ry

     iteration #  6     ecut=    50.00 Ry     beta= 0.70
     CG style diagonalization
     ethr =  8.31E-10,  avg # of iterations =  3.6

     negative rho (up, down):  1.521E-02 0.000E+00

     total cpu time spent up to now is       65.9 secs

     total energy              =    -380.57220320 Ry
     estimated scf accuracy    <       0.00000006 Ry

     iteration #  7     ecut=    50.00 Ry     beta= 0.70
     CG style diagonalization
     ethr =  1.35E-10,  avg # of iterations =  4.8

     negative rho (up, down):  1.521E-02 0.000E+00

     total cpu time spent up to now is       67.1 secs

     total energy              =    -380.57220324 Ry
     estimated scf accuracy    <          6.6E-09 Ry

     iteration #  8     ecut=    50.00 Ry     beta= 0.70
     CG style diagonalization
     ethr =  1.49E-11,  avg # of iterations =  6.4

     negative rho (up, down):  1.521E-02 0.000E+00

     total cpu time spent up to now is       68.8 secs

     total energy              =    -380.57220326 Ry
     estimated scf accuracy    <          2.6E-09 Ry

     iteration #  9     ecut=    50.00 Ry     beta= 0.70
     CG style diagonalization
     ethr =  5.93E-12,  avg # of iterations =  4.8

     negative rho (up, down):  1.521E-02 0.000E+00

     total cpu time spent up to now is       70.0 secs

     total energy              =    -380.57220326 Ry
     estimated scf accuracy    <          3.0E-10 Ry

     iteration # 10     ecut=    50.00 Ry     beta= 0.70
     CG style diagonalization
     ethr =  6.76E-13,  avg # of iterations =  6.7

     negative rho (up, down):  1.521E-02 0.000E+00

     total cpu time spent up to now is       71.8 secs

     End of self-consistent calculation

          k = 0.0000 0.0000 0.0000 (  2525 PWs)   bands (ev):

   -45.7713 -22.4679 -22.3452 -22.3452  -7.5497  -6.4804  -6.2174  -5.0082
    -5.0082  -4.9713  -4.8777  -4.7116   4.2019   6.2771   6.2771   6.7778
     8.0976   8.0976   8.4689   8.6142   8.9081   8.9081

          k = 0.0000 0.0000 0.1359 (  2529 PWs)   bands (ev):

   -45.7712 -22.4753 -22.3449 -22.3449  -7.4793  -6.4604  -6.1954  -5.0139
    -5.0139  -4.9709  -4.8731  -4.7362   3.8673   6.2948   6.2948   6.9975
     8.0101   8.0101   8.4364   8.4863   8.9507   8.9507

          k = 0.0000 0.0000 0.2718 (  2518 PWs)   bands (ev):

   -45.7710 -22.4919 -22.3442 -22.3442  -7.3139  -6.4133  -6.1486  -5.0265
    -5.0265  -4.9698  -4.8633  -4.7935   3.3173   6.3254   6.3254   6.7346
     7.8625   7.8625   8.3655   8.9820   9.0211   9.0211

          k = 0.0000 0.0000 0.4077 (  2518 PWs)   bands (ev):

   -45.7708 -22.5051 -22.3437 -22.3437  -7.1722  -6.3730  -6.1150  -5.0367
    -5.0367  -4.9689  -4.8559  -4.8419   2.9774   6.2752   6.3392   6.3392
     7.7804   7.7804   8.3107   9.0649   9.0649   9.8295

          k = 0.0000 0.1429 0.0000 (  2525 PWs)   bands (ev):

   -45.7711 -22.4673 -22.3583 -22.3446  -7.4494  -6.4603  -6.2012  -5.0253
    -5.0071  -4.9809  -4.8721  -4.7032   3.8780   6.3186   6.3581   6.7677
     8.0804   8.1163   8.4605   8.5884   8.6241   8.9544

          k = 0.0000 0.1429 0.1359 (  2517 PWs)   bands (ev):

   -45.7710 -22.4747 -22.3579 -22.3443  -7.3827  -6.4444  -6.1783  -5.0253
    -5.0129  -4.9805  -4.8695  -4.7192   3.6329   6.2376   6.3786   6.9626
     7.8894   8.0138   8.3939   8.5284   8.6844   9.0522

          k = 0.0000 0.1429 0.2718 (  2517 PWs)   bands (ev):

   -45.7707 -22.4912 -22.3572 -22.3437  -7.2282  -6.4070  -6.1266  -5.0259
    -5.0239  -4.9798  -4.8664  -4.7553   3.1834   6.1060   6.4137   6.8769
     7.5779   7.8584   8.3602   8.5919   8.7705   9.4178

          k = 0.0000 0.1429 0.4077 (  2523 PWs)   bands (ev):

   -45.7706 -22.5044 -22.3566 -22.3431  -7.0996  -6.3746  -6.0854  -5.0363
    -5.0220  -4.9792  -4.8663  -4.7847   2.8864   5.9083   6.4290   6.6082
     7.5049   7.7796   8.4415   8.6017   8.8196   9.8968

          k = 0.0000 0.2857 0.0000 (  2513 PWs)   bands (ev):

   -45.7705 -22.4660 -22.3875 -22.3434  -7.2086  -6.4142  -6.1739  -5.0524
    -5.0048  -5.0019  -4.8542  -4.7035   3.3549   6.1361   6.5787   6.6077
     7.9885   8.0295   8.2041   8.3543   8.6343   9.3263

          k = 0.0000 0.2857 0.1359 (  2513 PWs)   bands (ev):

   -45.7704 -22.4733 -22.3871 -22.3431  -7.1556  -6.4035  -6.1464  -5.0427
    -5.0109  -5.0020  -4.8519  -4.7016   3.2110   6.0584   6.6072   6.6481
     7.7223   7.8970   8.2418   8.2984   8.5825   9.4784

          k = 0.0000 0.2857 0.2718 (  2513 PWs)   bands (ev):

   -45.7702 -22.4896 -22.3863 -22.3424  -7.0437  -6.3733  -6.0757  -5.0245
    -5.0173  -5.0020  -4.8604  -4.6893   2.9143   5.8632   6.6065   6.6537
     7.3763   7.7245   7.7538   8.3886   8.9117   9.6243

          k = 0.0000 0.2857 0.4077 (  2512 PWs)   bands (ev):

   -45.7700 -22.5026 -22.3856 -22.3419  -6.9646  -6.3392  -6.0093  -5.0354
    -5.0020  -4.9928  -4.8788  -4.6750   2.6985   5.6150   6.4920   6.6685
     7.2254   7.5394   7.7041   8.4325   9.0959   9.6728

          k = 0.0000 0.4286 0.0000 (  2498 PWs)   bands (ev):

   -45.7701 -22.4648 -22.4109 -22.3425  -6.9952  -6.3613  -6.1803  -5.0683
    -5.0190  -5.0026  -4.8091  -4.7434   3.0522   5.6940   6.8214   6.8648
     7.4706   7.5607   8.2308   8.2470   8.6844  10.1735

          k = 0.0000 0.4286 0.1359 (  2511 PWs)   bands (ev):

   -45.7700 -22.4721 -22.4104 -22.3421  -6.9658  -6.3414  -6.1491  -5.0558
    -5.0192  -5.0090  -4.8025  -4.7269   2.9513   5.6816   6.7381   6.9164
     7.1761   7.4907   8.2495   8.3588   8.5229  10.0549

          k = 0.0000 0.4286 0.2718 (  2514 PWs)   bands (ev):

   -45.7698 -22.4882 -22.4095 -22.3414  -6.9196  -6.2902  -6.0535  -5.0254
    -5.0233  -5.0197  -4.8245  -4.6607   2.7357   5.6110   6.4092   6.8744
     6.9951   7.4002   7.7950   8.2781   9.0028   9.7364

          k = 0.0000 0.4286 0.4077 (  2526 PWs)   bands (ev):

   -45.7696 -22.5012 -22.4087 -22.3409  -6.9008  -6.2430  -5.9516  -5.0346
    -5.0201  -4.9962  -4.8554  -4.6048   2.5728   5.4389   6.1170   6.8829
     6.9860   7.4229   7.4323   8.2937   9.2366   9.5363

          k = 0.1429 0.1429 0.0000 (  2498 PWs)   bands (ev):

   -45.7708 -22.4667 -22.3578 -22.3575  -7.3506  -6.4396  -6.1959  -5.0283
    -5.0192  -4.9858  -4.8533  -4.6951   3.6318   6.2859   6.4564   6.7753
     7.7223   8.0034   8.3845   8.5488   8.8734   9.0557

          k = 0.1429 0.1429 0.1359 (  2506 PWs)   bands (ev):

   -45.7707 -22.4741 -22.3575 -22.3572  -7.2867  -6.4282  -6.1730  -5.0257
    -5.0227  -4.9851  -4.8503  -4.7043   3.4581   6.2274   6.2908   6.9638
     7.6572   7.8986   8.2612   8.6043   8.8888   9.0757

          k = 0.1429 0.1429 0.2718 (  2522 PWs)   bands (ev):

   -45.7705 -22.4905 -22.3567 -22.3565  -7.1409  -6.4022  -6.1190  -5.0390
    -5.0063  -4.9828  -4.8478  -4.7268   3.1028   6.0904   6.1534   6.8701
     7.5769   7.5798   8.2251   8.6764   8.9173   9.3973

          k = 0.1429 0.1429 0.4077 (  2517 PWs)   bands (ev):

   -45.7703 -22.5036 -22.3561 -22.3560  -7.0222  -6.3808  -6.0720  -5.0480
    -4.9916  -4.9761  -4.8519  -4.7470   2.8484   5.9466   5.9792   6.6905
     7.5353   7.5490   8.1834   8.7060   8.9364   9.7516

          k = 0.1429 0.2857 0.0000 (  2508 PWs)   bands (ev):

   -45.7703 -22.4654 -22.3869 -22.3564  -7.1145  -6.3934  -6.1927  -5.0505
    -5.0129  -4.9822  -4.8244  -4.6947   3.1884   6.1298   6.5205   6.7063
     7.4251   7.7272   8.2349   8.6025   8.7997   9.4765

          k = 0.1429 0.2857 0.1359 (  2505 PWs)   bands (ev):

   -45.7702 -22.4727 -22.3865 -22.3561  -7.0619  -6.3893  -6.1678  -5.0418
    -5.0163  -4.9779  -4.8187  -4.6882   3.1094   6.0517   6.2575   6.7498
     7.3214   7.7504   8.2304   8.5894   8.7736   9.4730

          k = 0.1429 0.2857 0.2718 (  2506 PWs)   bands (ev):

   -45.7700 -22.4890 -22.3856 -22.3554  -6.9521  -6.3766  -6.1007  -5.0342
    -5.0099  -4.9628  -4.8161  -4.6705   2.9174   5.8230   6.0792   6.6065
     6.9570   7.5578   8.3283   8.5971   8.9604   9.4489

          k = 0.1429 0.2857 0.4077 (  2513 PWs)   bands (ev):

   -45.7698 -22.5019 -22.3850 -22.3548  -6.8761  -6.3612  -6.0332  -5.0376
    -4.9974  -4.9375  -4.8270  -4.6545   2.7557   5.5845   6.0322   6.3804
     6.7759   7.4890   8.3022   8.6506   9.1013   9.3956

          k = 0.1429 0.4286 0.0000 (  2525 PWs)   bands (ev):

   -45.7699 -22.4643 -22.4102 -22.3554  -6.9063  -6.3434  -6.2165  -5.0576
    -5.0042  -4.9701  -4.7872  -4.7315   2.9112   5.7076   6.6083   7.0211
     7.0415   7.6202   7.8850   8.6225   8.8064   9.9835

          k = 0.1429 0.4286 0.1359 (  2520 PWs)   bands (ev):

   -45.7698 -22.4715 -22.4097 -22.3550  -6.8742  -6.3330  -6.1903  -5.0466
    -5.0063  -4.9649  -4.7771  -4.7107   2.8760   5.6919   6.2376   6.7211
     7.1836   7.7359   7.9275   8.6205   8.7464   9.7943

          k = 0.1429 0.4286 0.2718 (  2510 PWs)   bands (ev):

   -45.7695 -22.4876 -22.4088 -22.3543  -6.8262  -6.3046  -6.1032  -5.0322
    -4.9969  -4.9525  -4.7808  -4.6437   2.7792   5.6061   5.9468   6.2793
     6.7718   7.7128   8.1535   8.5039   9.0096   9.4117

          k = 0.1429 0.4286 0.4077 (  2512 PWs)   bands (ev):

   -45.7693 -22.5005 -22.4080 -22.3537  -6.8095  -6.2784  -6.0058  -5.0321
    -4.9753  -4.9371  -4.7954  -4.5877   2.6862   5.4121   5.8884   6.0734
     6.4069   7.6289   8.3046   8.4460   8.8237   9.5049

          k = 0.2857 0.2857 0.0000 (  2524 PWs)   bands (ev):

   -45.7697 -22.4641 -22.3856 -22.3852  -6.8963  -6.3483  -6.2345  -5.0402
    -5.0072  -4.9377  -4.7687  -4.6905   2.8417   6.1683   6.1799   6.9065
     7.0206   7.2767   8.1279   8.5359   9.1287   9.5432

          k = 0.2857 0.2857 0.1359 (  2517 PWs)   bands (ev):

   -45.7696 -22.4713 -22.3852 -22.3848  -6.8460  -6.3575  -6.2156  -5.0277
    -5.0080  -4.9261  -4.7561  -4.6720   2.8632   6.0068   6.0371   6.3386
     7.0418   7.4421   8.4003   8.5195   9.1405   9.3564

          k = 0.2857 0.2857 0.2718 (  2504 PWs)   bands (ev):

   -45.7694 -22.4875 -22.3844 -22.3841  -6.7487  -6.3778  -6.1521  -5.0078
    -4.9998  -4.8960  -4.7298  -4.6327   2.8868   5.6350   5.6423   6.1529
     6.8775   6.9322   8.5763   8.9819   9.0370   9.1911

          k = 0.2857 0.2857 0.4077 (  2509 PWs)   bands (ev):

   -45.7692 -22.5004 -22.3837 -22.3835  -6.6903  -6.3938  -6.0759  -5.0062
    -4.9793  -4.8633  -4.7134  -4.6027   2.8741   5.3799   5.4916   5.9230
     6.5649   6.8336   8.3617   9.0472   9.1147   9.3198

          k = 0.2857 0.4286 0.0000 (  2518 PWs)   bands (ev):

   -45.7693 -22.4629 -22.4086 -22.3842  -6.7146  -6.3073  -6.2733  -5.0329
    -4.9866  -4.8749  -4.7380  -4.7121   2.5925   5.7133   6.2711   6.7119
     7.1982   7.3436   7.6537   8.5740   9.2320   9.4880

          k = 0.2857 0.4286 0.1359 (  2511 PWs)   bands (ev):

   -45.7692 -22.4701 -22.4082 -22.3839  -6.6705  -6.3183  -6.2643  -5.0194
    -4.9843  -4.8570  -4.7209  -4.6810   2.6635   5.6929   6.0132   6.1435
     6.8305   7.6112   8.1085   8.5847   9.0926   9.3382

          k = 0.2857 0.4286 0.2718 (  2505 PWs)   bands (ev):

   -45.7690 -22.4862 -22.4073 -22.3831  -6.6110  -6.3380  -6.2012  -4.9946
    -4.9728  -4.8220  -4.6818  -4.6080   2.8270   5.3974   5.5581   5.7637
     6.5362   7.0392   8.1648   8.9820   9.0611   9.3397

          k = 0.2857 0.4286 0.4077 (  2505 PWs)   bands (ev):

   -45.7688 -22.4990 -22.4066 -22.3825  -6.6011  -6.3523  -6.1068  -4.9857
    -4.9518  -4.7937  -4.6507  -4.5490   2.9549   5.1402   5.2519   5.6362
     6.2372   6.7922   7.6330   9.1674   9.2674   9.5221

          k = 0.4286 0.4286 0.0000 (  2512 PWs)   bands (ev):

   -45.7689 -22.4617 -22.4073 -22.4072  -6.5939  -6.2785  -6.2772  -5.0190
    -4.9459  -4.7886  -4.7328  -4.6884   2.3412   5.5455   6.0279   6.8920
     6.9892   7.3913   7.5755   8.3158   8.8542   9.6848

          k = 0.4286 0.4286 0.1359 (  2521 PWs)   bands (ev):

   -45.7688 -22.4688 -22.4070 -22.4069  -6.5281  -6.3037  -6.2969  -5.0047
    -4.9436  -4.7557  -4.6901  -4.6688   2.4629   5.5293   5.9471   6.1389
     6.3608   7.6893   8.2084   8.3316   8.5077   9.6811

          k = 0.4286 0.4286 0.2718 (  2512 PWs)   bands (ev):

   -45.7686 -22.4849 -22.4062 -22.4061  -6.4293  -6.3590  -6.2816  -4.9725
    -4.9398  -4.7024  -4.6038  -4.5965   2.7901   5.3467   5.4396   5.5190
     6.1466   6.8637   7.3814   9.1130   9.1271   9.6728

          k = 0.4286 0.4286 0.4077 (  2502 PWs)   bands (ev):

   -45.7684 -22.4978 -22.4055 -22.4055  -6.4368  -6.3999  -6.1762  -4.9468
    -4.9374  -4.6693  -4.5397  -4.5235   3.1444   4.9480   5.0588   5.4083
     6.1314   6.3004   6.6216   9.5149   9.5430   9.6649

     highest occupied level (ev):    10.1735

!    total energy              =    -380.57220326 Ry
     estimated scf accuracy    <          1.2E-10 Ry

     The total energy is the sum of the following terms:
     one-electron contribution =     -85.44260478 Ry
     hartree contribution      =      71.86989479 Ry
     xc contribution           =    -102.58207539 Ry
     ewald contribution        =    -264.41741787 Ry

     convergence has been achieved in  10 iterations

     negative rho (up, down):  1.521E-02 0.000E+00

     Forces acting on atoms (cartesian axes, Ry/au):

     atom    1 type  1   force =     0.00000000    0.00000000   -0.00338042
     atom    2 type  2   force =     0.00000000    0.00000000    0.00451233
     atom    3 type  3   force =     0.00000000    0.00000000   -0.00602065
     atom    4 type  3   force =     0.00000000    0.00000000    0.00244437
     atom    5 type  3   force =     0.00000000    0.00000000    0.00244437

     Total force =     0.008944     Total SCF correction =     0.000025


     Computing stress (Cartesian axis) and pressure


     negative rho (up, down):  1.521E-02 0.000E+00
          total   stress  (Ry/bohr**3)                   (kbar)     P=      -44.74
  -0.00036319   0.00000000   0.00000000          -53.43        0.00        0.00
   0.00000000  -0.00036319   0.00000000            0.00      -53.43        0.00
   0.00000000   0.00000000  -0.00018597            0.00        0.00      -27.36

     Energy error            =      1.7E-04 Ry
     Gradient error          =      6.0E-03 Ry/Bohr

     number of scf cycles    =   5
     number of bfgs steps    =   4

     energy             old  =    -380.5720335681 Ry
     energy             new  =    -380.5722032578 Ry

     CASE: energy            _new < energy            _old

     new trust radius        =       0.0213863918 bohr
     new conv_thr            =       0.0000000002 Ry


ATOMIC_POSITIONS (crystal)
Pb               0.0000000000        0.0000000000        0.9938399483
Ti               0.5000000000        0.5000000000        0.5384365536
O                0.5000000000        0.5000000000        0.1076527523
O                0.5000000000        0.0000000000        0.6136775169
O                0.0000000000        0.5000000000        0.6136775169



     Writing config-only to output data dir ./pto_k7.save/ :
     XML data file
     NEW-OLD atomic charge density approx. for the potential

     Check: negative core charge=   -0.000004

     negative rho (up, down):  1.557E-02 0.000E+00

     total cpu time spent up to now is       73.3 secs

     Self-consistent Calculation

     iteration #  1     ecut=    50.00 Ry     beta= 0.70
     CG style diagonalization
     c_bands:  1 eigenvalues not converged
     c_bands:  1 eigenvalues not converged
     c_bands:  1 eigenvalues not converged
     c_bands:  1 eigenvalues not converged
     ethr =  1.00E-06,  avg # of iterations =  6.2

     Threshold (ethr) on eigenvalues was too large:
     Diagonalizing with lowered threshold

     CG style diagonalization
     c_bands:  1 eigenvalues not converged
     c_bands:  1 eigenvalues not converged
     c_bands:  2 eigenvalues not converged
     c_bands:  1 eigenvalues not converged
     c_bands:  1 eigenvalues not converged
     c_bands:  1 eigenvalues not converged
     c_bands:  1 eigenvalues not converged
     c_bands:  1 eigenvalues not converged
     c_bands:  2 eigenvalues not converged
     c_bands:  1 eigenvalues not converged
     ethr =  7.84E-08,  avg # of iterations =  5.7

     negative rho (up, down):  1.554E-02 0.000E+00

     total cpu time spent up to now is       76.6 secs

     total energy              =    -380.57226434 Ry
     estimated scf accuracy    <       0.00003322 Ry

     iteration #  2     ecut=    50.00 Ry     beta= 0.70
     CG style diagonalization
     ethr =  7.55E-08,  avg # of iterations =  4.6

     negative rho (up, down):  1.553E-02 0.000E+00

     total cpu time spent up to now is       77.8 secs

     total energy              =    -380.57226522 Ry
     estimated scf accuracy    <       0.00004190 Ry

     iteration #  3     ecut=    50.00 Ry     beta= 0.70
     CG style diagonalization
     ethr =  7.55E-08,  avg # of iterations =  4.1

     negative rho (up, down):  1.552E-02 0.000E+00

     total cpu time spent up to now is       78.9 secs

     total energy              =    -380.57227488 Ry
     estimated scf accuracy    <       0.00001304 Ry

     iteration #  4     ecut=    50.00 Ry     beta= 0.70
     CG style diagonalization
     ethr =  2.96E-08,  avg # of iterations =  3.6

     negative rho (up, down):  1.552E-02 0.000E+00

     total cpu time spent up to now is       79.8 secs

     total energy              =    -380.57227727 Ry
     estimated scf accuracy    <       0.00000123 Ry

     iteration #  5     ecut=    50.00 Ry     beta= 0.70
     CG style diagonalization
     ethr =  2.80E-09,  avg # of iterations =  4.1

     negative rho (up, down):  1.552E-02 0.000E+00

     total cpu time spent up to now is       80.8 secs

     total energy              =    -380.57227787 Ry
     estimated scf accuracy    <       0.00000030 Ry

     iteration #  6     ecut=    50.00 Ry     beta= 0.70
     CG style diagonalization
     ethr =  6.88E-10,  avg # of iterations =  4.1

     negative rho (up, down):  1.551E-02 0.000E+00

     total cpu time spent up to now is       81.9 secs

     total energy              =    -380.57227797 Ry
     estimated scf accuracy    <       0.00000005 Ry

     iteration #  7     ecut=    50.00 Ry     beta= 0.70
     CG style diagonalization
     ethr =  1.19E-10,  avg # of iterations =  5.0

     negative rho (up, down):  1.552E-02 0.000E+00

     total cpu time spent up to now is       83.2 secs

     total energy              =    -380.57227801 Ry
     estimated scf accuracy    <          4.6E-09 Ry

     iteration #  8     ecut=    50.00 Ry     beta= 0.70
     CG style diagonalization
     ethr =  1.03E-11,  avg # of iterations =  6.2

     negative rho (up, down):  1.552E-02 0.000E+00

     total cpu time spent up to now is       84.8 secs

     total energy              =    -380.57227802 Ry
     estimated scf accuracy    <          4.8E-10 Ry

     iteration #  9     ecut=    50.00 Ry     beta= 0.70
     CG style diagonalization
     ethr =  1.09E-12,  avg # of iterations =  7.0

     negative rho (up, down):  1.552E-02 0.000E+00

     total cpu time spent up to now is       86.7 secs

     End of self-consistent calculation

          k = 0.0000 0.0000 0.0000 (  2525 PWs)   bands (ev):

   -45.7841 -22.4745 -22.3594 -22.3594  -7.5699  -6.5085  -6.2096  -4.9963
    -4.9963  -4.9560  -4.8702  -4.6898   4.2065   6.2575   6.2575   6.8024
     8.1117   8.1117   8.4560   8.6200   8.8818   8.8818

          k = 0.0000 0.0000 0.1359 (  2529 PWs)   bands (ev):

   -45.7840 -22.4819 -22.3591 -22.3591  -7.5009  -6.4892  -6.1867  -5.0020
    -5.0020  -4.9555  -4.8650  -4.7136   3.8761   6.2754   6.2754   7.0167
     8.0222   8.0222   8.4236   8.4907   8.9249   8.9249

          k = 0.0000 0.0000 0.2718 (  2518 PWs)   bands (ev):

   -45.7838 -22.4985 -22.3584 -22.3584  -7.3395  -6.4439  -6.1373  -5.0147
    -5.0147  -4.9544  -4.8537  -4.7691   3.3307   6.3068   6.3068   6.7452
     7.8716   7.8716   8.3529   8.9843   8.9949   8.9949

          k = 0.0000 0.0000 0.4077 (  2518 PWs)   bands (ev):

   -45.7836 -22.5117 -22.3579 -22.3579  -7.2022  -6.4052  -6.1007  -5.0248
    -5.0248  -4.9536  -4.8449  -4.8159   2.9930   6.2828   6.3215   6.3215
     7.7875   7.7875   8.2981   9.0377   9.0377   9.8257

          k = 0.0000 0.1429 0.0000 (  2525 PWs)   bands (ev):

   -45.7839 -22.4740 -22.3725 -22.3588  -7.4695  -6.4888  -6.1949  -5.0132
    -4.9952  -4.9655  -4.8627  -4.6812   3.8818   6.3037   6.3380   6.7781
     8.0943   8.1305   8.4477   8.5824   8.5987   8.9472

          k = 0.0000 0.1429 0.1359 (  2517 PWs)   bands (ev):

   -45.7838 -22.4813 -22.3721 -22.3585  -7.4042  -6.4734  -6.1709  -5.0129
    -5.0010  -4.9652  -4.8600  -4.6967   3.6402   6.2227   6.3587   6.9694
     7.8981   8.0245   8.3876   8.5188   8.6611   9.0439

          k = 0.0000 0.1429 0.2718 (  2517 PWs)   bands (ev):

   -45.7835 -22.4978 -22.3714 -22.3579  -7.2538  -6.4372  -6.1164  -5.0140
    -5.0108  -4.9644  -4.8558  -4.7322   3.1954   6.0932   6.3947   6.8789
     7.5806   7.8657   8.3423   8.5850   8.7471   9.4152

          k = 0.0000 0.1429 0.4077 (  2523 PWs)   bands (ev):

   -45.7834 -22.5109 -22.3708 -22.3573  -7.1293  -6.4060  -6.0720  -5.0244
    -5.0084  -4.9638  -4.8544  -4.7611   2.9009   5.9018   6.4111   6.6029
     7.5066   7.7847   8.4138   8.5951   8.7952   9.8978

          k = 0.0000 0.2857 0.0000 (  2513 PWs)   bands (ev):

   -45.7833 -22.4727 -22.4017 -22.3576  -7.2286  -6.4430  -6.1713  -5.0393
    -4.9928  -4.9867  -4.8406  -4.6814   3.3583   6.1187   6.5569   6.6119
     7.9810   8.0181   8.2059   8.3366   8.6324   9.3422

          k = 0.0000 0.2857 0.1359 (  2513 PWs)   bands (ev):

   -45.7832 -22.4799 -22.4013 -22.3573  -7.1773  -6.4324  -6.1424  -5.0292
    -4.9989  -4.9867  -4.8387  -4.6793   3.2168   6.0420   6.5857   6.6475
     7.7138   7.8916   8.2379   8.2927   8.5726   9.4884

          k = 0.0000 0.2857 0.2718 (  2513 PWs)   bands (ev):

   -45.7830 -22.4962 -22.4005 -22.3566  -7.0693  -6.4025  -6.0682  -5.0126
    -5.0030  -4.9867  -4.8467  -4.6678   2.9244   5.8496   6.6035   6.6337
     7.3616   7.7174   7.7495   8.3776   8.9068   9.6317

          k = 0.0000 0.2857 0.4077 (  2512 PWs)   bands (ev):

   -45.7828 -22.5092 -22.3998 -22.3561  -6.9929  -6.3699  -5.9984  -5.0235
    -4.9866  -4.9777  -4.8641  -4.6545   2.7111   5.6061   6.4859   6.6507
     7.2153   7.5174   7.6983   8.4187   9.0964   9.6807

          k = 0.0000 0.4286 0.0000 (  2498 PWs)   bands (ev):

   -45.7829 -22.4715 -22.4251 -22.3566  -7.0158  -6.3899  -6.1808  -5.0542
    -5.0037  -4.9908  -4.7904  -4.7228   3.0561   5.6766   6.8223   6.8395
     7.4569   7.5451   8.2284   8.2398   8.6822  10.1896

          k = 0.0000 0.4286 0.1359 (  2511 PWs)   bands (ev):

   -45.7828 -22.4787 -22.4247 -22.3563  -6.9882  -6.3703  -6.1471  -5.0416
    -5.0039  -4.9971  -4.7862  -4.7047   2.9572   5.6642   6.7323   6.8913
     7.1654   7.4771   8.2550   8.3533   8.5105  10.0712

          k = 0.0000 0.4286 0.2718 (  2514 PWs)   bands (ev):

   -45.7826 -22.4948 -22.4237 -22.3556  -6.9451  -6.3206  -6.0464  -5.0114
    -5.0107  -5.0044  -4.8077  -4.6404   2.7453   5.5947   6.4038   6.8546
     6.9742   7.3846   7.7886   8.2787   8.9968   9.7543

          k = 0.0000 0.4286 0.4077 (  2526 PWs)   bands (ev):

   -45.7824 -22.5077 -22.4229 -22.3550  -6.9274  -6.2753  -5.9415  -5.0227
    -5.0048  -4.9812  -4.8372  -4.5863   2.5848   5.4270   6.1099   6.8526
     6.9724   7.4002   7.4261   8.2917   9.2549   9.5372

          k = 0.1429 0.1429 0.0000 (  2498 PWs)   bands (ev):

   -45.7836 -22.4734 -22.3720 -22.3717  -7.3704  -6.4685  -6.1908  -5.0160
    -5.0068  -4.9709  -4.8422  -4.6729   3.6332   6.2673   6.4440   6.7797
     7.7325   7.9885   8.3937   8.5378   8.8489   9.0653

          k = 0.1429 0.1429 0.1359 (  2506 PWs)   bands (ev):

   -45.7835 -22.4807 -22.3717 -22.3714  -7.3081  -6.4575  -6.1667  -5.0132
    -5.0100  -4.9703  -4.8393  -4.6820   3.4628   6.2107   6.2784   6.9637
     7.6642   7.8884   8.2655   8.5929   8.8652   9.0829

          k = 0.1429 0.1429 0.2718 (  2522 PWs)   bands (ev):

   -45.7833 -22.4971 -22.3709 -22.3707  -7.1664  -6.4323  -6.1093  -5.0261
    -4.9927  -4.9684  -4.8365  -4.7041   3.1127   6.0775   6.1403   6.8682
     7.5658   7.5787   8.2275   8.6640   8.8941   9.4009

          k = 0.1429 0.1429 0.4077 (  2517 PWs)   bands (ev):

   -45.7831 -22.5102 -22.3703 -22.3702  -7.0517  -6.4116  -6.0590  -5.0349
    -4.9768  -4.9630  -4.8399  -4.7238   2.8611   5.9405   5.9688   6.6779
     7.5202   7.5478   8.1831   8.6939   8.9120   9.7559

          k = 0.1429 0.2857 0.0000 (  2508 PWs)   bands (ev):

   -45.7831 -22.4721 -22.4011 -22.3706  -7.1336  -6.4230  -6.1912  -5.0372
    -5.0003  -4.9673  -4.8101  -4.6724   3.1868   6.1116   6.5089   6.7039
     7.4090   7.7408   8.2259   8.5941   8.7836   9.4922

          k = 0.1429 0.2857 0.1359 (  2505 PWs)   bands (ev):

   -45.7830 -22.4793 -22.4007 -22.3703  -7.0828  -6.4187  -6.1644  -5.0281
    -5.0035  -4.9632  -4.8049  -4.6660   3.1103   6.0356   6.2468   6.7407
     7.3152   7.7540   8.2242   8.5802   8.7575   9.4848

          k = 0.1429 0.2857 0.2718 (  2506 PWs)   bands (ev):

   -45.7828 -22.4956 -22.3999 -22.3695  -6.9774  -6.4058  -6.0928  -5.0209
    -4.9959  -4.9487  -4.8023  -4.6492   2.9232   5.8111   6.0641   6.6005
     6.9468   7.5526   8.3296   8.5746   8.9552   9.4566

          k = 0.1429 0.2857 0.4077 (  2513 PWs)   bands (ev):

   -45.7826 -22.5085 -22.3992 -22.3690  -6.9045  -6.3910  -6.0214  -5.0245
    -4.9828  -4.9240  -4.8125  -4.6341   2.7649   5.5765   6.0168   6.3752
     6.7568   7.4794   8.3094   8.6212   9.1052   9.4002

          k = 0.1429 0.4286 0.0000 (  2525 PWs)   bands (ev):

   -45.7826 -22.4709 -22.4244 -22.3696  -6.9251  -6.3726  -6.2184  -5.0437
    -4.9915  -4.9551  -4.7687  -4.7103   2.9085   5.6903   6.6008   7.0093
     7.0244   7.6112   7.9002   8.6028   8.8000   9.9979

          k = 0.1429 0.4286 0.1359 (  2520 PWs)   bands (ev):

   -45.7825 -22.4781 -22.4240 -22.3692  -6.8955  -6.3621  -6.1889  -5.0326
    -4.9935  -4.9502  -4.7603  -4.6888   2.8753   5.6748   6.2269   6.7083
     7.1753   7.7257   7.9344   8.6137   8.7285   9.8101

          k = 0.1429 0.4286 0.2718 (  2510 PWs)   bands (ev):

   -45.7823 -22.4942 -22.4230 -22.3685  -6.8514  -6.3343  -6.0955  -5.0187
    -4.9834  -4.9384  -4.7641  -4.6238   2.7829   5.5910   5.9286   6.2709
     6.7677   7.7068   8.1336   8.5024   9.0027   9.4275

          k = 0.1429 0.4286 0.4077 (  2512 PWs)   bands (ev):

   -45.7821 -22.5071 -22.4223 -22.3679  -6.8361  -6.3092  -5.9944  -5.0191
    -4.9615  -4.9234  -4.7780  -4.5696   2.6933   5.4022   5.8652   6.0589
     6.4046   7.6171   8.2842   8.4460   8.8420   9.5022

          k = 0.2857 0.2857 0.0000 (  2524 PWs)   bands (ev):

   -45.7825 -22.4707 -22.3998 -22.3994  -6.9120  -6.3792  -6.2370  -5.0267
    -4.9935  -4.9224  -4.7533  -4.6679   2.8315   6.1504   6.1644   6.8988
     7.0195   7.2966   8.1088   8.5396   9.1033   9.5591

          k = 0.2857 0.2857 0.1359 (  2517 PWs)   bands (ev):

   -45.7824 -22.4779 -22.3994 -22.3991  -6.8643  -6.3878  -6.2149  -5.0140
    -4.9943  -4.9114  -4.7410  -4.6502   2.8542   5.9942   6.0280   6.3245
     7.0482   7.4422   8.4001   8.5075   9.1161   9.3721

          k = 0.2857 0.2857 0.2718 (  2504 PWs)   bands (ev):

   -45.7822 -22.4941 -22.3986 -22.3983  -6.7730  -6.4068  -6.1441  -4.9942
    -4.9859  -4.8825  -4.7153  -4.6123   2.8817   5.6222   5.6377   6.1381
     6.8733   6.9308   8.5861   8.9635   9.0446   9.1755

          k = 0.2857 0.2857 0.4077 (  2509 PWs)   bands (ev):

   -45.7820 -22.5070 -22.3979 -22.3977  -6.7182  -6.4218  -6.0631  -4.9927
    -4.9652  -4.8508  -4.6993  -4.5834   2.8732   5.3786   5.4696   5.9150
     6.5567   6.8258   8.3879   9.0456   9.0853   9.3156

          k = 0.2857 0.4286 0.0000 (  2518 PWs)   bands (ev):

   -45.7821 -22.4695 -22.4228 -22.3984  -6.7247  -6.3375  -6.2838  -5.0191
    -4.9725  -4.8588  -4.7203  -4.6906   2.5769   5.6963   6.2534   6.7185
     7.1858   7.3672   7.6377   8.5731   9.2195   9.4894

          k = 0.2857 0.4286 0.1359 (  2511 PWs)   bands (ev):

   -45.7820 -22.4767 -22.4224 -22.3981  -6.6852  -6.3476  -6.2690  -5.0056
    -4.9703  -4.8423  -4.7035  -4.6603   2.6480   5.6765   6.0102   6.1330
     6.8304   7.6166   8.1027   8.5793   9.1084   9.3140

          k = 0.2857 0.4286 0.2718 (  2505 PWs)   bands (ev):

   -45.7818 -22.4928 -22.4216 -22.3974  -6.6346  -6.3665  -6.1933  -4.9808
    -4.9590  -4.8092  -4.6654  -4.5894   2.8126   5.3900   5.5514   5.7523
     6.5288   7.0402   8.1848   8.9797   9.0542   9.3190

          k = 0.2857 0.4286 0.4077 (  2505 PWs)   bands (ev):

   -45.7816 -22.5056 -22.4209 -22.3968  -6.6275  -6.3801  -6.0934  -4.9721
    -4.9380  -4.7819  -4.6351  -4.5321   2.9431   5.1237   5.2514   5.6235
     6.2326   6.7851   7.6656   9.1648   9.2393   9.5201

          k = 0.4286 0.4286 0.0000 (  2512 PWs)   bands (ev):

   -45.7817 -22.4683 -22.4215 -22.4215  -6.5868  -6.3096  -6.3048  -5.0053
    -4.9312  -4.7693  -4.7100  -4.6738   2.3168   5.5286   6.0111   6.9097
     7.0132   7.3768   7.5561   8.3201   8.8687   9.6554

          k = 0.4286 0.4286 0.1359 (  2521 PWs)   bands (ev):

   -45.7816 -22.4755 -22.4212 -22.4211  -6.5247  -6.3346  -6.3178  -4.9909
    -4.9290  -4.7393  -4.6690  -4.6533   2.4367   5.5126   5.9357   6.1451
     6.3650   7.6934   8.2112   8.3269   8.5202   9.6517

          k = 0.4286 0.4286 0.2718 (  2512 PWs)   bands (ev):

   -45.7814 -22.4915 -22.4204 -22.4204  -6.4496  -6.3871  -6.2755  -4.9587
    -4.9254  -4.6904  -4.5876  -4.5786   2.7582   5.3473   5.4445   5.5070
     6.1335   6.8666   7.4098   9.1119   9.1248   9.6435

          k = 0.4286 0.4286 0.4077 (  2502 PWs)   bands (ev):

   -45.7812 -22.5043 -22.4198 -22.4197  -6.4628  -6.4261  -6.1617  -4.9330
    -4.9230  -4.6588  -4.5250  -4.5078   3.1036   4.9510   5.0657   5.3940
     6.1165   6.3045   6.6599   9.5145   9.5415   9.6361

     highest occupied level (ev):    10.1896

!    total energy              =    -380.57227802 Ry
     estimated scf accuracy    <          1.0E-10 Ry

     The total energy is the sum of the following terms:
     one-electron contribution =     -85.71678621 Ry
     hartree contribution      =      72.00358993 Ry
     xc contribution           =    -102.58547321 Ry
     ewald contribution        =    -264.27360853 Ry

     convergence has been achieved in   9 iterations

     negative rho (up, down):  1.552E-02 0.000E+00

     Forces acting on atoms (cartesian axes, Ry/au):

     atom    1 type  1   force =     0.00000000    0.00000000   -0.00027702
     atom    2 type  2   force =     0.00000000    0.00000000    0.00060557
     atom    3 type  3   force =     0.00000000    0.00000000   -0.00344491
     atom    4 type  3   force =     0.00000000    0.00000000    0.00155818
     atom    5 type  3   force =     0.00000000    0.00000000    0.00155818

     Total force =     0.004143     Total SCF correction =     0.000026


     Computing stress (Cartesian axis) and pressure


     negative rho (up, down):  1.552E-02 0.000E+00
          total   stress  (Ry/bohr**3)                   (kbar)     P=      -43.23
  -0.00034782   0.00000000   0.00000000          -51.17        0.00        0.00
   0.00000000  -0.00034782   0.00000000            0.00      -51.17        0.00
   0.00000000   0.00000000  -0.00018600            0.00        0.00      -27.36

     Energy error            =      7.5E-05 Ry
     Gradient error          =      3.4E-03 Ry/Bohr

     number of scf cycles    =   6
     number of bfgs steps    =   5

     energy             old  =    -380.5722032578 Ry
     energy             new  =    -380.5722780239 Ry

     CASE: energy            _new < energy            _old

     new trust radius        =       0.0039616785 bohr
     new conv_thr            =            1.0E-10 Ry


ATOMIC_POSITIONS (crystal)
Pb               0.0000000000        0.0000000000        0.9935264673
Ti               0.5000000000        0.5000000000        0.5385827504
O                0.5000000000        0.5000000000        0.1071414279
O                0.5000000000        0.0000000000        0.6140168212
O                0.0000000000        0.5000000000        0.6140168212



     Writing config-only to output data dir ./pto_k7.save/ :
     XML data file
     NEW-OLD atomic charge density approx. for the potential

     Check: negative core charge=   -0.000004

     negative rho (up, down):  1.555E-02 0.000E+00

     total cpu time spent up to now is       88.1 secs

     Self-consistent Calculation

     iteration #  1     ecut=    50.00 Ry     beta= 0.70
     CG style diagonalization
     ethr =  1.00E-06,  avg # of iterations =  3.2

     Threshold (ethr) on eigenvalues was too large:
     Diagonalizing with lowered threshold

     CG style diagonalization
     c_bands:  1 eigenvalues not converged
     c_bands:  1 eigenvalues not converged
     c_bands:  1 eigenvalues not converged
     c_bands:  1 eigenvalues not converged
     c_bands:  1 eigenvalues not converged
     c_bands:  2 eigenvalues not converged
     c_bands:  1 eigenvalues not converged
     c_bands:  1 eigenvalues not converged
     c_bands:  1 eigenvalues not converged
     c_bands:  2 eigenvalues not converged
     c_bands:  1 eigenvalues not converged
     c_bands:  1 eigenvalues not converged
     c_bands:  1 eigenvalues not converged
     c_bands:  1 eigenvalues not converged
     ethr =  2.62E-08,  avg # of iterations =  6.5

     negative rho (up, down):  1.555E-02 0.000E+00

     total cpu time spent up to now is       90.9 secs

     total energy              =    -380.57228606 Ry
     estimated scf accuracy    <       0.00001192 Ry

     iteration #  2     ecut=    50.00 Ry     beta= 0.70
     CG style diagonalization
     ethr =  2.71E-08,  avg # of iterations =  4.8

     negative rho (up, down):  1.555E-02 0.000E+00

     total cpu time spent up to now is       92.1 secs

     total energy              =    -380.57228418 Ry
     estimated scf accuracy    <       0.00004003 Ry

     iteration #  3     ecut=    50.00 Ry     beta= 0.70
     CG style diagonalization
     ethr =  2.71E-08,  avg # of iterations =  4.3

     negative rho (up, down):  1.555E-02 0.000E+00

     total cpu time spent up to now is       93.2 secs

     total energy              =    -380.57229171 Ry
     estimated scf accuracy    <       0.00000250 Ry

     iteration #  4     ecut=    50.00 Ry     beta= 0.70
     CG style diagonalization
     ethr =  5.68E-09,  avg # of iterations =  3.7

     negative rho (up, down):  1.555E-02 0.000E+00

     total cpu time spent up to now is       94.2 secs

     total energy              =    -380.57229230 Ry
     estimated scf accuracy    <       0.00000023 Ry

     iteration #  5     ecut=    50.00 Ry     beta= 0.70
     CG style diagonalization
     ethr =  5.17E-10,  avg # of iterations =  4.1

     negative rho (up, down):  1.555E-02 0.000E+00

     total cpu time spent up to now is       95.2 secs

     total energy              =    -380.57229242 Ry
     estimated scf accuracy    <       0.00000004 Ry

     iteration #  6     ecut=    50.00 Ry     beta= 0.70
     CG style diagonalization
     ethr =  8.44E-11,  avg # of iterations =  4.4

     negative rho (up, down):  1.555E-02 0.000E+00

     total cpu time spent up to now is       96.4 secs

     total energy              =    -380.57229244 Ry
     estimated scf accuracy    <       0.00000001 Ry

     iteration #  7     ecut=    50.00 Ry     beta= 0.70
     CG style diagonalization
     ethr =  2.59E-11,  avg # of iterations =  4.0

     negative rho (up, down):  1.555E-02 0.000E+00

     total cpu time spent up to now is       97.4 secs

     total energy              =    -380.57229245 Ry
     estimated scf accuracy    <          2.1E-09 Ry

     iteration #  8     ecut=    50.00 Ry     beta= 0.70
     CG style diagonalization
     ethr =  4.81E-12,  avg # of iterations =  4.8

     negative rho (up, down):  1.555E-02 0.000E+00

     total cpu time spent up to now is       98.7 secs

     total energy              =    -380.57229245 Ry
     estimated scf accuracy    <          3.1E-10 Ry

     iteration #  9     ecut=    50.00 Ry     beta= 0.70
     CG style diagonalization
     ethr =  6.97E-13,  avg # of iterations =  5.5

     negative rho (up, down):  1.555E-02 0.000E+00

     total cpu time spent up to now is      100.1 secs

     End of self-consistent calculation

          k = 0.0000 0.0000 0.0000 (  2525 PWs)   bands (ev):

   -45.7921 -22.4776 -22.3676 -22.3676  -7.5743  -6.5138  -6.2067  -4.9930
    -4.9930  -4.9517  -4.8670  -4.6849   4.2101   6.2523   6.2523   6.8015
     8.1218   8.1218   8.4521   8.6286   8.8754   8.8754

          k = 0.0000 0.0000 0.1359 (  2529 PWs)   bands (ev):

   -45.7920 -22.4850 -22.3673 -22.3673  -7.5057  -6.4947  -6.1836  -4.9987
    -4.9987  -4.9512  -4.8617  -4.7086   3.8803   6.2703   6.2703   7.0153
     8.0313   8.0313   8.4197   8.4975   8.9190   8.9190

          k = 0.0000 0.0000 0.2718 (  2518 PWs)   bands (ev):

   -45.7918 -22.5016 -22.3666 -22.3666  -7.3452  -6.4496  -6.1336  -5.0114
    -5.0114  -4.9501  -4.8501  -4.7637   3.3361   6.3020   6.3020   6.7447
     7.8793   7.8793   8.3491   8.9865   8.9893   8.9893

          k = 0.0000 0.0000 0.4077 (  2518 PWs)   bands (ev):

   -45.7916 -22.5148 -22.3661 -22.3661  -7.2088  -6.4113  -6.0964  -5.0215
    -5.0215  -4.9493  -4.8411  -4.8102   2.9993   6.2818   6.3171   6.3171
     7.7943   7.7943   8.2944   9.0320   9.0320   9.8254

          k = 0.0000 0.1429 0.0000 (  2525 PWs)   bands (ev):

   -45.7919 -22.4771 -22.3807 -22.3671  -7.4739  -6.4942  -6.1921  -5.0098
    -4.9919  -4.9612  -4.8594  -4.6763   3.8841   6.3005   6.3327   6.7771
     8.1013   8.1410   8.4449   8.5844   8.5922   8.9488

          k = 0.0000 0.1429 0.1359 (  2517 PWs)   bands (ev):

   -45.7918 -22.4844 -22.3803 -22.3668  -7.4090  -6.4789  -6.1679  -5.0094
    -4.9978  -4.9609  -4.8566  -4.6918   3.6433   6.2192   6.3535   6.9681
     7.9033   8.0332   8.3893   8.5174   8.6560   9.0440

          k = 0.0000 0.1429 0.2718 (  2517 PWs)   bands (ev):

   -45.7915 -22.5009 -22.3796 -22.3661  -7.2595  -6.4429  -6.1127  -5.0107
    -5.0072  -4.9601  -4.8522  -4.7270   3.1999   6.0905   6.3898   6.8769
     7.5853   7.8727   8.3394   8.5842   8.7424   9.4156

          k = 0.0000 0.1429 0.4077 (  2523 PWs)   bands (ev):

   -45.7914 -22.5140 -22.3791 -22.3656  -7.1358  -6.4120  -6.0678  -5.0211
    -5.0048  -4.9595  -4.8505  -4.7558   2.9063   5.9004   6.4067   6.5995
     7.5109   7.7909   8.4081   8.5944   8.7903   9.8985

          k = 0.0000 0.2857 0.0000 (  2513 PWs)   bands (ev):

   -45.7913 -22.4758 -22.4099 -22.3658  -7.2330  -6.4487  -6.1690  -5.0357
    -4.9895  -4.9824  -4.8369  -4.6765   3.3595   6.1152   6.5514   6.6138
     7.9828   8.0153   8.2133   8.3318   8.6360   9.3469

          k = 0.0000 0.2857 0.1359 (  2513 PWs)   bands (ev):

   -45.7912 -22.4831 -22.4095 -22.3655  -7.1820  -6.4380  -6.1397  -5.0255
    -4.9956  -4.9824  -4.8351  -4.6744   3.2187   6.0390   6.5804   6.6481
     7.7147   7.8926   8.2387   8.2959   8.5720   9.4916

          k = 0.0000 0.2857 0.2718 (  2513 PWs)   bands (ev):

   -45.7910 -22.4993 -22.4087 -22.3648  -7.0748  -6.4083  -6.0649  -5.0093
    -4.9992  -4.9824  -4.8429  -4.6631   2.9274   5.8476   6.6033   6.6288
     7.3612   7.7157   7.7518   8.3782   8.9082   9.6336

          k = 0.0000 0.2857 0.4077 (  2512 PWs)   bands (ev):

   -45.7908 -22.5123 -22.4080 -22.3643  -6.9990  -6.3760  -5.9944  -5.0202
    -4.9823  -4.9737  -4.8601  -4.6499   2.7150   5.6055   6.4848   6.6464
     7.2151   7.5123   7.7004   8.4181   9.0994   9.6825

          k = 0.0000 0.4286 0.0000 (  2498 PWs)   bands (ev):

   -45.7909 -22.4746 -22.4333 -22.3649  -7.0202  -6.3958  -6.1787  -5.0506
    -4.9994  -4.9875  -4.7862  -4.7181   3.0571   5.6733   6.8269   6.8339
     7.4550   7.5400   8.2237   8.2500   8.6861  10.1941

          k = 0.0000 0.4286 0.1359 (  2511 PWs)   bands (ev):

   -45.7908 -22.4818 -22.4328 -22.3646  -6.9930  -6.3762  -6.1445  -5.0379
    -4.9997  -4.9938  -4.7822  -4.7000   2.9587   5.6610   6.7341   6.8857
     7.1651   7.4733   8.2635   8.3541   8.5089  10.0758

          k = 0.0000 0.4286 0.2718 (  2514 PWs)   bands (ev):

   -45.7906 -22.4979 -22.4318 -22.3639  -6.9504  -6.3269  -6.0429  -5.0081
    -5.0069  -5.0001  -4.8035  -4.6359   2.7477   5.5919   6.4045   6.8536
     6.9693   7.3817   7.7866   8.2846   8.9978   9.7592

          k = 0.0000 0.4286 0.4077 (  2526 PWs)   bands (ev):

   -45.7904 -22.5108 -22.4311 -22.3633  -6.9328  -6.2821  -5.9376  -5.0194
    -5.0005  -4.9774  -4.8328  -4.5822   2.5879   5.4256   6.1106   6.8487
     6.9693   7.3963   7.4228   8.2962   9.2615   9.5389

          k = 0.1429 0.1429 0.0000 (  2498 PWs)   bands (ev):

   -45.7916 -22.4765 -22.3802 -22.3799  -7.3748  -6.4741  -6.1882  -5.0125
    -5.0034  -4.9667  -4.8387  -4.6680   3.6345   6.2619   6.4417   6.7789
     7.7406   7.9862   8.4000   8.5350   8.8443   9.0726

          k = 0.1429 0.1429 0.1359 (  2506 PWs)   bands (ev):

   -45.7915 -22.4838 -22.3799 -22.3796  -7.3128  -6.4631  -6.1638  -5.0097
    -5.0065  -4.9661  -4.8357  -4.6770   3.4650   6.2060   6.2759   6.9623
     7.6707   7.8872   8.2713   8.5904   8.8608   9.0878

          k = 0.1429 0.1429 0.2718 (  2522 PWs)   bands (ev):

   -45.7913 -22.5002 -22.3792 -22.3790  -7.1720  -6.4380  -6.1057  -5.0226
    -4.9891  -4.9644  -4.8328  -4.6991   3.1164   6.0742   6.1379   6.8663
     7.5644   7.5828   8.2323   8.6616   8.8899   9.4029

          k = 0.1429 0.1429 0.4077 (  2517 PWs)   bands (ev):

   -45.7911 -22.5133 -22.3786 -22.3784  -7.0582  -6.4175  -6.0547  -5.0313
    -4.9728  -4.9594  -4.8361  -4.7188   2.8659   5.9391   5.9664   6.6741
     7.5189   7.5506   8.1867   8.6916   8.9075   9.7575

          k = 0.1429 0.2857 0.0000 (  2508 PWs)   bands (ev):

   -45.7911 -22.4752 -22.4092 -22.3788  -7.1378  -6.4287  -6.1891  -5.0336
    -4.9968  -4.9631  -4.8063  -4.6675   3.1870   6.1073   6.5063   6.7042
     7.4064   7.7501   8.2254   8.5935   8.7823   9.4985

          k = 0.1429 0.2857 0.1359 (  2505 PWs)   bands (ev):

   -45.7910 -22.4825 -22.4089 -22.3785  -7.0874  -6.4244  -6.1619  -5.0244
    -5.0000  -4.9591  -4.8011  -4.6612   3.1111   6.0322   6.2453   6.7380
     7.3164   7.7582   8.2263   8.5797   8.7554   9.4893

          k = 0.1429 0.2857 0.2718 (  2506 PWs)   bands (ev):

   -45.7908 -22.4987 -22.4080 -22.3778  -6.9829  -6.4116  -6.0894  -5.0172
    -4.9921  -4.9448  -4.7985  -4.6445   2.9254   5.8094   6.0617   6.5981
     6.9466   7.5533   8.3344   8.5704   8.9562   9.4590

          k = 0.1429 0.2857 0.4077 (  2513 PWs)   bands (ev):

   -45.7906 -22.5116 -22.4074 -22.3772  -6.9105  -6.3969  -6.0174  -5.0209
    -4.9789  -4.9202  -4.8085  -4.6296   2.7681   5.5760   6.0139   6.3741
     6.7536   7.4784   8.3158   8.6151   9.1087   9.4012

          k = 0.1429 0.4286 0.0000 (  2525 PWs)   bands (ev):

   -45.7906 -22.4740 -22.4325 -22.3778  -6.9291  -6.3787  -6.2168  -5.0401
    -4.9881  -4.9508  -4.7644  -4.7056   2.9083   5.6869   6.6013   7.0054
     7.0224   7.6103   7.9111   8.5987   8.8018  10.0021

          k = 0.1429 0.4286 0.1359 (  2520 PWs)   bands (ev):

   -45.7905 -22.4812 -22.4321 -22.3775  -6.9000  -6.3681  -6.1867  -5.0289
    -4.9900  -4.9459  -4.7562  -4.6841   2.8755   5.6715   6.2268   6.7048
     7.1745   7.7258   7.9414   8.6150   8.7253   9.8145

          k = 0.1429 0.4286 0.2718 (  2510 PWs)   bands (ev):

   -45.7903 -22.4973 -22.4312 -22.3767  -6.8567  -6.3405  -6.0921  -5.0151
    -4.9798  -4.9341  -4.7601  -4.6194   2.7843   5.5884   5.9266   6.2700
     6.7669   7.7077   8.1312   8.5055   9.0029   9.4318

          k = 0.1429 0.4286 0.4077 (  2512 PWs)   bands (ev):

   -45.7901 -22.5102 -22.4304 -22.3762  -6.8415  -6.3155  -5.9905  -5.0155
    -4.9578  -4.9193  -4.7738  -4.5655   2.6955   5.4015   5.8618   6.0572
     6.4036   7.6153   8.2813   8.4496   8.8468   9.5040

          k = 0.2857 0.2857 0.0000 (  2524 PWs)   bands (ev):

   -45.7905 -22.4739 -22.4080 -22.4076  -6.9155  -6.3853  -6.2359  -5.0232
    -4.9898  -4.9182  -4.7491  -4.6630   2.8300   6.1450   6.1614   6.8971
     7.0227   7.3072   8.1042   8.5440   9.0986   9.5648

          k = 0.2857 0.2857 0.1359 (  2517 PWs)   bands (ev):

   -45.7904 -22.4811 -22.4076 -22.4073  -6.8684  -6.3938  -6.2131  -5.0104
    -4.9905  -4.9072  -4.7368  -4.6455   2.8531   5.9907   6.0274   6.3217
     7.0533   7.4436   8.4044   8.5060   9.1118   9.3773

          k = 0.2857 0.2857 0.2718 (  2504 PWs)   bands (ev):

   -45.7902 -22.4972 -22.4068 -22.4065  -6.7783  -6.4126  -6.1410  -4.9904
    -4.9822  -4.8784  -4.7113  -4.6079   2.8816   5.6215   5.6370   6.1339
     6.8742   6.9318   8.5927   8.9602   9.0471   9.1741

          k = 0.2857 0.2857 0.4077 (  2509 PWs)   bands (ev):

   -45.7900 -22.5101 -22.4061 -22.4059  -6.7242  -6.4274  -6.0592  -4.9889
    -4.9615  -4.8468  -4.6954  -4.5792   2.8742   5.3790   5.4668   5.9120
     6.5562   6.8253   8.3964   9.0473   9.0791   9.3171

          k = 0.2857 0.4286 0.0000 (  2518 PWs)   bands (ev):

   -45.7901 -22.4727 -22.4309 -22.4066  -6.7269  -6.3437  -6.2844  -5.0156
    -4.9686  -4.8544  -4.7159  -4.6857   2.5744   5.6929   6.2482   6.7228
     7.1844   7.3786   7.6349   8.5753   9.2170   9.4905

          k = 0.2857 0.4286 0.1359 (  2511 PWs)   bands (ev):

   -45.7900 -22.4798 -22.4306 -22.4063  -6.6884  -6.3536  -6.2684  -5.0021
    -4.9665  -4.8379  -4.6992  -4.6556   2.6456   5.6733   6.0110   6.1306
     6.8330   7.6201   8.1043   8.5808   9.1121   9.3094

          k = 0.2857 0.4286 0.2718 (  2505 PWs)   bands (ev):

   -45.7898 -22.4959 -22.4297 -22.4055  -6.6397  -6.3724  -6.1903  -4.9771
    -4.9552  -4.8049  -4.6614  -4.5852   2.8106   5.3901   5.5511   5.7492
     6.5281   7.0425   8.1901   8.9821   9.0544   9.3157

          k = 0.2857 0.4286 0.4077 (  2505 PWs)   bands (ev):

   -45.7896 -22.5087 -22.4290 -22.4049  -6.6330  -6.3858  -6.0897  -4.9683
    -4.9344  -4.7775  -4.6314  -4.5282   2.9418   5.1219   5.2531   5.6191
     6.2330   6.7850   7.6729   9.1668   9.2342   9.5223

          k = 0.4286 0.4286 0.0000 (  2512 PWs)   bands (ev):

   -45.7897 -22.4714 -22.4297 -22.4296  -6.5849  -6.3161  -6.3096  -5.0017
    -4.9271  -4.7647  -4.7052  -4.6692   2.3128   5.5253   6.0070   6.9159
     7.0218   7.3761   7.5535   8.3228   8.8715   9.6493

          k = 0.4286 0.4286 0.1359 (  2521 PWs)   bands (ev):

   -45.7896 -22.4786 -22.4293 -22.4293  -6.5239  -6.3409  -6.3212  -4.9874
    -4.9250  -4.7349  -4.6645  -4.6487   2.4324   5.5091   5.9330   6.1486
     6.3682   7.6958   8.2135   8.3285   8.5236   9.6457

          k = 0.4286 0.4286 0.2718 (  2512 PWs)   bands (ev):

   -45.7894 -22.4946 -22.4286 -22.4285  -6.4541  -6.3928  -6.2730  -4.9552
    -4.9213  -4.6860  -4.5836  -4.5747   2.7529   5.3484   5.4471   5.5047
     6.1309   6.8690   7.4152   9.1146   9.1271   9.6376

          k = 0.4286 0.4286 0.4077 (  2502 PWs)   bands (ev):

   -45.7892 -22.5074 -22.4279 -22.4279  -6.4682  -6.4314  -6.1580  -4.9294
    -4.9190  -4.6542  -4.5215  -4.5044   3.0970   4.9532   5.0689   5.3894
     6.1133   6.3076   6.6673   9.5173   9.5436   9.6304

     highest occupied level (ev):    10.1941

!    total energy              =    -380.57229245 Ry
     estimated scf accuracy    <          2.7E-11 Ry

     The total energy is the sum of the following terms:
     one-electron contribution =     -85.72228029 Ry
     hartree contribution      =      72.00451040 Ry
     xc contribution           =    -102.58437688 Ry
     ewald contribution        =    -264.27014568 Ry

     convergence has been achieved in   9 iterations

     negative rho (up, down):  1.555E-02 0.000E+00

     Forces acting on atoms (cartesian axes, Ry/au):

     atom    1 type  1   force =     0.00000000    0.00000000    0.00029922
     atom    2 type  2   force =     0.00000000    0.00000000   -0.00109763
     atom    3 type  3   force =     0.00000000    0.00000000   -0.00106652
     atom    4 type  3   force =     0.00000000    0.00000000    0.00093246
     atom    5 type  3   force =     0.00000000    0.00000000    0.00093246

     Total force =     0.002042     Total SCF correction =     0.000008


     Computing stress (Cartesian axis) and pressure


     negative rho (up, down):  1.555E-02 0.000E+00
          total   stress  (Ry/bohr**3)                   (kbar)     P=      -43.97
  -0.00034814   0.00000000   0.00000000          -51.21        0.00        0.00
   0.00000000  -0.00034814   0.00000000            0.00      -51.21        0.00
   0.00000000   0.00000000  -0.00020043            0.00        0.00      -29.48

     Energy error            =      1.4E-05 Ry
     Gradient error          =      1.1E-03 Ry/Bohr

     number of scf cycles    =   7
     number of bfgs steps    =   6

     energy             old  =    -380.5722780239 Ry
     energy             new  =    -380.5722924476 Ry

     CASE: energy            _new < energy            _old

     new trust radius        =       0.0030038263 bohr
     new conv_thr            =            1.0E-10 Ry


ATOMIC_POSITIONS (crystal)
Pb               0.0000000000        0.0000000000        0.9935967248
Ti               0.5000000000        0.5000000000        0.5384376014
O                0.5000000000        0.5000000000        0.1067537312
O                0.5000000000        0.0000000000        0.6142481153
O                0.0000000000        0.5000000000        0.6142481153



     Writing config-only to output data dir ./pto_k7.save/ :
     XML data file
     NEW-OLD atomic charge density approx. for the potential

     Check: negative core charge=   -0.000004

     negative rho (up, down):  1.554E-02 0.000E+00

     total cpu time spent up to now is      101.6 secs

     Self-consistent Calculation

     iteration #  1     ecut=    50.00 Ry     beta= 0.70
     CG style diagonalization
     ethr =  1.00E-06,  avg # of iterations =  2.9

     Threshold (ethr) on eigenvalues was too large:
     Diagonalizing with lowered threshold

     CG style diagonalization
     c_bands:  1 eigenvalues not converged
     c_bands:  1 eigenvalues not converged
     c_bands:  2 eigenvalues not converged
     c_bands:  3 eigenvalues not converged
     c_bands:  1 eigenvalues not converged
     c_bands:  3 eigenvalues not converged
     c_bands:  1 eigenvalues not converged
     c_bands:  2 eigenvalues not converged
     c_bands:  1 eigenvalues not converged
     c_bands:  1 eigenvalues not converged
     c_bands:  1 eigenvalues not converged
     ethr =  3.29E-09,  avg # of iterations =  7.4

     negative rho (up, down):  1.554E-02 0.000E+00

     total cpu time spent up to now is      104.5 secs

     total energy              =    -380.57229716 Ry
     estimated scf accuracy    <       0.00000314 Ry

     iteration #  2     ecut=    50.00 Ry     beta= 0.70
     CG style diagonalization
     ethr =  7.13E-09,  avg # of iterations =  4.7

     negative rho (up, down):  1.554E-02 0.000E+00

     total cpu time spent up to now is      105.7 secs

     total energy              =    -380.57229645 Ry
     estimated scf accuracy    <       0.00001215 Ry

     iteration #  3     ecut=    50.00 Ry     beta= 0.70
     CG style diagonalization
     ethr =  7.13E-09,  avg # of iterations =  4.3

     negative rho (up, down):  1.554E-02 0.000E+00

     total cpu time spent up to now is      106.8 secs

     total energy              =    -380.57229863 Ry
     estimated scf accuracy    <       0.00000049 Ry

     iteration #  4     ecut=    50.00 Ry     beta= 0.70
     CG style diagonalization
     ethr =  1.11E-09,  avg # of iterations =  3.7

     negative rho (up, down):  1.554E-02 0.000E+00

     total cpu time spent up to now is      107.8 secs

     total energy              =    -380.57229875 Ry
     estimated scf accuracy    <       0.00000005 Ry

     iteration #  5     ecut=    50.00 Ry     beta= 0.70
     CG style diagonalization
     ethr =  1.23E-10,  avg # of iterations =  4.4

     negative rho (up, down):  1.554E-02 0.000E+00

     total cpu time spent up to now is      108.9 secs

     total energy              =    -380.57229878 Ry
     estimated scf accuracy    <       0.00000001 Ry

     iteration #  6     ecut=    50.00 Ry     beta= 0.70
     CG style diagonalization
     ethr =  2.61E-11,  avg # of iterations =  4.0

     negative rho (up, down):  1.554E-02 0.000E+00

     total cpu time spent up to now is      109.9 secs

     total energy              =    -380.57229878 Ry
     estimated scf accuracy    <          1.5E-09 Ry

     iteration #  7     ecut=    50.00 Ry     beta= 0.70
     CG style diagonalization
     ethr =  3.41E-12,  avg # of iterations =  4.7

     negative rho (up, down):  1.554E-02 0.000E+00

     total cpu time spent up to now is      111.1 secs

     total energy              =    -380.57229879 Ry
     estimated scf accuracy    <          2.8E-10 Ry

     iteration #  8     ecut=    50.00 Ry     beta= 0.70
     CG style diagonalization
     ethr =  6.34E-13,  avg # of iterations =  5.2

     negative rho (up, down):  1.554E-02 0.000E+00

     total cpu time spent up to now is      112.5 secs

     End of self-consistent calculation

          k = 0.0000 0.0000 0.0000 (  2525 PWs)   bands (ev):

   -45.7952 -22.4790 -22.3705 -22.3705  -7.5752  -6.5138  -6.2058  -4.9916
    -4.9916  -4.9499  -4.8654  -4.6830   4.2126   6.2503   6.2503   6.7987
     8.1233   8.1233   8.4501   8.6312   8.8740   8.8740

          k = 0.0000 0.0000 0.1359 (  2529 PWs)   bands (ev):

   -45.7951 -22.4864 -22.3702 -22.3702  -7.5066  -6.4947  -6.1827  -4.9973
    -4.9973  -4.9495  -4.8601  -4.7067   3.8825   6.2680   6.2680   7.0127
     8.0332   8.0332   8.4177   8.5000   8.9179   8.9179

          k = 0.0000 0.0000 0.2718 (  2518 PWs)   bands (ev):

   -45.7948 -22.5029 -22.3696 -22.3696  -7.3461  -6.4497  -6.1328  -5.0100
    -5.0100  -4.9484  -4.8484  -4.7618   3.3383   6.2988   6.2988   6.7431
     7.8823   7.8823   8.3471   8.9876   8.9885   8.9885

          k = 0.0000 0.0000 0.4077 (  2518 PWs)   bands (ev):

   -45.7947 -22.5161 -22.3690 -22.3690  -7.2096  -6.4114  -6.0957  -5.0201
    -5.0201  -4.9475  -4.8394  -4.8082   3.0017   6.2805   6.3132   6.3132
     7.7983   7.7983   8.2924   9.0312   9.0312   9.8259

          k = 0.0000 0.1429 0.0000 (  2525 PWs)   bands (ev):

   -45.7949 -22.4784 -22.3836 -22.3700  -7.4748  -6.4943  -6.1912  -5.0084
    -4.9906  -4.9595  -4.8579  -4.6744   3.8856   6.2999   6.3309   6.7749
     8.1029   8.1428   8.4434   8.5850   8.5906   8.9500

          k = 0.0000 0.1429 0.1359 (  2517 PWs)   bands (ev):

   -45.7948 -22.4858 -22.3832 -22.3697  -7.4099  -6.4790  -6.1670  -5.0080
    -4.9964  -4.9591  -4.8550  -4.6899   3.6449   6.2180   6.3513   6.9662
     7.9048   8.0350   8.3905   8.5162   8.6550   9.0447

          k = 0.0000 0.1429 0.2718 (  2517 PWs)   bands (ev):

   -45.7946 -22.5022 -22.3825 -22.3690  -7.2604  -6.4431  -6.1120  -5.0094
    -5.0058  -4.9584  -4.8506  -4.7251   3.2017   6.0886   6.3868   6.8752
     7.5875   7.8755   8.3396   8.5831   8.7419   9.4166

          k = 0.0000 0.1429 0.4077 (  2523 PWs)   bands (ev):

   -45.7944 -22.5154 -22.3819 -22.3685  -7.1366  -6.4122  -6.0671  -5.0197
    -5.0033  -4.9578  -4.8489  -4.7539   2.9082   5.8986   6.4029   6.5975
     7.5141   7.7946   8.4074   8.5933   8.7900   9.8998

          k = 0.0000 0.2857 0.0000 (  2513 PWs)   bands (ev):

   -45.7944 -22.4771 -22.4127 -22.3688  -7.2338  -6.4491  -6.1681  -5.0342
    -4.9881  -4.9807  -4.8355  -4.6747   3.3601   6.1151   6.5500   6.6150
     7.9855   8.0148   8.2141   8.3302   8.6367   9.3476

          k = 0.0000 0.2857 0.1359 (  2513 PWs)   bands (ev):

   -45.7943 -22.4844 -22.4124 -22.3685  -7.1829  -6.4384  -6.1389  -5.0240
    -4.9943  -4.9807  -4.8336  -4.6726   3.2195   6.0390   6.5786   6.6487
     7.7170   7.8924   8.2388   8.2969   8.5718   9.4921

          k = 0.0000 0.2857 0.2718 (  2513 PWs)   bands (ev):

   -45.7940 -22.5006 -22.4115 -22.3678  -7.0755  -6.4088  -6.0642  -5.0079
    -4.9977  -4.9807  -4.8414  -4.6613   2.9285   5.8471   6.6040   6.6261
     7.3630   7.7154   7.7526   8.3796   8.9084   9.6346

          k = 0.0000 0.2857 0.4077 (  2512 PWs)   bands (ev):

   -45.7939 -22.5136 -22.4108 -22.3672  -6.9996  -6.3767  -5.9938  -5.0188
    -4.9806  -4.9722  -4.8585  -4.6482   2.7163   5.6046   6.4864   6.6430
     7.2160   7.5116   7.7023   8.4196   9.0994   9.6844

          k = 0.0000 0.4286 0.0000 (  2498 PWs)   bands (ev):

   -45.7939 -22.4759 -22.4361 -22.3678  -7.0209  -6.3968  -6.1778  -5.0491
    -4.9978  -4.9861  -4.7847  -4.7165   3.0573   5.6746   6.8306   6.8333
     7.4561   7.5378   8.2219   8.2519   8.6870  10.1949

          k = 0.0000 0.4286 0.1359 (  2511 PWs)   bands (ev):

   -45.7938 -22.4832 -22.4357 -22.3675  -6.9936  -6.3773  -6.1436  -5.0364
    -4.9980  -4.9924  -4.7807  -4.6983   2.9591   5.6622   6.7363   6.8849
     7.1667   7.4711   8.2660   8.3542   8.5086  10.0767

          k = 0.0000 0.4286 0.2718 (  2514 PWs)   bands (ev):

   -45.7936 -22.4993 -22.4347 -22.3668  -6.9508  -6.3280  -6.0423  -5.0067
    -5.0054  -4.9984  -4.8019  -4.6343   2.7486   5.5924   6.4061   6.8554
     6.9674   7.3803   7.7859   8.2880   8.9990   9.7601

          k = 0.0000 0.4286 0.4077 (  2526 PWs)   bands (ev):

   -45.7934 -22.5121 -22.4339 -22.3662  -6.9330  -6.2834  -5.9371  -5.0181
    -4.9989  -4.9759  -4.8312  -4.5806   2.5890   5.4254   6.1136   6.8494
     6.9662   7.3959   7.4217   8.3000   9.2641   9.5393

          k = 0.1429 0.1429 0.0000 (  2498 PWs)   bands (ev):

   -45.7947 -22.4779 -22.3831 -22.3828  -7.3757  -6.4743  -6.1873  -5.0111
    -5.0020  -4.9651  -4.8371  -4.6662   3.6356   6.2600   6.4420   6.7769
     7.7425   7.9861   8.4016   8.5334   8.8447   9.0744

          k = 0.1429 0.1429 0.1359 (  2506 PWs)   bands (ev):

   -45.7946 -22.4852 -22.3828 -22.3825  -7.3137  -6.4633  -6.1629  -5.0083
    -5.0050  -4.9645  -4.8342  -4.6752   3.4662   6.2038   6.2755   6.9605
     7.6730   7.8874   8.2731   8.5889   8.8610   9.0895

          k = 0.1429 0.1429 0.2718 (  2522 PWs)   bands (ev):

   -45.7944 -22.5016 -22.3821 -22.3819  -7.1730  -6.4383  -6.1049  -5.0211
    -4.9876  -4.9628  -4.8312  -4.6972   3.1178   6.0717   6.1368   6.8651
     7.5642   7.5858   8.2344   8.6604   8.8896   9.4046

          k = 0.1429 0.1429 0.4077 (  2517 PWs)   bands (ev):

   -45.7942 -22.5146 -22.3814 -22.3813  -7.0591  -6.4178  -6.0540  -5.0298
    -4.9712  -4.9580  -4.8344  -4.7169   2.8675   5.9376   5.9638   6.6734
     7.5183   7.5540   8.1890   8.6906   8.9069   9.7593

          k = 0.1429 0.2857 0.0000 (  2508 PWs)   bands (ev):

   -45.7941 -22.4766 -22.4121 -22.3817  -7.1388  -6.4293  -6.1883  -5.0322
    -4.9954  -4.9614  -4.8048  -4.6657   3.1875   6.1069   6.5051   6.7054
     7.4061   7.7528   8.2269   8.5929   8.7828   9.4998

          k = 0.1429 0.2857 0.1359 (  2505 PWs)   bands (ev):

   -45.7940 -22.4838 -22.4117 -22.3814  -7.0884  -6.4250  -6.1612  -5.0229
    -4.9986  -4.9574  -4.7995  -4.6594   3.1117   6.0318   6.2452   6.7370
     7.3176   7.7601   8.2285   8.5795   8.7551   9.4906

          k = 0.1429 0.2857 0.2718 (  2506 PWs)   bands (ev):

   -45.7938 -22.5000 -22.4109 -22.3807  -6.9837  -6.4122  -6.0888  -5.0158
    -4.9906  -4.9431  -4.7969  -4.6428   2.9263   5.8088   6.0614   6.5966
     6.9482   7.5551   8.3365   8.5701   8.9564   9.4602

          k = 0.1429 0.2857 0.4077 (  2513 PWs)   bands (ev):

   -45.7936 -22.5130 -22.4102 -22.3801  -6.9113  -6.3975  -6.0169  -5.0194
    -4.9773  -4.9186  -4.8069  -4.6280   2.7693   5.5751   6.0127   6.3746
     6.7541   7.4796   8.3182   8.6146   9.1093   9.4025

          k = 0.1429 0.4286 0.0000 (  2525 PWs)   bands (ev):

   -45.7937 -22.4754 -22.4354 -22.3807  -6.9299  -6.3797  -6.2161  -5.0387
    -4.9866  -4.9491  -4.7629  -4.7040   2.9085   5.6882   6.6019   7.0037
     7.0242   7.6120   7.9138   8.5975   8.8025  10.0031

          k = 0.1429 0.4286 0.1359 (  2520 PWs)   bands (ev):

   -45.7936 -22.4826 -22.4350 -22.3804  -6.9007  -6.3691  -6.1860  -5.0275
    -4.9886  -4.9442  -4.7547  -4.6824   2.8759   5.6727   6.2281   6.7033
     7.1749   7.7280   7.9442   8.6151   8.7246   9.8154

          k = 0.1429 0.4286 0.2718 (  2510 PWs)   bands (ev):

   -45.7934 -22.4987 -22.4340 -22.3796  -6.8573  -6.3416  -6.0916  -5.0136
    -4.9784  -4.9324  -4.7585  -4.6178   2.7850   5.5890   5.9274   6.2704
     6.7662   7.7098   8.1325   8.5060   9.0040   9.4322

          k = 0.1429 0.4286 0.4077 (  2512 PWs)   bands (ev):

   -45.7932 -22.5115 -22.4333 -22.3791  -6.8419  -6.3167  -5.9901  -5.0140
    -4.9563  -4.9176  -4.7722  -4.5640   2.6965   5.4014   5.8623   6.0586
     6.4027   7.6165   8.2822   8.4506   8.8485   9.5043

          k = 0.2857 0.2857 0.0000 (  2524 PWs)   bands (ev):

   -45.7936 -22.4752 -22.4108 -22.4104  -6.9165  -6.3861  -6.2354  -5.0218
    -4.9883  -4.9165  -4.7474  -4.6613   2.8303   6.1442   6.1609   6.8981
     7.0240   7.3100   8.1051   8.5466   9.0981   9.5661

          k = 0.2857 0.2857 0.1359 (  2517 PWs)   bands (ev):

   -45.7935 -22.4824 -22.4105 -22.4101  -6.8694  -6.3945  -6.2126  -5.0090
    -4.9890  -4.9055  -4.7352  -4.6438   2.8534   5.9898   6.0276   6.3219
     7.0565   7.4445   8.4073   8.5066   9.1113   9.3784

          k = 0.2857 0.2857 0.2718 (  2504 PWs)   bands (ev):

   -45.7933 -22.4985 -22.4096 -22.4094  -6.7793  -6.4132  -6.1405  -4.9889
    -4.9808  -4.8767  -4.7097  -4.6062   2.8821   5.6223   5.6364   6.1323
     6.8774   6.9335   8.5961   8.9599   9.0474   9.1740

          k = 0.2857 0.2857 0.4077 (  2509 PWs)   bands (ev):

   -45.7931 -22.5114 -22.4090 -22.4088  -6.7252  -6.4280  -6.0587  -4.9874
    -4.9601  -4.8452  -4.6938  -4.5776   2.8751   5.3787   5.4673   5.9100
     6.5580   6.8284   8.3997   9.0477   9.0783   9.3172

          k = 0.2857 0.4286 0.0000 (  2518 PWs)   bands (ev):

   -45.7932 -22.4740 -22.4338 -22.4095  -6.7278  -6.3448  -6.2843  -5.0142
    -4.9671  -4.8525  -4.7142  -4.6840   2.5745   5.6939   6.2475   6.7238
     7.1862   7.3814   7.6366   8.5770   9.2167   9.4912

          k = 0.2857 0.4286 0.1359 (  2511 PWs)   bands (ev):

   -45.7931 -22.4812 -22.4334 -22.4091  -6.6893  -6.3546  -6.2681  -5.0006
    -4.9650  -4.8361  -4.6976  -4.6539   2.6457   5.6741   6.0118   6.1304
     6.8356   7.6217   8.1067   8.5820   9.1125   9.3089

          k = 0.2857 0.4286 0.2718 (  2505 PWs)   bands (ev):

   -45.7928 -22.4972 -22.4326 -22.4084  -6.6405  -6.3734  -6.1899  -4.9756
    -4.9537  -4.8031  -4.6599  -4.5836   2.8109   5.3911   5.5518   5.7486
     6.5297   7.0451   8.1925   8.9826   9.0547   9.3153

          k = 0.2857 0.4286 0.4077 (  2505 PWs)   bands (ev):

   -45.7927 -22.5100 -22.4319 -22.4078  -6.6337  -6.3868  -6.0894  -4.9668
    -4.9329  -4.7757  -4.6300  -4.5267   2.9423   5.1227   5.2538   5.6175
     6.2351   6.7880   7.6751   9.1670   9.2338   9.5228

          k = 0.4286 0.4286 0.0000 (  2512 PWs)   bands (ev):

   -45.7927 -22.4728 -22.4325 -22.4325  -6.5851  -6.3173  -6.3104  -5.0003
    -4.9255  -4.7630  -4.7036  -4.6673   2.3127   5.5260   6.0087   6.9162
     7.0227   7.3788   7.5558   8.3245   8.8728   9.6487

          k = 0.4286 0.4286 0.1359 (  2521 PWs)   bands (ev):

   -45.7926 -22.4799 -22.4322 -22.4321  -6.5243  -6.3420  -6.3218  -4.9860
    -4.9234  -4.7331  -4.6630  -4.6469   2.4323   5.5096   5.9343   6.1500
     6.3704   7.6971   8.2158   8.3299   8.5243   9.6451

          k = 0.4286 0.4286 0.2718 (  2512 PWs)   bands (ev):

   -45.7924 -22.4960 -22.4314 -22.4314  -6.4551  -6.3938  -6.2729  -4.9538
    -4.9197  -4.6840  -4.5821  -4.5734   2.7528   5.3493   5.4483   5.5052
     6.1335   6.8708   7.4167   9.1155   9.1280   9.6370

          k = 0.4286 0.4286 0.4077 (  2502 PWs)   bands (ev):

   -45.7922 -22.5087 -22.4308 -22.4307  -6.4691  -6.4323  -6.1579  -4.9280
    -4.9173  -4.6521  -4.5202  -4.5032   3.0968   4.9546   5.0704   5.3880
     6.1158   6.3103   6.6692   9.5179   9.5440   9.6299

     highest occupied level (ev):    10.1949

!    total energy              =    -380.57229879 Ry
     estimated scf accuracy    <          1.3E-11 Ry

     The total energy is the sum of the following terms:
     one-electron contribution =     -85.69950532 Ry
     hartree contribution      =      71.99279475 Ry
     xc contribution           =    -102.58356560 Ry
     ewald contribution        =    -264.28202262 Ry

     convergence has been achieved in   8 iterations

     negative rho (up, down):  1.554E-02 0.000E+00

     Forces acting on atoms (cartesian axes, Ry/au):

     atom    1 type  1   force =     0.00000000    0.00000000    0.00024439
     atom    2 type  2   force =     0.00000000    0.00000000   -0.00127313
     atom    3 type  3   force =     0.00000000    0.00000000    0.00009419
     atom    4 type  3   force =     0.00000000    0.00000000    0.00046728
     atom    5 type  3   force =     0.00000000    0.00000000    0.00046728

     Total force =     0.001458     Total SCF correction =     0.000012


     Computing stress (Cartesian axis) and pressure


     negative rho (up, down):  1.554E-02 0.000E+00
          total   stress  (Ry/bohr**3)                   (kbar)     P=      -44.47
  -0.00035024   0.00000000   0.00000000          -51.52        0.00        0.00
   0.00000000  -0.00035024   0.00000000            0.00      -51.52        0.00
   0.00000000   0.00000000  -0.00020653            0.00        0.00      -30.38

     Energy error            =      6.3E-06 Ry
     Gradient error          =      1.3E-03 Ry/Bohr

     number of scf cycles    =   8
     number of bfgs steps    =   7

     energy             old  =    -380.5722924476 Ry
     energy             new  =    -380.5722987856 Ry

     CASE: energy            _new < energy            _old

     new trust radius        =       0.0020147157 bohr
     new conv_thr            =            1.0E-10 Ry


ATOMIC_POSITIONS (crystal)
Pb               0.0000000000        0.0000000000        0.9936229091
Ti               0.5000000000        0.5000000000        0.5381775669
O                0.5000000000        0.5000000000        0.1065587465
O                0.5000000000        0.0000000000        0.6144625328
O                0.0000000000        0.5000000000        0.6144625328



     Writing config-only to output data dir ./pto_k7.save/ :
     XML data file
     NEW-OLD atomic charge density approx. for the potential

     Check: negative core charge=   -0.000004

     negative rho (up, down):  1.553E-02 0.000E+00

     total cpu time spent up to now is      114.0 secs

     Self-consistent Calculation

     iteration #  1     ecut=    50.00 Ry     beta= 0.70
     CG style diagonalization
     ethr =  1.00E-06,  avg # of iterations =  2.9

     Threshold (ethr) on eigenvalues was too large:
     Diagonalizing with lowered threshold

     CG style diagonalization
     c_bands:  1 eigenvalues not converged
     c_bands:  1 eigenvalues not converged
     c_bands:  1 eigenvalues not converged
     c_bands:  1 eigenvalues not converged
     c_bands:  1 eigenvalues not converged
     c_bands:  1 eigenvalues not converged
     c_bands:  3 eigenvalues not converged
     c_bands:  3 eigenvalues not converged
     c_bands:  1 eigenvalues not converged
     c_bands:  1 eigenvalues not converged
     c_bands:  2 eigenvalues not converged
     c_bands:  1 eigenvalues not converged
     c_bands:  2 eigenvalues not converged
     c_bands:  1 eigenvalues not converged
     c_bands:  1 eigenvalues not converged
     c_bands:  2 eigenvalues not converged
     c_bands:  1 eigenvalues not converged
     c_bands:  1 eigenvalues not converged
     c_bands:  1 eigenvalues not converged
     c_bands:  1 eigenvalues not converged
     c_bands:  1 eigenvalues not converged
     ethr =  1.56E-09,  avg # of iterations =  8.0

     negative rho (up, down):  1.553E-02 0.000E+00

     total cpu time spent up to now is      117.0 secs

     total energy              =    -380.57230104 Ry
     estimated scf accuracy    <       0.00000082 Ry

     iteration #  2     ecut=    50.00 Ry     beta= 0.70
     CG style diagonalization
     ethr =  1.86E-09,  avg # of iterations =  4.4

     negative rho (up, down):  1.553E-02 0.000E+00

     total cpu time spent up to now is      118.2 secs

     total energy              =    -380.57230091 Ry
     estimated scf accuracy    <       0.00000209 Ry

     iteration #  3     ecut=    50.00 Ry     beta= 0.70
     CG style diagonalization
     ethr =  1.86E-09,  avg # of iterations =  4.1

     negative rho (up, down):  1.553E-02 0.000E+00

     total cpu time spent up to now is      119.3 secs

     total energy              =    -380.57230135 Ry
     estimated scf accuracy    <       0.00000016 Ry

     iteration #  4     ecut=    50.00 Ry     beta= 0.70
     CG style diagonalization
     ethr =  3.73E-10,  avg # of iterations =  3.6

     negative rho (up, down):  1.553E-02 0.000E+00

     total cpu time spent up to now is      120.2 secs

     total energy              =    -380.57230138 Ry
     estimated scf accuracy    <          7.7E-09 Ry

     iteration #  5     ecut=    50.00 Ry     beta= 0.70
     CG style diagonalization
     ethr =  1.74E-11,  avg # of iterations =  5.0

     negative rho (up, down):  1.553E-02 0.000E+00

     total cpu time spent up to now is      121.5 secs

     total energy              =    -380.57230139 Ry
     estimated scf accuracy    <          3.8E-09 Ry

     iteration #  6     ecut=    50.00 Ry     beta= 0.70
     CG style diagonalization
     ethr =  8.60E-12,  avg # of iterations =  3.9

     negative rho (up, down):  1.553E-02 0.000E+00

     total cpu time spent up to now is      122.5 secs

     total energy              =    -380.57230139 Ry
     estimated scf accuracy    <          8.2E-10 Ry

     iteration #  7     ecut=    50.00 Ry     beta= 0.70
     CG style diagonalization
     ethr =  1.87E-12,  avg # of iterations =  4.6

     negative rho (up, down):  1.553E-02 0.000E+00

     total cpu time spent up to now is      123.7 secs

     total energy              =    -380.57230139 Ry
     estimated scf accuracy    <          4.6E-10 Ry

     iteration #  8     ecut=    50.00 Ry     beta= 0.70
     CG style diagonalization
     ethr =  1.05E-12,  avg # of iterations =  4.1

     negative rho (up, down):  1.553E-02 0.000E+00

     total cpu time spent up to now is      124.8 secs

     End of self-consistent calculation

          k = 0.0000 0.0000 0.0000 (  2525 PWs)   bands (ev):

   -45.7953 -22.4794 -22.3704 -22.3704  -7.5756  -6.5131  -6.2057  -4.9906
    -4.9906  -4.9487  -4.8644  -4.6811   4.2144   6.2489   6.2489   6.7980
     8.1195   8.1195   8.4484   8.6296   8.8735   8.8735

          k = 0.0000 0.0000 0.1359 (  2529 PWs)   bands (ev):

   -45.7952 -22.4868 -22.3701 -22.3701  -7.5069  -6.4939  -6.1828  -4.9963
    -4.9963  -4.9482  -4.8590  -4.7048   3.8839   6.2660   6.2660   7.0120
     8.0306   8.0306   8.4161   8.4991   8.9176   8.9176

          k = 0.0000 0.0000 0.2718 (  2518 PWs)   bands (ev):

   -45.7950 -22.5033 -22.3694 -22.3694  -7.3462  -6.4489  -6.1331  -5.0090
    -5.0090  -4.9472  -4.8474  -4.7599   3.3392   6.2953   6.2953   6.7424
     7.8822   7.8822   8.3454   8.9879   8.9884   8.9884

          k = 0.0000 0.0000 0.4077 (  2518 PWs)   bands (ev):

   -45.7948 -22.5165 -22.3689 -22.3689  -7.2095  -6.4107  -6.0963  -5.0191
    -5.0191  -4.9463  -4.8383  -4.8063   3.0023   6.2801   6.3083   6.3083
     7.8004   7.8004   8.2907   9.0312   9.0312   9.8267

          k = 0.0000 0.1429 0.0000 (  2525 PWs)   bands (ev):

   -45.7950 -22.4789 -22.3834 -22.3699  -7.4753  -6.4937  -6.1912  -5.0073
    -4.9895  -4.9583  -4.8569  -4.6726   3.8868   6.2998   6.3297   6.7735
     8.1016   8.1391   8.4417   8.5837   8.5901   8.9499

          k = 0.0000 0.1429 0.1359 (  2517 PWs)   bands (ev):

   -45.7949 -22.4862 -22.3831 -22.3696  -7.4103  -6.4784  -6.1671  -5.0069
    -4.9953  -4.9579  -4.8540  -4.6881   3.6458   6.2171   6.3495   6.9650
     7.9041   8.0325   8.3901   8.5144   8.6547   9.0447

          k = 0.0000 0.1429 0.2718 (  2517 PWs)   bands (ev):

   -45.7947 -22.5027 -22.3824 -22.3689  -7.2605  -6.4425  -6.1123  -5.0083
    -5.0047  -4.9572  -4.8496  -4.7233   3.2024   6.0862   6.3834   6.8746
     7.5878   7.8753   8.3402   8.5811   8.7421   9.4175

          k = 0.0000 0.1429 0.4077 (  2523 PWs)   bands (ev):

   -45.7945 -22.5158 -22.3818 -22.3684  -7.1365  -6.4117  -6.0677  -5.0187
    -5.0022  -4.9566  -4.8478  -4.7521   2.9088   5.8959   6.3982   6.5964
     7.5159   7.7964   8.4076   8.5912   8.7903   9.9015

          k = 0.0000 0.2857 0.0000 (  2513 PWs)   bands (ev):

   -45.7945 -22.4776 -22.4126 -22.3687  -7.2343  -6.4489  -6.1683  -5.0331
    -4.9871  -4.9795  -4.8344  -4.6730   3.3606   6.1157   6.5493   6.6160
     7.9874   8.0147   8.2100   8.3291   8.6349   9.3471

          k = 0.0000 0.2857 0.1359 (  2513 PWs)   bands (ev):

   -45.7944 -22.4848 -22.4122 -22.3683  -7.1832  -6.4383  -6.1392  -5.0229
    -4.9932  -4.9795  -4.8325  -4.6709   3.2200   6.0393   6.5773   6.6490
     7.7188   7.8907   8.2378   8.2955   8.5708   9.4918

          k = 0.0000 0.2857 0.2718 (  2513 PWs)   bands (ev):

   -45.7942 -22.5011 -22.4114 -22.3677  -7.0756  -6.4088  -6.0647  -5.0069
    -4.9965  -4.9795  -4.8403  -4.6596   2.9291   5.8460   6.6051   6.6233
     7.3643   7.7154   7.7518   8.3802   8.9071   9.6355

          k = 0.0000 0.2857 0.4077 (  2512 PWs)   bands (ev):

   -45.7940 -22.5141 -22.4107 -22.3671  -6.9993  -6.3767  -5.9946  -5.0178
    -4.9794  -4.9710  -4.8574  -4.6466   2.7169   5.6025   6.4889   6.6386
     7.2165   7.5119   7.7030   8.4210   9.0973   9.6868

          k = 0.0000 0.4286 0.0000 (  2498 PWs)   bands (ev):

   -45.7940 -22.4764 -22.4359 -22.3677  -7.0212  -6.3972  -6.1781  -5.0480
    -4.9966  -4.9850  -4.7834  -4.7150   3.0574   5.6772   6.8331   6.8336
     7.4576   7.5365   8.2205   8.2482   8.6851  10.1947

          k = 0.0000 0.4286 0.1359 (  2511 PWs)   bands (ev):

   -45.7940 -22.4836 -22.4355 -22.3674  -6.9937  -6.3777  -6.1441  -5.0353
    -4.9968  -4.9914  -4.7795  -4.6968   2.9594   5.6645   6.7378   6.8849
     7.1682   7.4690   8.2640   8.3531   8.5079  10.0765

          k = 0.0000 0.4286 0.2718 (  2514 PWs)   bands (ev):

   -45.7937 -22.4997 -22.4345 -22.3667  -6.9505  -6.3286  -6.0431  -5.0057
    -5.0043  -4.9972  -4.8007  -4.6328   2.7492   5.5935   6.4075   6.8567
     6.9656   7.3784   7.7857   8.2887   8.9992   9.7600

          k = 0.0000 0.4286 0.4077 (  2526 PWs)   bands (ev):

   -45.7935 -22.5126 -22.4337 -22.3661  -6.9325  -6.2841  -5.9381  -5.0170
    -4.9977  -4.9747  -4.8298  -4.5791   2.5898   5.4246   6.1169   6.8499
     6.9621   7.3958   7.4218   8.3022   9.2652   9.5389

          k = 0.1429 0.1429 0.0000 (  2498 PWs)   bands (ev):

   -45.7948 -22.4783 -22.3830 -22.3827  -7.3762  -6.4738  -6.1874  -5.0100
    -5.0009  -4.9639  -4.8361  -4.6644   3.6365   6.2588   6.4426   6.7751
     7.7404   7.9859   8.4004   8.5317   8.8460   9.0728

          k = 0.1429 0.1429 0.1359 (  2506 PWs)   bands (ev):

   -45.7947 -22.4856 -22.3827 -22.3824  -7.3142  -6.4628  -6.1631  -5.0073
    -5.0039  -4.9633  -4.8331  -4.6734   3.4669   6.2021   6.2753   6.9588
     7.6725   7.8874   8.2720   8.5871   8.8618   9.0893

          k = 0.1429 0.1429 0.2718 (  2522 PWs)   bands (ev):

   -45.7945 -22.5020 -22.3819 -22.3817  -7.1732  -6.4378  -6.1054  -5.0200
    -4.9865  -4.9616  -4.8301  -4.6954   3.1184   6.0688   6.1352   6.8646
     7.5634   7.5876   8.2342   8.6588   8.8897   9.4062

          k = 0.1429 0.1429 0.4077 (  2517 PWs)   bands (ev):

   -45.7943 -22.5151 -22.3813 -22.3812  -7.0591  -6.4173  -6.0547  -5.0287
    -4.9700  -4.9568  -4.8333  -4.7151   2.8680   5.9354   5.9603   6.6738
     7.5166   7.5570   8.1899   8.6891   8.9067   9.7614

          k = 0.1429 0.2857 0.0000 (  2508 PWs)   bands (ev):

   -45.7942 -22.4770 -22.4119 -22.3816  -7.1394  -6.4291  -6.1885  -5.0310
    -4.9943  -4.9602  -4.8037  -4.6640   3.1880   6.1074   6.5038   6.7068
     7.4056   7.7515   8.2287   8.5914   8.7827   9.4989

          k = 0.1429 0.2857 0.1359 (  2505 PWs)   bands (ev):

   -45.7941 -22.4842 -22.4116 -22.3813  -7.0889  -6.4248  -6.1615  -5.0218
    -4.9975  -4.9562  -4.7984  -4.6577   3.1122   6.0318   6.2450   6.7363
     7.3177   7.7605   8.2295   8.5783   8.7544   9.4905

          k = 0.1429 0.2857 0.2718 (  2506 PWs)   bands (ev):

   -45.7939 -22.5004 -22.4107 -22.3805  -6.9839  -6.4121  -6.0894  -5.0147
    -4.9895  -4.9420  -4.7958  -4.6411   2.9268   5.8077   6.0608   6.5954
     6.9498   7.5567   8.3361   8.5702   8.9553   9.4613

          k = 0.1429 0.2857 0.4077 (  2513 PWs)   bands (ev):

   -45.7937 -22.5134 -22.4101 -22.3800  -6.9112  -6.3975  -6.0177  -5.0183
    -4.9762  -4.9175  -4.8057  -4.6263   2.7698   5.5732   6.0111   6.3757
     6.7552   7.4810   8.3179   8.6150   9.1078   9.4044

          k = 0.1429 0.4286 0.0000 (  2525 PWs)   bands (ev):

   -45.7938 -22.4758 -22.4352 -22.3806  -6.9304  -6.3801  -6.2163  -5.0376
    -4.9856  -4.9479  -4.7616  -4.7024   2.9086   5.6908   6.6016   7.0026
     7.0266   7.6144   7.9113   8.5965   8.8014  10.0031

          k = 0.1429 0.4286 0.1359 (  2520 PWs)   bands (ev):

   -45.7937 -22.4830 -22.4348 -22.3802  -6.9010  -6.3696  -6.1865  -5.0264
    -4.9875  -4.9430  -4.7535  -4.6809   2.8762   5.6750   6.2289   6.7020
     7.1753   7.7301   7.9439   8.6134   8.7239   9.8154

          k = 0.1429 0.4286 0.2718 (  2510 PWs)   bands (ev):

   -45.7935 -22.4991 -22.4339 -22.3795  -6.8571  -6.3422  -6.0923  -5.0125
    -4.9773  -4.9312  -4.7573  -4.6163   2.7855   5.5900   5.9280   6.2706
     6.7652   7.7119   8.1339   8.5042   9.0046   9.4313

          k = 0.1429 0.4286 0.4077 (  2512 PWs)   bands (ev):

   -45.7933 -22.5119 -22.4331 -22.3789  -6.8416  -6.3174  -5.9911  -5.0129
    -4.9552  -4.9165  -4.7709  -4.5625   2.6972   5.4006   5.8631   6.0605
     6.4016   7.6185   8.2832   8.4494   8.8498   9.5032

          k = 0.2857 0.2857 0.0000 (  2524 PWs)   bands (ev):

   -45.7937 -22.4757 -22.4107 -22.4103  -6.9174  -6.3862  -6.2356  -5.0206
    -4.9872  -4.9152  -4.7463  -4.6596   2.8306   6.1450   6.1606   6.8999
     7.0236   7.3087   8.1078   8.5476   9.0979   9.5655

          k = 0.2857 0.2857 0.1359 (  2517 PWs)   bands (ev):

   -45.7936 -22.4828 -22.4103 -22.4100  -6.8702  -6.3946  -6.2129  -5.0079
    -4.9879  -4.9043  -4.7340  -4.6421   2.8537   5.9897   6.0273   6.3228
     7.0582   7.4448   8.4085   8.5072   9.1111   9.3781

          k = 0.2857 0.2857 0.2718 (  2504 PWs)   bands (ev):

   -45.7934 -22.4989 -22.4095 -22.4092  -6.7798  -6.4133  -6.1411  -4.9878
    -4.9796  -4.8756  -4.7085  -4.6046   2.8825   5.6227   5.6354   6.1311
     6.8812   6.9353   8.5973   8.9597   9.0469   9.1734

          k = 0.2857 0.2857 0.4077 (  2509 PWs)   bands (ev):

   -45.7932 -22.5118 -22.4088 -22.4086  -6.7254  -6.4280  -6.0596  -4.9863
    -4.9589  -4.8441  -4.6926  -4.5761   2.8755   5.3776   5.4676   5.9083
     6.5604   6.8327   8.4014   9.0467   9.0783   9.3157

          k = 0.2857 0.4286 0.0000 (  2518 PWs)   bands (ev):

   -45.7933 -22.4744 -22.4336 -22.4093  -6.7287  -6.3453  -6.2846  -5.0130
    -4.9660  -4.8513  -4.7129  -4.6825   2.5746   5.6961   6.2484   6.7227
     7.1887   7.3798   7.6395   8.5780   9.2164   9.4918

          k = 0.2857 0.4286 0.1359 (  2511 PWs)   bands (ev):

   -45.7932 -22.4816 -22.4332 -22.4090  -6.6901  -6.3551  -6.2686  -4.9995
    -4.9638  -4.8349  -4.6963  -4.6524   2.6459   5.6760   6.0121   6.1305
     6.8376   7.6221   8.1086   8.5822   9.1121   9.3092

          k = 0.2857 0.4286 0.2718 (  2505 PWs)   bands (ev):

   -45.7929 -22.4976 -22.4324 -22.4083  -6.6409  -6.3739  -6.1907  -4.9745
    -4.9526  -4.8020  -4.6586  -4.5822   2.8111   5.3918   5.5522   5.7487
     6.5321   7.0476   8.1946   8.9812   9.0543   9.3148

          k = 0.2857 0.4286 0.4077 (  2505 PWs)   bands (ev):

   -45.7928 -22.5105 -22.4317 -22.4077  -6.6338  -6.3873  -6.0903  -4.9657
    -4.9318  -4.7747  -4.6287  -4.5253   2.9426   5.1234   5.2535   5.6168
     6.2377   6.7920   7.6769   9.1655   9.2340   9.5215

          k = 0.4286 0.4286 0.0000 (  2512 PWs)   bands (ev):

   -45.7928 -22.4732 -22.4323 -22.4323  -6.5862  -6.3180  -6.3110  -4.9992
    -4.9243  -4.7616  -4.7020  -4.6661   2.3128   5.5276   6.0127   6.9139
     7.0202   7.3820   7.5593   8.3255   8.8744   9.6488

          k = 0.4286 0.4286 0.1359 (  2521 PWs)   bands (ev):

   -45.7927 -22.4804 -22.4320 -22.4320  -6.5253  -6.3426  -6.3224  -4.9848
    -4.9222  -4.7318  -4.6615  -4.6456   2.4324   5.5110   5.9369   6.1503
     6.3721   7.6978   8.2179   8.3304   8.5244   9.6452

          k = 0.4286 0.4286 0.2718 (  2512 PWs)   bands (ev):

   -45.7925 -22.4964 -22.4312 -22.4312  -6.4557  -6.3943  -6.2737  -4.9526
    -4.9186  -4.6830  -4.5809  -4.5720   2.7528   5.3497   5.4489   5.5062
     6.1380   6.8723   7.4184   9.1147   9.1274   9.6371

          k = 0.4286 0.4286 0.4077 (  2502 PWs)   bands (ev):

   -45.7923 -22.5092 -22.4306 -22.4306  -6.4696  -6.4327  -6.1588  -4.9269
    -4.9162  -4.6512  -4.5190  -4.5020   3.0966   4.9554   5.0711   5.3877
     6.1205   6.3127   6.6710   9.5167   9.5429   9.6300

     highest occupied level (ev):    10.1947

!    total energy              =    -380.57230139 Ry
     estimated scf accuracy    <          1.2E-11 Ry

     The total energy is the sum of the following terms:
     one-electron contribution =     -85.69226938 Ry
     hartree contribution      =      71.98961779 Ry
     xc contribution           =    -102.58353200 Ry
     ewald contribution        =    -264.28611779 Ry

     convergence has been achieved in   8 iterations

     negative rho (up, down):  1.553E-02 0.000E+00

     Forces acting on atoms (cartesian axes, Ry/au):

     atom    1 type  1   force =     0.00000000    0.00000000    0.00009726
     atom    2 type  2   force =     0.00000000    0.00000000   -0.00070811
     atom    3 type  3   force =     0.00000000    0.00000000    0.00040372
     atom    4 type  3   force =     0.00000000    0.00000000    0.00010356
     atom    5 type  3   force =     0.00000000    0.00000000    0.00010356

     Total force =     0.000834     Total SCF correction =     0.000008


     Computing stress (Cartesian axis) and pressure


     negative rho (up, down):  1.553E-02 0.000E+00
          total   stress  (Ry/bohr**3)                   (kbar)     P=      -44.55
  -0.00035167   0.00000000   0.00000000          -51.73        0.00        0.00
   0.00000000  -0.00035167   0.00000000            0.00      -51.73        0.00
   0.00000000   0.00000000  -0.00020528            0.00        0.00      -30.20

     Energy error            =      2.6E-06 Ry
     Gradient error          =      7.1E-04 Ry/Bohr

     bfgs converged in   9 scf cycles and   8 bfgs steps
     (criteria: energy <  1.0E-04 Ry, force <  1.0E-03 Ry/Bohr)

     End of BFGS Geometry Optimization

     Final energy             =    -380.5723013888 Ry

     File ./pto_k7.bfgs deleted, as requested
Begin final coordinates

ATOMIC_POSITIONS (crystal)
Pb               0.0000000000        0.0000000000        0.9936229091
Ti               0.5000000000        0.5000000000        0.5381775669
O                0.5000000000        0.5000000000        0.1065587465
O                0.5000000000        0.0000000000        0.6144625328
O                0.0000000000        0.5000000000        0.6144625328
End final coordinates



     Writing all to output data dir ./pto_k7.save/ :
     XML data file, charge density, pseudopotentials, collected wavefunctions
 
     init_run     :      0.43s CPU      0.52s WALL (       1 calls)
     electrons    :    105.66s CPU    112.53s WALL (       9 calls)
     update_pot   :      0.03s CPU      0.03s WALL (       8 calls)
     forces       :      1.08s CPU      1.11s WALL (       9 calls)
     stress       :     10.96s CPU     11.06s WALL (       9 calls)

     Called by init_run:
     wfcinit      :      0.21s CPU      0.23s WALL (       1 calls)
     potinit      :      0.01s CPU      0.02s WALL (       1 calls)
     hinit0       :      0.11s CPU      0.14s WALL (       1 calls)

     Called by electrons:
     c_bands      :     92.09s CPU     97.86s WALL (      89 calls)
     sum_band     :      9.64s CPU     10.15s WALL (      89 calls)
     v_of_rho     :      0.14s CPU      0.14s WALL (      94 calls)
     newd         :      4.00s CPU      4.42s WALL (      94 calls)
     mix_rho      :      0.09s CPU      0.10s WALL (      89 calls)

     Called by c_bands:
     init_us_2    :      0.78s CPU      0.82s WALL (    7880 calls)
     init_us_2:cp :      0.77s CPU      0.81s WALL (    7880 calls)
     ccgdiagg     :     83.18s CPU     88.53s WALL (    3560 calls)
     wfcrot       :      8.49s CPU      8.89s WALL (    3080 calls)

     Called by *cgdiagg:
     h_psi        :     50.97s CPU     54.12s WALL (  311161 calls)
     s_psi        :      8.29s CPU      8.85s WALL (  619242 calls)

     Called by h_psi:
     h_psi:calbec :      8.09s CPU      8.60s WALL (  311161 calls)
     vloc_psi     :     35.89s CPU     38.10s WALL (  311161 calls)
     add_vuspsi   :      4.51s CPU      4.81s WALL (  311161 calls)
     hs_1psi      :     50.17s CPU     53.37s WALL (  308081 calls)
     s_1psi       :     12.30s CPU     13.06s WALL (  308081 calls)

     General routines
     calbec       :     14.64s CPU     15.58s WALL (  624602 calls)
     fft          :      0.16s CPU      0.18s WALL (     630 calls)
     ffts         :      0.01s CPU      0.01s WALL (     183 calls)
     fftw         :     30.38s CPU     32.17s WALL (  830722 calls)
     interpolate  :      0.03s CPU      0.04s WALL (      94 calls)
 
     Parallel routines
 
     PWSCF        :   1m58.77s CPU   2m 6.59s WALL

 
   This run was terminated on:   2:33: 8  15Nov2025            

=------------------------------------------------------------------------------=
   JOB DONE.
=------------------------------------------------------------------------------=
TACC:  Shutdown complete. Exiting. 
