TACC:  Starting up job 2547118 
TACC:  Starting parallel tasks... 

     Program PWSCF v.7.3 starts on 13Nov2025 at  0:17:19 

     This program is part of the open-source Quantum ESPRESSO suite
     for quantum simulation of materials; please cite
         "P. Giannozzi et al., J. Phys.:Condens. Matter 21 395502 (2009);
         "P. Giannozzi et al., J. Phys.:Condens. Matter 29 465901 (2017);
         "P. Giannozzi et al., J. Chem. Phys. 152 154105 (2020);
          URL http://www.quantum-espresso.org", 
     in publications or presentations arising from this work. More details at
     http://www.quantum-espresso.org/quote

     Parallel version (MPI & OpenMP), running on      10 processor cores
     Number of MPI processes:                10
     Threads/MPI process:                     1

     MPI processes distributed on     1 nodes
     187519 MiB available memory on the printing compute node when the environment starts
 
     Waiting for input...
     Reading input from standard input
Warning: card &CELL ignored
Warning: card  CELL_DYNAMICS = 'BFGS', ignored
Warning: card  PRESS=0.D0, ignored
Warning: card / ignored

     Current dimensions of program PWSCF are:
     Max number of different atomic species (ntypx) = 10
     Max number of k-points (npk) =  40000
     Max angular momentum in pseudopotentials (lmaxx) =  4
     Message from routine setup:
     using ibrav=0 with symmetry is DISCOURAGED, use correct ibrav instead
 
     R & G space division:  proc/nbgrp/npool/nimage =      10
     Subspace diagonalization in iterative solution of the eigenvalue problem:
     a serial algorithm will be used

 
     Parallelization info
     --------------------
     sticks:   dense  smooth     PW     G-vecs:    dense   smooth      PW
     Min         130      51     16                 3698      935     168
     Max         131      52     17                 3701      938     171
     Sum        1305     517    169                36987     9359    1703
 
     Using Slab Decomposition
 


     bravais-lattice index     =            0
     lattice parameter (alat)  =       7.3699  a.u.
     unit-cell volume          =     420.8329 (a.u.)^3
     number of atoms/cell      =            5
     number of atomic types    =            3
     number of electrons       =        44.00
     number of Kohn-Sham states=           22
     kinetic-energy cutoff     =      30.0000  Ry
     charge density cutoff     =     300.0000  Ry
     scf convergence threshold =      1.0E-08
     mixing beta               =       0.7000
     number of iterations used =            8  plain     mixing
     energy convergence thresh.=      1.0E-04
     force convergence thresh. =      1.0E-03
     Exchange-correlation= SLA  PZ   NOGX NOGC
                           (   1   1   0   0   0   0   0)
     nstep                     =           50


     celldm(1)=   7.369932  celldm(2)=   0.000000  celldm(3)=   0.000000
     celldm(4)=   0.000000  celldm(5)=   0.000000  celldm(6)=   0.000000

     crystal axes: (cart. coord. in units of alat)
               a(1) = (   1.000000   0.000000   0.000000 )  
               a(2) = (   0.000000   1.000000   0.000000 )  
               a(3) = (   0.000000   0.000000   1.051282 )  

     reciprocal axes: (cart. coord. in units 2 pi/alat)
               b(1) = (  1.000000  0.000000  0.000000 )  
               b(2) = (  0.000000  1.000000  0.000000 )  
               b(3) = (  0.000000  0.000000  0.951220 )  


     PseudoPot. # 1 for Pb read from file:
     /scratch/11018/zhc/assisgnment3/input_files/Pb_LDA.UPF
     MD5 check sum: 062a37469794d955244864f8fe2e5624
     Pseudo is Ultrasoft + core correction, Zval = 14.0
     Generated by new atomic code, or converted to UPF format
     Using radial grid of  899 points,  6 beta functions with: 
                l(1) =   0
                l(2) =   0
                l(3) =   1
                l(4) =   1
                l(5) =   2
                l(6) =   2
     Q(r) pseudized with  6 coefficients,  rinner =    1.000   1.000   1.000
                                                       1.000   1.000

     PseudoPot. # 2 for Ti read from file:
     /scratch/11018/zhc/assisgnment3/input_files/Ti_LDA.UPF
     MD5 check sum: 0d9f225c038fe889ca2a701dcc8d72cb
     Pseudo is Ultrasoft + core correction, Zval = 12.0
     Generated by new atomic code, or converted to UPF format
     Using radial grid of  851 points,  6 beta functions with: 
                l(1) =   0
                l(2) =   0
                l(3) =   1
                l(4) =   1
                l(5) =   2
                l(6) =   2
     Q(r) pseudized with  6 coefficients,  rinner =    1.000   1.000   1.000
                                                       1.000   1.000

     PseudoPot. # 3 for O  read from file:
     /scratch/11018/zhc/assisgnment3/input_files/O_LDA.UPF
     MD5 check sum: 194b818514d2a7dbb603bb78519a4f40
     Pseudo is Ultrasoft + core correction, Zval =  6.0
     Generated by new atomic code, or converted to UPF format
     Using radial grid of  737 points,  5 beta functions with: 
                l(1) =   0
                l(2) =   0
                l(3) =   1
                l(4) =   1
                l(5) =   2
     Q(r) pseudized with  8 coefficients,  rinner =    0.900   0.900   0.900
                                                       0.900   0.900

     atomic species   valence    mass     pseudopotential
     Pb               14.00   207.20000     Pb( 1.00)
     Ti               12.00    47.88000     Ti( 1.00)
     O                 6.00    16.00000     O ( 1.00)

      8 Sym. Ops. (no inversion) found



   Cartesian axes

     site n.     atom                  positions (alat units)
         1        Pb     tau(   1) = (   0.0000000   0.0000000   1.0580339  )
         2        Ti     tau(   2) = (   0.5000000   0.5000000   0.5681377  )
         3        O      tau(   3) = (   0.5000000   0.5000000   0.1036357  )
         4        O      tau(   4) = (   0.5000000   0.0000000   0.6422586  )
         5        O      tau(   5) = (   0.0000000   0.5000000   0.6422586  )

     number of k points=    30
                       cart. coord. in units 2pi/alat
        k(    1) = (   0.0000000   0.0000000   0.0000000), wk =   0.0138889
        k(    2) = (   0.0000000   0.0000000   0.2378049), wk =   0.0277778
        k(    3) = (   0.0000000   0.0000000  -0.4756098), wk =   0.0138889
        k(    4) = (   0.0000000   0.1666667   0.0000000), wk =   0.0555556
        k(    5) = (   0.0000000   0.1666667   0.2378049), wk =   0.1111111
        k(    6) = (   0.0000000   0.1666667  -0.4756098), wk =   0.0555556
        k(    7) = (   0.0000000   0.3333333   0.0000000), wk =   0.0555556
        k(    8) = (   0.0000000   0.3333333   0.2378049), wk =   0.1111111
        k(    9) = (   0.0000000   0.3333333  -0.4756098), wk =   0.0555556
        k(   10) = (   0.0000000  -0.5000000   0.0000000), wk =   0.0277778
        k(   11) = (   0.0000000  -0.5000000   0.2378049), wk =   0.0555556
        k(   12) = (   0.0000000  -0.5000000  -0.4756098), wk =   0.0277778
        k(   13) = (   0.1666667   0.1666667   0.0000000), wk =   0.0555556
        k(   14) = (   0.1666667   0.1666667   0.2378049), wk =   0.1111111
        k(   15) = (   0.1666667   0.1666667  -0.4756098), wk =   0.0555556
        k(   16) = (   0.1666667   0.3333333   0.0000000), wk =   0.1111111
        k(   17) = (   0.1666667   0.3333333   0.2378049), wk =   0.2222222
        k(   18) = (   0.1666667   0.3333333  -0.4756098), wk =   0.1111111
        k(   19) = (   0.1666667  -0.5000000   0.0000000), wk =   0.0555556
        k(   20) = (   0.1666667  -0.5000000   0.2378049), wk =   0.1111111
        k(   21) = (   0.1666667  -0.5000000  -0.4756098), wk =   0.0555556
        k(   22) = (   0.3333333   0.3333333   0.0000000), wk =   0.0555556
        k(   23) = (   0.3333333   0.3333333   0.2378049), wk =   0.1111111
        k(   24) = (   0.3333333   0.3333333  -0.4756098), wk =   0.0555556
        k(   25) = (   0.3333333  -0.5000000   0.0000000), wk =   0.0555556
        k(   26) = (   0.3333333  -0.5000000   0.2378049), wk =   0.1111111
        k(   27) = (   0.3333333  -0.5000000  -0.4756098), wk =   0.0555556
        k(   28) = (  -0.5000000  -0.5000000   0.0000000), wk =   0.0138889
        k(   29) = (  -0.5000000  -0.5000000   0.2378049), wk =   0.0277778
        k(   30) = (  -0.5000000  -0.5000000  -0.4756098), wk =   0.0138889

     Dense  grid:    36987 G-vectors     FFT dimensions: (  45,  45,  45)

     Smooth grid:     9359 G-vectors     FFT dimensions: (  25,  25,  27)

     Estimated max dynamical RAM per process >      19.30 MB

     Estimated total dynamical RAM >     193.02 MB

     Check: negative core charge=   -0.000007

     Initial potential from superposition of free atoms

     starting charge      42.9982, renormalised to      44.0000

     negative rho (up, down):  1.760E-02 0.000E+00
     Starting wfcs are   31 randomized atomic wfcs

     total cpu time spent up to now is        0.6 secs

     Self-consistent Calculation

     iteration #  1     ecut=    30.00 Ry     beta= 0.70
     CG style diagonalization
     ethr =  1.00E-02,  avg # of iterations =  2.1

     negative rho (up, down):  1.494E-02 0.000E+00

     total cpu time spent up to now is        1.0 secs

     total energy              =    -380.03418183 Ry
     estimated scf accuracy    <       1.01001437 Ry

     iteration #  2     ecut=    30.00 Ry     beta= 0.70
     CG style diagonalization
     ethr =  2.30E-03,  avg # of iterations =  4.8

     negative rho (up, down):  1.489E-02 0.000E+00

     total cpu time spent up to now is        1.7 secs

     total energy              =    -379.63680965 Ry
     estimated scf accuracy    <       4.43507803 Ry

     iteration #  3     ecut=    30.00 Ry     beta= 0.70
     CG style diagonalization
     ethr =  2.30E-03,  avg # of iterations =  4.4

     negative rho (up, down):  1.575E-02 0.000E+00

     total cpu time spent up to now is        2.3 secs

     total energy              =    -380.50865130 Ry
     estimated scf accuracy    <       0.30762003 Ry

     iteration #  4     ecut=    30.00 Ry     beta= 0.70
     CG style diagonalization
     ethr =  6.99E-04,  avg # of iterations =  3.4

     negative rho (up, down):  1.584E-02 0.000E+00

     total cpu time spent up to now is        2.8 secs

     total energy              =    -380.52499884 Ry
     estimated scf accuracy    <       0.05588222 Ry

     iteration #  5     ecut=    30.00 Ry     beta= 0.70
     CG style diagonalization
     ethr =  1.27E-04,  avg # of iterations =  3.7

     negative rho (up, down):  1.586E-02 0.000E+00

     total cpu time spent up to now is        3.4 secs

     total energy              =    -380.53830134 Ry
     estimated scf accuracy    <       0.00763006 Ry

     iteration #  6     ecut=    30.00 Ry     beta= 0.70
     CG style diagonalization
     ethr =  1.73E-05,  avg # of iterations =  4.0

     negative rho (up, down):  1.584E-02 0.000E+00

     total cpu time spent up to now is        3.9 secs

     total energy              =    -380.54122368 Ry
     estimated scf accuracy    <       0.00792811 Ry

     iteration #  7     ecut=    30.00 Ry     beta= 0.70
     CG style diagonalization
     ethr =  1.73E-05,  avg # of iterations =  3.2

     negative rho (up, down):  1.582E-02 0.000E+00

     total cpu time spent up to now is        4.4 secs

     total energy              =    -380.54113491 Ry
     estimated scf accuracy    <       0.00205631 Ry

     iteration #  8     ecut=    30.00 Ry     beta= 0.70
     CG style diagonalization
     ethr =  4.67E-06,  avg # of iterations =  3.6

     negative rho (up, down):  1.584E-02 0.000E+00

     total cpu time spent up to now is        4.9 secs

     total energy              =    -380.54161087 Ry
     estimated scf accuracy    <       0.00001720 Ry

     iteration #  9     ecut=    30.00 Ry     beta= 0.70
     CG style diagonalization
     c_bands:  1 eigenvalues not converged
     ethr =  3.91E-08,  avg # of iterations =  6.7

     negative rho (up, down):  1.588E-02 0.000E+00

     total cpu time spent up to now is        5.9 secs

     total energy              =    -380.54166874 Ry
     estimated scf accuracy    <       0.00005685 Ry

     iteration # 10     ecut=    30.00 Ry     beta= 0.70
     CG style diagonalization
     ethr =  3.91E-08,  avg # of iterations =  3.8

     negative rho (up, down):  1.595E-02 0.000E+00

     total cpu time spent up to now is        6.5 secs

     total energy              =    -380.54166657 Ry
     estimated scf accuracy    <       0.00001901 Ry

     iteration # 11     ecut=    30.00 Ry     beta= 0.70
     CG style diagonalization
     ethr =  3.91E-08,  avg # of iterations =  3.7

     negative rho (up, down):  1.596E-02 0.000E+00

     total cpu time spent up to now is        7.0 secs

     total energy              =    -380.54166948 Ry
     estimated scf accuracy    <       0.00000028 Ry

     iteration # 12     ecut=    30.00 Ry     beta= 0.70
     CG style diagonalization
     c_bands:  1 eigenvalues not converged
     c_bands:  1 eigenvalues not converged
     c_bands:  1 eigenvalues not converged
     ethr =  6.41E-10,  avg # of iterations =  9.7

     negative rho (up, down):  1.596E-02 0.000E+00

     total cpu time spent up to now is        8.5 secs

     total energy              =    -380.54167163 Ry
     estimated scf accuracy    <       0.00000058 Ry

     iteration # 13     ecut=    30.00 Ry     beta= 0.70
     CG style diagonalization
     ethr =  6.41E-10,  avg # of iterations =  3.9

     negative rho (up, down):  1.597E-02 0.000E+00

     total cpu time spent up to now is        9.1 secs

     total energy              =    -380.54167167 Ry
     estimated scf accuracy    <       0.00000011 Ry

     iteration # 14     ecut=    30.00 Ry     beta= 0.70
     CG style diagonalization
     ethr =  2.52E-10,  avg # of iterations =  4.5

     negative rho (up, down):  1.598E-02 0.000E+00

     total cpu time spent up to now is        9.7 secs

     End of self-consistent calculation

          k = 0.0000 0.0000 0.0000 (  1189 PWs)   bands (ev):

   -45.8625 -22.4968 -22.4369 -22.4369  -7.5310  -6.4512  -6.2181  -5.0243
    -5.0243  -4.9893  -4.8718  -4.7683   4.2228   6.3087   6.3087   6.6312
     8.2723   8.2723   8.4892   8.7743   8.9332   8.9332

          k = 0.0000 0.0000 0.2378 (  1162 PWs)   bands (ev):

   -45.8618 -22.5162 -22.4360 -22.4360  -7.3388  -6.3929  -6.1604  -5.0395
    -5.0395  -4.9880  -4.8637  -4.8388   3.4611   6.3827   6.3827   6.7898
     8.0113   8.0113   8.4132   8.8263   9.0425   9.0425

          k = 0.0000 0.0000-0.4756 (  1174 PWs)   bands (ev):

   -45.8618 -22.5355 -22.4353 -22.4353  -7.1291  -6.3289  -6.1105  -5.0545
    -5.0545  -4.9868  -4.9151  -4.8575   2.9638   6.1497   6.4334   6.4334
     7.8251   7.8251   8.3283   9.1131   9.1131   9.9987

          k = 0.0000 0.1667 0.0000 (  1175 PWs)   bands (ev):

   -45.8621 -22.4961 -22.4539 -22.4361  -7.3963  -6.4219  -6.1895  -5.0452
    -5.0230  -5.0021  -4.8764  -4.7588   3.7951   6.3558   6.4170   6.6760
     8.1868   8.2952   8.4919   8.5667   8.6675   9.0364

          k = 0.0000 0.1667 0.2378 (  1178 PWs)   bands (ev):

   -45.8619 -22.5154 -22.4530 -22.4353  -7.2197  -6.3792  -6.1265  -5.0433
    -5.0386  -5.0013  -4.8733  -4.7950   3.2502   6.1643   6.4958   6.8878
     7.6654   7.9978   8.2703   8.6929   8.7153   9.3645

          k = 0.0000 0.1667-0.4756 (  1160 PWs)   bands (ev):

   -45.8614 -22.5345 -22.4521 -22.4345  -7.0363  -6.3307  -6.0623  -5.0541
    -5.0390  -5.0004  -4.8805  -4.8277   2.8358   5.8643   6.5551   6.5801
     7.4721   7.8311   8.3358   8.7487   8.7934   9.9287

          k = 0.0000 0.3333 0.0000 (  1169 PWs)   bands (ev):

   -45.8614 -22.4951 -22.4873 -22.4347  -7.1034  -6.3591  -6.1465  -5.0783
    -5.0275  -5.0201  -4.8735  -4.7664   3.2186   5.9795   6.6762   6.7048
     7.8553   7.8755   8.3454   8.4074   8.7735   9.6132

          k = 0.0000 0.3333 0.2378 (  1169 PWs)   bands (ev):

   -45.8611 -22.5137 -22.4867 -22.4338  -6.9888  -6.3204  -6.0639  -5.0486
    -5.0368  -5.0275  -4.8696  -4.7408   2.8957   5.8701   6.5606   6.8009
     7.3126   7.7482   7.8598   8.4035   8.9360   9.6820

          k = 0.0000 0.3333-0.4756 (  1164 PWs)   bands (ev):

   -45.8609 -22.5325 -22.4857 -22.4330  -6.9035  -6.2587  -5.9541  -5.0532
    -5.0277  -5.0111  -4.9054  -4.6920   2.6076   5.5775   6.3179   6.8566
     7.2055   7.3649   7.6918   8.4130   9.3296   9.5166

          k = 0.0000-0.5000 0.0000 (  1168 PWs)   bands (ev):

   -45.8612 -22.5048 -22.4936 -22.4340  -6.9411  -6.3126  -6.1483  -5.0936
    -5.0401  -5.0188  -4.8477  -4.7993   3.0096   5.6170   6.9616   6.9709
     7.3528   7.4685   8.2734   8.4453   8.8081  10.3546

          k = 0.0000-0.5000 0.2378 (  1176 PWs)   bands (ev):

   -45.8610 -22.5125 -22.5036 -22.4331  -6.8883  -6.2420  -6.0562  -5.0612
    -5.0407  -5.0359  -4.8398  -4.7368   2.7517   5.5893   6.5941   6.8603
     7.1636   7.3168   7.9701   8.3889   8.9305   9.8613

          k = 0.0000-0.5000-0.4756 (  1160 PWs)   bands (ev):

   -45.8605 -22.5313 -22.5024 -22.4323  -6.8725  -6.1663  -5.9031  -5.0527
    -5.0412  -5.0217  -4.8919  -4.6362   2.5147   5.4292   6.0402   6.9211
     7.1697   7.3721   7.3761   8.3586   9.1515   9.6535

          k = 0.1667 0.1667 0.0000 (  1163 PWs)   bands (ev):

   -45.8617 -22.4954 -22.4532 -22.4529  -7.2642  -6.3917  -6.1821  -5.0506
    -5.0371  -5.0044  -4.8550  -4.7500   3.4993   6.2951   6.5287   6.7220
     7.7685   7.8520   8.5435   8.5673   8.8883   9.2635

          k = 0.1667 0.1667 0.2378 (  1170 PWs)   bands (ev):

   -45.8614 -22.5145 -22.4523 -22.4521  -7.0985  -6.3680  -6.1196  -5.0530
    -5.0327  -4.9978  -4.8465  -4.7642   3.1380   6.1089   6.1913   6.8525
     7.5508   7.5545   8.3747   8.7463   8.9708   9.3180

          k = 0.1667 0.1667-0.4756 (  1172 PWs)   bands (ev):

   -45.8612 -22.5336 -22.4514 -22.4513  -6.9329  -6.3441  -6.0469  -5.0640
    -5.0138  -4.9754  -4.8537  -4.7836   2.8091   5.9119   5.9213   6.5865
     7.4551   7.4709   8.2682   8.8148   9.0302   9.6364

          k = 0.1667 0.3333 0.0000 (  1167 PWs)   bands (ev):

   -45.8612 -22.4944 -22.4864 -22.4515  -6.9799  -6.3301  -6.1815  -5.0729
    -5.0273  -4.9882  -4.8323  -4.7571   3.0305   5.9846   6.5418   6.8280
     7.2137   7.8046   8.0602   8.7210   8.8992   9.6932

          k = 0.1667 0.3333 0.2378 (  1165 PWs)   bands (ev):

   -45.8608 -22.5129 -22.4858 -22.4507  -6.8630  -6.3232  -6.1120  -5.0510
    -5.0280  -4.9652  -4.8145  -4.7172   2.9036   5.8368   6.0076   6.4919
     6.9314   7.5770   8.4105   8.7012   9.0255   9.4120

          k = 0.1667 0.3333-0.4756 (  1168 PWs)   bands (ev):

   -45.8606 -22.5316 -22.4849 -22.4498  -6.7806  -6.3031  -6.0077  -5.0478
    -5.0053  -4.9271  -4.8267  -4.6667   2.7393   5.5200   5.9256   6.2235
     6.4304   7.4294   8.5156   8.7394   8.9217   9.4499

          k = 0.1667-0.5000 0.0000 (  1170 PWs)   bands (ev):

   -45.8610 -22.5038 -22.4929 -22.4507  -6.8240  -6.2855  -6.2041  -5.0761
    -5.0202  -4.9669  -4.8135  -4.7906   2.8435   5.6335   6.6988   6.8507
     7.1898   7.4670   7.9723   8.7833   8.8754   9.9752

          k = 0.1667-0.5000 0.2378 (  1168 PWs)   bands (ev):

   -45.8606 -22.5118 -22.5027 -22.4499  -6.7618  -6.2545  -6.1327  -5.0498
    -5.0158  -4.9433  -4.7956  -4.7107   2.7949   5.5963   5.9147   6.2802
     6.8776   7.7182   8.1794   8.7144   9.0179   9.3834

          k = 0.1667-0.5000-0.4756 (  1176 PWs)   bands (ev):

   -45.8605 -22.5305 -22.5016 -22.4491  -6.7491  -6.2247  -5.9929  -5.0431
    -4.9787  -4.9208  -4.8112  -4.6115   2.7054   5.3962   5.7834   5.8874
     6.3061   7.5372   8.3036   8.6566   8.6629   9.6596

          k = 0.3333 0.3333 0.0000 (  1163 PWs)   bands (ev):

   -45.8606 -22.4932 -22.4850 -22.4843  -6.7356  -6.2727  -6.2339  -5.0553
    -5.0095  -4.9211  -4.7604  -4.7544   2.6730   5.9509   6.0833   6.9527
     7.0915   7.2642   7.8805   8.5162   9.3831   9.4063

          k = 0.3333 0.3333 0.2378 (  1164 PWs)   bands (ev):

   -45.8603 -22.5112 -22.4841 -22.4841  -6.6126  -6.3204  -6.1989  -5.0191
    -5.0029  -4.8621  -4.7108  -4.6844   2.8549   5.6022   5.6639   5.9424
     6.6045   7.0692   8.3854   8.9903   9.0195   9.4006

          k = 0.3333 0.3333-0.4756 (  1180 PWs)   bands (ev):

   -45.8602 -22.5298 -22.4833 -22.4833  -6.5502  -6.3645  -6.0928  -4.9966
    -4.9829  -4.7988  -4.6665  -4.6110   3.0220   5.2174   5.2371   5.7042
     6.3518   6.5071   7.6514   9.3513   9.3653   9.5300

          k = 0.3333-0.5000 0.0000 (  1158 PWs)   bands (ev):

   -45.8603 -22.5019 -22.4918 -22.4837  -6.6245  -6.2503  -6.2362  -5.0481
    -4.9881  -4.8605  -4.7928  -4.7208   2.5061   5.6157   6.1184   6.7829
     7.3045   7.4056   7.5014   8.4924   9.0811   9.5722

          k = 0.3333-0.5000 0.2378 (  1156 PWs)   bands (ev):

   -45.8600 -22.5102 -22.5009 -22.4833  -6.5047  -6.2827  -6.2545  -5.0111
    -4.9776  -4.7736  -4.7133  -4.6526   2.7994   5.5014   5.5770   5.6854
     6.3877   7.1427   7.9073   8.9875   9.0186   9.5526

          k = 0.3333-0.5000-0.4756 (  1164 PWs)   bands (ev):

   -45.8598 -22.5288 -22.4999 -22.4825  -6.4978  -6.3257  -6.1302  -4.9829
    -4.9601  -4.7120  -4.6334  -4.5587   3.1692   4.9641   5.1482   5.4632
     6.1393   6.5255   6.8847   9.4529   9.5250   9.6817

          k =-0.5000-0.5000 0.0000 (  1188 PWs)   bands (ev):

   -45.8604 -22.5010 -22.5010 -22.4904  -6.5728  -6.2143  -6.2143  -5.0385
    -4.9461  -4.8110  -4.8110  -4.6736   2.3373   5.4614   5.9536   6.9991
     6.9991   7.5141   7.5141   8.2416   8.5841   9.8217

          k =-0.5000-0.5000 0.2378 (  1152 PWs)   bands (ev):

   -45.8597 -22.5091 -22.5000 -22.5000  -6.3822  -6.2979  -6.2979  -5.0003
    -4.9442  -4.6740  -4.6740  -4.6405   2.7478   5.4177   5.6202   5.6202
     5.9635   7.0849   7.2586   9.0197   9.0197   9.8126

          k =-0.5000-0.5000-0.4756 (  1152 PWs)   bands (ev):

   -45.8594 -22.5279 -22.4991 -22.4991  -6.3705  -6.3705  -6.1872  -4.9622
    -4.9424  -4.5969  -4.5463  -4.5463   3.4147   4.9869   4.9869   5.2980
     5.8912   5.9723   6.2462   9.6931   9.6931   9.8004

     highest occupied level (ev):    10.3546

!    total energy              =    -380.54167172 Ry
     estimated scf accuracy    <          7.0E-09 Ry

     The total energy is the sum of the following terms:
     one-electron contribution =     -84.02197052 Ry
     hartree contribution      =      71.12741652 Ry
     xc contribution           =    -102.53295828 Ry
     ewald contribution        =    -265.11415945 Ry

     convergence has been achieved in  14 iterations

     negative rho (up, down):  1.598E-02 0.000E+00

     Forces acting on atoms (cartesian axes, Ry/au):

     atom    1 type  1   force =     0.00000000    0.00000000   -0.00769577
     atom    2 type  2   force =     0.00000000    0.00000000   -0.01160846
     atom    3 type  3   force =     0.00000000    0.00000000    0.01925618
     atom    4 type  3   force =     0.00000000    0.00000000    0.00002403
     atom    5 type  3   force =     0.00000000    0.00000000    0.00002403

     Total force =     0.023765     Total SCF correction =     0.000376


     Computing stress (Cartesian axis) and pressure


     negative rho (up, down):  1.598E-02 0.000E+00
          total   stress  (Ry/bohr**3)                   (kbar)     P=     -139.26
  -0.00092578   0.00000000   0.00000000         -136.19        0.00        0.00
   0.00000000  -0.00092578   0.00000000            0.00     -136.19        0.00
   0.00000000   0.00000000  -0.00098854            0.00        0.00     -145.42


     BFGS Geometry Optimization
     Energy error            =      0.0E+00 Ry
     Gradient error          =      1.9E-02 Ry/Bohr

     number of scf cycles    =   1
     number of bfgs steps    =   0

     energy             new  =    -380.5416717244 Ry

     new trust radius        =       0.0192561756 bohr
     new conv_thr            =       0.0000000100 Ry


ATOMIC_POSITIONS (crystal)
Pb               0.0000000000        0.0000000000        1.0054292332
Ti               0.5000000000        0.5000000000        0.5389254211
O                0.5000000000        0.5000000000        0.1010656496
O                0.5000000000        0.0000000000        0.6109319920
O                0.0000000000        0.5000000000        0.6109319920



     Writing config-only to output data dir ./pto_30.save/ :
     XML data file
     NEW-OLD atomic charge density approx. for the potential

     Check: negative core charge=   -0.000007

     negative rho (up, down):  1.626E-02 0.000E+00

     total cpu time spent up to now is       10.3 secs

     Self-consistent Calculation

     iteration #  1     ecut=    30.00 Ry     beta= 0.70
     CG style diagonalization
     c_bands:  1 eigenvalues not converged
     c_bands:  1 eigenvalues not converged
     ethr =  1.00E-06,  avg # of iterations =  6.4

     negative rho (up, down):  1.623E-02 0.000E+00

     total cpu time spent up to now is       11.4 secs

     total energy              =    -380.54200067 Ry
     estimated scf accuracy    <       0.00021814 Ry

     iteration #  2     ecut=    30.00 Ry     beta= 0.70
     CG style diagonalization
     ethr =  4.96E-07,  avg # of iterations =  4.7

     negative rho (up, down):  1.625E-02 0.000E+00

     total cpu time spent up to now is       12.1 secs

     total energy              =    -380.54197577 Ry
     estimated scf accuracy    <       0.00066000 Ry

     iteration #  3     ecut=    30.00 Ry     beta= 0.70
     CG style diagonalization
     ethr =  4.96E-07,  avg # of iterations =  4.2

     negative rho (up, down):  1.625E-02 0.000E+00

     total cpu time spent up to now is       12.7 secs

     total energy              =    -380.54210461 Ry
     estimated scf accuracy    <       0.00004450 Ry

     iteration #  4     ecut=    30.00 Ry     beta= 0.70
     CG style diagonalization
     ethr =  1.01E-07,  avg # of iterations =  3.8

     negative rho (up, down):  1.624E-02 0.000E+00

     total cpu time spent up to now is       13.2 secs

     total energy              =    -380.54211690 Ry
     estimated scf accuracy    <       0.00000510 Ry

     iteration #  5     ecut=    30.00 Ry     beta= 0.70
     CG style diagonalization
     ethr =  1.16E-08,  avg # of iterations =  4.2

     negative rho (up, down):  1.624E-02 0.000E+00

     total cpu time spent up to now is       13.9 secs

     total energy              =    -380.54211972 Ry
     estimated scf accuracy    <       0.00000059 Ry

     iteration #  6     ecut=    30.00 Ry     beta= 0.70
     CG style diagonalization
     ethr =  1.34E-09,  avg # of iterations =  4.6

     negative rho (up, down):  1.624E-02 0.000E+00

     total cpu time spent up to now is       14.5 secs

     total energy              =    -380.54212006 Ry
     estimated scf accuracy    <       0.00000027 Ry

     iteration #  7     ecut=    30.00 Ry     beta= 0.70
     CG style diagonalization
     ethr =  6.04E-10,  avg # of iterations =  4.0

     negative rho (up, down):  1.624E-02 0.000E+00

     total cpu time spent up to now is       15.1 secs

     total energy              =    -380.54212013 Ry
     estimated scf accuracy    <       0.00000006 Ry

     iteration #  8     ecut=    30.00 Ry     beta= 0.70
     CG style diagonalization
     ethr =  1.34E-10,  avg # of iterations =  4.5

     negative rho (up, down):  1.624E-02 0.000E+00

     total cpu time spent up to now is       15.8 secs

     End of self-consistent calculation

          k = 0.0000 0.0000 0.0000 (  1189 PWs)   bands (ev):

   -45.8294 -22.4845 -22.4032 -22.4032  -7.5285  -6.4456  -6.2282  -5.0268
    -5.0268  -4.9934  -4.8788  -4.7663   4.2136   6.3119   6.3119   6.6599
     8.2082   8.2082   8.4903   8.7202   8.9410   8.9410

          k = 0.0000 0.0000 0.2378 (  1162 PWs)   bands (ev):

   -45.8287 -22.5040 -22.4024 -22.4024  -7.3336  -6.3871  -6.1728  -5.0419
    -5.0419  -4.9922  -4.8707  -4.8368   3.4478   6.3768   6.3768   6.8044
     7.9710   7.9710   8.4139   8.8091   9.0475   9.0475

          k = 0.0000 0.0000-0.4756 (  1174 PWs)   bands (ev):

   -45.8286 -22.5233 -22.4017 -22.4017  -7.1202  -6.3230  -6.1261  -5.0569
    -5.0569  -4.9910  -4.9132  -4.8644   2.9439   6.1625   6.4153   6.4153
     7.8060   7.8060   8.3286   9.1179   9.1179  10.0016

          k = 0.0000 0.1667 0.0000 (  1175 PWs)   bands (ev):

   -45.8289 -22.4838 -22.4203 -22.4025  -7.3943  -6.4168  -6.2006  -5.0481
    -5.0255  -5.0062  -4.8814  -4.7567   3.7904   6.3578   6.4210   6.6877
     8.1573   8.2321   8.4843   8.5732   8.6482   9.0147

          k = 0.0000 0.1667 0.2378 (  1178 PWs)   bands (ev):

   -45.8287 -22.5031 -22.4194 -22.4017  -7.2149  -6.3742  -6.1399  -5.0459
    -5.0410  -5.0054  -4.8787  -4.7930   3.2410   6.1564   6.4909   6.8995
     7.6444   7.9601   8.2684   8.6777   8.7174   9.3633

          k = 0.0000 0.1667-0.4756 (  1160 PWs)   bands (ev):

   -45.8282 -22.5223 -22.4185 -22.4009  -7.0280  -6.3258  -6.0788  -5.0565
    -5.0412  -5.0046  -4.8857  -4.8262   2.8212   5.8522   6.5378   6.5902
     7.4619   7.8123   8.3416   8.7330   8.7979   9.9357

          k = 0.0000 0.3333 0.0000 (  1169 PWs)   bands (ev):

   -45.8283 -22.4823 -22.4542 -22.4011  -7.1019  -6.3557  -6.1599  -5.0810
    -5.0316  -5.0226  -4.8747  -4.7649   3.2165   5.9871   6.6743   6.7110
     7.8520   7.8827   8.3395   8.3459   8.7399   9.6015

          k = 0.0000 0.3333 0.2378 (  1169 PWs)   bands (ev):

   -45.8280 -22.5013 -22.4532 -22.4002  -6.9842  -6.3181  -6.0796  -5.0511
    -5.0393  -5.0316  -4.8720  -4.7384   2.8922   5.8692   6.5606   6.7992
     7.3077   7.7354   7.8591   8.3758   8.9220   9.6760

          k = 0.0000 0.3333-0.4756 (  1164 PWs)   bands (ev):

   -45.8277 -22.5203 -22.4522 -22.3994  -6.8963  -6.2561  -5.9727  -5.0556
    -5.0318  -5.0133  -4.9080  -4.6897   2.6021   5.5610   6.3297   6.8412
     7.2014   7.3762   7.6830   8.4042   9.2971   9.5284

          k = 0.0000-0.5000 0.0000 (  1168 PWs)   bands (ev):

   -45.8281 -22.4813 -22.4713 -22.4004  -6.9395  -6.3097  -6.1642  -5.0955
    -5.0442  -5.0212  -4.8451  -4.8006   3.0074   5.6321   6.9459   6.9801
     7.3635   7.4749   8.2727   8.3739   8.7731  10.3428

          k = 0.0000-0.5000 0.2378 (  1176 PWs)   bands (ev):

   -45.8279 -22.5003 -22.4701 -22.3995  -6.8833  -6.2395  -6.0754  -5.0630
    -5.0447  -5.0383  -4.8410  -4.7344   2.7499   5.6000   6.5886   6.8517
     7.1731   7.3034   7.9699   8.3488   8.9244   9.8460

          k = 0.0000-0.5000-0.4756 (  1160 PWs)   bands (ev):

   -45.8274 -22.5191 -22.4689 -22.3986  -6.8659  -6.1643  -5.9240  -5.0551
    -5.0453  -5.0231  -4.8931  -4.6339   2.5132   5.4226   6.0412   6.9163
     7.1445   7.3862   7.3884   8.3392   9.1492   9.6288

          k = 0.1667 0.1667 0.0000 (  1163 PWs)   bands (ev):

   -45.8285 -22.4830 -22.4197 -22.4194  -7.2629  -6.3870  -6.1936  -5.0535
    -5.0399  -5.0079  -4.8596  -4.7478   3.4962   6.3029   6.5319   6.7223
     7.7217   7.8511   8.5085   8.5711   8.8938   9.2244

          k = 0.1667 0.1667 0.2378 (  1170 PWs)   bands (ev):

   -45.8283 -22.5023 -22.4188 -22.4185  -7.0944  -6.3633  -6.1337  -5.0559
    -5.0354  -5.0012  -4.8515  -4.7618   3.1308   6.1032   6.1860   6.8552
     7.5409   7.5506   8.3373   8.7433   8.9686   9.3157

          k = 0.1667 0.1667-0.4756 (  1172 PWs)   bands (ev):

   -45.8281 -22.5214 -22.4179 -22.4177  -6.9253  -6.3394  -6.0641  -5.0672
    -5.0173  -4.9774  -4.8594  -4.7810   2.7970   5.9029   5.9069   6.5977
     7.4486   7.4735   8.2413   8.8122   9.0252   9.6436

          k = 0.1667 0.3333 0.0000 (  1167 PWs)   bands (ev):

   -45.8280 -22.4816 -22.4533 -22.4180  -6.9803  -6.3270  -6.1931  -5.0751
    -5.0300  -4.9921  -4.8350  -4.7552   3.0288   5.9948   6.5385   6.8339
     7.2106   7.7586   8.0629   8.7073   8.8931   9.6725

          k = 0.1667 0.3333 0.2378 (  1165 PWs)   bands (ev):

   -45.8277 -22.5005 -22.4524 -22.4171  -6.8597  -6.3206  -6.1265  -5.0537
    -5.0304  -4.9697  -4.8173  -4.7150   2.9002   5.8352   6.0035   6.4959
     6.9265   7.5755   8.3986   8.6835   9.0154   9.4048

          k = 0.1667 0.3333-0.4756 (  1168 PWs)   bands (ev):

   -45.8275 -22.5194 -22.4514 -22.4162  -6.7744  -6.3002  -6.0250  -5.0510
    -5.0082  -4.9314  -4.8293  -4.6645   2.7335   5.5042   5.9231   6.2278
     6.4384   7.4369   8.4845   8.7420   8.9235   9.4334

          k = 0.1667-0.5000 0.0000 (  1170 PWs)   bands (ev):

   -45.8279 -22.4806 -22.4703 -22.4172  -6.8249  -6.2830  -6.2163  -5.0780
    -5.0228  -4.9717  -4.8126  -4.7910   2.8418   5.6488   6.6806   6.8621
     7.2002   7.4747   7.9099   8.7814   8.8575   9.9688

          k = 0.1667-0.5000 0.2378 (  1168 PWs)   bands (ev):

   -45.8275 -22.4995 -22.4692 -22.4163  -6.7583  -6.2522  -6.1487  -5.0523
    -5.0179  -4.9497  -4.7957  -4.7090   2.7928   5.6068   5.9120   6.2738
     6.8745   7.7134   8.1804   8.6855   9.0196   9.3659

          k = 0.1667-0.5000-0.4756 (  1176 PWs)   bands (ev):

   -45.8273 -22.5183 -22.4681 -22.4155  -6.7435  -6.2227  -6.0103  -5.0462
    -4.9805  -4.9285  -4.8108  -4.6096   2.7031   5.3860   5.7840   5.8901
     6.3081   7.5476   8.2993   8.6355   8.6637   9.6376

          k = 0.3333 0.3333 0.0000 (  1163 PWs)   bands (ev):

   -45.8274 -22.4800 -22.4516 -22.4515  -6.7412  -6.2702  -6.2409  -5.0570
    -5.0126  -4.9233  -4.7601  -4.7581   2.6713   5.9563   6.1034   6.9372
     7.0920   7.2189   7.9020   8.5043   9.3858   9.3968

          k = 0.3333 0.3333 0.2378 (  1164 PWs)   bands (ev):

   -45.8272 -22.4988 -22.4507 -22.4506  -6.6127  -6.3179  -6.2105  -5.0209
    -5.0064  -4.8666  -4.7155  -4.6818   2.8518   5.5962   5.6611   5.9486
     6.6153   7.0681   8.3825   8.9792   8.9964   9.4015

          k = 0.3333 0.3333-0.4756 (  1180 PWs)   bands (ev):

   -45.8271 -22.5176 -22.4498 -22.4497  -6.5462  -6.3619  -6.1076  -5.0005
    -4.9848  -4.8063  -4.6695  -4.6083   3.0161   5.2089   5.2350   5.7071
     6.3556   6.5278   7.6505   9.3257   9.3708   9.5104

          k = 0.3333-0.5000 0.0000 (  1158 PWs)   bands (ev):

   -45.8272 -22.4790 -22.4684 -22.4506  -6.6342  -6.2533  -6.2346  -5.0498
    -4.9912  -4.8611  -4.7913  -4.7274   2.5041   5.6278   6.1391   6.7578
     7.2674   7.4152   7.5038   8.4886   9.0815   9.5776

          k = 0.3333-0.5000 0.2378 (  1156 PWs)   bands (ev):

   -45.8268 -22.4978 -22.4674 -22.4498  -6.5066  -6.2810  -6.2643  -5.0129
    -4.9811  -4.7801  -4.7116  -4.6550   2.7965   5.4955   5.5859   5.6842
     6.3993   7.1396   7.9129   8.9714   8.9982   9.5563

          k = 0.3333-0.5000-0.4756 (  1164 PWs)   bands (ev):

   -45.8266 -22.5166 -22.4664 -22.4489  -6.4947  -6.3240  -6.1436  -4.9859
    -4.9628  -4.7235  -4.6317  -4.5583   3.1642   4.9634   5.1361   5.4749
     6.1491   6.5376   6.8879   9.4293   9.5310   9.6608

          k =-0.5000-0.5000 0.0000 (  1188 PWs)   bands (ev):

   -45.8272 -22.4781 -22.4675 -22.4675  -6.5871  -6.2131  -6.2131  -5.0401
    -4.9499  -4.8078  -4.8078  -4.6850   2.3347   5.4714   5.9810   6.9679
     6.9679   7.5205   7.5205   8.2367   8.5964   9.8278

          k =-0.5000-0.5000 0.2378 (  1152 PWs)   bands (ev):

   -45.8265 -22.4969 -22.4665 -22.4665  -6.3954  -6.2965  -6.2965  -5.0020
    -4.9481  -4.6714  -4.6714  -4.6536   2.7443   5.4289   5.6099   5.6099
     5.9911   7.0812   7.2692   9.0031   9.0031   9.8187

          k =-0.5000-0.5000-0.4756 (  1152 PWs)   bands (ev):

   -45.8263 -22.5157 -22.4656 -22.4656  -6.3689  -6.3689  -6.1991  -4.9640
    -4.9462  -4.6122  -4.5441  -4.5441   3.4077   4.9793   4.9793   5.3107
     5.9041   5.9998   6.2424   9.6730   9.6730   9.8065

     highest occupied level (ev):    10.3428

!    total energy              =    -380.54212016 Ry
     estimated scf accuracy    <          2.3E-09 Ry

     The total energy is the sum of the following terms:
     one-electron contribution =     -84.22949765 Ry
     hartree contribution      =      71.23996845 Ry
     xc contribution           =    -102.54225997 Ry
     ewald contribution        =    -265.01033099 Ry

     convergence has been achieved in   8 iterations

     negative rho (up, down):  1.624E-02 0.000E+00

     Forces acting on atoms (cartesian axes, Ry/au):

     atom    1 type  1   force =     0.00000000    0.00000000   -0.00836050
     atom    2 type  2   force =     0.00000000    0.00000000   -0.00491836
     atom    3 type  3   force =     0.00000000    0.00000000    0.01089697
     atom    4 type  3   force =     0.00000000    0.00000000    0.00119095
     atom    5 type  3   force =     0.00000000    0.00000000    0.00119095

     Total force =     0.014686     Total SCF correction =     0.000183


     Computing stress (Cartesian axis) and pressure


     negative rho (up, down):  1.624E-02 0.000E+00
          total   stress  (Ry/bohr**3)                   (kbar)     P=     -134.20
  -0.00091428   0.00000000   0.00000000         -134.50        0.00        0.00
   0.00000000  -0.00091428   0.00000000            0.00     -134.50        0.00
   0.00000000   0.00000000  -0.00090836            0.00        0.00     -133.62

     Energy error            =      4.5E-04 Ry
     Gradient error          =      1.1E-02 Ry/Bohr

     number of scf cycles    =   2
     number of bfgs steps    =   1

     energy             old  =    -380.5416717244 Ry
     energy             new  =    -380.5421201637 Ry

     CASE: energy            _new < energy            _old

     new trust radius        =       0.0211817932 bohr
     new conv_thr            =       0.0000000004 Ry


ATOMIC_POSITIONS (crystal)
Pb               0.0000000000        0.0000000000        1.0034712268
Ti               0.5000000000        0.5000000000        0.5376339802
O                0.5000000000        0.5000000000        0.1037995331
O                0.5000000000        0.0000000000        0.6111897739
O                0.0000000000        0.5000000000        0.6111897739



     Writing config-only to output data dir ./pto_30.save/ :
     XML data file
     NEW-OLD atomic charge density approx. for the potential

     Check: negative core charge=   -0.000007

     negative rho (up, down):  1.642E-02 0.000E+00

     total cpu time spent up to now is       16.4 secs

     Self-consistent Calculation

     iteration #  1     ecut=    30.00 Ry     beta= 0.70
     CG style diagonalization
     c_bands:  1 eigenvalues not converged
     ethr =  1.00E-06,  avg # of iterations =  6.8

     negative rho (up, down):  1.638E-02 0.000E+00

     total cpu time spent up to now is       17.5 secs

     total energy              =    -380.54228129 Ry
     estimated scf accuracy    <       0.00022231 Ry

     iteration #  2     ecut=    30.00 Ry     beta= 0.70
     CG style diagonalization
     ethr =  5.05E-07,  avg # of iterations =  4.6

     negative rho (up, down):  1.639E-02 0.000E+00

     total cpu time spent up to now is       18.2 secs

     total energy              =    -380.54225303 Ry
     estimated scf accuracy    <       0.00065354 Ry

     iteration #  3     ecut=    30.00 Ry     beta= 0.70
     CG style diagonalization
     ethr =  5.05E-07,  avg # of iterations =  4.2

     negative rho (up, down):  1.639E-02 0.000E+00

     total cpu time spent up to now is       18.8 secs

     total energy              =    -380.54238095 Ry
     estimated scf accuracy    <       0.00004551 Ry

     iteration #  4     ecut=    30.00 Ry     beta= 0.70
     CG style diagonalization
     ethr =  1.03E-07,  avg # of iterations =  3.8

     negative rho (up, down):  1.638E-02 0.000E+00

     total cpu time spent up to now is       19.4 secs

     total energy              =    -380.54239366 Ry
     estimated scf accuracy    <       0.00000516 Ry

     iteration #  5     ecut=    30.00 Ry     beta= 0.70
     CG style diagonalization
     ethr =  1.17E-08,  avg # of iterations =  4.2

     negative rho (up, down):  1.638E-02 0.000E+00

     total cpu time spent up to now is       20.0 secs

     total energy              =    -380.54239667 Ry
     estimated scf accuracy    <       0.00000047 Ry

     iteration #  6     ecut=    30.00 Ry     beta= 0.70
     CG style diagonalization
     ethr =  1.06E-09,  avg # of iterations =  4.7

     negative rho (up, down):  1.638E-02 0.000E+00

     total cpu time spent up to now is       20.7 secs

     total energy              =    -380.54239703 Ry
     estimated scf accuracy    <       0.00000024 Ry

     iteration #  7     ecut=    30.00 Ry     beta= 0.70
     CG style diagonalization
     ethr =  5.55E-10,  avg # of iterations =  4.0

     negative rho (up, down):  1.638E-02 0.000E+00

     total cpu time spent up to now is       21.3 secs

     total energy              =    -380.54239710 Ry
     estimated scf accuracy    <       0.00000005 Ry

     iteration #  8     ecut=    30.00 Ry     beta= 0.70
     CG style diagonalization
     ethr =  1.19E-10,  avg # of iterations =  4.6

     negative rho (up, down):  1.638E-02 0.000E+00

     total cpu time spent up to now is       22.0 secs

     total energy              =    -380.54239713 Ry
     estimated scf accuracy    <          1.3E-09 Ry

     iteration #  9     ecut=    30.00 Ry     beta= 0.70
     CG style diagonalization
     c_bands:  1 eigenvalues not converged
     ethr =  3.03E-12,  avg # of iterations =  8.7

     negative rho (up, down):  1.638E-02 0.000E+00

     total cpu time spent up to now is       23.3 secs

     total energy              =    -380.54239715 Ry
     estimated scf accuracy    <          5.0E-10 Ry

     iteration # 10     ecut=    30.00 Ry     beta= 0.70
     CG style diagonalization
     ethr =  1.13E-12,  avg # of iterations =  4.7

     negative rho (up, down):  1.638E-02 0.000E+00

     total cpu time spent up to now is       24.0 secs

     End of self-consistent calculation

          k = 0.0000 0.0000 0.0000 (  1189 PWs)   bands (ev):

   -45.7964 -22.4741 -22.3699 -22.3699  -7.5316  -6.4480  -6.2363  -5.0257
    -5.0257  -4.9931  -4.8839  -4.7575   4.2050   6.3097   6.3097   6.6984
     8.1435   8.1435   8.4879   8.6638   8.9419   8.9419

          k = 0.0000 0.0000 0.2378 (  1162 PWs)   bands (ev):

   -45.7957 -22.4937 -22.3691 -22.3691  -7.3352  -6.3901  -6.1824  -5.0408
    -5.0408  -4.9919  -4.8752  -4.8274   3.4370   6.3646   6.3646   6.8238
     7.9303   7.9303   8.4112   8.7915   9.0454   9.0454

          k = 0.0000 0.0000-0.4756 (  1174 PWs)   bands (ev):

   -45.7956 -22.5131 -22.3684 -22.3684  -7.1197  -6.3267  -6.1379  -5.0557
    -5.0557  -4.9906  -4.9031  -4.8681   2.9268   6.1785   6.3903   6.3903
     7.7870   7.7870   8.3255   9.1150   9.1150  10.0030

          k = 0.0000 0.1667 0.0000 (  1175 PWs)   bands (ev):

   -45.7959 -22.4734 -22.3871 -22.3692  -7.3978  -6.4200  -6.2104  -5.0475
    -5.0243  -5.0058  -4.8836  -4.7478   3.7865   6.3559   6.4195   6.7015
     8.1272   8.1673   8.4750   8.5742   8.6206   8.9945

          k = 0.0000 0.1667 0.2378 (  1178 PWs)   bands (ev):

   -45.7957 -22.4928 -22.3862 -22.3684  -7.2169  -6.3779  -6.1511  -5.0445
    -5.0399  -5.0051  -4.8811  -4.7838   3.2342   6.1442   6.4796   6.9119
     7.6215   7.9206   8.2616   8.6603   8.7140   9.3609

          k = 0.0000 0.1667-0.4756 (  1160 PWs)   bands (ev):

   -45.7952 -22.5121 -22.3853 -22.3676  -7.0280  -6.3300  -6.0919  -5.0553
    -5.0391  -5.0043  -4.8872  -4.8176   2.8095   5.8378   6.5136   6.5986
     7.4501   7.7927   8.3389   8.7149   8.7959   9.9435

          k = 0.0000 0.3333 0.0000 (  1169 PWs)   bands (ev):

   -45.7953 -22.4719 -22.4211 -22.3678  -7.1060  -6.3608  -6.1735  -5.0796
    -5.0311  -5.0214  -4.8711  -4.7569   3.2155   5.9900   6.6709   6.7110
     7.8439   7.8846   8.2702   8.3424   8.7024   9.5945

          k = 0.0000 0.3333 0.2378 (  1169 PWs)   bands (ev):

   -45.7950 -22.4910 -22.4201 -22.3669  -6.9864  -6.3241  -6.0942  -5.0493
    -5.0381  -5.0311  -4.8699  -4.7293   2.8909   5.8632   6.5588   6.7906
     7.2965   7.7161   7.8571   8.3474   8.9039   9.6734

          k = 0.0000 0.3333-0.4756 (  1164 PWs)   bands (ev):

   -45.7947 -22.5100 -22.4190 -22.3661  -6.8969  -6.2625  -5.9888  -5.0543
    -5.0314  -5.0108  -4.9058  -4.6814   2.5998   5.5406   6.3399   6.8187
     7.1896   7.3838   7.6695   8.3924   9.2641   9.5420

          k = 0.0000-0.5000 0.0000 (  1168 PWs)   bands (ev):

   -45.7951 -22.4710 -22.4381 -22.3671  -6.9435  -6.3149  -6.1813  -5.0931
    -5.0437  -5.0200  -4.8346  -4.7972   3.0066   5.6426   6.9263   6.9817
     7.3709   7.4776   8.2674   8.3004   8.7343  10.3342

          k = 0.0000-0.5000 0.2378 (  1176 PWs)   bands (ev):

   -45.7948 -22.4900 -22.4370 -22.3662  -6.8854  -6.2458  -6.0933  -5.0602
    -5.0443  -5.0370  -4.8370  -4.7254   2.7505   5.6056   6.5810   6.8357
     7.1745   7.2850   7.9677   8.3076   8.9136   9.8363

          k = 0.0000-0.5000-0.4756 (  1160 PWs)   bands (ev):

   -45.7944 -22.5088 -22.4358 -22.3653  -6.8667  -6.1719  -5.9424  -5.0538
    -5.0448  -5.0199  -4.8884  -4.6260   2.5151   5.4104   6.0413   6.9004
     7.1147   7.3874   7.4036   8.3181   9.1501   9.6042

          k = 0.1667 0.1667 0.0000 (  1163 PWs)   bands (ev):

   -45.7955 -22.4726 -22.3865 -22.3861  -7.2671  -6.3908  -6.2043  -5.0526
    -5.0389  -5.0071  -4.8606  -4.7386   3.4931   6.3059   6.5317   6.7222
     7.6739   7.8440   8.4749   8.5713   8.8927   9.1856

          k = 0.1667 0.1667 0.2378 (  1170 PWs)   bands (ev):

   -45.7953 -22.4919 -22.3855 -22.3853  -7.0969  -6.3672  -6.1459  -5.0549
    -5.0340  -5.0003  -4.8531  -4.7526   3.1252   6.0929   6.1764   6.8568
     7.5259   7.5448   8.2990   8.7348   8.9615   9.3143

          k = 0.1667 0.1667-0.4756 (  1172 PWs)   bands (ev):

   -45.7951 -22.5111 -22.3846 -22.3844  -6.9261  -6.3434  -6.0780  -5.0663
    -5.0164  -4.9755  -4.8614  -4.7715   2.7873   5.8885   5.8920   6.6048
     7.4335   7.4745   8.2147   8.8033   9.0152   9.6526

          k = 0.1667 0.3333 0.0000 (  1167 PWs)   bands (ev):

   -45.7950 -22.4711 -22.4202 -22.3847  -6.9856  -6.3326  -6.2054  -5.0733
    -5.0288  -4.9915  -4.8328  -4.7465   3.0262   6.0002   6.5310   6.8373
     7.2031   7.7102   8.0646   8.6904   8.8810   9.6549

          k = 0.1667 0.3333 0.2378 (  1165 PWs)   bands (ev):

   -45.7947 -22.4902 -22.4192 -22.3839  -6.8630  -6.3264  -6.1398  -5.0523
    -5.0288  -4.9700  -4.8156  -4.7061   2.8971   5.8287   5.9943   6.4967
     6.9198   7.5718   8.3793   8.6645   9.0005   9.4013

          k = 0.1667 0.3333-0.4756 (  1168 PWs)   bands (ev):

   -45.7945 -22.5091 -22.4182 -22.3830  -6.7761  -6.3057  -6.0392  -5.0503
    -5.0070  -4.9320  -4.8269  -4.6563   2.7294   5.4850   5.9139   6.2303
     6.4417   7.4411   8.4518   8.7379   8.9270   9.4157

          k = 0.1667-0.5000 0.0000 (  1170 PWs)   bands (ev):

   -45.7948 -22.4702 -22.4372 -22.3840  -6.8307  -6.2890  -6.2304  -5.0758
    -5.0214  -4.9722  -4.8042  -4.7862   2.8388   5.6595   6.6576   6.8687
     7.2074   7.4799   7.8482   8.7735   8.8350   9.9657

          k = 0.1667-0.5000 0.2378 (  1168 PWs)   bands (ev):

   -45.7945 -22.4892 -22.4361 -22.3831  -6.7616  -6.2586  -6.1634  -5.0507
    -5.0160  -4.9521  -4.7906  -4.7010   2.7907   5.6121   5.9031   6.2646
     6.8700   7.7060   8.1753   8.6545   9.0151   9.3546

          k = 0.1667-0.5000-0.4756 (  1176 PWs)   bands (ev):

   -45.7943 -22.5081 -22.4350 -22.3822  -6.7454  -6.2296  -6.0246  -5.0454
    -4.9784  -4.9325  -4.8050  -4.6023   2.7024   5.3707   5.7747   5.8918
     6.3085   7.5542   8.2979   8.6065   8.6661   9.6136

          k = 0.3333 0.3333 0.0000 (  1163 PWs)   bands (ev):

   -45.7944 -22.4695 -22.4186 -22.4183  -6.7493  -6.2771  -6.2511  -5.0546
    -5.0114  -4.9207  -4.7610  -4.7486   2.6652   5.9567   6.1196   6.9155
     7.0943   7.1759   7.9184   8.4916   9.3805   9.3910

          k = 0.3333 0.3333 0.2378 (  1164 PWs)   bands (ev):

   -45.7941 -22.4884 -22.4176 -22.4174  -6.6183  -6.3237  -6.2216  -5.0184
    -5.0058  -4.8674  -4.7153  -4.6730   2.8446   5.5866   5.6558   5.9507
     6.6247   7.0668   8.3810   8.9645   8.9741   9.3951

          k = 0.3333 0.3333-0.4756 (  1180 PWs)   bands (ev):

   -45.7940 -22.5073 -22.4166 -22.4165  -6.5500  -6.3670  -6.1186  -5.0002
    -4.9826  -4.8111  -4.6678  -4.6002   3.0071   5.1995   5.2255   5.7078
     6.3583   6.5461   7.6573   9.2979   9.3678   9.4879

          k = 0.3333-0.5000 0.0000 (  1158 PWs)   bands (ev):

   -45.7941 -22.4686 -22.4353 -22.4175  -6.6438  -6.2627  -6.2422  -5.0473
    -4.9899  -4.8561  -4.7833  -4.7288   2.4962   5.6352   6.1560   6.7317
     7.2278   7.4215   7.5074   8.4832   9.0866   9.5749

          k = 0.3333-0.5000 0.2378 (  1156 PWs)   bands (ev):

   -45.7938 -22.4875 -22.4343 -22.4166  -6.5130  -6.2877  -6.2742  -5.0106
    -4.9803  -4.7836  -4.7042  -4.6513   2.7870   5.4880   5.5891   5.6819
     6.4091   7.1361   7.9242   8.9539   8.9754   9.5521

          k = 0.3333-0.5000-0.4756 (  1164 PWs)   bands (ev):

   -45.7936 -22.5063 -22.4333 -22.4158  -6.4989  -6.3299  -6.1530  -4.9848
    -4.9612  -4.7325  -4.6251  -4.5528   3.1519   4.9581   5.1232   5.4836
     6.1566   6.5477   6.9030   9.4033   9.5281   9.6377

          k =-0.5000-0.5000 0.0000 (  1188 PWs)   bands (ev):

   -45.7941 -22.4677 -22.4343 -22.4343  -6.5977  -6.2217  -6.2217  -5.0376
    -4.9494  -4.7972  -4.7972  -4.6936   2.3243   5.4769   6.0051   6.9370
     6.9370   7.5245   7.5245   8.2325   8.6129   9.8252

          k =-0.5000-0.5000 0.2378 (  1152 PWs)   bands (ev):

   -45.7935 -22.4865 -22.4334 -22.4334  -6.4048  -6.3034  -6.3034  -4.9996
    -4.9476  -4.6642  -4.6630  -4.6630   2.7305   5.4358   5.5998   5.5998
     6.0152   7.0776   7.2882   8.9846   8.9846   9.8162

          k =-0.5000-0.5000-0.4756 (  1152 PWs)   bands (ev):

   -45.7932 -22.5054 -22.4324 -22.4324  -6.3745  -6.3745  -6.2067  -4.9617
    -4.9457  -4.6253  -4.5374  -4.5374   3.3830   4.9725   4.9725   5.3204
     5.9342   6.0239   6.2373   9.6507   9.6507   9.8041

     highest occupied level (ev):    10.3342

!    total energy              =    -380.54239715 Ry
     estimated scf accuracy    <          3.5E-11 Ry

     The total energy is the sum of the following terms:
     one-electron contribution =     -84.55167272 Ry
     hartree contribution      =      71.40979790 Ry
     xc contribution           =    -102.55384162 Ry
     ewald contribution        =    -264.84668070 Ry

     convergence has been achieved in  10 iterations

     negative rho (up, down):  1.638E-02 0.000E+00

     Forces acting on atoms (cartesian axes, Ry/au):

     atom    1 type  1   force =     0.00000000    0.00000000   -0.00827283
     atom    2 type  2   force =     0.00000000    0.00000000    0.00227449
     atom    3 type  3   force =     0.00000000    0.00000000    0.00148685
     atom    4 type  3   force =     0.00000000    0.00000000    0.00225575
     atom    5 type  3   force =     0.00000000    0.00000000    0.00225575

     Total force =     0.009274     Total SCF correction =     0.000009


     Computing stress (Cartesian axis) and pressure


     negative rho (up, down):  1.638E-02 0.000E+00
          total   stress  (Ry/bohr**3)                   (kbar)     P=     -128.17
  -0.00089866   0.00000000   0.00000000         -132.20        0.00        0.00
   0.00000000  -0.00089866   0.00000000            0.00     -132.20        0.00
   0.00000000   0.00000000  -0.00081648            0.00        0.00     -120.11

     Energy error            =      2.8E-04 Ry
     Gradient error          =      8.3E-03 Ry/Bohr

     number of scf cycles    =   3
     number of bfgs steps    =   2

     energy             old  =    -380.5421201637 Ry
     energy             new  =    -380.5423971455 Ry

     CASE: energy            _new < energy            _old

     new trust radius        =       0.0193860810 bohr
     new conv_thr            =       0.0000000003 Ry


ATOMIC_POSITIONS (crystal)
Pb               0.0000000000        0.0000000000        1.0009691116
Ti               0.5000000000        0.5000000000        0.5372878990
O                0.5000000000        0.5000000000        0.1055955212
O                0.5000000000        0.0000000000        0.6117158781
O                0.0000000000        0.5000000000        0.6117158781



     Writing config-only to output data dir ./pto_30.save/ :
     XML data file
     NEW-OLD atomic charge density approx. for the potential

     Check: negative core charge=   -0.000007

     negative rho (up, down):  1.636E-02 0.000E+00

     total cpu time spent up to now is       24.6 secs

     Self-consistent Calculation

     iteration #  1     ecut=    30.00 Ry     beta= 0.70
     CG style diagonalization
     ethr =  1.00E-06,  avg # of iterations =  5.7

     negative rho (up, down):  1.631E-02 0.000E+00

     total cpu time spent up to now is       25.6 secs

     total energy              =    -380.54249574 Ry
     estimated scf accuracy    <       0.00006651 Ry

     iteration #  2     ecut=    30.00 Ry     beta= 0.70
     CG style diagonalization
     ethr =  1.51E-07,  avg # of iterations =  4.7

     negative rho (up, down):  1.631E-02 0.000E+00

     total cpu time spent up to now is       26.3 secs

     total energy              =    -380.54250010 Ry
     estimated scf accuracy    <       0.00015690 Ry

     iteration #  3     ecut=    30.00 Ry     beta= 0.70
     CG style diagonalization
     ethr =  1.51E-07,  avg # of iterations =  4.1

     negative rho (up, down):  1.631E-02 0.000E+00

     total cpu time spent up to now is       26.9 secs

     total energy              =    -380.54253332 Ry
     estimated scf accuracy    <       0.00001639 Ry

     iteration #  4     ecut=    30.00 Ry     beta= 0.70
     CG style diagonalization
     ethr =  3.72E-08,  avg # of iterations =  3.7

     negative rho (up, down):  1.630E-02 0.000E+00

     total cpu time spent up to now is       27.4 secs

     total energy              =    -380.54253786 Ry
     estimated scf accuracy    <       0.00000210 Ry

     iteration #  5     ecut=    30.00 Ry     beta= 0.70
     CG style diagonalization
     ethr =  4.77E-09,  avg # of iterations =  4.1

     negative rho (up, down):  1.630E-02 0.000E+00

     total cpu time spent up to now is       28.0 secs

     total energy              =    -380.54253898 Ry
     estimated scf accuracy    <       0.00000007 Ry

     iteration #  6     ecut=    30.00 Ry     beta= 0.70
     CG style diagonalization
     ethr =  1.70E-10,  avg # of iterations =  6.1

     negative rho (up, down):  1.630E-02 0.000E+00

     total cpu time spent up to now is       29.0 secs

     total energy              =    -380.54253915 Ry
     estimated scf accuracy    <       0.00000007 Ry

     iteration #  7     ecut=    30.00 Ry     beta= 0.70
     CG style diagonalization
     ethr =  1.61E-10,  avg # of iterations =  3.8

     negative rho (up, down):  1.630E-02 0.000E+00

     total cpu time spent up to now is       29.5 secs

     total energy              =    -380.54253916 Ry
     estimated scf accuracy    <       0.00000003 Ry

     iteration #  8     ecut=    30.00 Ry     beta= 0.70
     CG style diagonalization
     ethr =  5.78E-11,  avg # of iterations =  4.1

     negative rho (up, down):  1.630E-02 0.000E+00

     total cpu time spent up to now is       30.1 secs

     total energy              =    -380.54253917 Ry
     estimated scf accuracy    <          1.5E-09 Ry

     iteration #  9     ecut=    30.00 Ry     beta= 0.70
     CG style diagonalization
     ethr =  3.46E-12,  avg # of iterations =  6.4

     negative rho (up, down):  1.630E-02 0.000E+00

     total cpu time spent up to now is       31.1 secs

     total energy              =    -380.54253917 Ry
     estimated scf accuracy    <          3.1E-10 Ry

     iteration # 10     ecut=    30.00 Ry     beta= 0.70
     CG style diagonalization
     ethr =  6.98E-13,  avg # of iterations =  5.2

     negative rho (up, down):  1.630E-02 0.000E+00

     total cpu time spent up to now is       31.9 secs

     End of self-consistent calculation

          k = 0.0000 0.0000 0.0000 (  1189 PWs)   bands (ev):

   -45.7819 -22.4714 -22.3558 -22.3558  -7.5420  -6.4622  -6.2375  -5.0198
    -5.0198  -4.9861  -4.8837  -4.7427   4.2015   6.3003   6.3003   6.7332
     8.1115   8.1115   8.4811   8.6327   8.9307   8.9307

          k = 0.0000 0.0000 0.2378 (  1162 PWs)   bands (ev):

   -45.7811 -22.4910 -22.3550 -22.3550  -7.3469  -6.4056  -6.1832  -5.0348
    -5.0348  -4.9848  -4.8739  -4.8113   3.4357   6.3497   6.3497   6.8414
     7.9099   7.9099   8.4043   8.7823   9.0325   9.0325

          k = 0.0000 0.0000-0.4756 (  1174 PWs)   bands (ev):

   -45.7811 -22.5104 -22.3542 -22.3542  -7.1333  -6.3438  -6.1376  -5.0497
    -5.0497  -4.9836  -4.8853  -4.8654   2.9234   6.1917   6.3687   6.3687
     7.7775   7.7775   8.3185   9.1009   9.1009  10.0012

          k = 0.0000 0.1667 0.0000 (  1175 PWs)   bands (ev):

   -45.7814 -22.4707 -22.3730 -22.3551  -7.4083  -6.4348  -6.2135  -5.0417
    -5.0183  -4.9988  -4.8805  -4.7328   3.7857   6.3484   6.4099   6.7130
     8.1152   8.1348   8.4643   8.5642   8.5995   8.9818

          k = 0.0000 0.1667 0.2378 (  1178 PWs)   bands (ev):

   -45.7812 -22.4901 -22.3721 -22.3542  -7.2287  -6.3935  -6.1536  -5.0378
    -5.0339  -4.9980  -4.8777  -4.7684   3.2347   6.1315   6.4648   6.9200
     7.6086   7.8998   8.2506   8.6475   8.7022   9.3578

          k = 0.0000 0.1667-0.4756 (  1160 PWs)   bands (ev):

   -45.7807 -22.5094 -22.3712 -22.3534  -7.0417  -6.3467  -6.0932  -5.0492
    -5.0314  -4.9972  -4.8826  -4.8024   2.8088   5.8274   6.4923   6.6008
     7.4424   7.7817   8.3239   8.7021   8.7839   9.9488

          k = 0.0000 0.3333 0.0000 (  1169 PWs)   bands (ev):

   -45.7807 -22.4691 -22.4071 -22.3536  -7.1168  -6.3767  -6.1813  -5.0729
    -5.0240  -5.0154  -4.8619  -4.7424   3.2168   5.9838   6.6682   6.7011
     7.8333   7.8784   8.2327   8.3334   8.6789   9.5982

          k = 0.0000 0.3333 0.2378 (  1169 PWs)   bands (ev):

   -45.7804 -22.4883 -22.4060 -22.3528  -6.9985  -6.3403  -6.1003  -5.0419
    -5.0320  -5.0241  -4.8622  -4.7143   2.8942   5.8523   6.5553   6.7765
     7.2816   7.6997   7.8543   8.3289   8.8897   9.6769

          k = 0.0000 0.3333-0.4756 (  1164 PWs)   bands (ev):

   -45.7802 -22.5073 -22.4049 -22.3519  -6.9099  -6.2802  -5.9931  -5.0483
    -5.0243  -5.0024  -4.8972  -4.6679   2.6040   5.5247   6.3417   6.7987
     7.1719   7.3824   7.6556   8.3805   9.2486   9.5516

          k = 0.0000-0.5000 0.0000 (  1168 PWs)   bands (ev):

   -45.7805 -22.4682 -22.4241 -22.3529  -6.9545  -6.3306  -6.1924  -5.0854
    -5.0365  -5.0140  -4.8174  -4.7883   3.0083   5.6401   6.9128   6.9703
     7.3684   7.4738   8.2568   8.2608   8.7098  10.3356

          k = 0.0000-0.5000 0.2378 (  1176 PWs)   bands (ev):

   -45.7803 -22.4872 -22.4229 -22.3520  -6.8977  -6.2631  -6.1009  -5.0521
    -5.0371  -5.0310  -4.8271  -4.7108   2.7550   5.6004   6.5735   6.8170
     7.1619   7.2707   7.9633   8.2842   8.9025   9.8397

          k = 0.0000-0.5000-0.4756 (  1160 PWs)   bands (ev):

   -45.7798 -22.5061 -22.4217 -22.3512  -6.8792  -6.1912  -5.9479  -5.0478
    -5.0377  -5.0112  -4.8772  -4.6134   2.5219   5.3974   6.0374   6.8756
     7.0953   7.3733   7.4096   8.3041   9.1602   9.5891

          k = 0.1667 0.1667 0.0000 (  1163 PWs)   bands (ev):

   -45.7810 -22.4699 -22.3724 -22.3720  -7.2776  -6.4063  -6.2089  -5.0465
    -5.0328  -5.0001  -4.8559  -4.7233   3.4914   6.3000   6.5257   6.7231
     7.6503   7.8320   8.4593   8.5658   8.8808   9.1680

          k = 0.1667 0.1667 0.2378 (  1170 PWs)   bands (ev):

   -45.7808 -22.4892 -22.3714 -22.3711  -7.1089  -6.3831  -6.1493  -5.0485
    -5.0270  -4.9935  -4.8487  -4.7373   3.1251   6.0816   6.1647   6.8564
     7.5170   7.5338   8.2787   8.7229   8.9482   9.3155

          k = 0.1667 0.1667-0.4756 (  1172 PWs)   bands (ev):

   -45.7805 -22.5084 -22.3705 -22.3703  -6.9400  -6.3597  -6.0797  -5.0598
    -5.0093  -4.9687  -4.8569  -4.7558   2.7868   5.8745   5.8835   6.6022
     7.4139   7.4727   8.2018   8.7903   9.0007   9.6603

          k = 0.1667 0.3333 0.0000 (  1167 PWs)   bands (ev):

   -45.7804 -22.4683 -22.4062 -22.3706  -6.9960  -6.3493  -6.2134  -5.0662
    -5.0224  -4.9845  -4.8243  -4.7314   3.0232   5.9952   6.5219   6.8359
     7.1916   7.6874   8.0606   8.6773   8.8653   9.6512

          k = 0.1667 0.3333 0.2378 (  1165 PWs)   bands (ev):

   -45.7801 -22.4874 -22.4052 -22.3697  -6.8752  -6.3425  -6.1453  -5.0453
    -5.0218  -4.9640  -4.8079  -4.6915   2.8964   5.8186   5.9823   6.4925
     6.9134   7.5674   8.3624   8.6495   8.9865   9.4044

          k = 0.1667 0.3333-0.4756 (  1168 PWs)   bands (ev):

   -45.7799 -22.5064 -22.4041 -22.3688  -6.7897  -6.3223  -6.0417  -5.0439
    -5.0000  -4.9266  -4.8184  -4.6431   2.7303   5.4708   5.8993   6.2293
     6.4356   7.4384   8.4354   8.7239   8.9334   9.4041

          k = 0.1667-0.5000 0.0000 (  1170 PWs)   bands (ev):

   -45.7803 -22.4674 -22.4232 -22.3698  -6.8409  -6.3056  -6.2410  -5.0682
    -5.0149  -4.9658  -4.7887  -4.7757   2.8354   5.6573   6.6411   6.8641
     7.2052   7.4782   7.8197   8.7597   8.8183   9.9696

          k = 0.1667-0.5000 0.2378 (  1168 PWs)   bands (ev):

   -45.7799 -22.4864 -22.4220 -22.3690  -6.7740  -6.2758  -6.1689  -5.0436
    -5.0089  -4.9474  -4.7799  -4.6871   2.7899   5.6071   5.8896   6.2562
     6.8652   7.6997   8.1640   8.6350   9.0047   9.3577

          k = 0.1667-0.5000-0.4756 (  1176 PWs)   bands (ev):

   -45.7797 -22.5053 -22.4209 -22.3681  -6.7585  -6.2472  -6.0269  -5.0389
    -4.9711  -4.9289  -4.7936  -4.5903   2.7046   5.3572   5.7547   5.8889
     6.3073   7.5518   8.3028   8.5900   8.6606   9.5981

          k = 0.3333 0.3333 0.0000 (  1163 PWs)   bands (ev):

   -45.7798 -22.4667 -22.4045 -22.4042  -6.7571  -6.2954  -6.2620  -5.0471
    -5.0043  -4.9119  -4.7542  -4.7327   2.6550   5.9491   6.1210   6.9033
     7.0916   7.1603   7.9180   8.4848   9.3650   9.3944

          k = 0.3333 0.3333 0.2378 (  1164 PWs)   bands (ev):

   -45.7796 -22.4857 -22.4036 -22.4033  -6.6298  -6.3403  -6.2267  -5.0108
    -4.9992  -4.8620  -4.7081  -4.6588   2.8343   5.5770   5.6509   5.9449
     6.6270   7.0662   8.3849   8.9521   8.9636   9.3796

          k = 0.3333 0.3333-0.4756 (  1180 PWs)   bands (ev):

   -45.7795 -22.5046 -22.4026 -22.4024  -6.5644  -6.3820  -6.1183  -4.9939
    -4.9752  -4.8090  -4.6602  -4.5875   2.9976   5.1946   5.2095   5.7044
     6.3579   6.5510   7.6745   9.2809   9.3529   9.4729

          k = 0.3333-0.5000 0.0000 (  1158 PWs)   bands (ev):

   -45.7796 -22.4658 -22.4212 -22.4035  -6.6481  -6.2780  -6.2609  -5.0397
    -4.9827  -4.8452  -4.7693  -4.7215   2.4828   5.6313   6.1577   6.7213
     7.2135   7.4174   7.5035   8.4790   9.0964   9.5606

          k = 0.3333-0.5000 0.2378 (  1156 PWs)   bands (ev):

   -45.7792 -22.4847 -22.4202 -22.4026  -6.5232  -6.3046  -6.2800  -5.0031
    -4.9735  -4.7803  -4.6919  -4.6408   2.7717   5.4828   5.5839   5.6788
     6.4103   7.1348   7.9397   8.9432   8.9603   9.5369

          k = 0.3333-0.5000-0.4756 (  1164 PWs)   bands (ev):

   -45.7791 -22.5036 -22.4192 -22.4017  -6.5131  -6.3453  -6.1516  -4.9779
    -4.9540  -4.7331  -4.6145  -4.5425   3.1341   4.9490   5.1167   5.4831
     6.1567   6.5491   6.9303   9.3874   9.5127   9.6234

          k =-0.5000-0.5000 0.0000 (  1188 PWs)   bands (ev):

   -45.7796 -22.4649 -22.4203 -22.4203  -6.5974  -6.2416  -6.2416  -5.0300
    -4.9425  -4.7805  -4.7805  -4.6938   2.3063   5.4721   6.0110   6.9286
     6.9286   7.5181   7.5181   8.2321   8.6276   9.8101

          k =-0.5000-0.5000 0.2378 (  1152 PWs)   bands (ev):

   -45.7789 -22.4838 -22.4193 -22.4193  -6.4034  -6.3202  -6.3202  -4.9920
    -4.9407  -4.6657  -4.6497  -4.6497   2.7070   5.4323   5.5971   5.5971
     6.0211   7.0761   7.3115   8.9723   8.9723   9.8012

          k =-0.5000-0.5000-0.4756 (  1152 PWs)   bands (ev):

   -45.7787 -22.5026 -22.4184 -22.4184  -6.3892  -6.3892  -6.2039  -4.9542
    -4.9388  -4.6287  -4.5269  -4.5269   3.3425   4.9718   4.9718   5.3201
     5.9761   6.0298   6.2328   9.6372   9.6372   9.7892

     highest occupied level (ev):    10.3356

!    total energy              =    -380.54253918 Ry
     estimated scf accuracy    <          5.4E-11 Ry

     The total energy is the sum of the following terms:
     one-electron contribution =     -84.87638746 Ry
     hartree contribution      =      71.57597439 Ry
     xc contribution           =    -102.56260230 Ry
     ewald contribution        =    -264.67952380 Ry

     convergence has been achieved in  10 iterations

     negative rho (up, down):  1.630E-02 0.000E+00

     Forces acting on atoms (cartesian axes, Ry/au):

     atom    1 type  1   force =     0.00000000    0.00000000   -0.00690491
     atom    2 type  2   force =     0.00000000    0.00000000    0.00520844
     atom    3 type  3   force =     0.00000000    0.00000000   -0.00362882
     atom    4 type  3   force =     0.00000000    0.00000000    0.00266264
     atom    5 type  3   force =     0.00000000    0.00000000    0.00266264

     Total force =     0.010107     Total SCF correction =     0.000008


     Computing stress (Cartesian axis) and pressure


     negative rho (up, down):  1.630E-02 0.000E+00
          total   stress  (Ry/bohr**3)                   (kbar)     P=     -123.66
  -0.00088207   0.00000000   0.00000000         -129.76        0.00        0.00
   0.00000000  -0.00088207   0.00000000            0.00     -129.76        0.00
   0.00000000   0.00000000  -0.00075781            0.00        0.00     -111.48

     Energy error            =      1.4E-04 Ry
     Gradient error          =      6.9E-03 Ry/Bohr

     number of scf cycles    =   4
     number of bfgs steps    =   3

     energy             old  =    -380.5423971455 Ry
     energy             new  =    -380.5425391753 Ry

     CASE: energy            _new < energy            _old

     new trust radius        =       0.0310965075 bohr
     new conv_thr            =       0.0000000001 Ry


ATOMIC_POSITIONS (crystal)
Pb               0.0000000000        0.0000000000        0.9969555596
Ti               0.5000000000        0.5000000000        0.5376236185
O                0.5000000000        0.5000000000        0.1071799148
O                0.5000000000        0.0000000000        0.6127625976
O                0.0000000000        0.5000000000        0.6127625976



     Writing config-only to output data dir ./pto_30.save/ :
     XML data file
     NEW-OLD atomic charge density approx. for the potential

     Check: negative core charge=   -0.000007

     negative rho (up, down):  1.650E-02 0.000E+00

     total cpu time spent up to now is       32.5 secs

     Self-consistent Calculation

     iteration #  1     ecut=    30.00 Ry     beta= 0.70
     CG style diagonalization
     ethr =  1.00E-06,  avg # of iterations =  6.2

     Threshold (ethr) on eigenvalues was too large:
     Diagonalizing with lowered threshold

     CG style diagonalization
     c_bands:  1 eigenvalues not converged
     c_bands:  1 eigenvalues not converged
     c_bands:  1 eigenvalues not converged
     c_bands:  2 eigenvalues not converged
     ethr =  9.93E-08,  avg # of iterations =  4.9

     negative rho (up, down):  1.645E-02 0.000E+00

     total cpu time spent up to now is       34.4 secs

     total energy              =    -380.54268429 Ry
     estimated scf accuracy    <       0.00004798 Ry

     iteration #  2     ecut=    30.00 Ry     beta= 0.70
     CG style diagonalization
     ethr =  1.09E-07,  avg # of iterations =  4.2

     negative rho (up, down):  1.644E-02 0.000E+00

     total cpu time spent up to now is       35.0 secs

     total energy              =    -380.54268161 Ry
     estimated scf accuracy    <       0.00004296 Ry

     iteration #  3     ecut=    30.00 Ry     beta= 0.70
     CG style diagonalization
     ethr =  9.76E-08,  avg # of iterations =  4.0

     negative rho (up, down):  1.642E-02 0.000E+00

     total cpu time spent up to now is       35.6 secs

     total energy              =    -380.54269342 Ry
     estimated scf accuracy    <       0.00002245 Ry

     iteration #  4     ecut=    30.00 Ry     beta= 0.70
     CG style diagonalization
     ethr =  5.10E-08,  avg # of iterations =  3.5

     negative rho (up, down):  1.642E-02 0.000E+00

     total cpu time spent up to now is       36.1 secs

     total energy              =    -380.54269699 Ry
     estimated scf accuracy    <       0.00000034 Ry

     iteration #  5     ecut=    30.00 Ry     beta= 0.70
     CG style diagonalization
     ethr =  7.67E-10,  avg # of iterations =  5.6

     negative rho (up, down):  1.642E-02 0.000E+00

     total cpu time spent up to now is       36.9 secs

     total energy              =    -380.54269759 Ry
     estimated scf accuracy    <       0.00000039 Ry

     iteration #  6     ecut=    30.00 Ry     beta= 0.70
     CG style diagonalization
     ethr =  7.67E-10,  avg # of iterations =  3.6

     negative rho (up, down):  1.642E-02 0.000E+00

     total cpu time spent up to now is       37.4 secs

     total energy              =    -380.54269762 Ry
     estimated scf accuracy    <       0.00000008 Ry

     iteration #  7     ecut=    30.00 Ry     beta= 0.70
     CG style diagonalization
     ethr =  1.76E-10,  avg # of iterations =  4.2

     negative rho (up, down):  1.642E-02 0.000E+00

     total cpu time spent up to now is       38.1 secs

     total energy              =    -380.54269765 Ry
     estimated scf accuracy    <          9.5E-09 Ry

     iteration #  8     ecut=    30.00 Ry     beta= 0.70
     CG style diagonalization
     ethr =  2.17E-11,  avg # of iterations =  5.4

     negative rho (up, down):  1.642E-02 0.000E+00

     total cpu time spent up to now is       38.9 secs

     total energy              =    -380.54269766 Ry
     estimated scf accuracy    <          1.9E-09 Ry

     iteration #  9     ecut=    30.00 Ry     beta= 0.70
     CG style diagonalization
     ethr =  4.23E-12,  avg # of iterations =  5.4

     negative rho (up, down):  1.642E-02 0.000E+00

     total cpu time spent up to now is       39.7 secs

     total energy              =    -380.54269766 Ry
     estimated scf accuracy    <          1.6E-10 Ry

     iteration # 10     ecut=    30.00 Ry     beta= 0.70
     CG style diagonalization
     c_bands:  1 eigenvalues not converged
     ethr =  3.56E-13,  avg # of iterations =  6.4

     negative rho (up, down):  1.642E-02 0.000E+00

     total cpu time spent up to now is       40.6 secs

     End of self-consistent calculation

          k = 0.0000 0.0000 0.0000 (  1189 PWs)   bands (ev):

   -45.7798 -22.4743 -22.3551 -22.3551  -7.5646  -6.4942  -6.2328  -5.0064
    -5.0064  -4.9694  -4.8781  -4.7155   4.2019   6.2791   6.2791   6.7787
     8.0978   8.0978   8.4668   8.6132   8.9027   8.9027

          k = 0.0000 0.0000 0.2378 (  1162 PWs)   bands (ev):

   -45.7791 -22.4939 -22.3543 -22.3543  -7.3738  -6.4401  -6.1760  -5.0214
    -5.0214  -4.9681  -4.8661  -4.7815   3.4438   6.3252   6.3252   6.8644
     7.9013   7.9013   8.3901   8.7776   9.0032   9.0032

          k = 0.0000 0.0000-0.4756 (  1174 PWs)   bands (ev):

   -45.7790 -22.5133 -22.3535 -22.3535  -7.1667  -6.3814  -6.1261  -5.0363
    -5.0363  -4.9669  -4.8551  -4.8522   2.9323   6.2076   6.3407   6.3407
     7.7742   7.7742   8.3043   9.0696   9.0696   9.9957

          k = 0.0000 0.1667 0.0000 (  1175 PWs)   bands (ev):

   -45.7793 -22.4736 -22.3723 -22.3544  -7.4308  -6.4676  -6.2117  -5.0284
    -5.0050  -4.9821  -4.8707  -4.7051   3.7877   6.3313   6.3880   6.7280
     8.1165   8.1208   8.4460   8.5381   8.5782   8.9693

          k = 0.0000 0.1667 0.2378 (  1178 PWs)   bands (ev):

   -45.7791 -22.4930 -22.3714 -22.3535  -7.2557  -6.4278  -6.1489  -5.0228
    -5.0205  -4.9813  -4.8673  -4.7398   3.2429   6.1123   6.4399   6.9277
     7.6005   7.8889   8.2311   8.6328   8.6766   9.3531

          k = 0.0000 0.1667-0.4756 (  1160 PWs)   bands (ev):

   -45.7786 -22.5122 -22.3705 -22.3527  -7.0746  -6.3830  -6.0839  -5.0358
    -5.0149  -4.9805  -4.8700  -4.7737   2.8188   5.8157   6.4643   6.5982
     7.4365   7.7751   8.2904   8.6886   8.7569   9.9545

          k = 0.0000 0.3333 0.0000 (  1169 PWs)   bands (ev):

   -45.7787 -22.4720 -22.4065 -22.3529  -7.1394  -6.4104  -6.1865  -5.0578
    -5.0073  -5.0020  -4.8436  -4.7152   3.2207   5.9661   6.6665   6.6770
     7.8165   7.8620   8.2095   8.3139   8.6596   9.6139

          k = 0.0000 0.3333 0.2378 (  1169 PWs)   bands (ev):

   -45.7784 -22.4911 -22.4054 -22.3521  -7.0259  -6.3741  -6.1009  -5.0257
    -5.0186  -5.0073  -4.8455  -4.6870   2.9034   5.8323   6.5490   6.7508
     7.2575   7.6803   7.8492   8.3110   8.8735   9.6880

          k = 0.0000 0.3333-0.4756 (  1164 PWs)   bands (ev):

   -45.7782 -22.5101 -22.4043 -22.3512  -6.9408  -6.3170  -5.9882  -5.0348
    -5.0076  -4.9847  -4.8786  -4.6433   2.6166   5.5063   6.3369   6.7723
     7.1397   7.3732   7.6354   8.3637   9.2430   9.5625

          k = 0.0000-0.5000 0.0000 (  1168 PWs)   bands (ev):

   -45.7785 -22.4711 -22.4236 -22.3522  -6.9779  -6.3638  -6.2020  -5.0690
    -5.0197  -5.0006  -4.7862  -4.7701   3.0131   5.6243   6.9022   6.9409
     7.3548   7.4614   8.2355   8.2373   8.6893  10.3478

          k = 0.0000-0.5000 0.2378 (  1176 PWs)   bands (ev):

   -45.7783 -22.4901 -22.4224 -22.3513  -6.9256  -6.2991  -6.1016  -5.0350
    -5.0203  -5.0176  -4.8071  -4.6842   2.7651   5.5832   6.5628   6.7893
     7.1299   7.2545   7.9548   8.2677   8.8873   9.8570

          k = 0.0000-0.5000-0.4756 (  1160 PWs)   bands (ev):

   -45.7778 -22.5090 -22.4212 -22.3505  -6.9087  -6.2306  -5.9437  -5.0343
    -5.0210  -4.9935  -4.8547  -4.5907   2.5363   5.3788   6.0276   6.8322
     7.0777   7.3382   7.4090   8.2916   9.1868   9.5748

          k = 0.1667 0.1667 0.0000 (  1163 PWs)   bands (ev):

   -45.7789 -22.4728 -22.3717 -22.3713  -7.2997  -6.4400  -6.2095  -5.0326
    -5.0188  -4.9838  -4.8434  -4.6953   3.4902   6.2822   6.5105   6.7268
     7.6408   7.8110   8.4538   8.5527   8.8529   9.1640

          k = 0.1667 0.1667 0.2378 (  1170 PWs)   bands (ev):

   -45.7787 -22.4921 -22.3708 -22.3705  -7.1358  -6.4176  -6.1458  -5.0339
    -5.0114  -4.9778  -4.8367  -4.7091   3.1305   6.0645   6.1456   6.8543
     7.5113   7.5139   8.2671   8.7022   8.9232   9.3204

          k = 0.1667 0.1667-0.4756 (  1172 PWs)   bands (ev):

   -45.7785 -22.5113 -22.3698 -22.3696  -6.9729  -6.3949  -6.0707  -5.0450
    -4.9927  -4.9541  -4.8443  -4.7273   2.7952   5.8584   5.8727   6.5895
     7.3825   7.4684   8.1967   8.7670   8.9757   9.6705

          k = 0.1667 0.3333 0.0000 (  1167 PWs)   bands (ev):

   -45.7784 -22.4712 -22.4056 -22.3699  -7.0169  -6.3841  -6.2202  -5.0507
    -5.0080  -4.9681  -4.8062  -4.7035   3.0184   5.9780   6.5079   6.8300
     7.1709   7.6816   8.0490   8.6619   8.8400   9.6597

          k = 0.1667 0.3333 0.2378 (  1165 PWs)   bands (ev):

   -45.7781 -22.4903 -22.4046 -22.3691  -6.9020  -6.3763  -6.1451  -5.0298
    -5.0065  -4.9490  -4.7910  -4.6648   2.8974   5.8009   5.9629   6.4814
     6.9048   7.5615   8.3426   8.6300   8.9678   9.4151

          k = 0.1667 0.3333-0.4756 (  1168 PWs)   bands (ev):

   -45.7779 -22.5092 -22.4035 -22.3682  -6.8209  -6.3570  -6.0341  -5.0293
    -4.9841  -4.9128  -4.8003  -4.6189   2.7365   5.4554   5.8726   6.2248
     6.4187   7.4283   8.4280   8.6936   8.9476   9.3925

          k = 0.1667-0.5000 0.0000 (  1170 PWs)   bands (ev):

   -45.7783 -22.4703 -22.4226 -22.3692  -6.8611  -6.3402  -6.2519  -5.0522
    -5.0003  -4.9499  -4.7596  -4.7550   2.8294   5.6420   6.6255   6.8457
     7.1936   7.4692   7.8116   8.7336   8.8011   9.9824

          k = 0.1667-0.5000 0.2378 (  1168 PWs)   bands (ev):

   -45.7779 -22.4893 -22.4215 -22.3683  -6.8014  -6.3113  -6.1679  -5.0280
    -4.9937  -4.9334  -4.7592  -4.6617   2.7896   5.5907   5.8667   6.2447
     6.8577   7.6931   8.1426   8.6178   8.9855   9.3750

          k = 0.1667-0.5000-0.4756 (  1176 PWs)   bands (ev):

   -45.7777 -22.5082 -22.4204 -22.3674  -6.7882  -6.2834  -6.0192  -5.0243
    -4.9556  -4.9162  -4.7719  -4.5684   2.7105   5.3406   5.7166   5.8796
     6.3043   7.5405   8.3131   8.5786   8.6490   9.5841

          k = 0.3333 0.3333 0.0000 (  1163 PWs)   bands (ev):

   -45.7778 -22.4696 -22.4039 -22.4036  -6.7698  -6.3329  -6.2772  -5.0313
    -4.9884  -4.8935  -4.7371  -4.7039   2.6359   5.9307   6.1087   6.8975
     7.0819   7.1652   7.9018   8.4816   9.3328   9.4086

          k = 0.3333 0.3333 0.2378 (  1164 PWs)   bands (ev):

   -45.7775 -22.4886 -22.4030 -22.4027  -6.6534  -6.3746  -6.2273  -4.9948
    -4.9839  -4.8480  -4.6911  -4.6332   2.8159   5.5643   5.6447   5.9286
     6.6241   7.0667   8.3971   8.9367   8.9595   9.3484

          k = 0.3333 0.3333-0.4756 (  1180 PWs)   bands (ev):

   -45.7774 -22.5074 -22.4020 -22.4019  -6.5959  -6.4137  -6.1074  -4.9789
    -4.9592  -4.7989  -4.6437  -4.5648   2.9829   5.1817   5.1924   5.6948
     6.3551   6.5457   7.7107   9.2670   9.3196   9.4592

          k = 0.3333-0.5000 0.0000 (  1158 PWs)   bands (ev):

   -45.7775 -22.4687 -22.4207 -22.4029  -6.6513  -6.3041  -6.2987  -5.0238
    -4.9664  -4.8244  -4.7433  -4.7022   2.4577   5.6153   6.1452   6.7234
     7.2199   7.4015   7.4894   8.4752   9.1150   9.5288

          k = 0.3333-0.5000 0.2378 (  1156 PWs)   bands (ev):

   -45.7772 -22.4876 -22.4197 -22.4020  -6.5443  -6.3391  -6.2821  -4.9872
    -4.9578  -4.7687  -4.6693  -4.6192   2.7432   5.4790   5.5694   5.6731
     6.4037   7.1358   7.9667   8.9344   8.9463   9.5045

          k = 0.3333-0.5000-0.4756 (  1164 PWs)   bands (ev):

   -45.7770 -22.5064 -22.4187 -22.4011  -6.5433  -6.3771  -6.1393  -4.9625
    -4.9383  -4.7256  -4.5951  -4.5230   3.1022   4.9342   5.1144   5.4728
     6.1505   6.5436   6.9812   9.3748   9.4784   9.6117

          k =-0.5000-0.5000 0.0000 (  1188 PWs)   bands (ev):

   -45.7775 -22.4678 -22.4197 -22.4197  -6.5868  -6.2810  -6.2810  -5.0141
    -4.9264  -4.7506  -4.7506  -4.6856   2.2727   5.4555   6.0023   6.9402
     6.9402   7.4981   7.4981   8.2358   8.6479   9.7761

          k =-0.5000-0.5000 0.2378 (  1152 PWs)   bands (ev):

   -45.7769 -22.4866 -22.4188 -22.4188  -6.3914  -6.3544  -6.3544  -4.9761
    -4.9246  -4.6591  -4.6260  -4.6260   2.6635   5.4170   5.6010   5.6010
     6.0123   7.0767   7.3494   8.9612   8.9612   9.7673

          k =-0.5000-0.5000-0.4756 (  1152 PWs)   bands (ev):

   -45.7767 -22.5055 -22.4178 -22.4178  -6.4194  -6.4194  -6.1900  -4.9383
    -4.9227  -4.6240  -4.5080  -4.5080   3.2700   4.9776   4.9776   5.3094
     6.0210   6.0471   6.2283   9.6267   9.6267   9.7555

     highest occupied level (ev):    10.3478

!    total energy              =    -380.54269766 Ry
     estimated scf accuracy    <          1.8E-11 Ry

     The total energy is the sum of the following terms:
     one-electron contribution =     -85.33355077 Ry
     hartree contribution      =      71.80499768 Ry
     xc contribution           =    -102.57200966 Ry
     ewald contribution        =    -264.44213491 Ry

     convergence has been achieved in  10 iterations

     negative rho (up, down):  1.642E-02 0.000E+00

     Forces acting on atoms (cartesian axes, Ry/au):

     atom    1 type  1   force =     0.00000000    0.00000000   -0.00352690
     atom    2 type  2   force =     0.00000000    0.00000000    0.00463228
     atom    3 type  3   force =     0.00000000    0.00000000   -0.00596260
     atom    4 type  3   force =     0.00000000    0.00000000    0.00242861
     atom    5 type  3   force =     0.00000000    0.00000000    0.00242861

     Total force =     0.009014     Total SCF correction =     0.000016


     Computing stress (Cartesian axis) and pressure


     negative rho (up, down):  1.642E-02 0.000E+00
          total   stress  (Ry/bohr**3)                   (kbar)     P=     -119.00
  -0.00085774   0.00000000   0.00000000         -126.18        0.00        0.00
   0.00000000  -0.00085774   0.00000000            0.00     -126.18        0.00
   0.00000000   0.00000000  -0.00071133            0.00        0.00     -104.64

     Energy error            =      1.6E-04 Ry
     Gradient error          =      6.0E-03 Ry/Bohr

     number of scf cycles    =   5
     number of bfgs steps    =   4

     energy             old  =    -380.5425391753 Ry
     energy             new  =    -380.5426976646 Ry

     CASE: energy            _new < energy            _old

     new trust radius        =       0.0227253984 bohr
     new conv_thr            =       0.0000000002 Ry


ATOMIC_POSITIONS (crystal)
Pb               0.0000000000        0.0000000000        0.9940224467
Ti               0.5000000000        0.5000000000        0.5383226188
O                0.5000000000        0.5000000000        0.1074246805
O                0.5000000000        0.0000000000        0.6137572710
O                0.0000000000        0.5000000000        0.6137572710



     Writing config-only to output data dir ./pto_30.save/ :
     XML data file
     NEW-OLD atomic charge density approx. for the potential

     Check: negative core charge=   -0.000007

     negative rho (up, down):  1.628E-02 0.000E+00

     total cpu time spent up to now is       41.3 secs

     Self-consistent Calculation

     iteration #  1     ecut=    30.00 Ry     beta= 0.70
     CG style diagonalization
     ethr =  1.00E-06,  avg # of iterations =  6.0

     Threshold (ethr) on eigenvalues was too large:
     Diagonalizing with lowered threshold

     CG style diagonalization
     c_bands:  1 eigenvalues not converged
     c_bands:  1 eigenvalues not converged
     c_bands:  1 eigenvalues not converged
     c_bands:  1 eigenvalues not converged
     c_bands:  1 eigenvalues not converged
     c_bands:  1 eigenvalues not converged
     ethr =  7.98E-08,  avg # of iterations =  5.2

     negative rho (up, down):  1.625E-02 0.000E+00

     total cpu time spent up to now is       43.1 secs

     total energy              =    -380.54276369 Ry
     estimated scf accuracy    <       0.00003499 Ry

     iteration #  2     ecut=    30.00 Ry     beta= 0.70
     CG style diagonalization
     ethr =  7.95E-08,  avg # of iterations =  4.4

     negative rho (up, down):  1.624E-02 0.000E+00

     total cpu time spent up to now is       43.7 secs

     total energy              =    -380.54276519 Ry
     estimated scf accuracy    <       0.00003758 Ry

     iteration #  3     ecut=    30.00 Ry     beta= 0.70
     CG style diagonalization
     ethr =  7.95E-08,  avg # of iterations =  4.0

     negative rho (up, down):  1.623E-02 0.000E+00

     total cpu time spent up to now is       44.3 secs

     total energy              =    -380.54277462 Ry
     estimated scf accuracy    <       0.00000993 Ry

     iteration #  4     ecut=    30.00 Ry     beta= 0.70
     CG style diagonalization
     ethr =  2.26E-08,  avg # of iterations =  3.6

     negative rho (up, down):  1.623E-02 0.000E+00

     total cpu time spent up to now is       44.9 secs

     total energy              =    -380.54277675 Ry
     estimated scf accuracy    <       0.00000104 Ry

     iteration #  5     ecut=    30.00 Ry     beta= 0.70
     CG style diagonalization
     ethr =  2.37E-09,  avg # of iterations =  4.0

     negative rho (up, down):  1.623E-02 0.000E+00

     total cpu time spent up to now is       45.4 secs

     total energy              =    -380.54277719 Ry
     estimated scf accuracy    <       0.00000020 Ry

     iteration #  6     ecut=    30.00 Ry     beta= 0.70
     CG style diagonalization
     ethr =  4.61E-10,  avg # of iterations =  4.4

     negative rho (up, down):  1.623E-02 0.000E+00

     total cpu time spent up to now is       46.1 secs

     total energy              =    -380.54277729 Ry
     estimated scf accuracy    <       0.00000002 Ry

     iteration #  7     ecut=    30.00 Ry     beta= 0.70
     CG style diagonalization
     ethr =  4.97E-11,  avg # of iterations =  5.5

     negative rho (up, down):  1.623E-02 0.000E+00

     total cpu time spent up to now is       46.9 secs

     total energy              =    -380.54277733 Ry
     estimated scf accuracy    <          1.4E-09 Ry

     iteration #  8     ecut=    30.00 Ry     beta= 0.70
     CG style diagonalization
     ethr =  3.09E-12,  avg # of iterations =  6.8

     negative rho (up, down):  1.623E-02 0.000E+00

     total cpu time spent up to now is       47.9 secs

     total energy              =    -380.54277733 Ry
     estimated scf accuracy    <          1.6E-10 Ry

     iteration #  9     ecut=    30.00 Ry     beta= 0.70
     CG style diagonalization
     ethr =  3.68E-13,  avg # of iterations =  5.9

     negative rho (up, down):  1.623E-02 0.000E+00

     total cpu time spent up to now is       48.8 secs

     End of self-consistent calculation

          k = 0.0000 0.0000 0.0000 (  1189 PWs)   bands (ev):

   -45.7924 -22.4812 -22.3691 -22.3691  -7.5858  -6.5237  -6.2249  -4.9939
    -4.9939  -4.9533  -4.8702  -4.6923   4.2067   6.2585   6.2585   6.8051
     8.1109   8.1109   8.4531   8.6180   8.8751   8.8751

          k = 0.0000 0.0000 0.2378 (  1162 PWs)   bands (ev):

   -45.7917 -22.5006 -22.3683 -22.3683  -7.3994  -6.4716  -6.1653  -5.0089
    -5.0089  -4.9520  -4.8565  -4.7562   3.4566   6.3050   6.3050   6.8776
     7.9106   7.9106   8.3766   8.7805   8.9759   8.9759

          k = 0.0000 0.0000-0.4756 (  1174 PWs)   bands (ev):

   -45.7917 -22.5200 -22.3675 -22.3675  -7.1988  -6.4154  -6.1109  -5.0238
    -5.0238  -4.9508  -4.8434  -4.8243   2.9484   6.2156   6.3216   6.3216
     7.7810   7.7810   8.2911   9.0409   9.0409   9.9902

          k = 0.0000 0.1667 0.0000 (  1175 PWs)   bands (ev):

   -45.7920 -22.4804 -22.3864 -22.3684  -7.4518  -6.4976  -6.2058  -5.0155
    -4.9925  -4.9659  -4.8602  -4.6817   3.7915   6.3150   6.3666   6.7375
     8.1292   8.1341   8.4309   8.5117   8.5700   8.9664

          k = 0.0000 0.1667 0.2378 (  1178 PWs)   bands (ev):

   -45.7918 -22.4998 -22.3855 -22.3676  -7.2813  -6.4590  -6.1398  -5.0089
    -5.0079  -4.9651  -4.8561  -4.7156   3.2539   6.0976   6.4190   6.9301
     7.6024   7.8953   8.2155   8.6251   8.6536   9.3509

          k = 0.0000 0.1667-0.4756 (  1160 PWs)   bands (ev):

   -45.7913 -22.5190 -22.3845 -22.3668  -7.1062  -6.4159  -6.0701  -5.0233
    -5.0000  -4.9643  -4.8570  -4.7493   2.8337   5.8090   6.4449   6.5916
     7.4373   7.7787   8.2596   8.6825   8.7322   9.9577

          k = 0.0000 0.3333 0.0000 (  1169 PWs)   bands (ev):

   -45.7913 -22.4788 -22.4206 -22.3670  -7.1605  -6.4407  -6.1855  -5.0436
    -4.9913  -4.9893  -4.8275  -4.6920   3.2243   5.9485   6.6532   6.6684
     7.8051   7.8445   8.2159   8.2952   8.6570   9.6318

          k = 0.0000 0.3333 0.2378 (  1169 PWs)   bands (ev):

   -45.7910 -22.4979 -22.4195 -22.3661  -7.0517  -6.4045  -6.0952  -5.0106
    -5.0060  -4.9912  -4.8301  -4.6642   2.9126   5.8158   6.5446   6.7285
     7.2408   7.6697   7.8448   8.3062   8.8657   9.7000

          k = 0.0000 0.3333-0.4756 (  1164 PWs)   bands (ev):

   -45.7908 -22.5169 -22.4184 -22.3653  -6.9701  -6.3499  -5.9772  -5.0223
    -4.9914  -4.9687  -4.8615  -4.6226   2.6298   5.4962   6.3300   6.7540
     7.1135   7.3622   7.6223   8.3542   9.2504   9.5690

          k = 0.0000-0.5000 0.0000 (  1168 PWs)   bands (ev):

   -45.7911 -22.4779 -22.4377 -22.3662  -6.9997  -6.3939  -6.2032  -5.0540
    -5.0036  -4.9881  -4.7604  -4.7536   3.0173   5.6062   6.9042   6.9125
     7.3386   7.4466   8.2157   8.2451   8.6858  10.3633

          k = 0.0000-0.5000 0.2378 (  1176 PWs)   bands (ev):

   -45.7909 -22.4969 -22.4365 -22.3654  -6.9518  -6.3315  -6.0951  -5.0195
    -5.0050  -5.0042  -4.7892  -4.6622   2.7743   5.5654   6.5562   6.7714
     7.0992   7.2449   7.9474   8.2696   8.8783   9.8771

          k = 0.0000-0.5000-0.4756 (  1160 PWs)   bands (ev):

   -45.7904 -22.5157 -22.4353 -22.3645  -6.9363  -6.2656  -5.9331  -5.0218
    -5.0048  -4.9776  -4.8348  -4.5716   2.5493   5.3662   6.0195   6.7986
     7.0708   7.3046   7.4021   8.2903   9.2147   9.5696

          k = 0.1667 0.1667 0.0000 (  1163 PWs)   bands (ev):

   -45.7915 -22.4796 -22.3858 -22.3854  -7.3203  -6.4707  -6.2054  -5.0193
    -5.0056  -4.9682  -4.8308  -4.6717   3.4903   6.2628   6.4960   6.7307
     7.6514   7.7944   8.4616   8.5402   8.8273   9.1763

          k = 0.1667 0.1667 0.2378 (  1170 PWs)   bands (ev):

   -45.7913 -22.4989 -22.3848 -22.3845  -7.1612  -6.4489  -6.1374  -5.0203
    -4.9969  -4.9628  -4.8243  -4.6855   3.1379   6.0510   6.1307   6.8516
     7.4977   7.5136   8.2718   8.6843   8.9034   9.3269

          k = 0.1667 0.1667-0.4756 (  1172 PWs)   bands (ev):

   -45.7911 -22.5180 -22.3839 -22.3837  -7.0042  -6.4268  -6.0571  -5.0312
    -4.9770  -4.9404  -4.8311  -4.7033   2.8076   5.8490   5.8654   6.5754
     7.3584   7.4660   8.2036   8.7465   8.9574   9.6778

          k = 0.1667 0.3333 0.0000 (  1167 PWs)   bands (ev):

   -45.7910 -22.4781 -22.4197 -22.3840  -7.0363  -6.4154  -6.2209  -5.0363
    -4.9945  -4.9523  -4.7897  -4.6800   3.0144   5.9599   6.4969   6.8244
     7.1544   7.6972   8.0378   8.6534   8.8218   9.6751

          k = 0.1667 0.3333 0.2378 (  1165 PWs)   bands (ev):

   -45.7907 -22.4971 -22.4186 -22.3831  -6.9272  -6.4068  -6.1390  -5.0154
    -4.9922  -4.9341  -4.7754  -4.6424   2.8993   5.7867   5.9485   6.4699
     6.9002   7.5595   8.3324   8.6185   8.9567   9.4272

          k = 0.1667 0.3333-0.4756 (  1168 PWs)   bands (ev):

   -45.7905 -22.5160 -22.4176 -22.3822  -6.8502  -6.3883  -6.0217  -5.0154
    -4.9691  -4.8990  -4.7837  -4.5985   2.7440   5.4476   5.8505   6.2199
     6.4029   7.4182   8.4339   8.6664   8.9624   9.3878

          k = 0.1667-0.5000 0.0000 (  1170 PWs)   bands (ev):

   -45.7909 -22.4771 -22.4367 -22.3832  -6.8800  -6.3714  -6.2551  -5.0375
    -4.9867  -4.9343  -4.7369  -4.7351   2.8243   5.6243   6.6211   6.8244
     7.1820   7.4589   7.8293   8.7109   8.7950   9.9965

          k = 0.1667-0.5000 0.2378 (  1168 PWs)   bands (ev):

   -45.7905 -22.4961 -22.4356 -22.3823  -6.8269  -6.3431  -6.1608  -5.0136
    -4.9796  -4.9188  -4.7410  -4.6403   2.7896   5.5738   5.8499   6.2371
     6.8519   7.6919   8.1254   8.6136   8.9704   9.3949

          k = 0.1667-0.5000-0.4756 (  1176 PWs)   bands (ev):

   -45.7903 -22.5149 -22.4345 -22.3815  -6.8159  -6.3157  -6.0067  -5.0105
    -4.9414  -4.9022  -4.7531  -4.5499   2.7162   5.3311   5.6855   5.8701
     6.3015   7.5286   8.3195   8.5795   8.6427   9.5804

          k = 0.3333 0.3333 0.0000 (  1163 PWs)   bands (ev):

   -45.7904 -22.4764 -22.4180 -22.4177  -6.7816  -6.3661  -6.2856  -5.0169
    -4.9734  -4.8765  -4.7202  -4.6799   2.6197   5.9131   6.0906   6.9002
     7.0746   7.1880   7.8812   8.4850   9.3044   9.4251

          k = 0.3333 0.3333 0.2378 (  1164 PWs)   bands (ev):

   -45.7902 -22.4953 -22.4170 -22.4168  -6.6758  -6.4053  -6.2223  -4.9802
    -4.9692  -4.8338  -4.6749  -4.6118   2.8007   5.5572   5.6407   5.9119
     6.6195   7.0691   8.4111   8.9281   8.9644   9.3218

          k = 0.3333 0.3333-0.4756 (  1180 PWs)   bands (ev):

   -45.7901 -22.5141 -22.4161 -22.4159  -6.6248  -6.4422  -6.0932  -4.9645
    -4.9446  -4.7866  -4.6285  -4.5459   2.9717   5.1609   5.1941   5.6838
     6.3532   6.5353   7.7438   9.2651   9.2885   9.4560

          k = 0.3333-0.5000 0.0000 (  1158 PWs)   bands (ev):

   -45.7901 -22.4755 -22.4348 -22.4169  -6.6540  -6.3320  -6.3225  -5.0092
    -4.9511  -4.8061  -4.7215  -4.6831   2.4364   5.5979   6.1270   6.7363
     7.2419   7.3859   7.4757   8.4753   9.1309   9.4999

          k = 0.3333-0.5000 0.2378 (  1156 PWs)   bands (ev):

   -45.7898 -22.4943 -22.4338 -22.4160  -6.5652  -6.3698  -6.2777  -4.9726
    -4.9430  -4.7555  -4.6503  -4.6001   2.7193   5.4797   5.5547   5.6685
     6.3948   7.1396   7.9890   8.9335   8.9428   9.4755

          k = 0.3333-0.5000-0.4756 (  1164 PWs)   bands (ev):

   -45.7896 -22.5132 -22.4328 -22.4152  -6.5707  -6.4056  -6.1246  -4.9478
    -4.9237  -4.7142  -4.5788  -4.5063   3.0757   4.9246   5.1177   5.4586
     6.1430   6.5366   7.0240   9.3734   9.4469   9.6101

          k =-0.5000-0.5000 0.0000 (  1188 PWs)   bands (ev):

   -45.7902 -22.4746 -22.4338 -22.4338  -6.5731  -6.3154  -6.3154  -4.9995
    -4.9110  -4.7262  -4.7262  -4.6739   2.2444   5.4383   5.9859   6.9634
     6.9634   7.4793   7.4793   8.2419   8.6619   9.7446

          k =-0.5000-0.5000 0.2378 (  1152 PWs)   bands (ev):

   -45.7895 -22.4934 -22.4329 -22.4329  -6.3846  -6.3846  -6.3769  -4.9616
    -4.9091  -4.6480  -4.6065  -4.6065   2.6272   5.4000   5.6096   5.6096
     5.9959   7.0798   7.3788   8.9589   8.9589   9.7361

          k =-0.5000-0.5000-0.4756 (  1152 PWs)   bands (ev):

   -45.7893 -22.5122 -22.4319 -22.4319  -6.4465  -6.4465  -6.1745  -4.9237
    -4.9073  -4.6138  -4.4923  -4.4923   3.2116   4.9868   4.9868   5.2944
     6.0045   6.1025   6.2280   9.6262   9.6262   9.7244

     highest occupied level (ev):    10.3633

!    total energy              =    -380.54277733 Ry
     estimated scf accuracy    <          1.2E-11 Ry

     The total energy is the sum of the following terms:
     one-electron contribution =     -85.62749467 Ry
     hartree contribution      =      71.94863139 Ry
     xc contribution           =    -102.57583707 Ry
     ewald contribution        =    -264.28807698 Ry

     convergence has been achieved in   9 iterations

     negative rho (up, down):  1.623E-02 0.000E+00

     Forces acting on atoms (cartesian axes, Ry/au):

     atom    1 type  1   force =     0.00000000    0.00000000   -0.00029650
     atom    2 type  2   force =     0.00000000    0.00000000    0.00078022
     atom    3 type  3   force =     0.00000000    0.00000000   -0.00349955
     atom    4 type  3   force =     0.00000000    0.00000000    0.00150792
     atom    5 type  3   force =     0.00000000    0.00000000    0.00150792

     Total force =     0.004182     Total SCF correction =     0.000019


     Computing stress (Cartesian axis) and pressure


     negative rho (up, down):  1.623E-02 0.000E+00
          total   stress  (Ry/bohr**3)                   (kbar)     P=     -117.30
  -0.00084147   0.00000000   0.00000000         -123.78        0.00        0.00
   0.00000000  -0.00084147   0.00000000            0.00     -123.78        0.00
   0.00000000   0.00000000  -0.00070924            0.00        0.00     -104.33

     Energy error            =      8.0E-05 Ry
     Gradient error          =      3.5E-03 Ry/Bohr

     number of scf cycles    =   6
     number of bfgs steps    =   5

     energy             old  =    -380.5426976646 Ry
     energy             new  =    -380.5427773296 Ry

     CASE: energy            _new < energy            _old

     new trust radius        =       0.0039025210 bohr
     new conv_thr            =            1.0E-10 Ry


ATOMIC_POSITIONS (crystal)
Pb               0.0000000000        0.0000000000        0.9936938871
Ti               0.5000000000        0.5000000000        0.5384897817
O                0.5000000000        0.5000000000        0.1069209915
O                0.5000000000        0.0000000000        0.6140898139
O                0.0000000000        0.5000000000        0.6140898139



     Writing config-only to output data dir ./pto_30.save/ :
     XML data file
     NEW-OLD atomic charge density approx. for the potential

     Check: negative core charge=   -0.000007

     negative rho (up, down):  1.620E-02 0.000E+00

     total cpu time spent up to now is       49.4 secs

     Self-consistent Calculation

     iteration #  1     ecut=    30.00 Ry     beta= 0.70
     CG style diagonalization
     ethr =  1.00E-06,  avg # of iterations =  3.2

     Threshold (ethr) on eigenvalues was too large:
     Diagonalizing with lowered threshold

     CG style diagonalization
     c_bands:  2 eigenvalues not converged
     c_bands:  1 eigenvalues not converged
     c_bands:  1 eigenvalues not converged
     c_bands:  1 eigenvalues not converged
     ethr =  2.84E-08,  avg # of iterations =  5.7

     negative rho (up, down):  1.620E-02 0.000E+00

     total cpu time spent up to now is       50.9 secs

     total energy              =    -380.54278694 Ry
     estimated scf accuracy    <       0.00001197 Ry

     iteration #  2     ecut=    30.00 Ry     beta= 0.70
     CG style diagonalization
     ethr =  2.72E-08,  avg # of iterations =  4.7

     negative rho (up, down):  1.620E-02 0.000E+00

     total cpu time spent up to now is       51.6 secs

     total energy              =    -380.54278533 Ry
     estimated scf accuracy    <       0.00003983 Ry

     iteration #  3     ecut=    30.00 Ry     beta= 0.70
     CG style diagonalization
     ethr =  2.72E-08,  avg # of iterations =  4.2

     negative rho (up, down):  1.620E-02 0.000E+00

     total cpu time spent up to now is       52.3 secs

     total energy              =    -380.54279275 Ry
     estimated scf accuracy    <       0.00000211 Ry

     iteration #  4     ecut=    30.00 Ry     beta= 0.70
     CG style diagonalization
     ethr =  4.78E-09,  avg # of iterations =  3.7

     negative rho (up, down):  1.620E-02 0.000E+00

     total cpu time spent up to now is       52.8 secs

     total energy              =    -380.54279335 Ry
     estimated scf accuracy    <       0.00000020 Ry

     iteration #  5     ecut=    30.00 Ry     beta= 0.70
     CG style diagonalization
     ethr =  4.55E-10,  avg # of iterations =  4.3

     negative rho (up, down):  1.620E-02 0.000E+00

     total cpu time spent up to now is       53.4 secs

     total energy              =    -380.54279347 Ry
     estimated scf accuracy    <       0.00000004 Ry

     iteration #  6     ecut=    30.00 Ry     beta= 0.70
     CG style diagonalization
     ethr =  9.44E-11,  avg # of iterations =  4.3

     negative rho (up, down):  1.620E-02 0.000E+00

     total cpu time spent up to now is       54.1 secs

     total energy              =    -380.54279349 Ry
     estimated scf accuracy    <          9.0E-09 Ry

     iteration #  7     ecut=    30.00 Ry     beta= 0.70
     CG style diagonalization
     ethr =  2.04E-11,  avg # of iterations =  4.2

     negative rho (up, down):  1.620E-02 0.000E+00

     total cpu time spent up to now is       54.7 secs

     total energy              =    -380.54279349 Ry
     estimated scf accuracy    <          1.5E-09 Ry

     iteration #  8     ecut=    30.00 Ry     beta= 0.70
     CG style diagonalization
     ethr =  3.52E-12,  avg # of iterations =  4.7

     negative rho (up, down):  1.620E-02 0.000E+00

     total cpu time spent up to now is       55.4 secs

     total energy              =    -380.54279349 Ry
     estimated scf accuracy    <          1.7E-10 Ry

     iteration #  9     ecut=    30.00 Ry     beta= 0.70
     CG style diagonalization
     ethr =  3.92E-13,  avg # of iterations =  5.8

     negative rho (up, down):  1.620E-02 0.000E+00

     total cpu time spent up to now is       56.2 secs

     End of self-consistent calculation

          k = 0.0000 0.0000 0.0000 (  1189 PWs)   bands (ev):

   -45.8006 -22.4844 -22.3775 -22.3775  -7.5903  -6.5292  -6.2219  -4.9906
    -4.9906  -4.9489  -4.8670  -4.6874   4.2102   6.2532   6.2532   6.8043
     8.1215   8.1215   8.4493   8.6268   8.8685   8.8685

          k = 0.0000 0.0000 0.2378 (  1162 PWs)   bands (ev):

   -45.7999 -22.5039 -22.3767 -22.3767  -7.4050  -6.4775  -6.1616  -5.0056
    -5.0056  -4.9476  -4.8530  -4.7509   3.4618   6.3002   6.3002   6.8771
     7.9188   7.9188   8.3729   8.7838   8.9702   8.9702

          k = 0.0000 0.0000-0.4756 (  1174 PWs)   bands (ev):

   -45.7998 -22.5232 -22.3760 -22.3760  -7.2057  -6.4218  -6.1062  -5.0205
    -5.0205  -4.9464  -4.8395  -4.8185   2.9550   6.2146   6.3175   6.3175
     7.7876   7.7876   8.2874   9.0350   9.0350   9.9892

          k = 0.0000 0.1667 0.0000 (  1175 PWs)   bands (ev):

   -45.8001 -22.4836 -22.3947 -22.3768  -7.4563  -6.5032  -6.2030  -5.0121
    -4.9892  -4.9616  -4.8568  -4.6768   3.7935   6.3117   6.3612   6.7371
     8.1356   8.1451   8.4279   8.5051   8.5716   8.9693

          k = 0.0000 0.1667 0.2378 (  1178 PWs)   bands (ev):

   -45.7999 -22.5030 -22.3939 -22.3760  -7.2868  -6.4649  -6.1362  -5.0053
    -5.0047  -4.9608  -4.8525  -4.7106   3.2579   6.0949   6.4141   6.9286
     7.6063   7.9025   8.2136   8.6248   8.6492   9.3514

          k = 0.0000 0.1667-0.4756 (  1160 PWs)   bands (ev):

   -45.7994 -22.5222 -22.3929 -22.3752  -7.1130  -6.4221  -6.0656  -5.0200
    -4.9962  -4.9600  -4.8531  -4.7441   2.8391   5.8081   6.4408   6.5881
     7.4410   7.7844   8.2532   8.6826   8.7275   9.9586

          k = 0.0000 0.3333 0.0000 (  1169 PWs)   bands (ev):

   -45.7995 -22.4821 -22.4289 -22.3754  -7.1649  -6.4466  -6.1832  -5.0400
    -4.9872  -4.9858  -4.8236  -4.6871   3.2254   5.9450   6.6476   6.6707
     7.8055   7.8397   8.2258   8.2904   8.6611   9.6365

          k = 0.0000 0.3333 0.2378 (  1169 PWs)   bands (ev):

   -45.7992 -22.5011 -22.4279 -22.3745  -7.0571  -6.4105  -6.0920  -5.0068
    -5.0027  -4.9869  -4.8262  -4.6594   2.9151   5.8132   6.5447   6.7234
     7.2403   7.6693   7.8438   8.3100   8.8665   9.7031

          k = 0.0000 0.3333-0.4756 (  1164 PWs)   bands (ev):

   -45.7990 -22.5201 -22.4268 -22.3737  -6.9761  -6.3565  -5.9730  -5.0190
    -4.9871  -4.9647  -4.8573  -4.6183   2.6334   5.4957   6.3294   6.7502
     7.1103   7.3583   7.6219   8.3556   9.2561   9.5700

          k = 0.0000-0.5000 0.0000 (  1168 PWs)   bands (ev):

   -45.7993 -22.4811 -22.4460 -22.3747  -7.0042  -6.4001  -6.2009  -5.0504
    -4.9993  -4.9848  -4.7553  -4.7497   3.0183   5.6027   6.9067   6.9106
     7.3344   7.4414   8.2109   8.2559   8.6899  10.3679

          k = 0.0000-0.5000 0.2378 (  1176 PWs)   bands (ev):

   -45.7991 -22.5001 -22.4448 -22.3738  -6.9571  -6.3381  -6.0915  -5.0157
    -5.0017  -4.9999  -4.7850  -4.6576   2.7765   5.5620   6.5566   6.7712
     7.0929   7.2426   7.9459   8.2767   8.8784   9.8827

          k = 0.0000-0.5000-0.4756 (  1160 PWs)   bands (ev):

   -45.7986 -22.5189 -22.4436 -22.3729  -6.9418  -6.2727  -5.9288  -5.0185
    -5.0006  -4.9738  -4.8303  -4.5676   2.5524   5.3649   6.0201   6.7942
     7.0700   7.2979   7.3983   8.2953   9.2225   9.5712

          k = 0.1667 0.1667 0.0000 (  1163 PWs)   bands (ev):

   -45.7997 -22.4829 -22.3941 -22.3938  -7.3247  -6.4765  -6.2028  -5.0158
    -5.0022  -4.9641  -4.8272  -4.6667   3.4912   6.2572   6.4936   6.7305
     7.6601   7.7919   8.4678   8.5369   8.8229   9.1842

          k = 0.1667 0.1667 0.2378 (  1170 PWs)   bands (ev):

   -45.7995 -22.5021 -22.3932 -22.3929  -7.1667  -6.4548  -6.1340  -5.0167
    -4.9932  -4.9588  -4.8206  -4.6805   3.1408   6.0478   6.1284   6.8501
     7.4951   7.5179   8.2781   8.6806   8.9007   9.3297

          k = 0.1667 0.1667-0.4756 (  1172 PWs)   bands (ev):

   -45.7993 -22.5212 -22.3923 -22.3921  -7.0109  -6.4329  -6.0526  -5.0275
    -4.9728  -4.9370  -4.8271  -4.6983   2.8121   5.8474   5.8642   6.5720
     7.3541   7.4679   8.2098   8.7423   8.9550   9.6797

          k = 0.1667 0.3333 0.0000 (  1167 PWs)   bands (ev):

   -45.7992 -22.4813 -22.4280 -22.3924  -7.0404  -6.4214  -6.2191  -5.0327
    -4.9909  -4.9481  -4.7856  -4.6751   3.0141   5.9559   6.4947   6.8241
     7.1518   7.7077   8.0363   8.6533   8.8200   9.6808

          k = 0.1667 0.3333 0.2378 (  1165 PWs)   bands (ev):

   -45.7989 -22.5003 -22.4270 -22.3915  -6.9325  -6.4128  -6.1359  -5.0117
    -4.9886  -4.9300  -4.7714  -4.6377   2.9004   5.7845   5.9469   6.4669
     6.9008   7.5612   8.3336   8.6184   8.9563   9.4306

          k = 0.1667 0.3333-0.4756 (  1168 PWs)   bands (ev):

   -45.7987 -22.5192 -22.4260 -22.3906  -6.8563  -6.3944  -6.0174  -5.0117
    -4.9652  -4.8951  -4.7796  -4.5942   2.7466   5.4476   5.8469   6.2183
     6.4006   7.4168   8.4398   8.6615   8.9665   9.3887

          k = 0.1667-0.5000 0.0000 (  1170 PWs)   bands (ev):

   -45.7991 -22.4804 -22.4450 -22.3916  -6.8839  -6.3778  -6.2536  -5.0339
    -4.9832  -4.9299  -4.7328  -4.7301   2.8236   5.6207   6.6236   6.8176
     7.1812   7.4569   7.8414   8.7064   8.7970  10.0003

          k = 0.1667-0.5000 0.2378 (  1168 PWs)   bands (ev):

   -45.7987 -22.4993 -22.4439 -22.3907  -6.8321  -6.3495  -6.1574  -5.0099
    -4.9760  -4.9144  -4.7369  -4.6358   2.7901   5.5707   5.8485   6.2362
     6.8509   7.6947   8.1238   8.6163   8.9684   9.4000

          k = 0.1667-0.5000-0.4756 (  1176 PWs)   bands (ev):

   -45.7985 -22.5181 -22.4428 -22.3899  -6.8214  -6.3222  -6.0026  -5.0069
    -4.9378  -4.8978  -4.7490  -4.5459   2.7180   5.3308   5.6808   5.8687
     6.3009   7.5269   8.3218   8.5833   8.6419   9.5826

          k = 0.3333 0.3333 0.0000 (  1163 PWs)   bands (ev):

   -45.7986 -22.4797 -22.4263 -22.4261  -6.7841  -6.3726  -6.2857  -5.0133
    -4.9696  -4.8721  -4.7158  -4.6750   2.6172   5.9095   6.0854   6.9027
     7.0753   7.1988   7.8766   8.4887   9.2989   9.4297

          k = 0.3333 0.3333 0.2378 (  1164 PWs)   bands (ev):

   -45.7983 -22.4986 -22.4254 -22.4252  -6.6805  -6.4113  -6.2197  -4.9766
    -4.9654  -4.8296  -4.6707  -4.6075   2.7985   5.5575   5.6403   5.9080
     6.6198   7.0709   8.4164   8.9283   8.9678   9.3171

          k = 0.3333 0.3333-0.4756 (  1180 PWs)   bands (ev):

   -45.7982 -22.5174 -22.4244 -22.4243  -6.6308  -6.4478  -6.0892  -4.9606
    -4.9410  -4.7824  -4.6247  -4.5420   2.9708   5.1586   5.1956   5.6797
     6.3545   6.5334   7.7516   9.2681   9.2821   9.4581

          k = 0.3333-0.5000 0.0000 (  1158 PWs)   bands (ev):

   -45.7983 -22.4787 -22.4431 -22.4253  -6.6544  -6.3387  -6.3249  -5.0057
    -4.9471  -4.8014  -4.7169  -4.6783   2.4330   5.5944   6.1218   6.7421
     7.2510   7.3843   7.4747   8.4773   9.1343   9.4941

          k = 0.3333-0.5000 0.2378 (  1156 PWs)   bands (ev):

   -45.7980 -22.4976 -22.4421 -22.4244  -6.5697  -6.3760  -6.2754  -4.9690
    -4.9390  -4.7510  -4.6463  -4.5957   2.7156   5.4816   5.5516   5.6680
     6.3937   7.1423   7.9935   8.9358   8.9453   9.4699

          k = 0.3333-0.5000-0.4756 (  1164 PWs)   bands (ev):

   -45.7978 -22.5164 -22.4411 -22.4235  -6.5762  -6.4113  -6.1206  -4.9440
    -4.9199  -4.7096  -4.5754  -4.5026   3.0718   4.9241   5.1204   5.4536
     6.1424   6.5367   7.0321   9.3763   9.4406   9.6128

          k =-0.5000-0.5000 0.0000 (  1188 PWs)   bands (ev):

   -45.7983 -22.4778 -22.4422 -22.4422  -6.5693  -6.3222  -6.3222  -4.9960
    -4.9068  -4.7214  -4.7214  -4.6693   2.2398   5.4349   5.9817   6.9713
     6.9713   7.4775   7.4775   8.2446   8.6639   9.7383

          k =-0.5000-0.5000 0.2378 (  1152 PWs)   bands (ev):

   -45.7977 -22.4966 -22.4412 -22.4412  -6.3906  -6.3906  -6.3730  -4.9580
    -4.9050  -4.6433  -4.6026  -4.6026   2.6213   5.3960   5.6135   5.6135
     5.9917   7.0820   7.3835   8.9614   8.9614   9.7297

          k =-0.5000-0.5000-0.4756 (  1152 PWs)   bands (ev):

   -45.7975 -22.5154 -22.4403 -22.4403  -6.4519  -6.4519  -6.1706  -4.9201
    -4.9031  -4.6089  -4.4891  -4.4891   3.2022   4.9906   4.9906   5.2893
     6.0003   6.1114   6.2307   9.6290   9.6290   9.7181

     highest occupied level (ev):    10.3679

!    total energy              =    -380.54279349 Ry
     estimated scf accuracy    <          1.1E-11 Ry

     The total energy is the sum of the following terms:
     one-electron contribution =     -85.63462385 Ry
     hartree contribution      =      71.95032654 Ry
     xc contribution           =    -102.57474751 Ry
     ewald contribution        =    -264.28374868 Ry

     convergence has been achieved in   9 iterations

     negative rho (up, down):  1.620E-02 0.000E+00

     Forces acting on atoms (cartesian axes, Ry/au):

     atom    1 type  1   force =     0.00000000    0.00000000    0.00030888
     atom    2 type  2   force =     0.00000000    0.00000000   -0.00097274
     atom    3 type  3   force =     0.00000000    0.00000000   -0.00112142
     atom    4 type  3   force =     0.00000000    0.00000000    0.00089264
     atom    5 type  3   force =     0.00000000    0.00000000    0.00089264

     Total force =     0.001973     Total SCF correction =     0.000011


     Computing stress (Cartesian axis) and pressure


     negative rho (up, down):  1.620E-02 0.000E+00
          total   stress  (Ry/bohr**3)                   (kbar)     P=     -118.01
  -0.00084148   0.00000000   0.00000000         -123.79        0.00        0.00
   0.00000000  -0.00084148   0.00000000            0.00     -123.79        0.00
   0.00000000   0.00000000  -0.00072365            0.00        0.00     -106.45

     Energy error            =      1.6E-05 Ry
     Gradient error          =      1.1E-03 Ry/Bohr

     number of scf cycles    =   7
     number of bfgs steps    =   6

     energy             old  =    -380.5427773296 Ry
     energy             new  =    -380.5427934937 Ry

     CASE: energy            _new < energy            _old

     new trust radius        =       0.0029704860 bohr
     new conv_thr            =            1.0E-10 Ry


ATOMIC_POSITIONS (crystal)
Pb               0.0000000000        0.0000000000        0.9937871553
Ti               0.5000000000        0.5000000000        0.5383672716
O                0.5000000000        0.5000000000        0.1065375979
O                0.5000000000        0.0000000000        0.6142961316
O                0.0000000000        0.5000000000        0.6142961316



     Writing config-only to output data dir ./pto_30.save/ :
     XML data file
     NEW-OLD atomic charge density approx. for the potential

     Check: negative core charge=   -0.000007

     negative rho (up, down):  1.621E-02 0.000E+00

     total cpu time spent up to now is       56.8 secs

     Self-consistent Calculation

     iteration #  1     ecut=    30.00 Ry     beta= 0.70
     CG style diagonalization
     ethr =  1.00E-06,  avg # of iterations =  2.9

     Threshold (ethr) on eigenvalues was too large:
     Diagonalizing with lowered threshold

     CG style diagonalization
     c_bands:  1 eigenvalues not converged
     c_bands:  1 eigenvalues not converged
     c_bands:  1 eigenvalues not converged
     c_bands:  1 eigenvalues not converged
     c_bands:  1 eigenvalues not converged
     c_bands:  2 eigenvalues not converged
     ethr =  3.73E-09,  avg # of iterations =  6.5

     negative rho (up, down):  1.622E-02 0.000E+00

     total cpu time spent up to now is       58.4 secs

     total energy              =    -380.54279470 Ry
     estimated scf accuracy    <       0.00000298 Ry

     iteration #  2     ecut=    30.00 Ry     beta= 0.70
     CG style diagonalization
     ethr =  6.78E-09,  avg # of iterations =  4.6

     negative rho (up, down):  1.621E-02 0.000E+00

     total cpu time spent up to now is       59.1 secs

     total energy              =    -380.54279402 Ry
     estimated scf accuracy    <       0.00001139 Ry

     iteration #  3     ecut=    30.00 Ry     beta= 0.70
     CG style diagonalization
     ethr =  6.78E-09,  avg # of iterations =  4.2

     negative rho (up, down):  1.621E-02 0.000E+00

     total cpu time spent up to now is       59.7 secs

     total energy              =    -380.54279608 Ry
     estimated scf accuracy    <       0.00000038 Ry

     iteration #  4     ecut=    30.00 Ry     beta= 0.70
     CG style diagonalization
     ethr =  8.71E-10,  avg # of iterations =  3.7

     negative rho (up, down):  1.621E-02 0.000E+00

     total cpu time spent up to now is       60.3 secs

     total energy              =    -380.54279620 Ry
     estimated scf accuracy    <       0.00000005 Ry

     iteration #  5     ecut=    30.00 Ry     beta= 0.70
     CG style diagonalization
     ethr =  1.22E-10,  avg # of iterations =  4.1

     negative rho (up, down):  1.621E-02 0.000E+00

     total cpu time spent up to now is       60.9 secs

     total energy              =    -380.54279623 Ry
     estimated scf accuracy    <          9.5E-09 Ry

     iteration #  6     ecut=    30.00 Ry     beta= 0.70
     CG style diagonalization
     ethr =  2.16E-11,  avg # of iterations =  4.2

     negative rho (up, down):  1.621E-02 0.000E+00

     total cpu time spent up to now is       61.5 secs

     total energy              =    -380.54279623 Ry
     estimated scf accuracy    <          1.5E-09 Ry

     iteration #  7     ecut=    30.00 Ry     beta= 0.70
     CG style diagonalization
     ethr =  3.38E-12,  avg # of iterations =  4.5

     negative rho (up, down):  1.621E-02 0.000E+00

     total cpu time spent up to now is       62.2 secs

     total energy              =    -380.54279623 Ry
     estimated scf accuracy    <          1.7E-10 Ry

     iteration #  8     ecut=    30.00 Ry     beta= 0.70
     CG style diagonalization
     ethr =  3.97E-13,  avg # of iterations =  5.3

     negative rho (up, down):  1.621E-02 0.000E+00

     total cpu time spent up to now is       62.9 secs

     End of self-consistent calculation

          k = 0.0000 0.0000 0.0000 (  1189 PWs)   bands (ev):

   -45.8037 -22.4857 -22.3805 -22.3805  -7.5910  -6.5290  -6.2210  -4.9894
    -4.9894  -4.9474  -4.8655  -4.6858   4.2125   6.2515   6.2515   6.8013
     8.1235   8.1235   8.4475   8.6299   8.8673   8.8673

          k = 0.0000 0.0000 0.2378 (  1162 PWs)   bands (ev):

   -45.8030 -22.5052 -22.3797 -22.3797  -7.4057  -6.4773  -6.1608  -5.0044
    -5.0044  -4.9461  -4.8514  -4.7493   3.4639   6.2977   6.2977   6.8752
     7.9217   7.9217   8.3711   8.7852   8.9695   8.9695

          k = 0.0000 0.0000-0.4756 (  1174 PWs)   bands (ev):

   -45.8029 -22.5245 -22.3789 -22.3789  -7.2064  -6.4217  -6.1055  -5.0193
    -5.0193  -4.9449  -4.8379  -4.8169   2.9573   6.2132   6.3141   6.3141
     7.7916   7.7916   8.2857   9.0345   9.0345   9.9897

          k = 0.0000 0.1667 0.0000 (  1175 PWs)   bands (ev):

   -45.8032 -22.4850 -22.3977 -22.3798  -7.4570  -6.5032  -6.2021  -5.0108
    -4.9880  -4.9601  -4.8555  -4.6752   3.7948   6.3115   6.3596   6.7353
     8.1374   8.1475   8.4267   8.5037   8.5722   8.9708

          k = 0.0000 0.1667 0.2378 (  1178 PWs)   bands (ev):

   -45.8030 -22.5043 -22.3968 -22.3790  -7.2875  -6.4649  -6.1354  -5.0040
    -5.0034  -4.9593  -4.8511  -4.7090   3.2593   6.0937   6.4117   6.9273
     7.6082   7.9050   8.2144   8.6242   8.6489   9.3523

          k = 0.0000 0.1667-0.4756 (  1160 PWs)   bands (ev):

   -45.8025 -22.5235 -22.3959 -22.3781  -7.1137  -6.4222  -6.0649  -5.0188
    -4.9950  -4.9585  -4.8516  -4.7426   2.8408   5.8067   6.4376   6.5864
     7.4440   7.7881   8.2527   8.6820   8.7274   9.9600

          k = 0.0000 0.3333 0.0000 (  1169 PWs)   bands (ev):

   -45.8026 -22.4834 -22.4318 -22.3783  -7.1656  -6.4470  -6.1823  -5.0387
    -4.9857  -4.9845  -4.8224  -4.6857   3.2258   5.9455   6.6465   6.6725
     7.8079   7.8386   8.2279   8.2890   8.6623   9.6371

          k = 0.0000 0.3333 0.2378 (  1169 PWs)   bands (ev):

   -45.8023 -22.5025 -22.4308 -22.3775  -7.0576  -6.4109  -6.0912  -5.0055
    -5.0015  -4.9854  -4.8249  -4.6580   2.9159   5.8134   6.5456   6.7215
     7.2425   7.6692   7.8434   8.3124   8.8672   9.7038

          k = 0.0000 0.3333-0.4756 (  1164 PWs)   bands (ev):

   -45.8021 -22.5214 -22.4297 -22.3766  -6.9764  -6.3572  -5.9724  -5.0178
    -4.9856  -4.9634  -4.8559  -4.6169   2.6346   5.4953   6.3316   6.7473
     7.1111   7.3573   7.6231   8.3581   9.2572   9.5713

          k = 0.0000-0.5000 0.0000 (  1168 PWs)   bands (ev):

   -45.8024 -22.4825 -22.4489 -22.3776  -7.0047  -6.4010  -6.1999  -5.0491
    -4.9978  -4.9835  -4.7540  -4.7484   3.0185   5.6041   6.9066   6.9154
     7.3342   7.4390   8.2094   8.2585   8.6911  10.3689

          k = 0.0000-0.5000 0.2378 (  1176 PWs)   bands (ev):

   -45.8021 -22.5014 -22.4477 -22.3768  -6.9573  -6.3391  -6.0907  -5.0144
    -5.0005  -4.9985  -4.7836  -4.6563   2.7772   5.5629   6.5580   6.7734
     7.0929   7.2399   7.9455   8.2801   8.8793   9.8837

          k = 0.0000-0.5000-0.4756 (  1160 PWs)   bands (ev):

   -45.8017 -22.5202 -22.4465 -22.3759  -6.9419  -6.2738  -5.9283  -5.0173
    -4.9991  -4.9725  -4.8288  -4.5663   2.5534   5.3648   6.0230   6.7950
     7.0670   7.2979   7.3972   8.2993   9.2251   9.5719

          k = 0.1667 0.1667 0.0000 (  1163 PWs)   bands (ev):

   -45.8028 -22.4842 -22.3971 -22.3967  -7.3255  -6.4767  -6.2019  -5.0146
    -5.0009  -4.9627  -4.8258  -4.6652   3.4920   6.2556   6.4940   6.7291
     7.6625   7.7919   8.4698   8.5356   8.8236   9.1861

          k = 0.1667 0.1667 0.2378 (  1170 PWs)   bands (ev):

   -45.8026 -22.5034 -22.3961 -22.3959  -7.1675  -6.4550  -6.1332  -5.0154
    -4.9918  -4.9574  -4.8192  -4.6790   3.1419   6.0459   6.1281   6.8488
     7.4953   7.5208   8.2805   8.6795   8.9008   9.3313

          k = 0.1667 0.1667-0.4756 (  1172 PWs)   bands (ev):

   -45.8024 -22.5225 -22.3952 -22.3950  -7.0116  -6.4330  -6.0520  -5.0262
    -4.9714  -4.9357  -4.8256  -4.6969   2.8135   5.8456   5.8630   6.5722
     7.3530   7.4710   8.2126   8.7415   8.9548   9.6814

          k = 0.1667 0.3333 0.0000 (  1167 PWs)   bands (ev):

   -45.8023 -22.4826 -22.4309 -22.3953  -7.0411  -6.4219  -6.2183  -5.0315
    -4.9897  -4.9465  -4.7843  -4.6736   3.0144   5.9562   6.4939   6.8255
     7.1515   7.7110   8.0376   8.6534   8.8206   9.6821

          k = 0.1667 0.3333 0.2378 (  1165 PWs)   bands (ev):

   -45.8020 -22.5016 -22.4299 -22.3945  -6.9331  -6.4133  -6.1353  -5.0104
    -4.9873  -4.9285  -4.7701  -4.6363   2.9011   5.7845   5.9473   6.4658
     6.9020   7.5634   8.3356   8.6187   8.9566   9.4315

          k = 0.1667 0.3333-0.4756 (  1168 PWs)   bands (ev):

   -45.8018 -22.5205 -22.4289 -22.3936  -6.8568  -6.3950  -6.0169  -5.0104
    -4.9639  -4.8936  -4.7782  -4.5929   2.7477   5.4474   5.8468   6.2176
     6.4021   7.4181   8.4422   8.6614   8.9678   9.3890

          k = 0.1667-0.5000 0.0000 (  1170 PWs)   bands (ev):

   -45.8022 -22.4817 -22.4479 -22.3946  -6.8845  -6.3787  -6.2528  -5.0327
    -4.9819  -4.9283  -4.7315  -4.7288   2.8238   5.6221   6.6253   6.8152
     7.1835   7.4578   7.8447   8.7056   8.7980  10.0012

          k = 0.1667-0.5000 0.2378 (  1168 PWs)   bands (ev):

   -45.8018 -22.5006 -22.4468 -22.3937  -6.8325  -6.3504  -6.1568  -5.0086
    -4.9748  -4.9128  -4.7356  -4.6345   2.7906   5.5716   5.8497   6.2359
     6.8507   7.6973   8.1255   8.6169   8.9688   9.4004

          k = 0.1667-0.5000-0.4756 (  1176 PWs)   bands (ev):

   -45.8016 -22.5194 -22.4457 -22.3928  -6.8216  -6.3231  -6.0021  -5.0056
    -4.9366  -4.8961  -4.7477  -4.5447   2.7189   5.3310   5.6814   5.8696
     6.3006   7.5286   8.3235   8.5842   8.6421   9.5834

          k = 0.3333 0.3333 0.0000 (  1163 PWs)   bands (ev):

   -45.8017 -22.4810 -22.4292 -22.4290  -6.7848  -6.3732  -6.2853  -5.0121
    -4.9682  -4.8706  -4.7142  -4.6736   2.6174   5.9095   6.0853   6.9031
     7.0777   7.2015   7.8778   8.4910   9.2986   9.4308

          k = 0.3333 0.3333 0.2378 (  1164 PWs)   bands (ev):

   -45.8014 -22.4999 -22.4283 -22.4281  -6.6814  -6.4119  -6.2193  -4.9754
    -4.9640  -4.8280  -4.6693  -4.6062   2.7989   5.5584   5.6404   5.9076
     6.6226   7.0723   8.4192   8.9290   8.9682   9.3168

          k = 0.3333 0.3333-0.4756 (  1180 PWs)   bands (ev):

   -45.8013 -22.5187 -22.4273 -22.4272  -6.6315  -6.4483  -6.0888  -4.9592
    -4.9397  -4.7808  -4.6234  -4.5409   2.9714   5.1594   5.1961   5.6776
     6.3570   6.5359   7.7538   9.2690   9.2815   9.4587

          k = 0.3333-0.5000 0.0000 (  1158 PWs)   bands (ev):

   -45.8014 -22.4800 -22.4460 -22.4282  -6.6549  -6.3396  -6.3249  -5.0044
    -4.9458  -4.7998  -4.7156  -4.6767   2.4332   5.5953   6.1221   6.7430
     7.2523   7.3867   7.4769   8.4788   9.1351   9.4938

          k = 0.3333-0.5000 0.2378 (  1156 PWs)   bands (ev):

   -45.8011 -22.4989 -22.4450 -22.4273  -6.5703  -6.3768  -6.2751  -4.9678
    -4.9376  -4.7492  -4.6452  -4.5944   2.7158   5.4830   5.5520   5.6682
     6.3957   7.1442   7.9951   8.9367   8.9464   9.4695

          k = 0.3333-0.5000-0.4756 (  1164 PWs)   bands (ev):

   -45.8009 -22.5177 -22.4440 -22.4264  -6.5767  -6.4120  -6.1204  -4.9427
    -4.9187  -4.7077  -4.5744  -4.5014   3.0722   4.9251   5.1215   5.4521
     6.1444   6.5397   7.0335   9.3770   9.4403   9.6137

          k =-0.5000-0.5000 0.0000 (  1188 PWs)   bands (ev):

   -45.8014 -22.4791 -22.4451 -22.4451  -6.5690  -6.3231  -6.3231  -4.9947
    -4.9054  -4.7201  -4.7201  -4.6673   2.2400   5.4358   5.9836   6.9716
     6.9716   7.4800   7.4800   8.2459   8.6651   9.7378

          k =-0.5000-0.5000 0.2378 (  1152 PWs)   bands (ev):

   -45.8008 -22.4979 -22.4441 -22.4441  -6.3914  -6.3914  -6.3729  -4.9568
    -4.9035  -4.6412  -4.6014  -4.6014   2.6214   5.3962   5.6150   5.6150
     5.9936   7.0835   7.3843   8.9627   8.9627   9.7293

          k =-0.5000-0.5000-0.4756 (  1152 PWs)   bands (ev):

   -45.8006 -22.5167 -22.4432 -22.4432  -6.4526  -6.4526  -6.1705  -4.9189
    -4.9017  -4.6067  -4.4882  -4.4882   3.2021   4.9923   4.9923   5.2879
     6.0023   6.1123   6.2336   9.6298   9.6298   9.7177

     highest occupied level (ev):    10.3689

!    total energy              =    -380.54279623 Ry
     estimated scf accuracy    <          9.8E-12 Ry

     The total energy is the sum of the following terms:
     one-electron contribution =     -85.60929313 Ry
     hartree contribution      =      71.93727796 Ry
     xc contribution           =    -102.57386273 Ry
     ewald contribution        =    -264.29691833 Ry

     convergence has been achieved in   8 iterations

     negative rho (up, down):  1.621E-02 0.000E+00

     Forces acting on atoms (cartesian axes, Ry/au):

     atom    1 type  1   force =     0.00000000    0.00000000    0.00024747
     atom    2 type  2   force =     0.00000000    0.00000000   -0.00119915
     atom    3 type  3   force =     0.00000000    0.00000000    0.00003655
     atom    4 type  3   force =     0.00000000    0.00000000    0.00045757
     atom    5 type  3   force =     0.00000000    0.00000000    0.00045757

     Total force =     0.001385     Total SCF correction =     0.000012


     Computing stress (Cartesian axis) and pressure


     negative rho (up, down):  1.621E-02 0.000E+00
          total   stress  (Ry/bohr**3)                   (kbar)     P=     -118.54
  -0.00084362   0.00000000   0.00000000         -124.10        0.00        0.00
   0.00000000  -0.00084362   0.00000000            0.00     -124.10        0.00
   0.00000000   0.00000000  -0.00073022            0.00        0.00     -107.42

     Energy error            =      2.7E-06 Ry
     Gradient error          =      1.2E-03 Ry/Bohr

     number of scf cycles    =   8
     number of bfgs steps    =   7

     energy             old  =    -380.5427934937 Ry
     energy             new  =    -380.5427962324 Ry

     CASE: energy            _new < energy            _old

     new trust radius        =       0.0018432238 bohr
     new conv_thr            =            1.0E-10 Ry


ATOMIC_POSITIONS (crystal)
Pb               0.0000000000        0.0000000000        0.9938305862
Ti               0.5000000000        0.5000000000        0.5381293711
O                0.5000000000        0.5000000000        0.1063421403
O                0.5000000000        0.0000000000        0.6144910951
O                0.0000000000        0.5000000000        0.6144910951



     Writing config-only to output data dir ./pto_30.save/ :
     XML data file
     NEW-OLD atomic charge density approx. for the potential

     Check: negative core charge=   -0.000007

     negative rho (up, down):  1.624E-02 0.000E+00

     total cpu time spent up to now is       63.6 secs

     Self-consistent Calculation

     iteration #  1     ecut=    30.00 Ry     beta= 0.70
     CG style diagonalization
     ethr =  1.00E-06,  avg # of iterations =  2.9

     Threshold (ethr) on eigenvalues was too large:
     Diagonalizing with lowered threshold

     CG style diagonalization
     c_bands:  1 eigenvalues not converged
     c_bands:  2 eigenvalues not converged
     c_bands:  1 eigenvalues not converged
     c_bands:  1 eigenvalues not converged
     c_bands:  2 eigenvalues not converged
     c_bands:  3 eigenvalues not converged
     c_bands:  1 eigenvalues not converged
     c_bands:  1 eigenvalues not converged
     ethr =  1.45E-09,  avg # of iterations =  7.4

     negative rho (up, down):  1.624E-02 0.000E+00

     total cpu time spent up to now is       65.3 secs

     total energy              =    -380.54279968 Ry
     estimated scf accuracy    <       0.00000075 Ry

     iteration #  2     ecut=    30.00 Ry     beta= 0.70
     CG style diagonalization
     ethr =  1.69E-09,  avg # of iterations =  4.4

     negative rho (up, down):  1.624E-02 0.000E+00

     total cpu time spent up to now is       65.9 secs

     total energy              =    -380.54279956 Ry
     estimated scf accuracy    <       0.00000214 Ry

     iteration #  3     ecut=    30.00 Ry     beta= 0.70
     CG style diagonalization
     ethr =  1.69E-09,  avg # of iterations =  4.0

     negative rho (up, down):  1.624E-02 0.000E+00

     total cpu time spent up to now is       66.5 secs

     total energy              =    -380.54279942 Ry
     estimated scf accuracy    <       0.00000010 Ry

     iteration #  4     ecut=    30.00 Ry     beta= 0.70
     CG style diagonalization
     ethr =  2.17E-10,  avg # of iterations =  3.7

     negative rho (up, down):  1.624E-02 0.000E+00

     total cpu time spent up to now is       67.0 secs

     total energy              =    -380.54279944 Ry
     estimated scf accuracy    <          9.4E-09 Ry

     iteration #  5     ecut=    30.00 Ry     beta= 0.70
     CG style diagonalization
     ethr =  2.13E-11,  avg # of iterations =  4.5

     negative rho (up, down):  1.624E-02 0.000E+00

     total cpu time spent up to now is       67.7 secs

     total energy              =    -380.54279944 Ry
     estimated scf accuracy    <          2.5E-09 Ry

     iteration #  6     ecut=    30.00 Ry     beta= 0.70
     CG style diagonalization
     ethr =  5.78E-12,  avg # of iterations =  4.2

     negative rho (up, down):  1.624E-02 0.000E+00

     total cpu time spent up to now is       68.3 secs

     total energy              =    -380.54279945 Ry
     estimated scf accuracy    <          6.3E-10 Ry

     iteration #  7     ecut=    30.00 Ry     beta= 0.70
     CG style diagonalization
     ethr =  1.44E-12,  avg # of iterations =  4.4

     negative rho (up, down):  1.624E-02 0.000E+00

     total cpu time spent up to now is       69.0 secs

     total energy              =    -380.54279945 Ry
     estimated scf accuracy    <          1.3E-10 Ry

     iteration #  8     ecut=    30.00 Ry     beta= 0.70
     CG style diagonalization
     ethr =  2.94E-13,  avg # of iterations =  4.7

     negative rho (up, down):  1.624E-02 0.000E+00

     total cpu time spent up to now is       69.7 secs

     End of self-consistent calculation

          k = 0.0000 0.0000 0.0000 (  1189 PWs)   bands (ev):

   -45.8039 -22.4861 -22.3805 -22.3805  -7.5913  -6.5282  -6.2209  -4.9885
    -4.9885  -4.9463  -4.8646  -4.6842   4.2142   6.2503   6.2503   6.8003
     8.1203   8.1203   8.4460   8.6287   8.8670   8.8670

          k = 0.0000 0.0000 0.2378 (  1162 PWs)   bands (ev):

   -45.8032 -22.5056 -22.3797 -22.3797  -7.4057  -6.4765  -6.1610  -5.0035
    -5.0035  -4.9450  -4.8504  -4.7477   3.4648   6.2950   6.2950   6.8744
     7.9212   7.9212   8.3696   8.7853   8.9695   8.9695

          k = 0.0000 0.0000-0.4756 (  1174 PWs)   bands (ev):

   -45.8032 -22.5249 -22.3789 -22.3789  -7.2061  -6.4209  -6.1061  -5.0184
    -5.0184  -4.9438  -4.8369  -4.8153   2.9578   6.2128   6.3096   6.3096
     7.7939   7.7939   8.2841   9.0346   9.0346   9.9905

          k = 0.0000 0.1667 0.0000 (  1175 PWs)   bands (ev):

   -45.8035 -22.4854 -22.3977 -22.3798  -7.4574  -6.5026  -6.2021  -5.0098
    -4.9870  -4.9590  -4.8545  -4.6737   3.7957   6.3116   6.3586   6.7341
     8.1369   8.1445   8.4253   8.5032   8.5711   8.9709

          k = 0.0000 0.1667 0.2378 (  1178 PWs)   bands (ev):

   -45.8033 -22.5047 -22.3968 -22.3790  -7.2876  -6.4643  -6.1357  -5.0030
    -5.0025  -4.9582  -4.8501  -4.7075   3.2600   6.0921   6.4092   6.9266
     7.6083   7.9044   8.2151   8.6224   8.6491   9.3530

          k = 0.0000 0.1667-0.4756 (  1160 PWs)   bands (ev):

   -45.8028 -22.5239 -22.3959 -22.3781  -7.1134  -6.4216  -6.0656  -5.0179
    -4.9939  -4.9574  -4.8506  -4.7411   2.8413   5.8044   6.4333   6.5858
     7.4459   7.7901   8.2529   8.6801   8.7280   9.9618

          k = 0.0000 0.3333 0.0000 (  1169 PWs)   bands (ev):

   -45.8028 -22.4838 -22.4318 -22.3784  -7.1659  -6.4468  -6.1824  -5.0377
    -4.9847  -4.9836  -4.8214  -4.6843   3.2261   5.9467   6.6462   6.6740
     7.8099   7.8382   8.2246   8.2879   8.6608   9.6366

          k = 0.0000 0.3333 0.2378 (  1169 PWs)   bands (ev):

   -45.8025 -22.5029 -22.4307 -22.3775  -7.0575  -6.4109  -6.0917  -5.0045
    -5.0006  -4.9844  -4.8239  -4.6566   2.9164   5.8136   6.5464   6.7197
     7.2444   7.6680   7.8431   8.3128   8.8668   9.7039

          k = 0.0000 0.3333-0.4756 (  1164 PWs)   bands (ev):

   -45.8023 -22.5218 -22.4296 -22.3767  -6.9759  -6.3573  -5.9732  -5.0169
    -4.9846  -4.9623  -4.8548  -4.6155   2.6352   5.4937   6.3348   6.7434
     7.1116   7.3574   7.6236   8.3600   9.2554   9.5737

          k = 0.0000-0.5000 0.0000 (  1168 PWs)   bands (ev):

   -45.8026 -22.4829 -22.4488 -22.3776  -7.0048  -6.4014  -6.2000  -5.0481
    -4.9968  -4.9826  -4.7528  -4.7473   3.0186   5.6068   6.9076   6.9185
     7.3350   7.4373   8.2082   8.2554   8.6895  10.3688

          k = 0.0000-0.5000 0.2378 (  1176 PWs)   bands (ev):

   -45.8024 -22.5018 -22.4477 -22.3768  -6.9570  -6.3396  -6.0914  -5.0134
    -4.9996  -4.9974  -4.7825  -4.6551   2.7776   5.5648   6.5590   6.7748
     7.0939   7.2360   7.9451   8.2804   8.8796   9.8835

          k = 0.0000-0.5000-0.4756 (  1160 PWs)   bands (ev):

   -45.8019 -22.5206 -22.4465 -22.3759  -6.9412  -6.2744  -5.9293  -5.0164
    -4.9980  -4.9715  -4.8277  -4.5650   2.5542   5.3643   6.0262   6.7955
     7.0621   7.2990   7.3972   8.3018   9.2265   9.5712

          k = 0.1667 0.1667 0.0000 (  1163 PWs)   bands (ev):

   -45.8030 -22.4846 -22.3971 -22.3967  -7.3259  -6.4761  -6.2020  -5.0136
    -5.0000  -4.9616  -4.8249  -4.6637   3.4927   6.2547   6.4946   6.7277
     7.6611   7.7919   8.4693   8.5345   8.8250   9.1848

          k = 0.1667 0.1667 0.2378 (  1170 PWs)   bands (ev):

   -45.8028 -22.5038 -22.3961 -22.3959  -7.1676  -6.4544  -6.1335  -5.0144
    -4.9908  -4.9564  -4.8182  -4.6775   3.1425   6.0438   6.1275   6.8476
     7.4956   7.5224   8.2799   8.6785   8.9009   9.3327

          k = 0.1667 0.1667-0.4756 (  1172 PWs)   bands (ev):

   -45.8026 -22.5229 -22.3952 -22.3950  -7.0115  -6.4325  -6.0527  -5.0252
    -4.9704  -4.9347  -4.8247  -4.6954   2.8140   5.8428   5.8610   6.5733
     7.3515   7.4742   8.2131   8.7409   8.9541   9.6836

          k = 0.1667 0.3333 0.0000 (  1167 PWs)   bands (ev):

   -45.8025 -22.4830 -22.4309 -22.3953  -7.0416  -6.4218  -6.2185  -5.0305
    -4.9887  -4.9455  -4.7833  -4.6722   3.0147   5.9574   6.4928   6.8273
     7.1512   7.7101   8.0394   8.6524   8.8206   9.6816

          k = 0.1667 0.3333 0.2378 (  1165 PWs)   bands (ev):

   -45.8022 -22.5020 -22.4299 -22.3945  -6.9333  -6.4133  -6.1357  -5.0094
    -4.9863  -4.9274  -4.7691  -4.6350   2.9015   5.7846   5.9474   6.4651
     6.9029   7.5652   8.3365   8.6179   8.9561   9.4317

          k = 0.1667 0.3333-0.4756 (  1168 PWs)   bands (ev):

   -45.8020 -22.5209 -22.4288 -22.3936  -6.8565  -6.3951  -6.0177  -5.0094
    -4.9629  -4.8926  -4.7772  -4.5915   2.7482   5.4460   5.8465   6.2170
     6.4045   7.4201   8.4420   8.6616   8.9687   9.3884

          k = 0.1667-0.5000 0.0000 (  1170 PWs)   bands (ev):

   -45.8024 -22.4821 -22.4479 -22.3946  -6.8849  -6.3791  -6.2530  -5.0317
    -4.9809  -4.9272  -4.7304  -4.7275   2.8240   5.6248   6.6254   6.8139
     7.1866   7.4594   7.8428   8.7049   8.7974  10.0014

          k = 0.1667-0.5000 0.2378 (  1168 PWs)   bands (ev):

   -45.8020 -22.5010 -22.4468 -22.3937  -6.8324  -6.3509  -6.1574  -5.0077
    -4.9738  -4.9118  -4.7345  -4.6332   2.7910   5.5734   5.8507   6.2352
     6.8504   7.6994   8.1273   8.6153   8.9692   9.3996

          k = 0.1667-0.5000-0.4756 (  1176 PWs)   bands (ev):

   -45.8018 -22.5198 -22.4457 -22.3928  -6.8212  -6.3236  -6.0031  -5.0046
    -4.9356  -4.8952  -4.7466  -4.5434   2.7196   5.3304   5.6821   5.8710
     6.3005   7.5312   8.3248   8.5830   8.6428   9.5825

          k = 0.3333 0.3333 0.0000 (  1163 PWs)   bands (ev):

   -45.8019 -22.4814 -22.4292 -22.4290  -6.7857  -6.3734  -6.2856  -5.0111
    -4.9672  -4.8695  -4.7132  -4.6722   2.6177   5.9101   6.0871   6.9021
     7.0799   7.2002   7.8807   8.4922   9.2986   9.4309

          k = 0.3333 0.3333 0.2378 (  1164 PWs)   bands (ev):

   -45.8017 -22.5003 -22.4283 -22.4281  -6.6819  -6.4120  -6.2198  -4.9744
    -4.9630  -4.8269  -4.6682  -4.6049   2.7992   5.5587   5.6402   5.9079
     6.6261   7.0735   8.4213   8.9289   8.9670   9.3168

          k = 0.3333 0.3333-0.4756 (  1180 PWs)   bands (ev):

   -45.8016 -22.5191 -22.4273 -22.4272  -6.6317  -6.4484  -6.0896  -4.9583
    -4.9388  -4.7798  -4.6223  -4.5396   2.9718   5.1601   5.1958   5.6759
     6.3597   6.5400   7.7556   9.2678   9.2817   9.4575

          k = 0.3333-0.5000 0.0000 (  1158 PWs)   bands (ev):

   -45.8016 -22.4804 -22.4460 -22.4282  -6.6558  -6.3401  -6.3251  -5.0035
    -4.9447  -4.7986  -4.7144  -4.6755   2.4334   5.5974   6.1242   6.7416
     7.2502   7.3899   7.4796   8.4798   9.1358   9.4941

          k = 0.3333-0.5000 0.2378 (  1156 PWs)   bands (ev):

   -45.8013 -22.4993 -22.4450 -22.4273  -6.5707  -6.3773  -6.2757  -4.9668
    -4.9366  -4.7482  -4.6440  -4.5932   2.7160   5.4838   5.5532   5.6684
     6.3988   7.1456   7.9968   8.9362   8.9458   9.4696

          k = 0.3333-0.5000-0.4756 (  1164 PWs)   bands (ev):

   -45.8011 -22.5181 -22.4440 -22.4264  -6.5768  -6.4124  -6.1212  -4.9417
    -4.9177  -4.7068  -4.5733  -4.5003   3.0725   4.9260   5.1216   5.4516
     6.1472   6.5436   7.0347   9.3756   9.4406   9.6127

          k =-0.5000-0.5000 0.0000 (  1188 PWs)   bands (ev):

   -45.8017 -22.4795 -22.4450 -22.4450  -6.5700  -6.3237  -6.3237  -4.9938
    -4.9044  -4.7188  -4.7188  -4.6663   2.2402   5.4376   5.9878   6.9691
     6.9691   7.4833   7.4833   8.2466   8.6671   9.7381

          k =-0.5000-0.5000 0.2378 (  1152 PWs)   bands (ev):

   -45.8010 -22.4983 -22.4441 -22.4441  -6.3918  -6.3918  -6.3738  -4.9558
    -4.9025  -4.6402  -4.6003  -4.6003   2.6216   5.3975   5.6156   5.6156
     5.9979   7.0846   7.3858   8.9625   8.9625   9.7296

          k =-0.5000-0.5000-0.4756 (  1152 PWs)   bands (ev):

   -45.8008 -22.5171 -22.4431 -22.4431  -6.4529  -6.4529  -6.1713  -4.9179
    -4.9007  -4.6058  -4.4872  -4.4872   3.2021   4.9933   4.9933   5.2877
     6.0065   6.1136   6.2361   9.6289   9.6289   9.7180

     highest occupied level (ev):    10.3688

!    total energy              =    -380.54279945 Ry
     estimated scf accuracy    <          3.9E-12 Ry

     The total energy is the sum of the following terms:
     one-electron contribution =     -85.59983521 Ry
     hartree contribution      =      71.93292196 Ry
     xc contribution           =    -102.57375591 Ry
     ewald contribution        =    -264.30213028 Ry

     convergence has been achieved in   8 iterations

     negative rho (up, down):  1.624E-02 0.000E+00

     Forces acting on atoms (cartesian axes, Ry/au):

     atom    1 type  1   force =     0.00000000    0.00000000    0.00009341
     atom    2 type  2   force =     0.00000000    0.00000000   -0.00070212
     atom    3 type  3   force =     0.00000000    0.00000000    0.00037630
     atom    4 type  3   force =     0.00000000    0.00000000    0.00011620
     atom    5 type  3   force =     0.00000000    0.00000000    0.00011620

     Total force =     0.000819     Total SCF correction =     0.000008


     Computing stress (Cartesian axis) and pressure


     negative rho (up, down):  1.624E-02 0.000E+00
          total   stress  (Ry/bohr**3)                   (kbar)     P=     -118.65
  -0.00084509   0.00000000   0.00000000         -124.32        0.00        0.00
   0.00000000  -0.00084509   0.00000000            0.00     -124.32        0.00
   0.00000000   0.00000000  -0.00072962            0.00        0.00     -107.33

     Energy error            =      3.2E-06 Ry
     Gradient error          =      7.0E-04 Ry/Bohr

     bfgs converged in   9 scf cycles and   8 bfgs steps
     (criteria: energy <  1.0E-04 Ry, force <  1.0E-03 Ry/Bohr)

     End of BFGS Geometry Optimization

     Final energy             =    -380.5427994457 Ry

     File ./pto_30.bfgs deleted, as requested
Begin final coordinates

ATOMIC_POSITIONS (crystal)
Pb               0.0000000000        0.0000000000        0.9938305862
Ti               0.5000000000        0.5000000000        0.5381293711
O                0.5000000000        0.5000000000        0.1063421403
O                0.5000000000        0.0000000000        0.6144910951
O                0.0000000000        0.5000000000        0.6144910951
End final coordinates



     Writing all to output data dir ./pto_30.save/ :
     XML data file, charge density, pseudopotentials, collected wavefunctions
 
     init_run     :      0.24s CPU      0.31s WALL (       1 calls)
     electrons    :     59.97s CPU     64.38s WALL (       9 calls)
     update_pot   :      0.02s CPU      0.02s WALL (       8 calls)
     forces       :      0.50s CPU      0.51s WALL (       9 calls)
     stress       :      4.36s CPU      4.38s WALL (       9 calls)

     Called by init_run:
     wfcinit      :      0.12s CPU      0.14s WALL (       1 calls)
     potinit      :      0.01s CPU      0.01s WALL (       1 calls)
     hinit0       :      0.08s CPU      0.11s WALL (       1 calls)

     Called by electrons:
     c_bands      :     52.97s CPU     57.00s WALL (      91 calls)
     sum_band     :      5.14s CPU      5.30s WALL (      91 calls)
     v_of_rho     :      0.10s CPU      0.10s WALL (      95 calls)
     newd         :      1.82s CPU      1.91s WALL (      95 calls)
     mix_rho      :      0.07s CPU      0.08s WALL (      91 calls)

     Called by c_bands:
     init_us_2    :      0.31s CPU      0.33s WALL (    6030 calls)
     init_us_2:cp :      0.30s CPU      0.32s WALL (    6030 calls)
     ccgdiagg     :     48.01s CPU     51.74s WALL (    2730 calls)
     wfcrot       :      4.78s CPU      5.08s WALL (    2340 calls)

     Called by *cgdiagg:
     h_psi        :     28.28s CPU     30.41s WALL (  231822 calls)
     s_psi        :      4.03s CPU      4.36s WALL (  461304 calls)

     Called by h_psi:
     h_psi:calbec :      4.60s CPU      4.95s WALL (  231822 calls)
     vloc_psi     :     19.76s CPU     21.24s WALL (  231822 calls)
     add_vuspsi   :      2.18s CPU      2.36s WALL (  231822 calls)
     hs_1psi      :     27.90s CPU     30.05s WALL (  229482 calls)
     s_1psi       :      7.01s CPU      7.54s WALL (  229482 calls)

     General routines
     calbec       :      8.23s CPU      8.87s WALL (  465384 calls)
     fft          :      0.12s CPU      0.14s WALL (     637 calls)
     ffts         :      0.01s CPU      0.01s WALL (     186 calls)
     fftw         :     17.76s CPU     19.03s WALL (  622524 calls)
     interpolate  :      0.02s CPU      0.02s WALL (      95 calls)
 
     Parallel routines
 
     PWSCF        :   1m 5.51s CPU   1m10.52s WALL

 
   This run was terminated on:   0:18:30  13Nov2025            

=------------------------------------------------------------------------------=
   JOB DONE.
=------------------------------------------------------------------------------=
TACC:  Shutdown complete. Exiting. 
