TACC:  Starting up job 2475479 
TACC:  Starting parallel tasks... 

     Program PWSCF v.7.3 starts on 17Oct2025 at 23:15:14 

     This program is part of the open-source Quantum ESPRESSO suite
     for quantum simulation of materials; please cite
         "P. Giannozzi et al., J. Phys.:Condens. Matter 21 395502 (2009);
         "P. Giannozzi et al., J. Phys.:Condens. Matter 29 465901 (2017);
         "P. Giannozzi et al., J. Chem. Phys. 152 154105 (2020);
          URL http://www.quantum-espresso.org", 
     in publications or presentations arising from this work. More details at
     http://www.quantum-espresso.org/quote

     Parallel version (MPI & OpenMP), running on      10 processor cores
     Number of MPI processes:                10
     Threads/MPI process:                     1

     MPI processes distributed on     1 nodes
     185729 MiB available memory on the printing compute node when the environment starts
 
     Waiting for input...
     Reading input from standard input
Warning: card &CELL ignored
Warning: card  CELL_DYNAMICS = 'BFGS', ignored
Warning: card  PRESS=0.D0, ignored
Warning: card / ignored

     Current dimensions of program PWSCF are:
     Max number of different atomic species (ntypx) = 10
     Max number of k-points (npk) =  40000
     Max angular momentum in pseudopotentials (lmaxx) =  4
 
     R & G space division:  proc/nbgrp/npool/nimage =      10
     Subspace diagonalization in iterative solution of the eigenvalue problem:
     a serial algorithm will be used

 
     Parallelization info
     --------------------
     sticks:   dense  smooth     PW     G-vecs:    dense   smooth      PW
     Min         106      28      9                 2326      313      64
     Max         107      29     10                 2330      316      66
     Sum        1069     283     97                23289     3143     645
 
     Using Slab Decomposition
 


     bravais-lattice index     =            2
     lattice parameter (alat)  =      10.2000  a.u.
     unit-cell volume          =     265.3020 (a.u.)^3
     number of atoms/cell      =            2
     number of atomic types    =            1
     number of electrons       =         8.00
     number of Kohn-Sham states=            8
     kinetic-energy cutoff     =      20.0000  Ry
     charge density cutoff     =     300.0000  Ry
     scf convergence threshold =      1.0E-08
     mixing beta               =       0.7000
     number of iterations used =            8  plain     mixing
     Exchange-correlation= SLA  PZ   NOGX NOGC
                           (   1   1   0   0   0   0   0)

     celldm(1)=  10.200000  celldm(2)=   0.000000  celldm(3)=   0.000000
     celldm(4)=   0.000000  celldm(5)=   0.000000  celldm(6)=   0.000000

     crystal axes: (cart. coord. in units of alat)
               a(1) = (  -0.500000   0.000000   0.500000 )  
               a(2) = (   0.000000   0.500000   0.500000 )  
               a(3) = (  -0.500000   0.500000   0.000000 )  

     reciprocal axes: (cart. coord. in units 2 pi/alat)
               b(1) = ( -1.000000 -1.000000  1.000000 )  
               b(2) = (  1.000000  1.000000  1.000000 )  
               b(3) = ( -1.000000  1.000000 -1.000000 )  


     PseudoPot. # 1 for Si read from file:
     /scratch/11018/zhc/Assisgnment2/Q1/1A/band_cal/Si_LDA.UPF
     MD5 check sum: b5ade7b37ee992b02096e360e546dc2d
     Pseudo is Ultrasoft + core correction, Zval =  4.0
     Generated by new atomic code, or converted to UPF format
     Using radial grid of  899 points,  6 beta functions with: 
                l(1) =   0
                l(2) =   0
                l(3) =   1
                l(4) =   1
                l(5) =   2
                l(6) =   2
     Q(r) pseudized with  8 coefficients,  rinner =    0.900   0.900   0.900
                                                       0.900   0.900

     atomic species   valence    mass     pseudopotential
     Si                4.00    28.08550     Si( 1.00)

     48 Sym. Ops., with inversion, found (24 have fractional translation)



   Cartesian axes

     site n.     atom                  positions (alat units)
         1        Si     tau(   1) = (   0.0000000   0.0000000   0.0000000  )
         2        Si     tau(   2) = (  -0.2500000   0.2500000   0.2500000  )

     number of k points=    72
                       cart. coord. in units 2pi/alat
        k(    1) = (   0.0000000   0.0000000   0.0000000), wk =   0.0011574
        k(    2) = (  -0.0833333   0.0833333  -0.0833333), wk =   0.0092593
        k(    3) = (  -0.1666667   0.1666667  -0.1666667), wk =   0.0092593
        k(    4) = (  -0.2500000   0.2500000  -0.2500000), wk =   0.0092593
        k(    5) = (  -0.3333333   0.3333333  -0.3333333), wk =   0.0092593
        k(    6) = (  -0.4166667   0.4166667  -0.4166667), wk =   0.0092593
        k(    7) = (   0.5000000  -0.5000000   0.5000000), wk =   0.0046296
        k(    8) = (   0.0000000   0.1666667   0.0000000), wk =   0.0069444
        k(    9) = (  -0.0833333   0.2500000  -0.0833333), wk =   0.0277778
        k(   10) = (  -0.1666667   0.3333333  -0.1666667), wk =   0.0277778
        k(   11) = (  -0.2500000   0.4166667  -0.2500000), wk =   0.0277778
        k(   12) = (  -0.3333333   0.5000000  -0.3333333), wk =   0.0277778
        k(   13) = (   0.5833333  -0.4166667   0.5833333), wk =   0.0277778
        k(   14) = (   0.5000000  -0.3333333   0.5000000), wk =   0.0277778
        k(   15) = (   0.4166667  -0.2500000   0.4166667), wk =   0.0277778
        k(   16) = (   0.3333333  -0.1666667   0.3333333), wk =   0.0277778
        k(   17) = (   0.2500000  -0.0833333   0.2500000), wk =   0.0277778
        k(   18) = (   0.1666667  -0.0000000   0.1666667), wk =   0.0138889
        k(   19) = (   0.0000000   0.3333333   0.0000000), wk =   0.0069444
        k(   20) = (  -0.0833333   0.4166667  -0.0833333), wk =   0.0277778
        k(   21) = (  -0.1666667   0.5000000  -0.1666667), wk =   0.0277778
        k(   22) = (  -0.2500000   0.5833333  -0.2500000), wk =   0.0277778
        k(   23) = (   0.6666667  -0.3333333   0.6666667), wk =   0.0277778
        k(   24) = (   0.5833333  -0.2500000   0.5833333), wk =   0.0277778
        k(   25) = (   0.5000000  -0.1666667   0.5000000), wk =   0.0277778
        k(   26) = (   0.4166667  -0.0833333   0.4166667), wk =   0.0277778
        k(   27) = (   0.3333333   0.0000000   0.3333333), wk =   0.0138889
        k(   28) = (   0.0000000   0.5000000   0.0000000), wk =   0.0069444
        k(   29) = (  -0.0833333   0.5833333  -0.0833333), wk =   0.0277778
        k(   30) = (  -0.1666667   0.6666667  -0.1666667), wk =   0.0277778
        k(   31) = (   0.7500000  -0.2500000   0.7500000), wk =   0.0277778
        k(   32) = (   0.6666667  -0.1666667   0.6666667), wk =   0.0277778
        k(   33) = (   0.5833333  -0.0833333   0.5833333), wk =   0.0277778
        k(   34) = (   0.5000000   0.0000000   0.5000000), wk =   0.0138889
        k(   35) = (   0.0000000   0.6666667   0.0000000), wk =   0.0069444
        k(   36) = (  -0.0833333   0.7500000  -0.0833333), wk =   0.0277778
        k(   37) = (   0.8333333  -0.1666667   0.8333333), wk =   0.0277778
        k(   38) = (   0.7500000  -0.0833333   0.7500000), wk =   0.0277778
        k(   39) = (   0.6666667  -0.0000000   0.6666667), wk =   0.0138889
        k(   40) = (   0.0000000   0.8333333   0.0000000), wk =   0.0069444
        k(   41) = (   0.9166667  -0.0833333   0.9166667), wk =   0.0277778
        k(   42) = (   0.8333333   0.0000000   0.8333333), wk =   0.0138889
        k(   43) = (   0.0000000  -1.0000000   0.0000000), wk =   0.0034722
        k(   44) = (  -0.1666667   0.3333333   0.0000000), wk =   0.0277778
        k(   45) = (  -0.2500000   0.4166667  -0.0833333), wk =   0.0555556
        k(   46) = (  -0.3333333   0.5000000  -0.1666667), wk =   0.0555556
        k(   47) = (   0.5833333  -0.4166667   0.7500000), wk =   0.0555556
        k(   48) = (   0.5000000  -0.3333333   0.6666667), wk =   0.0277778
        k(   49) = (  -0.1666667   0.5000000   0.0000000), wk =   0.0277778
        k(   50) = (  -0.2500000   0.5833333  -0.0833333), wk =   0.0555556
        k(   51) = (   0.6666667  -0.3333333   0.8333333), wk =   0.0555556
        k(   52) = (   0.5833333  -0.2500000   0.7500000), wk =   0.0555556
        k(   53) = (   0.5000000  -0.1666667   0.6666667), wk =   0.0555556
        k(   54) = (   0.4166667  -0.0833333   0.5833333), wk =   0.0555556
        k(   55) = (   0.3333333   0.0000000   0.5000000), wk =   0.0277778
        k(   56) = (  -0.1666667   0.6666667  -0.0000000), wk =   0.0277778
        k(   57) = (   0.7500000  -0.2500000   0.9166667), wk =   0.0555556
        k(   58) = (   0.6666667  -0.1666667   0.8333333), wk =   0.0555556
        k(   59) = (   0.5833333  -0.0833333   0.7500000), wk =   0.0555556
        k(   60) = (   0.5000000   0.0000000   0.6666667), wk =   0.0277778
        k(   61) = (   0.8333333  -0.1666667   1.0000000), wk =   0.0277778
        k(   62) = (   0.7500000  -0.0833333   0.9166667), wk =   0.0555556
        k(   63) = (   0.6666667   0.0000000   0.8333333), wk =   0.0277778
        k(   64) = (  -0.1666667  -1.0000000  -0.0000000), wk =   0.0138889
        k(   65) = (   0.6666667  -0.3333333   1.0000000), wk =   0.0277778
        k(   66) = (   0.5833333  -0.2500000   0.9166667), wk =   0.0555556
        k(   67) = (   0.5000000  -0.1666667   0.8333333), wk =   0.0277778
        k(   68) = (   0.6666667  -0.1666667   1.0000000), wk =   0.0277778
        k(   69) = (   0.5833333  -0.0833333   0.9166667), wk =   0.0555556
        k(   70) = (   0.5000000   0.0000000   0.8333333), wk =   0.0277778
        k(   71) = (  -0.3333333  -1.0000000   0.0000000), wk =   0.0138889
        k(   72) = (  -0.5000000  -1.0000000   0.0000000), wk =   0.0069444

     Dense  grid:    23289 G-vectors     FFT dimensions: (  40,  40,  40)

     Smooth grid:     3143 G-vectors     FFT dimensions: (  24,  24,  24)

     Estimated max dynamical RAM per process >      10.31 MB

     Estimated total dynamical RAM >     103.08 MB

     Initial potential from superposition of free atoms

     starting charge       7.9988, renormalised to       8.0000
     Starting wfcs are    8 randomized atomic wfcs

     total cpu time spent up to now is        0.3 secs

     Self-consistent Calculation

     iteration #  1     ecut=    20.00 Ry     beta= 0.70
     CG style diagonalization
     ethr =  1.00E-02,  avg # of iterations =  3.6

     Threshold (ethr) on eigenvalues was too large:
     Diagonalizing with lowered threshold

     CG style diagonalization
     ethr =  7.32E-04,  avg # of iterations =  2.0

     total cpu time spent up to now is        0.9 secs

     total energy              =     -19.25618939 Ry
     estimated scf accuracy    <       0.05939777 Ry

     iteration #  2     ecut=    20.00 Ry     beta= 0.70
     CG style diagonalization
     ethr =  7.42E-04,  avg # of iterations =  3.0

     total cpu time spent up to now is        1.2 secs

     total energy              =     -19.25955859 Ry
     estimated scf accuracy    <       0.00169720 Ry

     iteration #  3     ecut=    20.00 Ry     beta= 0.70
     CG style diagonalization
     ethr =  2.12E-05,  avg # of iterations =  3.6

     total cpu time spent up to now is        1.5 secs

     total energy              =     -19.25970541 Ry
     estimated scf accuracy    <       0.00004116 Ry

     iteration #  4     ecut=    20.00 Ry     beta= 0.70
     CG style diagonalization
     ethr =  5.15E-07,  avg # of iterations =  4.2

     total cpu time spent up to now is        1.9 secs

     total energy              =     -19.25973092 Ry
     estimated scf accuracy    <       0.00000009 Ry

     iteration #  5     ecut=    20.00 Ry     beta= 0.70
     CG style diagonalization
     ethr =  1.18E-09,  avg # of iterations =  4.1

     total cpu time spent up to now is        2.3 secs

     End of self-consistent calculation

          k = 0.0000 0.0000 0.0000 (   411 PWs)   bands (ev):

    -5.8896   6.2001   6.2001   6.2001   8.7365   8.7365   8.7365   9.5924

          k =-0.0833 0.0833-0.0833 (   402 PWs)   bands (ev):

    -5.7970   5.3290   6.0532   6.0532   8.7827   8.9523   8.9523  10.2514

          k =-0.1667 0.1667-0.1667 (   387 PWs)   bands (ev):

    -5.5223   3.7870   5.7418   5.7418   8.5187   9.3939   9.3939  11.6656

          k =-0.2500 0.2500-0.2500 (   395 PWs)   bands (ev):

    -5.0766   2.2198   5.4288   5.4288   8.1876   9.6850   9.6850  13.1051

          k =-0.3333 0.3333-0.3333 (   401 PWs)   bands (ev):

    -4.4885   0.7909   5.1863   5.1863   7.9176   9.6745   9.6745  13.9488

          k =-0.4167 0.4167-0.4167 (   404 PWs)   bands (ev):

    -3.8524  -0.3608   5.0372   5.0372   7.7477   9.5528   9.5528  13.8371

          k = 0.5000-0.5000 0.5000 (   392 PWs)   bands (ev):

    -3.5057  -0.8802   4.9875   4.9875   7.6910   9.4954   9.4954  13.7477

          k = 0.0000 0.1667 0.0000 (   399 PWs)   bands (ev):

    -5.7660   5.5060   5.7584   5.7584   8.4449   9.3279   9.3279  10.2326

          k =-0.0833 0.2500-0.0833 (   390 PWs)   bands (ev):

    -5.5515   4.2526   5.3877   5.5861   8.4621   9.4184   9.8731  11.1021

          k =-0.1667 0.3333-0.1667 (   390 PWs)   bands (ev):

    -5.1613   2.7291   5.0710   5.2564   8.5921   9.4026  10.2573  11.5545

          k =-0.2500 0.4167-0.2500 (   399 PWs)   bands (ev):

    -4.6157   1.2703   4.8598   4.8973   8.4502   9.4659  10.2700  12.1241

          k =-0.3333 0.5000-0.3333 (   406 PWs)   bands (ev):

    -3.9763   0.0176   4.5964   4.7709   8.2856   9.4165  10.0632  13.1721

          k = 0.5833-0.4167 0.5833 (   401 PWs)   bands (ev):

    -3.4697  -0.7715   4.3879   4.8046   8.2079   9.4108   9.8563  13.9989

          k = 0.5000-0.3333 0.5000 (   402 PWs)   bands (ev):

    -3.5951  -0.5886   4.2891   4.9515   8.2375   9.5272   9.7435  14.0945

          k = 0.4167-0.2500 0.4167 (   403 PWs)   bands (ev):

    -4.1933   0.4052   4.3143   5.1956   8.3726   9.7163   9.7445  13.6233

          k = 0.3333-0.1667 0.3333 (   396 PWs)   bands (ev):

    -4.8137   1.7423   4.4737   5.5106   8.6028   9.6449   9.9118  12.6832

          k = 0.2500-0.0833 0.2500 (   389 PWs)   bands (ev):

    -5.3108   3.2238   4.7796   5.8450   8.8929   9.3496   9.7090  11.9294

          k = 0.1667-0.0000 0.1667 (   385 PWs)   bands (ev):

    -5.6434   4.5956   5.3108   6.0835   8.9890   9.1249   9.1342  11.0450

          k = 0.0000 0.3333 0.0000 (   399 PWs)   bands (ev):

    -5.3979   4.1577   4.9807   4.9807   7.8304  10.4683  10.5452  10.5452

          k =-0.0833 0.4167-0.0833 (   397 PWs)   bands (ev):

    -5.0654   3.0539   4.6283   4.6416   7.8485  10.0471  10.8636  11.1103

          k =-0.1667 0.5000-0.1667 (   398 PWs)   bands (ev):

    -4.5689   1.7204   4.1659   4.4210   8.0885  10.2265  10.6864  11.2712

          k =-0.2500 0.5833-0.2500 (   400 PWs)   bands (ev):

    -3.9487   0.4622   3.7182   4.3376   8.1284  10.4394  11.0802  11.2007

          k = 0.6667-0.3333 0.6667 (   403 PWs)   bands (ev):

    -3.3493  -0.4941   3.3669   4.3940   8.1613  10.2836  10.7992  12.5889

          k = 0.5833-0.2500 0.5833 (   398 PWs)   bands (ev):

    -3.2303  -0.6591   3.1475   4.5826   8.3146  10.2285  10.5690  14.1491

          k = 0.5000-0.1667 0.5000 (   404 PWs)   bands (ev):

    -3.7450   0.1195   3.0862   4.8840   8.5939  10.2758  10.4048  13.4576

          k = 0.4167-0.0833 0.4167 (   402 PWs)   bands (ev):

    -4.3830   1.2903   3.2273   5.2596   8.9451  10.1839  10.3304  12.2949

          k = 0.3333 0.0000 0.3333 (   397 PWs)   bands (ev):

    -4.9245   2.4512   3.7228   5.6309   9.2233   9.7413  10.0045  11.8269

          k = 0.0000 0.5000 0.0000 (   415 PWs)   bands (ev):

    -4.7911   2.6700   4.2729   4.2729   7.2312   9.2403  11.9660  11.9660

          k =-0.0833 0.5833-0.0833 (   407 PWs)   bands (ev):

    -4.3470   1.7489   3.7930   4.0236   7.3161   8.8786  12.2519  12.4472

          k =-0.1667 0.6667-0.1667 (   402 PWs)   bands (ev):

    -3.7611   0.7025   3.1420   3.9159   7.5290   9.3689  12.1127  12.3972

          k = 0.7500-0.2500 0.7500 (   404 PWs)   bands (ev):

    -3.1225  -0.2444   2.5826   3.9562   7.6137  10.5833  11.9438  12.1129

          k = 0.6667-0.1667 0.6667 (   401 PWs)   bands (ev):

    -2.7871  -0.6724   2.2107   4.1404   7.7984  11.6055  11.8120  12.3623

          k = 0.5833-0.0833 0.5833 (   401 PWs)   bands (ev):

    -3.1738  -0.1645   2.0844   4.4515   8.1353  11.5134  11.5999  13.3553

          k = 0.5000 0.0000 0.5000 (   407 PWs)   bands (ev):

    -3.8101   0.6741   2.3504   4.8519   8.5813  10.9825  11.2887  12.3178

          k = 0.0000 0.6667 0.0000 (   399 PWs)   bands (ev):

    -3.9552   1.1630   3.7382   3.7382   6.8115   8.0725  13.4786  13.4786

          k =-0.0833 0.7500-0.0833 (   405 PWs)   bands (ev):

    -3.4120   0.3676   3.2323   3.5938   6.9743   7.9482  13.8003  13.8455

          k = 0.8333-0.1667 0.8333 (   402 PWs)   bands (ev):

    -2.7702  -0.4114   2.4762   3.6008   7.1428   8.8326  13.6589  13.6857

          k = 0.7500-0.0833 0.7500 (   400 PWs)   bands (ev):

    -2.2864  -0.9144   1.8780   3.7576   7.3229  10.3004  13.3057  13.5112

          k = 0.6667-0.0000 0.6667 (   403 PWs)   bands (ev):

    -2.5631  -0.6260   1.6697   4.0518   7.6603  11.9403  12.6837  13.2781

          k = 0.0000 0.8333 0.0000 (   404 PWs)   bands (ev):

    -2.9099  -0.3067   3.4087   3.4087   6.6441   7.2455  15.0439  15.0439

          k = 0.9167-0.0833 0.9167 (   405 PWs)   bands (ev):

    -2.2861  -1.0033   2.9557   3.3747   6.8444   7.4284  15.2918  15.3871

          k = 0.8333 0.0000 0.8333 (   405 PWs)   bands (ev):

    -1.8162  -1.4158   2.2558   3.4939   7.0064   8.6586  14.7453  15.2687

          k = 0.0000-1.0000 0.0000 (   388 PWs)   bands (ev):

    -1.6803  -1.6803   3.2978   3.2978   6.7780   6.7780  16.3317  16.3318

          k =-0.1667 0.3333 0.0000 (   387 PWs)   bands (ev):

    -5.2785   3.4525   4.5226   5.4845   8.4840   9.7483  10.3456  11.0636

          k =-0.2500 0.4167-0.0833 (   392 PWs)   bands (ev):

    -4.8347   2.1923   3.9823   5.2036   8.7673   9.7070  10.7483  11.0330

          k =-0.3333 0.5000-0.1667 (   399 PWs)   bands (ev):

    -4.2486   0.8666   3.7127   4.8689   8.8118   9.5512  10.8044  11.6963

          k = 0.5833-0.4167 0.7500 (   399 PWs)   bands (ev):

    -3.6117  -0.2461   3.5866   4.6169   8.7632   9.3365  10.7194  12.9268

          k = 0.5000-0.3333 0.6667 (   396 PWs)   bands (ev):

    -3.2616  -0.7586   3.5519   4.5230   8.7469   9.2413  10.6726  14.2168

          k =-0.1667 0.5000 0.0000 (   403 PWs)   bands (ev):

    -4.6781   2.2566   3.8140   4.5427   7.9134   9.6506  11.0095  11.8400

          k =-0.2500 0.5833-0.0833 (   404 PWs)   bands (ev):

    -4.1361   1.1897   3.2657   4.2453   8.2465   9.8728  10.7460  12.2235

          k = 0.6667-0.3333 0.8333 (   405 PWs)   bands (ev):

    -3.4972   0.1126   2.9054   4.0284   8.3630  10.3645  10.9745  12.2019

          k = 0.5833-0.2500 0.7500 (   402 PWs)   bands (ev):

    -2.9852  -0.6136   2.6557   4.0100   8.4939  10.0909  12.0865  12.4550

          k = 0.5000-0.1667 0.6667 (   402 PWs)   bands (ev):

    -3.1252  -0.4210   2.5324   4.1873   8.7526   9.8968  12.0069  12.8332

          k = 0.4167-0.0833 0.5833 (   404 PWs)   bands (ev):

    -3.7308   0.4784   2.6020   4.5125   9.1281   9.7541  11.4559  11.9489

          k = 0.3333 0.0000 0.5000 (   400 PWs)   bands (ev):

    -4.3453   1.4752   3.0214   4.9046   9.3660   9.5313  10.8086  11.5253

          k =-0.1667 0.6667-0.0000 (   407 PWs)   bands (ev):

    -3.8548   0.9842   3.2957   3.7376   7.4992   8.5740  12.2637  13.4243

          k = 0.7500-0.2500 0.9167 (   405 PWs)   bands (ev):

    -3.2375   0.1376   2.6884   3.5132   7.8311   9.1247  11.9537  13.7936

          k = 0.6667-0.1667 0.8333 (   401 PWs)   bands (ev):

    -2.6330  -0.5928   2.1519   3.5216   7.9844  10.4361  11.6554  13.7262

          k = 0.5833-0.0833 0.7500 (   397 PWs)   bands (ev):

    -2.5574  -0.6674   1.8538   3.7251   8.2480  11.2138  12.2233  12.9254

          k = 0.5000 0.0000 0.6667 (   401 PWs)   bands (ev):

    -3.1084  -0.0662   1.9413   4.0789   8.6527  10.8080  11.6686  13.0252

          k = 0.8333-0.1667 1.0000 (   406 PWs)   bands (ev):

    -2.8303  -0.3418   3.0074   3.2095   7.3169   7.8216  13.6454  15.0406

          k = 0.7500-0.0833 0.9167 (   402 PWs)   bands (ev):

    -2.1879  -0.9928   2.3520   3.1639   7.6077   8.7568  13.3175  14.8124

          k = 0.6667 0.0000 0.8333 (   405 PWs)   bands (ev):

    -2.0236  -1.1122   1.8354   3.3655   7.8505  10.3065  12.8553  13.2389

          k =-0.1667-1.0000-0.0000 (   406 PWs)   bands (ev):

    -1.6404  -1.6404   2.9720   2.9720   7.4123   7.4123  15.1237  15.1237

          k = 0.6667-0.3333 1.0000 (   407 PWs)   bands (ev):

    -3.5615   0.5173   2.5403   3.8512   8.9905   9.8262  10.4179  13.2702

          k = 0.5833-0.2500 0.9167 (   402 PWs)   bands (ev):

    -2.9233  -0.2656   2.1862   3.5030   9.3576   9.9119  10.9183  13.6989

          k = 0.5000-0.1667 0.8333 (   400 PWs)   bands (ev):

    -2.5519  -0.7070   2.0929   3.3695   9.4714   9.7189  12.2599  12.7101

          k = 0.6667-0.1667 1.0000 (   400 PWs)   bands (ev):

    -2.6090  -0.4860   2.3362   2.9700   8.8086   9.2011  11.5660  14.5134

          k = 0.5833-0.0833 0.9167 (   401 PWs)   bands (ev):

    -2.0730  -1.0004   2.0080   2.8110   9.1477  10.4163  11.2930  12.6797

          k = 0.5000 0.0000 0.8333 (   401 PWs)   bands (ev):

    -2.3080  -0.7687   1.8793   3.0426   9.4525  10.6219  11.1674  12.4254

          k =-0.3333-1.0000 0.0000 (   398 PWs)   bands (ev):

    -1.5528  -1.5528   2.4615   2.4615   8.8679   8.8679  12.9525  12.9525

          k =-0.5000-1.0000 0.0000 (   396 PWs)   bands (ev):

    -1.5052  -1.5052   2.2440   2.2440  10.3910  10.3910  11.1913  11.1913

     highest occupied, lowest unoccupied level (ev):     6.2001    6.6441

!    total energy              =     -19.25973122 Ry
     estimated scf accuracy    <          1.0E-08 Ry

     The total energy is the sum of the following terms:
     one-electron contribution =       5.18410322 Ry
     hartree contribution      =       1.09817294 Ry
     xc contribution           =      -8.64224881 Ry
     ewald contribution        =     -16.89975857 Ry

     convergence has been achieved in   5 iterations

     Forces acting on atoms (cartesian axes, Ry/au):

     atom    1 type  1   force =     0.00000000    0.00000000   -0.00000000
     atom    2 type  1   force =     0.00000000    0.00000000    0.00000000

     Total force =     0.000000     Total SCF correction =     0.000000


     Computing stress (Cartesian axis) and pressure

          total   stress  (Ry/bohr**3)                   (kbar)     P=       -1.82
  -0.00001238  -0.00000000  -0.00000000           -1.82       -0.00       -0.00
  -0.00000000  -0.00001238   0.00000000           -0.00       -1.82        0.00
  -0.00000000   0.00000000  -0.00001238           -0.00        0.00       -1.82


     Writing all to output data dir ./Si_bands.save/ :
     XML data file, charge density, pseudopotentials, collected wavefunctions
 
     init_run     :      0.09s CPU      0.15s WALL (       1 calls)
     electrons    :      1.78s CPU      1.99s WALL (       1 calls)
     forces       :      0.02s CPU      0.02s WALL (       1 calls)
     stress       :      0.11s CPU      0.12s WALL (       1 calls)

     Called by init_run:
     wfcinit      :      0.04s CPU      0.06s WALL (       1 calls)
     potinit      :      0.00s CPU      0.01s WALL (       1 calls)
     hinit0       :      0.03s CPU      0.05s WALL (       1 calls)

     Called by electrons:
     c_bands      :      1.58s CPU      1.75s WALL (       6 calls)
     sum_band     :      0.17s CPU      0.18s WALL (       6 calls)
     v_of_rho     :      0.00s CPU      0.00s WALL (       6 calls)
     newd         :      0.04s CPU      0.04s WALL (       6 calls)
     mix_rho      :      0.00s CPU      0.00s WALL (       6 calls)

     Called by c_bands:
     init_us_2    :      0.02s CPU      0.02s WALL (    1080 calls)
     init_us_2:cp :      0.02s CPU      0.02s WALL (    1080 calls)
     ccgdiagg     :      1.42s CPU      1.57s WALL (     432 calls)
     wfcrot       :      0.17s CPU      0.21s WALL (     360 calls)

     Called by *cgdiagg:
     h_psi        :      0.81s CPU      0.90s WALL (    9887 calls)
     s_psi        :      0.07s CPU      0.07s WALL (   19414 calls)

     Called by h_psi:
     h_psi:calbec :      0.15s CPU      0.17s WALL (    9887 calls)
     vloc_psi     :      0.55s CPU      0.62s WALL (    9887 calls)
     add_vuspsi   :      0.04s CPU      0.04s WALL (    9887 calls)
     hs_1psi      :      0.77s CPU      0.85s WALL (    9527 calls)
     s_1psi       :      0.20s CPU      0.22s WALL (    9527 calls)

     General routines
     calbec       :      0.26s CPU      0.29s WALL (   20206 calls)
     fft          :      0.01s CPU      0.02s WALL (      43 calls)
     ffts         :      0.00s CPU      0.00s WALL (      12 calls)
     fftw         :      0.49s CPU      0.55s WALL (   28270 calls)
     interpolate  :      0.00s CPU      0.00s WALL (       6 calls)
 
     Parallel routines
 
     PWSCF        :      2.14s CPU      2.78s WALL

 
   This run was terminated on:  23:15:17  17Oct2025            

=------------------------------------------------------------------------------=
   JOB DONE.
=------------------------------------------------------------------------------=
TACC:  Shutdown complete. Exiting. 
