TACC:  Starting up job 2403584 
TACC:  Starting parallel tasks... 

     Program PWSCF v.7.3 starts on 23Sep2025 at 13:24:46 

     This program is part of the open-source Quantum ESPRESSO suite
     for quantum simulation of materials; please cite
         "P. Giannozzi et al., J. Phys.:Condens. Matter 21 395502 (2009);
         "P. Giannozzi et al., J. Phys.:Condens. Matter 29 465901 (2017);
         "P. Giannozzi et al., J. Chem. Phys. 152 154105 (2020);
          URL http://www.quantum-espresso.org", 
     in publications or presentations arising from this work. More details at
     http://www.quantum-espresso.org/quote

     Parallel version (MPI & OpenMP), running on      10 processor cores
     Number of MPI processes:                10
     Threads/MPI process:                     1

     MPI processes distributed on     1 nodes
     187171 MiB available memory on the printing compute node when the environment starts
 
     Waiting for input...
     Reading input from standard input
Warning: card &CELL ignored
Warning: card  CELL_DYNAMICS = 'BFGS', ignored
Warning: card  PRESS=0.D0, ignored
Warning: card / ignored
     Message from routine read_cards :
     DEPRECATED: no units specified in ATOMIC_POSITIONS card
     Message from routine read_cards :
     ATOMIC_POSITIONS: units set to alat

     Current dimensions of program PWSCF are:
     Max number of different atomic species (ntypx) = 10
     Max number of k-points (npk) =  40000
     Max angular momentum in pseudopotentials (lmaxx) =  4
 
     R & G space division:  proc/nbgrp/npool/nimage =      10
     Subspace diagonalization in iterative solution of the eigenvalue problem:
     a serial algorithm will be used

 
     Parallelization info
     --------------------
     sticks:   dense  smooth     PW     G-vecs:    dense   smooth      PW
     Min         430     173     48                21291     5381     780
     Max         431     175     49                21292     5382     783
     Sum        4309    1733    481               212911    53811    7809
 
     Using Slab Decomposition
 


     bravais-lattice index     =            1
     lattice parameter (alat)  =       7.3573  a.u.
     unit-cell volume          =     398.2496 (a.u.)^3
     number of atoms/cell      =            5
     number of atomic types    =            3
     number of electrons       =        40.00
     number of Kohn-Sham states=           20
     kinetic-energy cutoff     =     100.0000  Ry
     charge density cutoff     =    1000.0000  Ry
     scf convergence threshold =      1.0E-08
     mixing beta               =       0.7000
     number of iterations used =            8  plain     mixing
     Exchange-correlation= SLA  PZ   NOGX NOGC
                           (   1   1   0   0   0   0   0)

     celldm(1)=   7.357300  celldm(2)=   0.000000  celldm(3)=   0.000000
     celldm(4)=   0.000000  celldm(5)=   0.000000  celldm(6)=   0.000000

     crystal axes: (cart. coord. in units of alat)
               a(1) = (   1.000000   0.000000   0.000000 )  
               a(2) = (   0.000000   1.000000   0.000000 )  
               a(3) = (   0.000000   0.000000   1.000000 )  

     reciprocal axes: (cart. coord. in units 2 pi/alat)
               b(1) = (  1.000000  0.000000  0.000000 )  
               b(2) = (  0.000000  1.000000  0.000000 )  
               b(3) = (  0.000000  0.000000  1.000000 )  


     PseudoPot. # 1 for Ca read from file:
     /scratch/11018/zhc/assisgnment1/CaTiO3/Ca_LDA.UPF
     MD5 check sum: d2d4e7693e10d071152e9eeb7dd009f3
     Pseudo is Ultrasoft + core correction, Zval = 10.0
     Generated by new atomic code, or converted to UPF format
     Using radial grid of  845 points,  6 beta functions with: 
                l(1) =   0
                l(2) =   0
                l(3) =   1
                l(4) =   1
                l(5) =   2
                l(6) =   2
     Q(r) pseudized with  8 coefficients,  rinner =    1.500   1.500   1.500
                                                       1.500   1.500

     PseudoPot. # 2 for Ti read from file:
     /scratch/11018/zhc/assisgnment1/CaTiO3/Ti_LDA.UPF
     MD5 check sum: 0d9f225c038fe889ca2a701dcc8d72cb
     Pseudo is Ultrasoft + core correction, Zval = 12.0
     Generated by new atomic code, or converted to UPF format
     Using radial grid of  851 points,  6 beta functions with: 
                l(1) =   0
                l(2) =   0
                l(3) =   1
                l(4) =   1
                l(5) =   2
                l(6) =   2
     Q(r) pseudized with  6 coefficients,  rinner =    1.000   1.000   1.000
                                                       1.000   1.000

     PseudoPot. # 3 for O  read from file:
     /scratch/11018/zhc/assisgnment1/CaTiO3/O_LDA.UPF
     MD5 check sum: 194b818514d2a7dbb603bb78519a4f40
     Pseudo is Ultrasoft + core correction, Zval =  6.0
     Generated by new atomic code, or converted to UPF format
     Using radial grid of  737 points,  5 beta functions with: 
                l(1) =   0
                l(2) =   0
                l(3) =   1
                l(4) =   1
                l(5) =   2
     Q(r) pseudized with  8 coefficients,  rinner =    0.900   0.900   0.900
                                                       0.900   0.900

     atomic species   valence    mass     pseudopotential
     Ca               10.00    40.07800     Ca( 1.00)
     Ti               12.00    47.88000     Ti( 1.00)
     O                 6.00    16.00000     O ( 1.00)

      8 Sym. Ops. (no inversion) found



   Cartesian axes

     site n.     atom                  positions (alat units)
         1        Ca     tau(   1) = (   0.0000000   0.0000000   0.0500000  )
         2        Ti     tau(   2) = (   0.5000000   0.5000000   0.5000000  )
         3        O      tau(   3) = (   0.5000000   0.5000000   0.0000000  )
         4        O      tau(   4) = (   0.5000000   0.0000000   0.5000000  )
         5        O      tau(   5) = (   0.0000000   0.5000000   0.5000000  )

     number of k points=     6
                       cart. coord. in units 2pi/alat
        k(    1) = (   0.0000000   0.0000000   0.0000000), wk =   0.0740741
        k(    2) = (   0.0000000   0.0000000   0.3333333), wk =   0.1481481
        k(    3) = (   0.0000000   0.3333333   0.3333333), wk =   0.5925926
        k(    4) = (   0.3333333   0.3333333   0.3333333), wk =   0.5925926
        k(    5) = (   0.3333333   0.0000000   0.0000000), wk =   0.2962963
        k(    6) = (   0.3333333  -0.3333333   0.0000000), wk =   0.2962963

     Dense  grid:   212911 G-vectors     FFT dimensions: (  75,  75,  75)

     Smooth grid:    53811 G-vectors     FFT dimensions: (  48,  48,  48)

     Estimated max dynamical RAM per process >      88.24 MB

     Estimated total dynamical RAM >     882.38 MB

     Check: negative core charge=   -0.000001

     Initial potential from superposition of free atoms

     starting charge      38.9952, renormalised to      40.0000

     negative rho (up, down):  8.541E-04 0.000E+00
     Starting wfcs are   32 randomized atomic wfcs

     total cpu time spent up to now is        0.8 secs

     Self-consistent Calculation

     iteration #  1     ecut=   100.00 Ry     beta= 0.70
     CG style diagonalization
     ethr =  1.00E-02,  avg # of iterations =  2.2

     negative rho (up, down):  1.125E-03 0.000E+00

     total cpu time spent up to now is        1.2 secs

     total energy              =    -291.28283528 Ry
     estimated scf accuracy    <       0.84656759 Ry

     iteration #  2     ecut=   100.00 Ry     beta= 0.70
     CG style diagonalization
     ethr =  2.12E-03,  avg # of iterations =  5.1

     negative rho (up, down):  6.821E-04 0.000E+00

     total cpu time spent up to now is        1.8 secs

     total energy              =    -290.78035769 Ry
     estimated scf accuracy    <       5.26662757 Ry

     iteration #  3     ecut=   100.00 Ry     beta= 0.70
     CG style diagonalization
     ethr =  2.12E-03,  avg # of iterations =  4.7

     negative rho (up, down):  7.750E-04 0.000E+00

     total cpu time spent up to now is        2.3 secs

     total energy              =    -291.72584102 Ry
     estimated scf accuracy    <       0.13550981 Ry

     iteration #  4     ecut=   100.00 Ry     beta= 0.70
     CG style diagonalization
     ethr =  3.39E-04,  avg # of iterations =  3.7

     negative rho (up, down):  8.470E-04 0.000E+00

     total cpu time spent up to now is        2.8 secs

     total energy              =    -291.73692117 Ry
     estimated scf accuracy    <       0.03542276 Ry

     iteration #  5     ecut=   100.00 Ry     beta= 0.70
     CG style diagonalization
     ethr =  8.86E-05,  avg # of iterations =  3.5

     negative rho (up, down):  8.599E-04 0.000E+00

     total cpu time spent up to now is        3.3 secs

     total energy              =    -291.74451192 Ry
     estimated scf accuracy    <       0.00137335 Ry

     iteration #  6     ecut=   100.00 Ry     beta= 0.70
     CG style diagonalization
     ethr =  3.43E-06,  avg # of iterations =  4.0

     negative rho (up, down):  8.661E-04 0.000E+00

     total cpu time spent up to now is        3.8 secs

     total energy              =    -291.74518924 Ry
     estimated scf accuracy    <       0.00042688 Ry

     iteration #  7     ecut=   100.00 Ry     beta= 0.70
     CG style diagonalization
     ethr =  1.07E-06,  avg # of iterations =  3.4

     negative rho (up, down):  8.610E-04 0.000E+00

     total cpu time spent up to now is        4.2 secs

     total energy              =    -291.74518162 Ry
     estimated scf accuracy    <       0.00018050 Ry

     iteration #  8     ecut=   100.00 Ry     beta= 0.70
     CG style diagonalization
     ethr =  4.51E-07,  avg # of iterations =  3.4

     negative rho (up, down):  8.611E-04 0.000E+00

     total cpu time spent up to now is        4.7 secs

     total energy              =    -291.74521660 Ry
     estimated scf accuracy    <       0.00000218 Ry

     iteration #  9     ecut=   100.00 Ry     beta= 0.70
     CG style diagonalization
     ethr =  5.45E-09,  avg # of iterations =  4.7

     negative rho (up, down):  8.608E-04 0.000E+00

     total cpu time spent up to now is        5.2 secs

     total energy              =    -291.74522004 Ry
     estimated scf accuracy    <       0.00000062 Ry

     iteration # 10     ecut=   100.00 Ry     beta= 0.70
     CG style diagonalization
     ethr =  1.54E-09,  avg # of iterations =  3.7

     negative rho (up, down):  8.609E-04 0.000E+00

     total cpu time spent up to now is        5.7 secs

     total energy              =    -291.74522006 Ry
     estimated scf accuracy    <       0.00000037 Ry

     iteration # 11     ecut=   100.00 Ry     beta= 0.70
     CG style diagonalization
     ethr =  9.26E-10,  avg # of iterations =  3.3

     negative rho (up, down):  8.610E-04 0.000E+00

     total cpu time spent up to now is        6.1 secs

     total energy              =    -291.74522008 Ry
     estimated scf accuracy    <       0.00000004 Ry

     iteration # 12     ecut=   100.00 Ry     beta= 0.70
     CG style diagonalization
     ethr =  1.12E-10,  avg # of iterations =  4.0

     negative rho (up, down):  8.609E-04 0.000E+00

     total cpu time spent up to now is        6.6 secs

     End of self-consistent calculation

          k = 0.0000 0.0000 0.0000 (  6763 PWs)   bands (ev):

   -47.2685 -30.1457 -23.8585 -23.8585 -23.8497 -11.3685 -11.3466 -11.3466
    -8.5502  -7.4715  -7.4211   5.5579   5.5624   5.5624   7.4651   7.4717
     7.4717   8.1965   8.1965   8.2122

          k = 0.0000 0.0000 0.3333 (  6736 PWs)   bands (ev):

   -47.2676 -30.1413 -23.9026 -23.8560 -23.8560 -11.5441 -11.3383 -11.3383
    -8.0772  -7.4414  -7.1820   4.6005   5.6575   5.6575   6.3076   6.4747
     6.4747   6.8664   7.9322   7.9322

          k = 0.0000 0.3333 0.3333 (  6716 PWs)   bands (ev):

   -47.2667 -30.1365 -23.9100 -23.9010 -23.8535 -11.4944 -11.4525 -11.3288
    -7.8324  -7.2053  -7.0712   4.2514   4.7190   4.7806   5.6864   6.0913
     6.6851   6.8563   7.2099   8.2094

          k = 0.3333 0.3333 0.3333 (  6737 PWs)   bands (ev):

   -47.2659 -30.1318 -23.9076 -23.9074 -23.8984 -11.4568 -11.4214 -11.4168
    -7.3764  -7.1389  -7.1102   4.2443   4.6848   4.6917   4.8516   4.9007
     4.9275   8.0047   8.0541   8.3368

          k = 0.3333 0.0000 0.0000 (  6736 PWs)   bands (ev):

   -47.2676 -30.1412 -23.9117 -23.8560 -23.8473 -11.5345 -11.3518 -11.3385
    -8.0627  -7.4125  -7.2212   4.5743   5.6622   5.6678   6.3065   6.4405
     6.4574   6.9202   7.9688   7.9701

          k = 0.3333-0.3333 0.0000 (  6716 PWs)   bands (ev):

   -47.2667 -30.1363 -23.9104 -23.9099 -23.8449 -11.4879 -11.4537 -11.3376
    -7.8053  -7.2039  -7.0949   4.2303   4.7027   4.7587   5.7144   6.1086
     6.7284   6.8907   7.2408   8.1349

     highest occupied level (ev):     8.3368

!    total energy              =    -291.74522010 Ry
     estimated scf accuracy    <          6.4E-10 Ry

     The total energy is the sum of the following terms:
     one-electron contribution =     -94.01275055 Ry
     hartree contribution      =      66.21111624 Ry
     xc contribution           =     -51.22366943 Ry
     ewald contribution        =    -212.71991636 Ry

     convergence has been achieved in  12 iterations

     negative rho (up, down):  8.609E-04 0.000E+00

     Forces acting on atoms (cartesian axes, Ry/au):

     atom    1 type  1   force =     0.00000000    0.00000000   -0.00142030
     atom    2 type  2   force =     0.00000000    0.00000000    0.01749173
     atom    3 type  3   force =     0.00000000    0.00000000    0.00774157
     atom    4 type  3   force =     0.00000000    0.00000000   -0.01190650
     atom    5 type  3   force =     0.00000000    0.00000000   -0.01190650

     Total force =     0.025523     Total SCF correction =     0.000058


     Computing stress (Cartesian axis) and pressure


     negative rho (up, down):  8.609E-04 0.000E+00
          total   stress  (Ry/bohr**3)                   (kbar)     P=     -110.66
  -0.00075336   0.00000000   0.00000000         -110.82        0.00        0.00
   0.00000000  -0.00075336   0.00000000            0.00     -110.82        0.00
   0.00000000   0.00000000  -0.00074996            0.00        0.00     -110.32


     Writing all to output data dir ./CTO_DIS_K3.save/ :
     XML data file, charge density, pseudopotentials, collected wavefunctions
 
     init_run     :      0.37s CPU      0.48s WALL (       1 calls)
     electrons    :      5.40s CPU      5.87s WALL (       1 calls)
     forces       :      0.18s CPU      0.19s WALL (       1 calls)
     stress       :      0.97s CPU      1.02s WALL (       1 calls)

     Called by init_run:
     wfcinit      :      0.06s CPU      0.08s WALL (       1 calls)
     potinit      :      0.02s CPU      0.02s WALL (       1 calls)
     hinit0       :      0.15s CPU      0.18s WALL (       1 calls)

     Called by electrons:
     c_bands      :      2.34s CPU      2.44s WALL (      12 calls)
     sum_band     :      1.69s CPU      1.85s WALL (      12 calls)
     v_of_rho     :      0.05s CPU      0.05s WALL (      13 calls)
     newd         :      1.36s CPU      1.55s WALL (      13 calls)
     mix_rho      :      0.03s CPU      0.04s WALL (      12 calls)

     Called by c_bands:
     init_us_2    :      0.04s CPU      0.04s WALL (     162 calls)
     init_us_2:cp :      0.04s CPU      0.04s WALL (     162 calls)
     ccgdiagg     :      2.00s CPU      2.09s WALL (      72 calls)
     wfcrot       :      0.35s CPU      0.39s WALL (      72 calls)

     Called by *cgdiagg:
     h_psi        :      1.48s CPU      1.55s WALL (    4238 calls)
     s_psi        :      0.28s CPU      0.29s WALL (    8404 calls)

     Called by h_psi:
     h_psi:calbec :      0.25s CPU      0.27s WALL (    4238 calls)
     vloc_psi     :      1.03s CPU      1.08s WALL (    4238 calls)
     add_vuspsi   :      0.16s CPU      0.16s WALL (    4238 calls)
     hs_1psi      :      1.34s CPU      1.40s WALL (    4166 calls)
     s_1psi       :      0.32s CPU      0.34s WALL (    4166 calls)

     General routines
     calbec       :      0.44s CPU      0.46s WALL (    8506 calls)
     fft          :      0.06s CPU      0.08s WALL (      84 calls)
     ffts         :      0.00s CPU      0.01s WALL (      25 calls)
     fftw         :      0.81s CPU      0.85s WALL (   12796 calls)
     interpolate  :      0.01s CPU      0.02s WALL (      13 calls)
 
     Parallel routines
 
     PWSCF        :      7.10s CPU      8.03s WALL

 
   This run was terminated on:  13:24:54  23Sep2025            

=------------------------------------------------------------------------------=
   JOB DONE.
=------------------------------------------------------------------------------=
TACC:  Shutdown complete. Exiting. 
