TACC:  Starting up job 2403594 
TACC:  Starting parallel tasks... 

     Program PWSCF v.7.3 starts on 23Sep2025 at 13:28:46 

     This program is part of the open-source Quantum ESPRESSO suite
     for quantum simulation of materials; please cite
         "P. Giannozzi et al., J. Phys.:Condens. Matter 21 395502 (2009);
         "P. Giannozzi et al., J. Phys.:Condens. Matter 29 465901 (2017);
         "P. Giannozzi et al., J. Chem. Phys. 152 154105 (2020);
          URL http://www.quantum-espresso.org", 
     in publications or presentations arising from this work. More details at
     http://www.quantum-espresso.org/quote

     Parallel version (MPI & OpenMP), running on      10 processor cores
     Number of MPI processes:                10
     Threads/MPI process:                     1

     MPI processes distributed on     1 nodes
     187024 MiB available memory on the printing compute node when the environment starts
 
     Waiting for input...
     Reading input from standard input
Warning: card &CELL ignored
Warning: card  CELL_DYNAMICS = 'BFGS', ignored
Warning: card  PRESS=0.D0, ignored
Warning: card / ignored
     Message from routine read_cards :
     DEPRECATED: no units specified in ATOMIC_POSITIONS card
     Message from routine read_cards :
     ATOMIC_POSITIONS: units set to alat

     Current dimensions of program PWSCF are:
     Max number of different atomic species (ntypx) = 10
     Max number of k-points (npk) =  40000
     Max angular momentum in pseudopotentials (lmaxx) =  4
 
     R & G space division:  proc/nbgrp/npool/nimage =      10
     Subspace diagonalization in iterative solution of the eigenvalue problem:
     a serial algorithm will be used

 
     Parallelization info
     --------------------
     sticks:   dense  smooth     PW     G-vecs:    dense   smooth      PW
     Min         430     173     48                21291     5381     820
     Max         431     175     49                21292     5382     823
     Sum        4309    1733    489               212911    53811    8217
 
     Using Slab Decomposition
 


     bravais-lattice index     =            1
     lattice parameter (alat)  =       7.3573  a.u.
     unit-cell volume          =     398.2496 (a.u.)^3
     number of atoms/cell      =            5
     number of atomic types    =            3
     number of electrons       =        40.00
     number of Kohn-Sham states=           20
     kinetic-energy cutoff     =     100.0000  Ry
     charge density cutoff     =    1000.0000  Ry
     scf convergence threshold =      1.0E-08
     mixing beta               =       0.7000
     number of iterations used =            8  plain     mixing
     Exchange-correlation= SLA  PZ   NOGX NOGC
                           (   1   1   0   0   0   0   0)

     celldm(1)=   7.357300  celldm(2)=   0.000000  celldm(3)=   0.000000
     celldm(4)=   0.000000  celldm(5)=   0.000000  celldm(6)=   0.000000

     crystal axes: (cart. coord. in units of alat)
               a(1) = (   1.000000   0.000000   0.000000 )  
               a(2) = (   0.000000   1.000000   0.000000 )  
               a(3) = (   0.000000   0.000000   1.000000 )  

     reciprocal axes: (cart. coord. in units 2 pi/alat)
               b(1) = (  1.000000  0.000000  0.000000 )  
               b(2) = (  0.000000  1.000000  0.000000 )  
               b(3) = (  0.000000  0.000000  1.000000 )  


     PseudoPot. # 1 for Ca read from file:
     /scratch/11018/zhc/assisgnment1/CaTiO3/Ca_LDA.UPF
     MD5 check sum: d2d4e7693e10d071152e9eeb7dd009f3
     Pseudo is Ultrasoft + core correction, Zval = 10.0
     Generated by new atomic code, or converted to UPF format
     Using radial grid of  845 points,  6 beta functions with: 
                l(1) =   0
                l(2) =   0
                l(3) =   1
                l(4) =   1
                l(5) =   2
                l(6) =   2
     Q(r) pseudized with  8 coefficients,  rinner =    1.500   1.500   1.500
                                                       1.500   1.500

     PseudoPot. # 2 for Ti read from file:
     /scratch/11018/zhc/assisgnment1/CaTiO3/Ti_LDA.UPF
     MD5 check sum: 0d9f225c038fe889ca2a701dcc8d72cb
     Pseudo is Ultrasoft + core correction, Zval = 12.0
     Generated by new atomic code, or converted to UPF format
     Using radial grid of  851 points,  6 beta functions with: 
                l(1) =   0
                l(2) =   0
                l(3) =   1
                l(4) =   1
                l(5) =   2
                l(6) =   2
     Q(r) pseudized with  6 coefficients,  rinner =    1.000   1.000   1.000
                                                       1.000   1.000

     PseudoPot. # 3 for O  read from file:
     /scratch/11018/zhc/assisgnment1/CaTiO3/O_LDA.UPF
     MD5 check sum: 194b818514d2a7dbb603bb78519a4f40
     Pseudo is Ultrasoft + core correction, Zval =  6.0
     Generated by new atomic code, or converted to UPF format
     Using radial grid of  737 points,  5 beta functions with: 
                l(1) =   0
                l(2) =   0
                l(3) =   1
                l(4) =   1
                l(5) =   2
     Q(r) pseudized with  8 coefficients,  rinner =    0.900   0.900   0.900
                                                       0.900   0.900

     atomic species   valence    mass     pseudopotential
     Ca               10.00    40.07800     Ca( 1.00)
     Ti               12.00    47.88000     Ti( 1.00)
     O                 6.00    16.00000     O ( 1.00)

      8 Sym. Ops. (no inversion) found



   Cartesian axes

     site n.     atom                  positions (alat units)
         1        Ca     tau(   1) = (   0.0000000   0.0000000   0.0500000  )
         2        Ti     tau(   2) = (   0.5000000   0.5000000   0.5000000  )
         3        O      tau(   3) = (   0.5000000   0.5000000   0.0000000  )
         4        O      tau(   4) = (   0.5000000   0.0000000   0.5000000  )
         5        O      tau(   5) = (   0.0000000   0.5000000   0.5000000  )

     number of k points=    40
                       cart. coord. in units 2pi/alat
        k(    1) = (   0.0000000   0.0000000   0.0000000), wk =   0.0058309
        k(    2) = (   0.0000000   0.0000000   0.1428571), wk =   0.0116618
        k(    3) = (   0.0000000   0.0000000   0.2857143), wk =   0.0116618
        k(    4) = (   0.0000000   0.0000000   0.4285714), wk =   0.0116618
        k(    5) = (   0.0000000   0.1428571   0.1428571), wk =   0.0466472
        k(    6) = (   0.0000000   0.1428571   0.2857143), wk =   0.0466472
        k(    7) = (   0.0000000   0.1428571   0.4285714), wk =   0.0466472
        k(    8) = (   0.0000000   0.2857143   0.2857143), wk =   0.0466472
        k(    9) = (   0.0000000   0.2857143   0.4285714), wk =   0.0466472
        k(   10) = (   0.0000000   0.4285714   0.4285714), wk =   0.0466472
        k(   11) = (   0.1428571   0.1428571   0.1428571), wk =   0.0466472
        k(   12) = (   0.1428571   0.1428571   0.2857143), wk =   0.0466472
        k(   13) = (   0.1428571   0.1428571   0.4285714), wk =   0.0466472
        k(   14) = (   0.1428571   0.2857143   0.2857143), wk =   0.0932945
        k(   15) = (   0.1428571   0.2857143   0.4285714), wk =   0.0932945
        k(   16) = (   0.1428571   0.4285714   0.4285714), wk =   0.0932945
        k(   17) = (   0.2857143   0.2857143   0.2857143), wk =   0.0466472
        k(   18) = (   0.2857143   0.2857143   0.4285714), wk =   0.0466472
        k(   19) = (   0.2857143   0.4285714   0.4285714), wk =   0.0932945
        k(   20) = (   0.4285714   0.4285714   0.4285714), wk =   0.0466472
        k(   21) = (   0.1428571   0.0000000   0.0000000), wk =   0.0233236
        k(   22) = (   0.2857143   0.0000000   0.0000000), wk =   0.0233236
        k(   23) = (   0.4285714   0.0000000   0.0000000), wk =   0.0233236
        k(   24) = (   0.1428571  -0.1428571   0.0000000), wk =   0.0233236
        k(   25) = (   0.2857143  -0.1428571   0.0000000), wk =   0.0466472
        k(   26) = (   0.0000000   0.2857143   0.1428571), wk =   0.0466472
        k(   27) = (   0.4285714  -0.1428571   0.0000000), wk =   0.0466472
        k(   28) = (   0.0000000   0.4285714   0.1428571), wk =   0.0466472
        k(   29) = (   0.2857143  -0.2857143   0.0000000), wk =   0.0233236
        k(   30) = (   0.4285714  -0.2857143   0.0000000), wk =   0.0466472
        k(   31) = (   0.0000000   0.4285714   0.2857143), wk =   0.0466472
        k(   32) = (   0.4285714  -0.4285714   0.0000000), wk =   0.0233236
        k(   33) = (   0.2857143  -0.1428571   0.1428571), wk =   0.0932945
        k(   34) = (   0.4285714  -0.1428571   0.1428571), wk =   0.0932945
        k(   35) = (   0.2857143  -0.2857143   0.1428571), wk =   0.0466472
        k(   36) = (   0.4285714  -0.2857143   0.1428571), wk =   0.0932945
        k(   37) = (  -0.1428571   0.4285714   0.2857143), wk =   0.0932945
        k(   38) = (   0.4285714  -0.4285714   0.1428571), wk =   0.0466472
        k(   39) = (   0.4285714  -0.2857143   0.2857143), wk =   0.0932945
        k(   40) = (   0.4285714  -0.4285714   0.2857143), wk =   0.0466472

     Dense  grid:   212911 G-vectors     FFT dimensions: (  75,  75,  75)

     Smooth grid:    53811 G-vectors     FFT dimensions: (  48,  48,  48)

     Estimated max dynamical RAM per process >      95.21 MB

     Estimated total dynamical RAM >     952.10 MB

     Check: negative core charge=   -0.000001

     Initial potential from superposition of free atoms

     starting charge      38.9952, renormalised to      40.0000

     negative rho (up, down):  8.541E-04 0.000E+00
     Starting wfcs are   32 randomized atomic wfcs

     total cpu time spent up to now is        1.1 secs

     Self-consistent Calculation

     iteration #  1     ecut=   100.00 Ry     beta= 0.70
     CG style diagonalization
     ethr =  1.00E-02,  avg # of iterations =  2.2

     negative rho (up, down):  1.119E-03 0.000E+00

     total cpu time spent up to now is        2.4 secs

     total energy              =    -291.29668372 Ry
     estimated scf accuracy    <       0.83380932 Ry

     iteration #  2     ecut=   100.00 Ry     beta= 0.70
     CG style diagonalization
     ethr =  2.08E-03,  avg # of iterations =  5.4

     negative rho (up, down):  6.406E-04 0.000E+00

     total cpu time spent up to now is        4.8 secs

     total energy              =    -290.52349506 Ry
     estimated scf accuracy    <       7.16422368 Ry

     iteration #  3     ecut=   100.00 Ry     beta= 0.70
     CG style diagonalization
     ethr =  2.08E-03,  avg # of iterations =  4.7

     negative rho (up, down):  7.380E-04 0.000E+00

     total cpu time spent up to now is        6.9 secs

     total energy              =    -291.72638833 Ry
     estimated scf accuracy    <       0.17166284 Ry

     iteration #  4     ecut=   100.00 Ry     beta= 0.70
     CG style diagonalization
     ethr =  4.29E-04,  avg # of iterations =  3.7

     negative rho (up, down):  8.137E-04 0.000E+00

     total cpu time spent up to now is        8.5 secs

     total energy              =    -291.74218338 Ry
     estimated scf accuracy    <       0.06055639 Ry

     iteration #  5     ecut=   100.00 Ry     beta= 0.70
     CG style diagonalization
     ethr =  1.51E-04,  avg # of iterations =  3.5

     negative rho (up, down):  8.484E-04 0.000E+00

     total cpu time spent up to now is       10.1 secs

     total energy              =    -291.75123527 Ry
     estimated scf accuracy    <       0.00250907 Ry

     iteration #  6     ecut=   100.00 Ry     beta= 0.70
     CG style diagonalization
     ethr =  6.27E-06,  avg # of iterations =  4.2

     negative rho (up, down):  8.595E-04 0.000E+00

     total cpu time spent up to now is       12.0 secs

     total energy              =    -291.75282630 Ry
     estimated scf accuracy    <       0.00019893 Ry

     iteration #  7     ecut=   100.00 Ry     beta= 0.70
     CG style diagonalization
     ethr =  4.97E-07,  avg # of iterations =  4.2

     negative rho (up, down):  8.537E-04 0.000E+00

     total cpu time spent up to now is       14.0 secs

     total energy              =    -291.75285597 Ry
     estimated scf accuracy    <       0.00044320 Ry

     iteration #  8     ecut=   100.00 Ry     beta= 0.70
     CG style diagonalization
     ethr =  4.97E-07,  avg # of iterations =  3.6

     negative rho (up, down):  8.518E-04 0.000E+00

     total cpu time spent up to now is       15.6 secs

     total energy              =    -291.75286928 Ry
     estimated scf accuracy    <       0.00008347 Ry

     iteration #  9     ecut=   100.00 Ry     beta= 0.70
     CG style diagonalization
     ethr =  2.09E-07,  avg # of iterations =  3.6

     negative rho (up, down):  8.509E-04 0.000E+00

     total cpu time spent up to now is       17.2 secs

     total energy              =    -291.75288309 Ry
     estimated scf accuracy    <       0.00000170 Ry

     iteration # 10     ecut=   100.00 Ry     beta= 0.70
     CG style diagonalization
     ethr =  4.26E-09,  avg # of iterations =  4.7

     negative rho (up, down):  8.510E-04 0.000E+00

     total cpu time spent up to now is       19.3 secs

     total energy              =    -291.75288503 Ry
     estimated scf accuracy    <       0.00000081 Ry

     iteration # 11     ecut=   100.00 Ry     beta= 0.70
     CG style diagonalization
     ethr =  2.03E-09,  avg # of iterations =  3.5

     negative rho (up, down):  8.511E-04 0.000E+00

     total cpu time spent up to now is       21.0 secs

     total energy              =    -291.75288515 Ry
     estimated scf accuracy    <       0.00000013 Ry

     iteration # 12     ecut=   100.00 Ry     beta= 0.70
     CG style diagonalization
     ethr =  3.19E-10,  avg # of iterations =  3.9

     negative rho (up, down):  8.511E-04 0.000E+00

     total cpu time spent up to now is       22.7 secs

     total energy              =    -291.75288519 Ry
     estimated scf accuracy    <       0.00000002 Ry

     iteration # 13     ecut=   100.00 Ry     beta= 0.70
     CG style diagonalization
     ethr =  3.94E-11,  avg # of iterations =  3.8

     negative rho (up, down):  8.511E-04 0.000E+00

     total cpu time spent up to now is       24.4 secs

     End of self-consistent calculation

          k = 0.0000 0.0000 0.0000 (  6763 PWs)   bands (ev):

   -47.1746 -30.1514 -23.7705 -23.7705 -23.7618 -11.3743 -11.3523 -11.3523
    -8.5677  -7.4906  -7.4407   5.5455   5.5502   5.5502   7.4445   7.4508
     7.4508   8.1752   8.1752   8.1907

          k = 0.0000 0.0000 0.1429 (  6751 PWs)   bands (ev):

   -47.1744 -30.1503 -23.7754 -23.7699 -23.7699 -11.4209 -11.3502 -11.3502
    -8.4493  -7.4831  -7.3829   5.3226   5.5609   5.5609   7.1896   7.1896
     7.2794   7.5612   8.0591   8.0591

          k = 0.0000 0.0000 0.2857 (  6735 PWs)   bands (ev):

   -47.1739 -30.1478 -23.8058 -23.7685 -23.7685 -11.5195 -11.3456 -11.3456
    -8.1822  -7.4661  -7.2476   4.7893   5.6127   5.6127   6.5483   6.6421
     6.6421   6.9474   7.9389   7.9389

          k = 0.0000 0.0000 0.4286 (  6724 PWs)   bands (ev):

   -47.1735 -30.1458 -23.8299 -23.7673 -23.7673 -11.5936 -11.3418 -11.3418
    -7.9681  -7.4524  -7.1292   4.3102   5.7384   5.7384   5.9719   6.1838
     6.1838   6.7106   7.8790   7.8790

          k = 0.0000 0.1429 0.1429 (  6737 PWs)   bands (ev):

   -47.1742 -30.1492 -23.7836 -23.7748 -23.7693 -11.4250 -11.3839 -11.3481
    -8.3373  -7.4446  -7.3598   5.1816   5.4654   5.5698   6.6403   6.9927
     7.4146   7.4508   7.7366   7.8950

          k = 0.0000 0.1429 0.2857 (  6724 PWs)   bands (ev):

   -47.1737 -30.1466 -23.8053 -23.7823 -23.7678 -11.5078 -11.3790 -11.3432
    -8.0942  -7.4259  -7.2255   4.7365   5.3400   5.6155   5.9269   6.5438
     6.7489   7.4126   7.5816   7.6994

          k = 0.0000 0.1429 0.4286 (  6714 PWs)   bands (ev):

   -47.1733 -30.1446 -23.8295 -23.7813 -23.7667 -11.5743 -11.3713 -11.3393
    -7.9064  -7.4097  -7.1002   4.3037   5.1096   5.6063   5.7338   6.1256
     6.4012   7.3684   7.4419   7.6160

          k = 0.0000 0.2857 0.2857 (  6728 PWs)   bands (ev):

   -47.1732 -30.1439 -23.8132 -23.8043 -23.7664 -11.4926 -11.4407 -11.3381
    -7.9232  -7.3139  -7.1587   4.4700   4.9846   5.1533   5.6421   6.2732
     6.7380   6.9455   7.3658   8.0025

          k = 0.0000 0.2857 0.4286 (  6721 PWs)   bands (ev):

   -47.1728 -30.1418 -23.8287 -23.8123 -23.7653 -11.5312 -11.4360 -11.3338
    -7.8292  -7.2400  -7.0332   4.2192   4.4116   4.9438   5.7268   5.9873
     6.5736   6.8926   7.1921   8.1391

          k = 0.0000 0.4286 0.4286 (  6732 PWs)   bands (ev):

   -47.1724 -30.1396 -23.8370 -23.8281 -23.7642 -11.4993 -11.4838 -11.3293
    -7.8155  -7.0363  -6.9823   3.8898   4.1710   4.4513   5.7444   5.8462
     6.6741   6.7279   6.9447   8.4983

          k = 0.1429 0.1429 0.1429 (  6739 PWs)   bands (ev):

   -47.1740 -30.1480 -23.7832 -23.7829 -23.7743 -11.4285 -11.3808 -11.3769
    -8.2302  -7.3946  -7.3533   5.0460   5.4597   5.4635   6.5327   6.5373
     7.0608   7.6395   7.6979   7.7145

          k = 0.1429 0.1429 0.2857 (  6727 PWs)   bands (ev):

   -47.1735 -30.1454 -23.8048 -23.7817 -23.7817 -11.4970 -11.3808 -11.3683
    -8.0004  -7.3887  -7.2139   4.6805   5.2589   5.4393   5.8615   5.9997
     6.8120   7.4202   7.6001   7.6574

          k = 0.1429 0.1429 0.4286 (  6728 PWs)   bands (ev):

   -47.1731 -30.1434 -23.8291 -23.7808 -23.7805 -11.5568 -11.3732 -11.3613
    -7.8252  -7.3840  -7.0801   4.2983   4.9907   5.3679   5.4537   5.7592
     6.8793   7.1577   7.5255   7.5559

          k = 0.1429 0.2857 0.2857 (  6709 PWs)   bands (ev):

   -47.1730 -30.1427 -23.8126 -23.8037 -23.7803 -11.4830 -11.4330 -11.3642
    -7.8141  -7.2893  -7.1667   4.4501   4.9789   5.1680   5.3469   5.7515
     6.3604   7.4072   7.4696   8.0227

          k = 0.1429 0.2857 0.4286 (  6722 PWs)   bands (ev):

   -47.1726 -30.1406 -23.8281 -23.8117 -23.7792 -11.5179 -11.4292 -11.3575
    -7.7113  -7.2450  -7.0333   4.2348   4.4470   4.9254   5.2709   5.5043
     6.3622   7.3012   7.4039   8.1541

          k = 0.1429 0.4286 0.4286 (  6711 PWs)   bands (ev):

   -47.1722 -30.1384 -23.8363 -23.8273 -23.7780 -11.4891 -11.4743 -11.3509
    -7.6872  -7.0481  -6.9972   3.9717   4.1802   4.4544   5.2480   5.3171
     6.2790   7.2912   7.3450   8.5098

          k = 0.2857 0.2857 0.2857 (  6719 PWs)   bands (ev):

   -47.1725 -30.1401 -23.8113 -23.8112 -23.8023 -11.4670 -11.4176 -11.4148
    -7.5846  -7.2093  -7.1800   4.3493   4.9022   4.9077   5.2349   5.2362
     5.3505   7.7562   7.8044   8.1432

          k = 0.2857 0.2857 0.4286 (  6715 PWs)   bands (ev):

   -47.1721 -30.1380 -23.8267 -23.8104 -23.8099 -11.4884 -11.4194 -11.4044
    -7.4660  -7.2236  -7.0320   4.2283   4.4847   4.7122   4.7709   5.1087
     5.3415   7.8077   7.9590   8.2694

          k = 0.2857 0.4286 0.4286 (  6738 PWs)   bands (ev):

   -47.1717 -30.1358 -23.8347 -23.8256 -23.8089 -11.4661 -11.4526 -11.3987
    -7.3827  -7.0756  -7.0305   4.1200   4.2264   4.4594   4.6665   4.7176
     5.1538   8.0265   8.0927   8.5382

          k = 0.4286 0.4286 0.4286 (  6743 PWs)   bands (ev):

   -47.1713 -30.1338 -23.8335 -23.8334 -23.8242 -11.4480 -11.4385 -11.4328
    -7.1304  -7.0875  -7.0568   4.0586   4.3148   4.3683   4.3799   4.4659
     4.4865   8.4569   8.5051   8.5755

          k = 0.1429 0.0000 0.0000 (  6751 PWs)   bands (ev):

   -47.1744 -30.1503 -23.7842 -23.7699 -23.7612 -11.4056 -11.3668 -11.3503
    -8.4464  -7.4578  -7.4098   5.3187   5.5589   5.5612   7.1737   7.1813
     7.2953   7.5523   8.0766   8.0855

          k = 0.2857 0.0000 0.0000 (  6735 PWs)   bands (ev):

   -47.1739 -30.1478 -23.8147 -23.7684 -23.7598 -11.5085 -11.3600 -11.3458
    -8.1712  -7.4367  -7.2844   4.7685   5.6154   5.6183   6.5422   6.6118
     6.6310   6.9931   7.9722   7.9748

          k = 0.4286 0.0000 0.0000 (  6724 PWs)   bands (ev):

   -47.1735 -30.1457 -23.8389 -23.7673 -23.7587 -11.5861 -11.3540 -11.3421
    -7.9484  -7.4255  -7.1709   4.2786   5.7569   5.7709   5.9738   6.1345
     6.1436   6.7760   7.9177   7.9181

          k = 0.1429-0.1429 0.0000 (  6737 PWs)   bands (ev):

   -47.1742 -30.1491 -23.7838 -23.7834 -23.7606 -11.4154 -11.3808 -11.3620
    -8.3342  -7.4091  -7.3972   5.1716   5.4669   5.5703   6.6329   6.9981
     7.4489   7.4559   7.7020   7.9151

          k = 0.2857-0.1429 0.0000 (  6724 PWs)   bands (ev):

   -47.1737 -30.1466 -23.8142 -23.7823 -23.7592 -11.4974 -11.3815 -11.3546
    -8.0819  -7.3973  -7.2628   4.7123   5.3234   5.6234   5.9349   6.5453
     6.7830   7.4271   7.5646   7.7342

          k = 0.0000 0.2857 0.1429 (  6724 PWs)   bands (ev):

   -47.1737 -30.1466 -23.8142 -23.7736 -23.7678 -11.4984 -11.3907 -11.3434
    -8.0867  -7.4013  -7.2552   4.7190   5.3340   5.6177   5.9555   6.5220
     6.7272   7.4392   7.6052   7.7219

          k = 0.4286-0.1429 0.0000 (  6714 PWs)   bands (ev):

   -47.1733 -30.1445 -23.8386 -23.7813 -23.7581 -11.5672 -11.3743 -11.3483
    -7.8836  -7.3874  -7.1400   4.2699   5.0767   5.6256   5.7732   6.1073
     6.4421   7.3366   7.4819   7.6547

          k = 0.0000 0.4286 0.1429 (  6714 PWs)   bands (ev):

   -47.1733 -30.1445 -23.8385 -23.7726 -23.7667 -11.5677 -11.3816 -11.3396
    -7.8925  -7.3794  -7.1406   4.2716   5.0998   5.6598   5.7517   6.0819
     6.3796   7.3947   7.4794   7.6468

          k = 0.2857-0.2857 0.0000 (  6728 PWs)   bands (ev):

   -47.1732 -30.1438 -23.8136 -23.8129 -23.7578 -11.4856 -11.4409 -11.3479
    -7.9045  -7.3035  -7.1841   4.4470   4.9781   5.1237   5.6694   6.2894
     6.7836   6.9799   7.3933   7.9318

          k = 0.4286-0.2857 0.0000 (  6721 PWs)   bands (ev):

   -47.1728 -30.1416 -23.8378 -23.8125 -23.7567 -11.5251 -11.4382 -11.3421
    -7.7991  -7.2279  -7.0698   4.1898   4.3819   4.9465   5.7643   5.9904
     6.6027   6.9453   7.2291   8.0705

          k = 0.0000 0.4286 0.2857 (  6721 PWs)   bands (ev):

   -47.1728 -30.1418 -23.8377 -23.8035 -23.7653 -11.5267 -11.4420 -11.3339
    -7.8257  -7.2047  -7.0705   4.2015   4.3914   4.9858   5.7407   5.9607
     6.5516   6.9265   7.2062   8.1476

          k = 0.4286-0.4286 0.0000 (  6732 PWs)   bands (ev):

   -47.1724 -30.1393 -23.8373 -23.8372 -23.7556 -11.4942 -11.4858 -11.3368
    -7.7817  -7.0380  -7.0084   3.8791   4.1420   4.4353   5.7787   5.8576
     6.7124   6.7563   6.9809   8.4207

          k = 0.2857-0.1429 0.1429 (  6727 PWs)   bands (ev):

   -47.1735 -30.1454 -23.8137 -23.7817 -23.7730 -11.4881 -11.3908 -11.3694
    -7.9916  -7.3624  -7.2466   4.6604   5.2536   5.4327   5.8633   6.0239
     6.8320   7.3980   7.6326   7.6630

          k = 0.4286-0.1429 0.1429 (  6728 PWs)   bands (ev):

   -47.1731 -30.1433 -23.8381 -23.7806 -23.7719 -11.5505 -11.3833 -11.3613
    -7.8077  -7.3584  -7.1191   4.2642   4.9660   5.3562   5.4926   5.7940
     6.9037   7.1334   7.5210   7.6074

          k = 0.2857-0.2857 0.1429 (  6709 PWs)   bands (ev):

   -47.1730 -30.1427 -23.8128 -23.8124 -23.7716 -11.4770 -11.4337 -11.3716
    -7.7989  -7.2769  -7.1918   4.4306   4.9732   5.1418   5.3655   5.7632
     6.3998   7.4551   7.4775   7.9643

          k = 0.4286-0.2857 0.1429 (  6722 PWs)   bands (ev):

   -47.1726 -30.1405 -23.8372 -23.8118 -23.7705 -11.5124 -11.4323 -11.3635
    -7.6828  -7.2329  -7.0696   4.2027   4.4188   4.9332   5.2726   5.5416
     6.4044   7.3081   7.4603   8.0914

          k =-0.1429 0.4286 0.2857 (  6722 PWs)   bands (ev):

   -47.1726 -30.1406 -23.8371 -23.8028 -23.7792 -11.5135 -11.4357 -11.3571
    -7.7068  -7.2110  -7.0703   4.2118   4.4306   4.9667   5.2400   5.5365
     6.3732   7.2517   7.4563   8.1605

          k = 0.4286-0.4286 0.1429 (  6711 PWs)   bands (ev):

   -47.1722 -30.1382 -23.8365 -23.8365 -23.7693 -11.4843 -11.4765 -11.3568
    -7.6530  -7.0510  -7.0239   3.9583   4.1536   4.4385   5.2760   5.3288
     6.3186   7.3435   7.3554   8.4365

          k = 0.4286-0.2857 0.2857 (  6715 PWs)   bands (ev):

   -47.1721 -30.1379 -23.8358 -23.8102 -23.8012 -11.4840 -11.4285 -11.4013
    -7.4512  -7.2004  -7.0681   4.2012   4.4607   4.7034   4.7964   5.1255
     5.3701   7.8681   7.9231   8.2487

          k = 0.4286-0.4286 0.2857 (  6738 PWs)   bands (ev):

   -47.1717 -30.1358 -23.8348 -23.8348 -23.7999 -11.4624 -11.4555 -11.4011
    -7.3488  -7.0790  -7.0590   4.1021   4.2053   4.4443   4.6857   4.7258
     5.1901   8.0781   8.0988   8.4774

     highest occupied level (ev):     8.5755

!    total energy              =    -291.75288519 Ry
     estimated scf accuracy    <          5.6E-10 Ry

     The total energy is the sum of the following terms:
     one-electron contribution =     -94.04712960 Ry
     hartree contribution      =      66.23783642 Ry
     xc contribution           =     -51.22367566 Ry
     ewald contribution        =    -212.71991636 Ry

     convergence has been achieved in  13 iterations

     negative rho (up, down):  8.511E-04 0.000E+00

     Forces acting on atoms (cartesian axes, Ry/au):

     atom    1 type  1   force =     0.00000000    0.00000000   -0.00155493
     atom    2 type  2   force =     0.00000000    0.00000000    0.01672085
     atom    3 type  3   force =     0.00000000    0.00000000    0.00789545
     atom    4 type  3   force =     0.00000000    0.00000000   -0.01153069
     atom    5 type  3   force =     0.00000000    0.00000000   -0.01153069

     Total force =     0.024703     Total SCF correction =     0.000038


     Computing stress (Cartesian axis) and pressure


     negative rho (up, down):  8.511E-04 0.000E+00
          total   stress  (Ry/bohr**3)                   (kbar)     P=     -113.72
  -0.00077417   0.00000000   0.00000000         -113.88        0.00        0.00
   0.00000000  -0.00077417   0.00000000            0.00     -113.88        0.00
   0.00000000   0.00000000  -0.00077092            0.00        0.00     -113.41


     Writing all to output data dir ./CTO_DIS_K7.save/ :
     XML data file, charge density, pseudopotentials, collected wavefunctions
 
     init_run     :      0.69s CPU      0.81s WALL (       1 calls)
     electrons    :     22.34s CPU     23.37s WALL (       1 calls)
     forces       :      0.29s CPU      0.30s WALL (       1 calls)
     stress       :      2.89s CPU      2.94s WALL (       1 calls)

     Called by init_run:
     wfcinit      :      0.39s CPU      0.42s WALL (       1 calls)
     potinit      :      0.02s CPU      0.02s WALL (       1 calls)
     hinit0       :      0.14s CPU      0.18s WALL (       1 calls)

     Called by electrons:
     c_bands      :     17.74s CPU     18.37s WALL (      13 calls)
     sum_band     :      3.11s CPU      3.27s WALL (      13 calls)
     v_of_rho     :      0.05s CPU      0.05s WALL (      14 calls)
     newd         :      1.48s CPU      1.70s WALL (      14 calls)
     mix_rho      :      0.04s CPU      0.04s WALL (      13 calls)

     Called by c_bands:
     init_us_2    :      0.30s CPU      0.31s WALL (    1160 calls)
     init_us_2:cp :      0.30s CPU      0.31s WALL (    1160 calls)
     ccgdiagg     :     15.31s CPU     15.87s WALL (     520 calls)
     wfcrot       :      2.55s CPU      2.64s WALL (     520 calls)

     Called by *cgdiagg:
     h_psi        :     11.13s CPU     11.53s WALL (   31853 calls)
     s_psi        :      2.13s CPU      2.21s WALL (   63186 calls)

     Called by h_psi:
     h_psi:calbec :      1.91s CPU      1.98s WALL (   31853 calls)
     vloc_psi     :      7.74s CPU      8.01s WALL (   31853 calls)
     add_vuspsi   :      1.19s CPU      1.23s WALL (   31853 calls)
     hs_1psi      :     10.21s CPU     10.58s WALL (   31333 calls)
     s_1psi       :      2.48s CPU      2.57s WALL (   31333 calls)

     General routines
     calbec       :      3.29s CPU      3.42s WALL (   63906 calls)
     fft          :      0.07s CPU      0.08s WALL (      90 calls)
     ffts         :      0.00s CPU      0.01s WALL (      27 calls)
     fftw         :      6.09s CPU      6.29s WALL (   94826 calls)
     interpolate  :      0.01s CPU      0.02s WALL (      14 calls)
 
     Parallel routines
 
     PWSCF        :     26.49s CPU     28.54s WALL

 
   This run was terminated on:  13:29:14  23Sep2025            

=------------------------------------------------------------------------------=
   JOB DONE.
=------------------------------------------------------------------------------=
TACC:  Shutdown complete. Exiting. 
