TACC:  Starting up job 2560845 
TACC:  Starting parallel tasks... 

     Program PWSCF v.7.3 starts on 18Nov2025 at  0:10:15 

     This program is part of the open-source Quantum ESPRESSO suite
     for quantum simulation of materials; please cite
         "P. Giannozzi et al., J. Phys.:Condens. Matter 21 395502 (2009);
         "P. Giannozzi et al., J. Phys.:Condens. Matter 29 465901 (2017);
         "P. Giannozzi et al., J. Chem. Phys. 152 154105 (2020);
          URL http://www.quantum-espresso.org", 
     in publications or presentations arising from this work. More details at
     http://www.quantum-espresso.org/quote

     Parallel version (MPI & OpenMP), running on      10 processor cores
     Number of MPI processes:                10
     Threads/MPI process:                     1

     MPI processes distributed on     1 nodes
     187606 MiB available memory on the printing compute node when the environment starts
 
     Waiting for input...
     Reading input from standard input
Warning: card &CELL ignored
Warning: card  CELL_DYNAMICS = 'BFGS', ignored
Warning: card  PRESS=0.D0, ignored
Warning: card / ignored

     Current dimensions of program PWSCF are:
     Max number of different atomic species (ntypx) = 10
     Max number of k-points (npk) =  40000
     Max angular momentum in pseudopotentials (lmaxx) =  4
     Message from routine setup:
     using ibrav=0 with symmetry is DISCOURAGED, use correct ibrav instead
 
     R & G space division:  proc/nbgrp/npool/nimage =      10
     Subspace diagonalization in iterative solution of the eigenvalue problem:
     a serial algorithm will be used

 
     Parallelization info
     --------------------
     sticks:   dense  smooth     PW     G-vecs:    dense   smooth      PW
     Min         209      84     25                 7675     1945     323
     Max         210      85     27                 7680     1949     324
     Sum        2097     849    257                76771    19463    3231
 
     Using Slab Decomposition
 


     bravais-lattice index     =            0
     lattice parameter (alat)  =       7.2783  a.u.
     unit-cell volume          =     406.4748 (a.u.)^3
     number of atoms/cell      =            5
     number of atomic types    =            3
     number of electrons       =        44.00
     number of Kohn-Sham states=           22
     kinetic-energy cutoff     =      50.0000  Ry
     charge density cutoff     =     500.0000  Ry
     scf convergence threshold =      1.0E-08
     mixing beta               =       0.7000
     number of iterations used =            8  plain     mixing
     energy convergence thresh.=      1.0E-04
     force convergence thresh. =      1.0E-03
     Exchange-correlation= SLA  PZ   NOGX NOGC
                           (   1   1   0   0   0   0   0)
     nstep                     =           50


     celldm(1)=   7.278318  celldm(2)=   0.000000  celldm(3)=   0.000000
     celldm(4)=   0.000000  celldm(5)=   0.000000  celldm(6)=   0.000000

     crystal axes: (cart. coord. in units of alat)
               a(1) = (   1.000000   0.000000   0.000000 )  
               a(2) = (   0.000000   1.002077   0.000000 )  
               a(3) = (   0.000000   0.000000   1.052057 )  

     reciprocal axes: (cart. coord. in units 2 pi/alat)
               b(1) = (  1.000000  0.000000  0.000000 )  
               b(2) = (  0.000000  0.997927  0.000000 )  
               b(3) = (  0.000000  0.000000  0.950519 )  


     PseudoPot. # 1 for Pb read from file:
     /scratch/11018/zhc/assisgnment3/input_files/Pb_LDA.UPF
     MD5 check sum: 062a37469794d955244864f8fe2e5624
     Pseudo is Ultrasoft + core correction, Zval = 14.0
     Generated by new atomic code, or converted to UPF format
     Using radial grid of  899 points,  6 beta functions with: 
                l(1) =   0
                l(2) =   0
                l(3) =   1
                l(4) =   1
                l(5) =   2
                l(6) =   2
     Q(r) pseudized with  6 coefficients,  rinner =    1.000   1.000   1.000
                                                       1.000   1.000

     PseudoPot. # 2 for Ti read from file:
     /scratch/11018/zhc/assisgnment3/input_files/Ti_LDA.UPF
     MD5 check sum: 0d9f225c038fe889ca2a701dcc8d72cb
     Pseudo is Ultrasoft + core correction, Zval = 12.0
     Generated by new atomic code, or converted to UPF format
     Using radial grid of  851 points,  6 beta functions with: 
                l(1) =   0
                l(2) =   0
                l(3) =   1
                l(4) =   1
                l(5) =   2
                l(6) =   2
     Q(r) pseudized with  6 coefficients,  rinner =    1.000   1.000   1.000
                                                       1.000   1.000

     PseudoPot. # 3 for O  read from file:
     /scratch/11018/zhc/assisgnment3/input_files/O_LDA.UPF
     MD5 check sum: 194b818514d2a7dbb603bb78519a4f40
     Pseudo is Ultrasoft + core correction, Zval =  6.0
     Generated by new atomic code, or converted to UPF format
     Using radial grid of  737 points,  5 beta functions with: 
                l(1) =   0
                l(2) =   0
                l(3) =   1
                l(4) =   1
                l(5) =   2
     Q(r) pseudized with  8 coefficients,  rinner =    0.900   0.900   0.900
                                                       0.900   0.900

     atomic species   valence    mass     pseudopotential
     Pb               14.00   207.20000     Pb( 1.00)
     Ti               12.00    47.88000     Ti( 1.00)
     O                 6.00    16.00000     O ( 1.00)

      4 Sym. Ops. (no inversion) found



   Cartesian axes

     site n.     atom                  positions (alat units)
         1        Pb     tau(   1) = (   0.0000000   0.0000000   1.0575005  )
         2        Ti     tau(   2) = (   0.5000000   0.5010386   0.5676212  )
         3        O      tau(   3) = (   0.5000000   0.5010386   0.1046880  )
         4        O      tau(   4) = (   0.5000000   0.0000000   0.6433689  )
         5        O      tau(   5) = (   0.0000000   0.5010386   0.6433689  )

     number of k points=    48
                       cart. coord. in units 2pi/alat
        k(    1) = (   0.0000000   0.0000000   0.0000000), wk =   0.0138889
        k(    2) = (   0.0000000   0.0000000   0.2376296), wk =   0.0277778
        k(    3) = (   0.0000000   0.0000000  -0.4752593), wk =   0.0138889
        k(    4) = (   0.0000000   0.1663212   0.0000000), wk =   0.0277778
        k(    5) = (   0.0000000   0.1663212   0.2376296), wk =   0.0555556
        k(    6) = (   0.0000000   0.1663212  -0.4752593), wk =   0.0277778
        k(    7) = (   0.0000000   0.3326424   0.0000000), wk =   0.0277778
        k(    8) = (   0.0000000   0.3326424   0.2376296), wk =   0.0555556
        k(    9) = (   0.0000000   0.3326424  -0.4752593), wk =   0.0277778
        k(   10) = (   0.0000000  -0.4989636   0.0000000), wk =   0.0138889
        k(   11) = (   0.0000000  -0.4989636   0.2376296), wk =   0.0277778
        k(   12) = (   0.0000000  -0.4989636  -0.4752593), wk =   0.0138889
        k(   13) = (   0.1666667   0.0000000   0.0000000), wk =   0.0277778
        k(   14) = (   0.1666667   0.0000000   0.2376296), wk =   0.0555556
        k(   15) = (   0.1666667   0.0000000  -0.4752593), wk =   0.0277778
        k(   16) = (   0.1666667   0.1663212   0.0000000), wk =   0.0555556
        k(   17) = (   0.1666667   0.1663212   0.2376296), wk =   0.1111111
        k(   18) = (   0.1666667   0.1663212  -0.4752593), wk =   0.0555556
        k(   19) = (   0.1666667   0.3326424   0.0000000), wk =   0.0555556
        k(   20) = (   0.1666667   0.3326424   0.2376296), wk =   0.1111111
        k(   21) = (   0.1666667   0.3326424  -0.4752593), wk =   0.0555556
        k(   22) = (   0.1666667  -0.4989636   0.0000000), wk =   0.0277778
        k(   23) = (   0.1666667  -0.4989636   0.2376296), wk =   0.0555556
        k(   24) = (   0.1666667  -0.4989636  -0.4752593), wk =   0.0277778
        k(   25) = (   0.3333333   0.0000000   0.0000000), wk =   0.0277778
        k(   26) = (   0.3333333   0.0000000   0.2376296), wk =   0.0555556
        k(   27) = (   0.3333333   0.0000000  -0.4752593), wk =   0.0277778
        k(   28) = (   0.3333333   0.1663212   0.0000000), wk =   0.0555556
        k(   29) = (   0.3333333   0.1663212   0.2376296), wk =   0.1111111
        k(   30) = (   0.3333333   0.1663212  -0.4752593), wk =   0.0555556
        k(   31) = (   0.3333333   0.3326424   0.0000000), wk =   0.0555556
        k(   32) = (   0.3333333   0.3326424   0.2376296), wk =   0.1111111
        k(   33) = (   0.3333333   0.3326424  -0.4752593), wk =   0.0555556
        k(   34) = (   0.3333333  -0.4989636   0.0000000), wk =   0.0277778
        k(   35) = (   0.3333333  -0.4989636   0.2376296), wk =   0.0555556
        k(   36) = (   0.3333333  -0.4989636  -0.4752593), wk =   0.0277778
        k(   37) = (  -0.5000000   0.0000000   0.0000000), wk =   0.0138889
        k(   38) = (  -0.5000000   0.0000000   0.2376296), wk =   0.0277778
        k(   39) = (  -0.5000000   0.0000000  -0.4752593), wk =   0.0138889
        k(   40) = (  -0.5000000   0.1663212   0.0000000), wk =   0.0277778
        k(   41) = (  -0.5000000   0.1663212   0.2376296), wk =   0.0555556
        k(   42) = (  -0.5000000   0.1663212  -0.4752593), wk =   0.0277778
        k(   43) = (  -0.5000000   0.3326424   0.0000000), wk =   0.0277778
        k(   44) = (  -0.5000000   0.3326424   0.2376296), wk =   0.0555556
        k(   45) = (  -0.5000000   0.3326424  -0.4752593), wk =   0.0277778
        k(   46) = (  -0.5000000  -0.4989636   0.0000000), wk =   0.0138889
        k(   47) = (  -0.5000000  -0.4989636   0.2376296), wk =   0.0277778
        k(   48) = (  -0.5000000  -0.4989636  -0.4752593), wk =   0.0138889

     Dense  grid:    76771 G-vectors     FFT dimensions: (  54,  54,  60)

     Smooth grid:    19463 G-vectors     FFT dimensions: (  36,  36,  36)

     Estimated max dynamical RAM per process >      38.00 MB

     Estimated total dynamical RAM >     380.05 MB

     Check: negative core charge=   -0.000004

     Initial potential from superposition of free atoms

     starting charge      42.9982, renormalised to      44.0000

     negative rho (up, down):  1.669E-02 0.000E+00
     Starting wfcs are   31 randomized atomic wfcs

     total cpu time spent up to now is        0.8 secs

     Self-consistent Calculation

     iteration #  1     ecut=    50.00 Ry     beta= 0.70
     CG style diagonalization
     ethr =  1.00E-02,  avg # of iterations =  2.1

     negative rho (up, down):  1.400E-02 0.000E+00

     total cpu time spent up to now is        1.6 secs

     total energy              =    -380.06222226 Ry
     estimated scf accuracy    <       1.02170704 Ry

     iteration #  2     ecut=    50.00 Ry     beta= 0.70
     CG style diagonalization
     ethr =  2.32E-03,  avg # of iterations =  4.8

     negative rho (up, down):  1.451E-02 0.000E+00

     total cpu time spent up to now is        3.0 secs

     total energy              =    -379.75251947 Ry
     estimated scf accuracy    <       3.93177646 Ry

     iteration #  3     ecut=    50.00 Ry     beta= 0.70
     CG style diagonalization
     ethr =  2.32E-03,  avg # of iterations =  4.3

     negative rho (up, down):  1.513E-02 0.000E+00

     total cpu time spent up to now is        4.3 secs

     total energy              =    -380.53722723 Ry
     estimated scf accuracy    <       0.31163820 Ry

     iteration #  4     ecut=    50.00 Ry     beta= 0.70
     CG style diagonalization
     ethr =  7.08E-04,  avg # of iterations =  3.5

     negative rho (up, down):  1.511E-02 0.000E+00

     total cpu time spent up to now is        5.4 secs

     total energy              =    -380.56031903 Ry
     estimated scf accuracy    <       0.04202471 Ry

     iteration #  5     ecut=    50.00 Ry     beta= 0.70
     CG style diagonalization
     ethr =  9.55E-05,  avg # of iterations =  3.9

     negative rho (up, down):  1.512E-02 0.000E+00

     total cpu time spent up to now is        6.5 secs

     total energy              =    -380.57150137 Ry
     estimated scf accuracy    <       0.00802169 Ry

     iteration #  6     ecut=    50.00 Ry     beta= 0.70
     CG style diagonalization
     ethr =  1.82E-05,  avg # of iterations =  3.9

     negative rho (up, down):  1.512E-02 0.000E+00

     total cpu time spent up to now is        7.7 secs

     total energy              =    -380.57362963 Ry
     estimated scf accuracy    <       0.00593225 Ry

     iteration #  7     ecut=    50.00 Ry     beta= 0.70
     CG style diagonalization
     ethr =  1.35E-05,  avg # of iterations =  3.3

     negative rho (up, down):  1.514E-02 0.000E+00

     total cpu time spent up to now is        8.6 secs

     total energy              =    -380.57363312 Ry
     estimated scf accuracy    <       0.00158373 Ry

     iteration #  8     ecut=    50.00 Ry     beta= 0.70
     CG style diagonalization
     ethr =  3.60E-06,  avg # of iterations =  3.7

     negative rho (up, down):  1.516E-02 0.000E+00

     total cpu time spent up to now is        9.7 secs

     total energy              =    -380.57397887 Ry
     estimated scf accuracy    <       0.00001006 Ry

     iteration #  9     ecut=    50.00 Ry     beta= 0.70
     CG style diagonalization
     c_bands:  1 eigenvalues not converged
     ethr =  2.29E-08,  avg # of iterations =  7.7

     negative rho (up, down):  1.519E-02 0.000E+00

     total cpu time spent up to now is       12.1 secs

     total energy              =    -380.57404044 Ry
     estimated scf accuracy    <       0.00003857 Ry

     iteration # 10     ecut=    50.00 Ry     beta= 0.70
     CG style diagonalization
     ethr =  2.29E-08,  avg # of iterations =  3.6

     negative rho (up, down):  1.524E-02 0.000E+00

     total cpu time spent up to now is       13.1 secs

     total energy              =    -380.57403686 Ry
     estimated scf accuracy    <       0.00002187 Ry

     iteration # 11     ecut=    50.00 Ry     beta= 0.70
     CG style diagonalization
     ethr =  2.29E-08,  avg # of iterations =  3.6

     negative rho (up, down):  1.531E-02 0.000E+00

     total cpu time spent up to now is       14.2 secs

     total energy              =    -380.57403689 Ry
     estimated scf accuracy    <       0.00000382 Ry

     iteration # 12     ecut=    50.00 Ry     beta= 0.70
     CG style diagonalization
     ethr =  8.67E-09,  avg # of iterations =  4.2

     negative rho (up, down):  1.530E-02 0.000E+00

     total cpu time spent up to now is       15.5 secs

     total energy              =    -380.57403815 Ry
     estimated scf accuracy    <       0.00000047 Ry

     iteration # 13     ecut=    50.00 Ry     beta= 0.70
     CG style diagonalization
     ethr =  1.07E-09,  avg # of iterations =  7.1

     negative rho (up, down):  1.530E-02 0.000E+00

     total cpu time spent up to now is       17.6 secs

     total energy              =    -380.57403908 Ry
     estimated scf accuracy    <       0.00000005 Ry

     iteration # 14     ecut=    50.00 Ry     beta= 0.70
     CG style diagonalization
     c_bands:  1 eigenvalues not converged
     ethr =  1.11E-10,  avg # of iterations =  7.8

     negative rho (up, down):  1.531E-02 0.000E+00

     total cpu time spent up to now is       20.0 secs

     total energy              =    -380.57403923 Ry
     estimated scf accuracy    <       0.00000002 Ry

     iteration # 15     ecut=    50.00 Ry     beta= 0.70
     CG style diagonalization
     ethr =  5.04E-11,  avg # of iterations =  4.8

     negative rho (up, down):  1.531E-02 0.000E+00

     total cpu time spent up to now is       21.5 secs

     End of self-consistent calculation

          k = 0.0000 0.0000 0.0000 (  2421 PWs)   bands (ev):

   -45.1710 -21.8511 -21.7687 -21.7665  -7.1665  -6.0143  -5.7569  -4.4135
    -4.4128  -4.3733  -4.2559  -4.1425   4.8409   6.7279   6.7442   7.1096
     8.7112   8.7148   8.9512   9.2900   9.4405   9.4438

          k = 0.0000 0.0000 0.2376 (  2433 PWs)   bands (ev):

   -45.1707 -21.8745 -21.7677 -21.7656  -6.9590  -5.9526  -5.6871  -4.4312
    -4.4306  -4.3718  -4.2439  -4.2194   3.9792   6.7842   6.7974   7.3062
     8.4556   8.4635   8.8680   9.3772   9.5603   9.5619

          k = 0.0000 0.0000-0.4753 (  2418 PWs)   bands (ev):

   -45.1704 -21.8977 -21.7668 -21.7646  -6.7336  -5.8850  -5.6238  -4.4488
    -4.4482  -4.3703  -4.3024  -4.2332   3.4362   6.6102   6.8202   6.8294
     8.2954   8.3089   8.7887   9.6368   9.6375  10.6533

          k = 0.0000 0.1663 0.0000 (  2419 PWs)   bands (ev):

   -45.1707 -21.8503 -21.7866 -21.7678  -7.0225  -5.9806  -5.7263  -4.4379
    -4.4113  -4.3880  -4.2589  -4.1312   4.3518   6.7971   6.8543   7.1435
     8.6663   8.7371   8.9472   9.0648   9.1717   9.5632

          k = 0.0000 0.1663 0.2376 (  2430 PWs)   bands (ev):

   -45.1703 -21.8735 -21.7856 -21.7669  -6.8316  -5.9346  -5.6507  -4.4363
    -4.4296  -4.3871  -4.2526  -4.1716   3.7450   6.5795   6.9186   7.3919
     8.1277   8.4455   8.7665   9.1586   9.2329   9.9332

          k = 0.0000 0.1663-0.4753 (  2426 PWs)   bands (ev):

   -45.1700 -21.8965 -21.7845 -21.7659  -6.6344  -5.8822  -5.5722  -4.4478
    -4.4324  -4.3863  -4.2571  -4.2074   3.2911   6.2619   6.9562   7.0380
     7.9294   8.3000   8.8353   9.2155   9.3149  10.5763

          k = 0.0000 0.3326 0.0000 (  2422 PWs)   bands (ev):

   -45.1699 -21.8486 -21.8265 -21.7661  -6.7098  -5.9075  -5.6811  -4.4751
    -4.4173  -4.4080  -4.2541  -4.1368   3.7243   6.4361   7.0966   7.1362
     8.3277   8.3605   8.8020   8.8543   9.2904  10.2134

          k = 0.0000 0.3326 0.2376 (  2415 PWs)   bands (ev):

   -45.1696 -21.8714 -21.8253 -21.7651  -6.5851  -5.8645  -5.5842  -4.4419
    -4.4277  -4.4175  -4.2460  -4.1122   3.3580   6.3036   7.0033   7.2336
     7.7637   8.1886   8.3423   8.9098   9.4236  10.2920

          k = 0.0000 0.3326-0.4753 (  2426 PWs)   bands (ev):

   -45.1692 -21.8940 -21.8241 -21.7641  -6.4926  -5.7965  -5.4565  -4.4470
    -4.4179  -4.4007  -4.2822  -4.0596   3.0372   5.9764   6.7669   7.2741
     7.6512   7.8158   8.1333   8.9418   9.8544  10.1312

          k = 0.0000-0.4990 0.0000 (  2432 PWs)   bands (ev):

   -45.1695 -21.8473 -21.8467 -21.7653  -6.5372  -5.8518  -5.6860  -4.4912
    -4.4317  -4.4064  -4.2285  -4.1689   3.5051   6.0548   7.3651   7.3807
     7.8305   7.9770   8.7241   8.8923   9.3212  11.0138

          k = 0.0000-0.4990 0.2376 (  2426 PWs)   bands (ev):

   -45.1692 -21.8701 -21.8453 -21.7643  -6.4780  -5.7755  -5.5779  -4.4543
    -4.4326  -4.4266  -4.2121  -4.1085   3.2060   6.0254   7.0312   7.2772
     7.5886   7.7763   8.4515   8.8878   9.4267  10.4957

          k = 0.0000-0.4990-0.4753 (  2444 PWs)   bands (ev):

   -45.1689 -21.8927 -21.8438 -21.7633  -6.4592  -5.6938  -5.4027  -4.4466
    -4.4336  -4.4095  -4.2678  -3.9982   2.9355   5.8388   6.4572   7.3361
     7.5956   7.8139   7.8289   8.8846   9.8029  10.1571

          k = 0.1667 0.0000 0.0000 (  2427 PWs)   bands (ev):

   -45.1706 -21.8502 -21.7893 -21.7656  -7.0205  -5.9798  -5.7259  -4.4373
    -4.4119  -4.3883  -4.2588  -4.1305   4.3527   6.8051   6.8382   7.1403
     8.6720   8.7320   8.9491   9.0661   9.1700   9.5628

          k = 0.1667 0.0000 0.2376 (  2427 PWs)   bands (ev):

   -45.1703 -21.8734 -21.7883 -21.7647  -6.8293  -5.9343  -5.6505  -4.4358
    -4.4302  -4.3874  -4.2536  -4.1692   3.7467   6.5865   6.9059   7.3898
     8.1255   8.4376   8.7659   9.1649   9.2310   9.9353

          k = 0.1667 0.0000-0.4753 (  2426 PWs)   bands (ev):

   -45.1700 -21.8965 -21.7872 -21.7637  -6.6316  -5.8829  -5.5720  -4.4484
    -4.4323  -4.3865  -4.2583  -4.2039   3.2933   6.2671   6.9479   7.0349
     7.9331   8.2864   8.8314   9.2240   9.3119  10.5730

          k = 0.1667 0.1663 0.0000 (  2421 PWs)   bands (ev):

   -45.1703 -21.8494 -21.7884 -21.7857  -6.8790  -5.9451  -5.7174  -4.4435
    -4.4278  -4.3918  -4.2348  -4.1200   4.0211   6.7218   6.9752   7.1979
     8.1942   8.3065   9.0420   9.0776   9.3824   9.7972

          k = 0.1667 0.1663 0.2376 (  2422 PWs)   bands (ev):

   -45.1699 -21.8725 -21.7873 -21.7846  -6.6990  -5.9191  -5.6422  -4.4464
    -4.4229  -4.3856  -4.2242  -4.1358   3.6221   6.4996   6.6090   7.3345
     8.0229   8.0420   8.8477   9.2239   9.4612   9.9040

          k = 0.1667 0.1663-0.4753 (  2442 PWs)   bands (ev):

   -45.1696 -21.8954 -21.7863 -21.7836  -6.5201  -5.8929  -5.5544  -4.4594
    -4.4013  -4.3626  -4.2294  -4.1577   3.2592   6.2839   6.3331   7.0262
     7.9310   7.9676   8.7502   9.2990   9.5194  10.2710

          k = 0.1667 0.3326 0.0000 (  2427 PWs)   bands (ev):

   -45.1695 -21.8477 -21.8254 -21.7865  -6.5745  -5.8737  -5.7153  -4.4680
    -4.4168  -4.3760  -4.2104  -4.1258   3.5085   6.4340   6.9749   7.2735
     7.6526   8.2408   8.5474   9.2245   9.4096  10.2926

          k = 0.1667 0.3326 0.2376 (  2429 PWs)   bands (ev):

   -45.1692 -21.8704 -21.8243 -21.7855  -6.4460  -5.8641  -5.6327  -4.4434
    -4.4176  -4.3525  -4.1883  -4.0857   3.3625   6.2520   6.3831   6.9375
     7.3890   8.0819   8.9072   9.1818   9.5147  10.0027

          k = 0.1667 0.3326-0.4753 (  2422 PWs)   bands (ev):

   -45.1689 -21.8930 -21.8231 -21.7845  -6.3559  -5.8403  -5.5102  -4.4411
    -4.3918  -4.3111  -4.2006  -4.0319   3.1721   5.8949   6.3143   6.6372
     6.8843   7.9398   9.0122   9.2305   9.5091   9.9511

          k = 0.1667-0.4990 0.0000 (  2420 PWs)   bands (ev):

   -45.1691 -21.8464 -21.8455 -21.7856  -6.4078  -5.8209  -5.7410  -4.4711
    -4.4088  -4.3542  -4.1925  -4.1589   3.3092   6.0739   7.0935   7.3143
     7.6225   7.9614   8.4099   9.2585   9.4081  10.6228

          k = 0.1667-0.4990 0.2376 (  2426 PWs)   bands (ev):

   -45.1688 -21.8691 -21.8442 -21.7846  -6.3374  -5.7858  -5.6552  -4.4416
    -4.4040  -4.3307  -4.1648  -4.0807   3.2440   6.0298   6.2787   6.6820
     7.3490   8.2236   8.6781   9.1921   9.5251   9.9667

          k = 0.1667-0.4990-0.4753 (  2408 PWs)   bands (ev):

   -45.1685 -21.8917 -21.8428 -21.7836  -6.3212  -5.7521  -5.4935  -4.4357
    -4.3600  -4.3081  -4.1833  -3.9716   3.1311   5.7901   6.1478   6.3003
     6.7328   8.0519   8.8872   9.1417   9.1702  10.1674

          k = 0.3333 0.0000 0.0000 (  2422 PWs)   bands (ev):

   -45.1699 -21.8486 -21.8301 -21.7639  -6.7036  -5.9049  -5.6798  -4.4746
    -4.4181  -4.4085  -4.2527  -4.1357   3.7242   6.4264   7.0954   7.1199
     8.3314   8.3541   8.8035   8.8546   9.2897  10.2169

          k = 0.3333 0.0000 0.2376 (  2425 PWs)   bands (ev):

   -45.1695 -21.8713 -21.8290 -21.7629  -6.5787  -5.8632  -5.5831  -4.4412
    -4.4282  -4.4183  -4.2466  -4.1075   3.3614   6.2991   6.9993   7.2210
     7.7586   8.1811   8.3374   8.9049   9.4273  10.2954

          k = 0.3333 0.0000-0.4753 (  2426 PWs)   bands (ev):

   -45.1692 -21.8940 -21.8277 -21.7619  -6.4863  -5.7964  -5.4555  -4.4475
    -4.4187  -4.4001  -4.2826  -4.0533   3.0431   5.9782   6.7589   7.2677
     7.6415   7.8107   8.1198   8.9347   9.8672  10.1170

          k = 0.3333 0.1663 0.0000 (  2426 PWs)   bands (ev):

   -45.1695 -21.8478 -21.8290 -21.7838  -6.5706  -5.8718  -5.7144  -4.4679
    -4.4168  -4.3760  -4.2097  -4.1253   3.5079   6.4235   6.9718   7.2696
     7.6552   8.2415   8.5476   9.2169   9.4093  10.2974

          k = 0.3333 0.1663 0.2376 (  2429 PWs)   bands (ev):

   -45.1692 -21.8704 -21.8280 -21.7828  -6.4420  -5.8630  -5.6320  -4.4433
    -4.4175  -4.3526  -4.1896  -4.0821   3.3645   6.2478   6.3781   6.9359
     7.3883   8.0772   8.8952   9.1774   9.5176  10.0063

          k = 0.3333 0.1663-0.4753 (  2428 PWs)   bands (ev):

   -45.1688 -21.8929 -21.8268 -21.7817  -6.3521  -5.8397  -5.5096  -4.4409
    -4.3916  -4.3114  -4.2025  -4.0265   3.1763   5.8967   6.3100   6.6355
     6.8742   7.9367   9.0018   9.2193   9.5091   9.9547

          k = 0.3333 0.3326 0.0000 (  2435 PWs)   bands (ev):

   -45.1687 -21.8460 -21.8269 -21.8232  -6.3074  -5.8057  -5.7657  -4.4478
    -4.3972  -4.3037  -4.1293  -4.1271   3.1021   6.4127   6.5089   7.3790
     7.5318   7.6778   8.3448   9.0677   9.8846  10.0268

          k = 0.3333 0.3326 0.2376 (  2427 PWs)   bands (ev):

   -45.1684 -21.8684 -21.8259 -21.8222  -6.1692  -5.8541  -5.7212  -4.4056
    -4.3901  -4.2431  -4.0805  -4.0473   3.2918   5.9585   6.0299   6.4093
     7.0527   7.5547   8.9665   9.4788   9.5221   9.9011

          k = 0.3333 0.3326-0.4753 (  2426 PWs)   bands (ev):

   -45.1681 -21.8908 -21.8249 -21.8212  -6.0989  -5.8992  -5.5964  -4.3831
    -4.3637  -4.1774  -4.0304  -3.9688   3.4576   5.5540   5.5748   6.1547
     6.8070   6.9691   8.2143   9.8554   9.8713  10.0348

          k = 0.3333-0.4990 0.0000 (  2450 PWs)   bands (ev):

   -45.1684 -21.8447 -21.8432 -21.8258  -6.1880  -5.7808  -5.7641  -4.4393
    -4.3731  -4.2398  -4.1614  -4.0935   2.9157   6.0663   6.5486   7.1907
     7.7220   7.8475   7.9596   9.0359   9.7128  10.0875

          k = 0.3333-0.4990 0.2376 (  2430 PWs)   bands (ev):

   -45.1680 -21.8672 -21.8420 -21.8249  -6.0510  -5.8109  -5.7794  -4.3962
    -4.3617  -4.1494  -4.0769  -4.0187   3.2175   5.8524   6.0050   6.0716
     6.8331   7.6252   8.4958   9.4777   9.5064  10.0622

          k = 0.3333-0.4990-0.4753 (  2420 PWs)   bands (ev):

   -45.1677 -21.8896 -21.8408 -21.8239  -6.0394  -5.8547  -5.6348  -4.3654
    -4.3394  -4.0860  -3.9913  -3.9152   3.5969   5.2871   5.4788   5.9149
     6.5718   6.9783   7.4322   9.9606  10.0355  10.1918

          k =-0.5000 0.0000 0.0000 (  2436 PWs)   bands (ev):

   -45.1695 -21.8508 -21.8472 -21.7630  -6.5289  -5.8475  -5.6850  -4.4906
    -4.4328  -4.4069  -4.2246  -4.1694   3.5045   6.0396   7.3595   7.3613
     7.8369   7.9734   8.7240   8.8923   9.3207  11.0226

          k =-0.5000 0.0000 0.2376 (  2428 PWs)   bands (ev):

   -45.1691 -21.8700 -21.8494 -21.7620  -6.4703  -5.7719  -5.5772  -4.4536
    -4.4337  -4.4271  -4.2122  -4.1027   3.2103   6.0124   7.0319   7.2682
     7.5687   7.7760   8.4481   8.8828   9.4269  10.4963

          k =-0.5000 0.0000-0.4753 (  2432 PWs)   bands (ev):

   -45.1688 -21.8926 -21.8479 -21.7610  -6.4527  -5.6910  -5.4016  -4.4471
    -4.4346  -4.4089  -4.2674  -3.9907   2.9435   5.8359   6.4458   7.3281
     7.5972   7.7934   7.8230   8.8765   9.7857  10.1645

          k =-0.5000 0.1663 0.0000 (  2424 PWs)   bands (ev):

   -45.1691 -21.8497 -21.8464 -21.7828  -6.4021  -5.8169  -5.7404  -4.4709
    -4.4088  -4.3543  -4.1894  -4.1602   3.3081   6.0580   7.0867   7.3211
     7.6128   7.9652   8.4095   9.2499   9.4059  10.6318

          k =-0.5000 0.1663 0.2376 (  2426 PWs)   bands (ev):

   -45.1688 -21.8691 -21.8483 -21.7818  -6.3323  -5.7822  -5.6550  -4.4414
    -4.4037  -4.3310  -4.1664  -4.0753   3.2468   6.0170   6.2717   6.6852
     7.3494   8.2216   8.6582   9.1881   9.5252   9.9680

          k =-0.5000 0.1663-0.4753 (  2424 PWs)   bands (ev):

   -45.1684 -21.8916 -21.8470 -21.7808  -6.3175  -5.7487  -5.4929  -4.4355
    -4.3594  -4.3084  -4.1853  -3.9645   3.1378   5.7894   6.1405   6.2909
     6.7304   8.0508   8.8640   9.1338   9.1634  10.1733

          k =-0.5000 0.3326 0.0000 (  2450 PWs)   bands (ev):

   -45.1683 -21.8474 -21.8446 -21.8221  -6.1869  -5.7817  -5.7607  -4.4394
    -4.3731  -4.2372  -4.1639  -4.0927   2.9150   6.0518   6.5604   7.1900
     7.7206   7.8362   7.9690   9.0359   9.7034  10.0947

          k =-0.5000 0.3326 0.2376 (  2430 PWs)   bands (ev):

   -45.1680 -21.8671 -21.8462 -21.8212  -6.0510  -5.8070  -5.7804  -4.3964
    -4.3611  -4.1477  -4.0808  -4.0152   3.2179   5.8494   5.9999   6.0722
     6.8366   7.6260   8.4884   9.4776   9.5056  10.0587

          k =-0.5000 0.3326-0.4753 (  2420 PWs)   bands (ev):

   -45.1677 -21.8895 -21.8450 -21.8202  -6.0413  -5.8503  -5.6347  -4.3660
    -4.3383  -4.0853  -3.9966  -3.9090   3.5994   5.2845   5.4847   5.9075
     6.5631   6.9869   7.4243   9.9534  10.0295  10.1972

          k =-0.5000-0.4990 0.0000 (  2480 PWs)   bands (ev):

   -45.1680 -21.8462 -21.8433 -21.8420  -6.1315  -5.7386  -5.7354  -4.4284
    -4.3251  -4.1859  -4.1825  -4.0422   2.7222   5.9075   6.3864   7.4028
     7.4038   7.9532   7.9663   8.8031   9.2315  10.3515

          k =-0.5000-0.4990 0.2376 (  2428 PWs)   bands (ev):

   -45.1676 -21.8659 -21.8451 -21.8409  -5.9161  -5.8252  -5.8211  -4.3839
    -4.3229  -4.0400  -4.0349  -4.0077   3.1394   5.8642   5.9723   5.9769
     6.3930   7.5667   7.8365   9.5065   9.5083  10.3339

          k =-0.5000-0.4990-0.4753 (  2400 PWs)   bands (ev):

   -45.1673 -21.8884 -21.8440 -21.8398  -5.9007  -5.8958  -5.6941  -4.3395
    -4.3207  -3.9615  -3.9024  -3.8958   3.8153   5.3119   5.3159   5.7456
     6.3995   6.4178   6.6710  10.2035  10.2090  10.3164

     highest occupied level (ev):    11.0226

!    total energy              =    -380.57403924 Ry
     estimated scf accuracy    <          7.7E-09 Ry

     The total energy is the sum of the following terms:
     one-electron contribution =     -79.71049537 Ry
     hartree contribution      =      69.93329549 Ry
     xc contribution           =    -102.67712533 Ry
     ewald contribution        =    -268.11971403 Ry

     convergence has been achieved in  15 iterations

     negative rho (up, down):  1.531E-02 0.000E+00

     Forces acting on atoms (cartesian axes, Ry/au):

     atom    1 type  1   force =     0.00000000    0.00000000   -0.00002393
     atom    2 type  2   force =     0.00000000    0.00000000   -0.00009557
     atom    3 type  3   force =     0.00000000    0.00000000    0.00016097
     atom    4 type  3   force =     0.00000000    0.00000000   -0.00023849
     atom    5 type  3   force =     0.00000000    0.00000000    0.00019703

     Total force =     0.000362     Total SCF correction =     0.000411
     SCF correction compared to forces is large: reduce conv_thr to get better values


     Computing stress (Cartesian axis) and pressure


     negative rho (up, down):  1.531E-02 0.000E+00
          total   stress  (Ry/bohr**3)                   (kbar)     P=        0.11
   0.00001583   0.00000000   0.00000000            2.33        0.00        0.00
   0.00000000  -0.00001072   0.00000000            0.00       -1.58        0.00
   0.00000000   0.00000000  -0.00000294            0.00        0.00       -0.43


     BFGS Geometry Optimization
     Energy error            =      0.0E+00 Ry
     Gradient error          =      2.4E-04 Ry/Bohr

     bfgs converged in   1 scf cycles and   0 bfgs steps
     (criteria: energy <  1.0E-04 Ry, force <  1.0E-03 Ry/Bohr)

     End of BFGS Geometry Optimization

     Final energy             =    -380.5740392387 Ry
Begin final coordinates

ATOMIC_POSITIONS (crystal)
Pb               0.0000000000        0.0000000000        1.0051738283
Ti               0.5000000000        0.5000000000        0.5395344294
O                0.5000000000        0.5000000000        0.0995079024
O                0.5000000000        0.0000000000        0.6115340639
O                0.0000000000        0.5000000000        0.6115340639
End final coordinates



     Writing all to output data dir ./pto_T2_etam0p004.save/ :
     XML data file, charge density, pseudopotentials, collected wavefunctions
 
     init_run     :      0.47s CPU      0.54s WALL (       1 calls)
     electrons    :     19.53s CPU     20.72s WALL (       1 calls)
     forces       :      0.13s CPU      0.13s WALL (       1 calls)
     stress       :      1.36s CPU      1.38s WALL (       1 calls)

     Called by init_run:
     wfcinit      :      0.25s CPU      0.28s WALL (       1 calls)
     potinit      :      0.01s CPU      0.01s WALL (       1 calls)
     hinit0       :      0.11s CPU      0.14s WALL (       1 calls)

     Called by electrons:
     c_bands      :     17.10s CPU     18.09s WALL (      15 calls)
     sum_band     :      1.78s CPU      1.87s WALL (      15 calls)
     v_of_rho     :      0.02s CPU      0.03s WALL (      16 calls)
     newd         :      0.64s CPU      0.73s WALL (      16 calls)
     mix_rho      :      0.02s CPU      0.02s WALL (      15 calls)

     Called by c_bands:
     init_us_2    :      0.15s CPU      0.16s WALL (    1584 calls)
     init_us_2:cp :      0.15s CPU      0.16s WALL (    1584 calls)
     ccgdiagg     :     15.15s CPU     16.05s WALL (     720 calls)
     wfcrot       :      2.05s CPU      2.16s WALL (     720 calls)

     Called by *cgdiagg:
     h_psi        :      9.73s CPU     10.28s WALL (   57984 calls)
     s_psi        :      1.28s CPU      1.37s WALL (  115248 calls)

     Called by h_psi:
     h_psi:calbec :      1.51s CPU      1.60s WALL (   57984 calls)
     vloc_psi     :      7.04s CPU      7.44s WALL (   57984 calls)
     add_vuspsi   :      0.72s CPU      0.77s WALL (   57984 calls)
     hs_1psi      :      9.04s CPU      9.58s WALL (   57264 calls)
     s_1psi       :      2.11s CPU      2.22s WALL (   57264 calls)

     General routines
     calbec       :      2.68s CPU      2.84s WALL (  116208 calls)
     fft          :      0.03s CPU      0.04s WALL (     102 calls)
     ffts         :      0.00s CPU      0.00s WALL (      31 calls)
     fftw         :      6.00s CPU      6.32s WALL (  162912 calls)
     interpolate  :      0.01s CPU      0.01s WALL (      16 calls)
 
     Parallel routines
 
     PWSCF        :     21.75s CPU     23.48s WALL

 
   This run was terminated on:   0:10:39  18Nov2025            

=------------------------------------------------------------------------------=
   JOB DONE.
=------------------------------------------------------------------------------=
TACC:  Shutdown complete. Exiting. 
