TACC:  Starting up job 2386215 
TACC:  Starting parallel tasks... 

     Program PWSCF v.7.3 starts on 19Sep2025 at  9:35:52 

     This program is part of the open-source Quantum ESPRESSO suite
     for quantum simulation of materials; please cite
         "P. Giannozzi et al., J. Phys.:Condens. Matter 21 395502 (2009);
         "P. Giannozzi et al., J. Phys.:Condens. Matter 29 465901 (2017);
         "P. Giannozzi et al., J. Chem. Phys. 152 154105 (2020);
          URL http://www.quantum-espresso.org", 
     in publications or presentations arising from this work. More details at
     http://www.quantum-espresso.org/quote

     Parallel version (MPI & OpenMP), running on      10 processor cores
     Number of MPI processes:                10
     Threads/MPI process:                     1

     MPI processes distributed on     1 nodes
     188024 MiB available memory on the printing compute node when the environment starts
 
     Waiting for input...
     Reading input from standard input
Warning: card &CELL ignored
Warning: card  CELL_DYNAMICS = 'BFGS', ignored
Warning: card  PRESS=0.D0, ignored
Warning: card / ignored
     Message from routine read_cards :
     DEPRECATED: no units specified in ATOMIC_POSITIONS card
     Message from routine read_cards :
     ATOMIC_POSITIONS: units set to alat

     Current dimensions of program PWSCF are:
     Max number of different atomic species (ntypx) = 10
     Max number of k-points (npk) =  40000
     Max angular momentum in pseudopotentials (lmaxx) =  4
 
     R & G space division:  proc/nbgrp/npool/nimage =      10
     Subspace diagonalization in iterative solution of the eigenvalue problem:
     a serial algorithm will be used

 
     Parallelization info
     --------------------
     sticks:   dense  smooth     PW     G-vecs:    dense   smooth      PW
     Min         430     173     49                21291     5381     837
     Max         431     175     50                21292     5382     840
     Sum        4309    1733    497               212911    53811    8385
 
     Using Slab Decomposition
 


     bravais-lattice index     =            1
     lattice parameter (alat)  =       7.3573  a.u.
     unit-cell volume          =     398.2496 (a.u.)^3
     number of atoms/cell      =            5
     number of atomic types    =            3
     number of electrons       =        40.00
     number of Kohn-Sham states=           20
     kinetic-energy cutoff     =     100.0000  Ry
     charge density cutoff     =    1000.0000  Ry
     scf convergence threshold =      1.0E-08
     mixing beta               =       0.7000
     number of iterations used =            8  plain     mixing
     Exchange-correlation= SLA  PZ   NOGX NOGC
                           (   1   1   0   0   0   0   0)

     celldm(1)=   7.357300  celldm(2)=   0.000000  celldm(3)=   0.000000
     celldm(4)=   0.000000  celldm(5)=   0.000000  celldm(6)=   0.000000

     crystal axes: (cart. coord. in units of alat)
               a(1) = (   1.000000   0.000000   0.000000 )  
               a(2) = (   0.000000   1.000000   0.000000 )  
               a(3) = (   0.000000   0.000000   1.000000 )  

     reciprocal axes: (cart. coord. in units 2 pi/alat)
               b(1) = (  1.000000  0.000000  0.000000 )  
               b(2) = (  0.000000  1.000000  0.000000 )  
               b(3) = (  0.000000  0.000000  1.000000 )  


     PseudoPot. # 1 for Ca read from file:
     /scratch/11018/zhc/assisgnment1/CaTiO3/Ca_LDA.UPF
     MD5 check sum: d2d4e7693e10d071152e9eeb7dd009f3
     Pseudo is Ultrasoft + core correction, Zval = 10.0
     Generated by new atomic code, or converted to UPF format
     Using radial grid of  845 points,  6 beta functions with: 
                l(1) =   0
                l(2) =   0
                l(3) =   1
                l(4) =   1
                l(5) =   2
                l(6) =   2
     Q(r) pseudized with  8 coefficients,  rinner =    1.500   1.500   1.500
                                                       1.500   1.500

     PseudoPot. # 2 for Ti read from file:
     /scratch/11018/zhc/assisgnment1/CaTiO3/Ti_LDA.UPF
     MD5 check sum: 0d9f225c038fe889ca2a701dcc8d72cb
     Pseudo is Ultrasoft + core correction, Zval = 12.0
     Generated by new atomic code, or converted to UPF format
     Using radial grid of  851 points,  6 beta functions with: 
                l(1) =   0
                l(2) =   0
                l(3) =   1
                l(4) =   1
                l(5) =   2
                l(6) =   2
     Q(r) pseudized with  6 coefficients,  rinner =    1.000   1.000   1.000
                                                       1.000   1.000

     PseudoPot. # 3 for O  read from file:
     /scratch/11018/zhc/assisgnment1/CaTiO3/O_LDA.UPF
     MD5 check sum: 194b818514d2a7dbb603bb78519a4f40
     Pseudo is Ultrasoft + core correction, Zval =  6.0
     Generated by new atomic code, or converted to UPF format
     Using radial grid of  737 points,  5 beta functions with: 
                l(1) =   0
                l(2) =   0
                l(3) =   1
                l(4) =   1
                l(5) =   2
     Q(r) pseudized with  8 coefficients,  rinner =    0.900   0.900   0.900
                                                       0.900   0.900

     atomic species   valence    mass     pseudopotential
     Ca               10.00    40.07800     Ca( 1.00)
     Ti               12.00    47.88000     Ti( 1.00)
     O                 6.00    16.00000     O ( 1.00)

     48 Sym. Ops., with inversion, found



   Cartesian axes

     site n.     atom                  positions (alat units)
         1        Ca     tau(   1) = (   0.0000000   0.0000000   0.0000000  )
         2        Ti     tau(   2) = (   0.5000000   0.5000000   0.5000000  )
         3        O      tau(   3) = (   0.5000000   0.5000000   0.0000000  )
         4        O      tau(   4) = (   0.5000000   0.0000000   0.5000000  )
         5        O      tau(   5) = (   0.0000000   0.5000000   0.5000000  )

     number of k points=     4
                       cart. coord. in units 2pi/alat
        k(    1) = (   0.0000000   0.0000000   0.0000000), wk =   0.2500000
        k(    2) = (   0.0000000   0.0000000  -0.5000000), wk =   0.7500000
        k(    3) = (   0.0000000  -0.5000000  -0.5000000), wk =   0.7500000
        k(    4) = (  -0.5000000  -0.5000000  -0.5000000), wk =   0.2500000

     Dense  grid:   212911 G-vectors     FFT dimensions: (  75,  75,  75)

     Smooth grid:    53811 G-vectors     FFT dimensions: (  48,  48,  48)

     Estimated max dynamical RAM per process >      87.83 MB

     Estimated total dynamical RAM >     878.27 MB

     Check: negative core charge=   -0.000001

     Initial potential from superposition of free atoms

     starting charge      38.9952, renormalised to      40.0000

     negative rho (up, down):  8.545E-04 0.000E+00
     Starting wfcs are   32 randomized atomic wfcs

     total cpu time spent up to now is        0.7 secs

     Self-consistent Calculation

     iteration #  1     ecut=   100.00 Ry     beta= 0.70
     CG style diagonalization
     ethr =  1.00E-02,  avg # of iterations =  2.2

     negative rho (up, down):  1.148E-03 0.000E+00

     total cpu time spent up to now is        1.1 secs

     total energy              =    -291.23238149 Ry
     estimated scf accuracy    <       0.87728439 Ry

     iteration #  2     ecut=   100.00 Ry     beta= 0.70
     CG style diagonalization
     ethr =  2.19E-03,  avg # of iterations =  4.6

     negative rho (up, down):  7.258E-04 0.000E+00

     total cpu time spent up to now is        1.6 secs

     total energy              =    -290.90109777 Ry
     estimated scf accuracy    <       4.11123680 Ry

     iteration #  3     ecut=   100.00 Ry     beta= 0.70
     CG style diagonalization
     ethr =  2.19E-03,  avg # of iterations =  4.1

     negative rho (up, down):  8.240E-04 0.000E+00

     total cpu time spent up to now is        2.0 secs

     total energy              =    -291.67488357 Ry
     estimated scf accuracy    <       0.14327107 Ry

     iteration #  4     ecut=   100.00 Ry     beta= 0.70
     CG style diagonalization
     ethr =  3.58E-04,  avg # of iterations =  3.5

     negative rho (up, down):  9.006E-04 0.000E+00

     total cpu time spent up to now is        2.4 secs

     total energy              =    -291.69145365 Ry
     estimated scf accuracy    <       0.01850622 Ry

     iteration #  5     ecut=   100.00 Ry     beta= 0.70
     CG style diagonalization
     ethr =  4.63E-05,  avg # of iterations =  3.6

     negative rho (up, down):  8.890E-04 0.000E+00

     total cpu time spent up to now is        2.7 secs

     total energy              =    -291.69782749 Ry
     estimated scf accuracy    <       0.00181176 Ry

     iteration #  6     ecut=   100.00 Ry     beta= 0.70
     CG style diagonalization
     ethr =  4.53E-06,  avg # of iterations =  3.5

     negative rho (up, down):  8.897E-04 0.000E+00

     total cpu time spent up to now is        3.1 secs

     total energy              =    -291.69820896 Ry
     estimated scf accuracy    <       0.00004658 Ry

     iteration #  7     ecut=   100.00 Ry     beta= 0.70
     CG style diagonalization
     ethr =  1.16E-07,  avg # of iterations =  4.1

     negative rho (up, down):  8.891E-04 0.000E+00

     total cpu time spent up to now is        3.6 secs

     total energy              =    -291.69824631 Ry
     estimated scf accuracy    <       0.00000157 Ry

     iteration #  8     ecut=   100.00 Ry     beta= 0.70
     CG style diagonalization
     ethr =  3.92E-09,  avg # of iterations =  4.5

     negative rho (up, down):  8.896E-04 0.000E+00

     total cpu time spent up to now is        4.0 secs

     total energy              =    -291.69824755 Ry
     estimated scf accuracy    <       0.00000071 Ry

     iteration #  9     ecut=   100.00 Ry     beta= 0.70
     CG style diagonalization
     ethr =  1.78E-09,  avg # of iterations =  3.5

     negative rho (up, down):  8.897E-04 0.000E+00

     total cpu time spent up to now is        4.4 secs

     total energy              =    -291.69824764 Ry
     estimated scf accuracy    <       0.00000007 Ry

     iteration # 10     ecut=   100.00 Ry     beta= 0.70
     CG style diagonalization
     ethr =  1.68E-10,  avg # of iterations =  3.9

     negative rho (up, down):  8.897E-04 0.000E+00

     total cpu time spent up to now is        4.8 secs

     End of self-consistent calculation

          k = 0.0000 0.0000 0.0000 (  6763 PWs)   bands (ev):

   -47.5570 -30.2002 -24.1244 -24.1244 -24.1244 -11.3945 -11.3945 -11.3945
    -8.4750  -7.3523  -7.3523   5.6355   5.6355   5.6355   7.6000   7.6000
     7.6000   8.3074   8.3074   8.3074

          k = 0.0000 0.0000-0.5000 (  6696 PWs)   bands (ev):

   -47.5559 -30.1944 -24.1910 -24.1212 -24.1212 -11.6214 -11.3835 -11.3835
    -7.8328  -7.3110  -7.0365   4.2352   5.8960   5.8960   5.9901   6.1057
     6.1057   6.7921   8.0172   8.0172

          k = 0.0000-0.5000-0.5000 (  6728 PWs)   bands (ev):

   -47.5547 -30.1879 -24.1893 -24.1893 -24.1181 -11.5223 -11.5223 -11.3699
    -7.7022  -6.8684  -6.8684   3.8129   4.0888   4.3614   5.8209   5.8209
     6.8131   6.8131   6.9905   8.6858

          k =-0.5000-0.5000-0.5000 (  6776 PWs)   bands (ev):

   -47.5537 -30.1821 -24.1853 -24.1853 -24.1853 -11.4722 -11.4722 -11.4722
    -6.9572  -6.9572  -6.9572   4.0117   4.3223   4.3223   4.3223   4.3789
     4.3789   8.7840   8.7840   8.7840

     highest occupied level (ev):     8.7840

!    total energy              =    -291.69824766 Ry
     estimated scf accuracy    <          9.2E-10 Ry

     The total energy is the sum of the following terms:
     one-electron contribution =     -93.06062205 Ry
     hartree contribution      =      65.72019384 Ry
     xc contribution           =     -51.21325507 Ry
     ewald contribution        =    -213.14456438 Ry

     convergence has been achieved in  10 iterations

     negative rho (up, down):  8.897E-04 0.000E+00

     Forces acting on atoms (cartesian axes, Ry/au):

     atom    1 type  1   force =     0.00000000    0.00000000    0.00000000
     atom    2 type  2   force =     0.00000000    0.00000000    0.00000000
     atom    3 type  3   force =     0.00000000    0.00000000    0.00000000
     atom    4 type  3   force =     0.00000000    0.00000000    0.00000000
     atom    5 type  3   force =     0.00000000    0.00000000    0.00000000

     Total force =     0.000000     Total SCF correction =     0.000000


     Computing stress (Cartesian axis) and pressure


     negative rho (up, down):  8.897E-04 0.000E+00
          total   stress  (Ry/bohr**3)                   (kbar)     P=      -98.35
  -0.00066860   0.00000000   0.00000000          -98.35        0.00        0.00
   0.00000000  -0.00066860   0.00000000            0.00      -98.35        0.00
   0.00000000   0.00000000  -0.00066860            0.00        0.00      -98.35


     Writing all to output data dir ./CTO.save/ :
     XML data file, charge density, pseudopotentials, collected wavefunctions
 
     init_run     :      0.36s CPU      0.46s WALL (       1 calls)
     electrons    :      3.81s CPU      4.15s WALL (       1 calls)
     forces       :      0.16s CPU      0.19s WALL (       1 calls)
     stress       :      0.85s CPU      0.90s WALL (       1 calls)

     Called by init_run:
     wfcinit      :      0.04s CPU      0.06s WALL (       1 calls)
     potinit      :      0.02s CPU      0.02s WALL (       1 calls)
     hinit0       :      0.15s CPU      0.18s WALL (       1 calls)

     Called by electrons:
     c_bands      :      1.29s CPU      1.34s WALL (      10 calls)
     sum_band     :      1.37s CPU      1.49s WALL (      10 calls)
     v_of_rho     :      0.04s CPU      0.04s WALL (      11 calls)
     newd         :      1.16s CPU      1.33s WALL (      11 calls)
     mix_rho      :      0.03s CPU      0.03s WALL (      10 calls)

     Called by c_bands:
     init_us_2    :      0.02s CPU      0.03s WALL (      92 calls)
     init_us_2:cp :      0.02s CPU      0.03s WALL (      92 calls)
     ccgdiagg     :      1.10s CPU      1.14s WALL (      40 calls)
     wfcrot       :      0.21s CPU      0.23s WALL (      40 calls)

     Called by *cgdiagg:
     h_psi        :      0.83s CPU      0.86s WALL (    2330 calls)
     s_psi        :      0.15s CPU      0.15s WALL (    4620 calls)

     Called by h_psi:
     h_psi:calbec :      0.14s CPU      0.15s WALL (    2330 calls)
     vloc_psi     :      0.58s CPU      0.60s WALL (    2330 calls)
     add_vuspsi   :      0.08s CPU      0.09s WALL (    2330 calls)
     hs_1psi      :      0.74s CPU      0.76s WALL (    2290 calls)
     s_1psi       :      0.18s CPU      0.18s WALL (    2290 calls)

     General routines
     calbec       :      0.24s CPU      0.26s WALL (    4680 calls)
     fft          :      0.06s CPU      0.07s WALL (      72 calls)
     ffts         :      0.00s CPU      0.01s WALL (      21 calls)
     fftw         :      0.45s CPU      0.47s WALL (    7076 calls)
     interpolate  :      0.01s CPU      0.01s WALL (      11 calls)
 
     Parallel routines
 
     PWSCF        :      5.35s CPU      6.12s WALL

 
   This run was terminated on:   9:35:59  19Sep2025            

=------------------------------------------------------------------------------=
   JOB DONE.
=------------------------------------------------------------------------------=
TACC:  Shutdown complete. Exiting. 
