TACC:  Starting up job 2476551 
TACC:  Starting parallel tasks... 

     Program PWSCF v.7.3 starts on 18Oct2025 at 15:26:40 

     This program is part of the open-source Quantum ESPRESSO suite
     for quantum simulation of materials; please cite
         "P. Giannozzi et al., J. Phys.:Condens. Matter 21 395502 (2009);
         "P. Giannozzi et al., J. Phys.:Condens. Matter 29 465901 (2017);
         "P. Giannozzi et al., J. Chem. Phys. 152 154105 (2020);
          URL http://www.quantum-espresso.org", 
     in publications or presentations arising from this work. More details at
     http://www.quantum-espresso.org/quote

     Parallel version (MPI & OpenMP), running on      10 processor cores
     Number of MPI processes:                10
     Threads/MPI process:                     1

     MPI processes distributed on     1 nodes
     186300 MiB available memory on the printing compute node when the environment starts
 
     Waiting for input...
     Reading input from standard input
Warning: card &CELL ignored
Warning: card  CELL_DYNAMICS = 'BFGS', ignored
Warning: card  PRESS=0.D0, ignored
Warning: card / ignored

     Current dimensions of program PWSCF are:
     Max number of different atomic species (ntypx) = 10
     Max number of k-points (npk) =  40000
     Max angular momentum in pseudopotentials (lmaxx) =  4
 
     R & G space division:  proc/nbgrp/npool/nimage =      10
     Subspace diagonalization in iterative solution of the eigenvalue problem:
     a serial algorithm will be used

 
     Parallelization info
     --------------------
     sticks:   dense  smooth     PW     G-vecs:    dense   smooth      PW
     Min          94      37     11                 2162      543      94
     Max          95      38     13                 2165      546      96
     Sum         949     373    121                21631     5449     949
 
     Using Slab Decomposition
 


     bravais-lattice index     =            1
     lattice parameter (alat)  =       7.6794  a.u.
     unit-cell volume          =     452.8787 (a.u.)^3
     number of atoms/cell      =            5
     number of atomic types    =            3
     number of electrons       =        40.00
     number of Kohn-Sham states=           20
     kinetic-energy cutoff     =      20.0000  Ry
     charge density cutoff     =     200.0000  Ry
     scf convergence threshold =      1.0E-08
     mixing beta               =       0.7000
     number of iterations used =            8  plain     mixing
     Exchange-correlation= SLA  PZ   NOGX NOGC
                           (   1   1   0   0   0   0   0)

     celldm(1)=   7.679400  celldm(2)=   0.000000  celldm(3)=   0.000000
     celldm(4)=   0.000000  celldm(5)=   0.000000  celldm(6)=   0.000000

     crystal axes: (cart. coord. in units of alat)
               a(1) = (   1.000000   0.000000   0.000000 )  
               a(2) = (   0.000000   1.000000   0.000000 )  
               a(3) = (   0.000000   0.000000   1.000000 )  

     reciprocal axes: (cart. coord. in units 2 pi/alat)
               b(1) = (  1.000000  0.000000  0.000000 )  
               b(2) = (  0.000000  1.000000  0.000000 )  
               b(3) = (  0.000000  0.000000  1.000000 )  


     PseudoPot. # 1 for Ba read from file:
     /scratch/11018/zhc/Assisgnment2/Q1/1D/Kpoints/Ba_LDA.UPF
     MD5 check sum: 0ec7675c796dc0a11c6269c68e51391e
     Pseudo is Ultrasoft + core correction, Zval = 10.0
     Generated by new atomic code, or converted to UPF format
     Using radial grid of  907 points,  7 beta functions with: 
                l(1) =   0
                l(2) =   0
                l(3) =   1
                l(4) =   1
                l(5) =   2
                l(6) =   2
                l(7) =   3
     Q(r) pseudized with  6 coefficients,  rinner =    1.700   1.700   1.700
                                                       1.700   1.700   1.700
                                                       1.700

     PseudoPot. # 2 for Ti read from file:
     /scratch/11018/zhc/Assisgnment2/Q1/1D/Kpoints/Ti_LDA.UPF
     MD5 check sum: 0d9f225c038fe889ca2a701dcc8d72cb
     Pseudo is Ultrasoft + core correction, Zval = 12.0
     Generated by new atomic code, or converted to UPF format
     Using radial grid of  851 points,  6 beta functions with: 
                l(1) =   0
                l(2) =   0
                l(3) =   1
                l(4) =   1
                l(5) =   2
                l(6) =   2
     Q(r) pseudized with  6 coefficients,  rinner =    1.000   1.000   1.000
                                                       1.000   1.000

     PseudoPot. # 3 for O  read from file:
     /scratch/11018/zhc/Assisgnment2/Q1/1D/Kpoints/O_LDA.UPF
     MD5 check sum: 194b818514d2a7dbb603bb78519a4f40
     Pseudo is Ultrasoft + core correction, Zval =  6.0
     Generated by new atomic code, or converted to UPF format
     Using radial grid of  737 points,  5 beta functions with: 
                l(1) =   0
                l(2) =   0
                l(3) =   1
                l(4) =   1
                l(5) =   2
     Q(r) pseudized with  8 coefficients,  rinner =    0.900   0.900   0.900
                                                       0.900   0.900

     atomic species   valence    mass     pseudopotential
     Ba               10.00   137.32700     Ba( 1.00)
     Ti               12.00    47.88000     Ti( 1.00)
     O                 6.00    16.00000     O ( 1.00)

      8 Sym. Ops. (no inversion) found



   Cartesian axes

     site n.     atom                  positions (alat units)
         1        Ba     tau(   1) = (   0.0000000   0.0000000   0.0000000  )
         2        Ti     tau(   2) = (   0.5000000   0.5000000   0.4900000  )
         3        O      tau(   3) = (   0.5000000   0.5000000   0.0000000  )
         4        O      tau(   4) = (   0.5000000   0.0000000   0.5000000  )
         5        O      tau(   5) = (   0.0000000   0.5000000   0.5000000  )

     number of k points=    18
                       cart. coord. in units 2pi/alat
        k(    1) = (   0.0000000   0.0000000   0.0000000), wk =   0.0160000
        k(    2) = (   0.0000000   0.0000000   0.2000000), wk =   0.0320000
        k(    3) = (   0.0000000   0.0000000   0.4000000), wk =   0.0320000
        k(    4) = (   0.0000000   0.2000000   0.2000000), wk =   0.1280000
        k(    5) = (   0.0000000   0.2000000   0.4000000), wk =   0.1280000
        k(    6) = (   0.0000000   0.4000000   0.4000000), wk =   0.1280000
        k(    7) = (   0.2000000   0.2000000   0.2000000), wk =   0.1280000
        k(    8) = (   0.2000000   0.2000000   0.4000000), wk =   0.1280000
        k(    9) = (   0.2000000   0.4000000   0.4000000), wk =   0.2560000
        k(   10) = (   0.4000000   0.4000000   0.4000000), wk =   0.1280000
        k(   11) = (   0.2000000   0.0000000   0.0000000), wk =   0.0640000
        k(   12) = (   0.4000000   0.0000000   0.0000000), wk =   0.0640000
        k(   13) = (   0.2000000  -0.2000000   0.0000000), wk =   0.0640000
        k(   14) = (   0.4000000  -0.2000000   0.0000000), wk =   0.1280000
        k(   15) = (   0.0000000   0.4000000   0.2000000), wk =   0.1280000
        k(   16) = (   0.4000000  -0.4000000   0.0000000), wk =   0.0640000
        k(   17) = (   0.4000000  -0.2000000   0.2000000), wk =   0.2560000
        k(   18) = (   0.4000000  -0.4000000   0.2000000), wk =   0.1280000

     Dense  grid:    21631 G-vectors     FFT dimensions: (  36,  36,  36)

     Smooth grid:     5449 G-vectors     FFT dimensions: (  24,  24,  24)

     Estimated max dynamical RAM per process >      20.74 MB

     Estimated total dynamical RAM >     207.37 MB

     Check: negative core charge=   -0.000005

     Initial potential from superposition of free atoms

     starting charge      38.9872, renormalised to      40.0000

     negative rho (up, down):  1.016E-01 0.000E+00
     Starting wfcs are   35 randomized atomic wfcs

     total cpu time spent up to now is        0.5 secs

     Self-consistent Calculation

     iteration #  1     ecut=    20.00 Ry     beta= 0.70
     CG style diagonalization
     ethr =  1.00E-02,  avg # of iterations =  2.2

     negative rho (up, down):  9.645E-02 0.000E+00

     total cpu time spent up to now is        0.7 secs

     total energy              =    -286.15410191 Ry
     estimated scf accuracy    <       0.51513516 Ry

     iteration #  2     ecut=    20.00 Ry     beta= 0.70
     CG style diagonalization
     ethr =  1.29E-03,  avg # of iterations =  5.1

     negative rho (up, down):  9.514E-02 0.000E+00

     total cpu time spent up to now is        1.1 secs

     total energy              =    -285.43916256 Ry
     estimated scf accuracy    <       6.40531470 Ry

     iteration #  3     ecut=    20.00 Ry     beta= 0.70
     CG style diagonalization
     ethr =  1.29E-03,  avg # of iterations =  4.8

     negative rho (up, down):  9.469E-02 0.000E+00

     total cpu time spent up to now is        1.4 secs

     total energy              =    -286.38575094 Ry
     estimated scf accuracy    <       0.14106417 Ry

     iteration #  4     ecut=    20.00 Ry     beta= 0.70
     CG style diagonalization
     ethr =  3.53E-04,  avg # of iterations =  3.4

     negative rho (up, down):  9.445E-02 0.000E+00

     total cpu time spent up to now is        1.7 secs

     total energy              =    -286.38944851 Ry
     estimated scf accuracy    <       0.05997495 Ry

     iteration #  5     ecut=    20.00 Ry     beta= 0.70
     CG style diagonalization
     ethr =  1.50E-04,  avg # of iterations =  3.4

     negative rho (up, down):  9.442E-02 0.000E+00

     total cpu time spent up to now is        1.9 secs

     total energy              =    -286.39426966 Ry
     estimated scf accuracy    <       0.00714145 Ry

     iteration #  6     ecut=    20.00 Ry     beta= 0.70
     CG style diagonalization
     ethr =  1.79E-05,  avg # of iterations =  3.7

     negative rho (up, down):  9.441E-02 0.000E+00

     total cpu time spent up to now is        2.2 secs

     total energy              =    -286.39617022 Ry
     estimated scf accuracy    <       0.00034944 Ry

     iteration #  7     ecut=    20.00 Ry     beta= 0.70
     CG style diagonalization
     ethr =  8.74E-07,  avg # of iterations =  4.2

     negative rho (up, down):  9.438E-02 0.000E+00

     total cpu time spent up to now is        2.5 secs

     total energy              =    -286.39647096 Ry
     estimated scf accuracy    <       0.00005246 Ry

     iteration #  8     ecut=    20.00 Ry     beta= 0.70
     CG style diagonalization
     ethr =  1.31E-07,  avg # of iterations =  3.5

     negative rho (up, down):  9.438E-02 0.000E+00

     total cpu time spent up to now is        2.8 secs

     total energy              =    -286.39647442 Ry
     estimated scf accuracy    <       0.00002756 Ry

     iteration #  9     ecut=    20.00 Ry     beta= 0.70
     CG style diagonalization
     ethr =  6.89E-08,  avg # of iterations =  3.2

     negative rho (up, down):  9.438E-02 0.000E+00

     total cpu time spent up to now is        3.0 secs

     total energy              =    -286.39647364 Ry
     estimated scf accuracy    <       0.00001037 Ry

     iteration # 10     ecut=    20.00 Ry     beta= 0.70
     CG style diagonalization
     ethr =  2.59E-08,  avg # of iterations =  3.5

     negative rho (up, down):  9.437E-02 0.000E+00

     total cpu time spent up to now is        3.2 secs

     total energy              =    -286.39647518 Ry
     estimated scf accuracy    <       0.00000026 Ry

     iteration # 11     ecut=    20.00 Ry     beta= 0.70
     CG style diagonalization
     ethr =  6.38E-10,  avg # of iterations =  4.5

     negative rho (up, down):  9.437E-02 0.000E+00

     total cpu time spent up to now is        3.6 secs

     total energy              =    -286.39647541 Ry
     estimated scf accuracy    <       0.00000002 Ry

     iteration # 12     ecut=    20.00 Ry     beta= 0.70
     CG style diagonalization
     ethr =  4.34E-11,  avg # of iterations =  4.3

     negative rho (up, down):  9.437E-02 0.000E+00

     total cpu time spent up to now is        3.9 secs

     total energy              =    -286.39647541 Ry
     estimated scf accuracy    <       0.00000001 Ry

     iteration # 13     ecut=    20.00 Ry     beta= 0.70
     CG style diagonalization
     ethr =  2.65E-11,  avg # of iterations =  3.6

     negative rho (up, down):  9.437E-02 0.000E+00

     total cpu time spent up to now is        4.1 secs

     End of self-consistent calculation

          k = 0.0000 0.0000 0.0000 (   691 PWs)   bands (ev):

   -47.2482 -23.6618 -23.6586 -23.6586 -15.2618  -7.5398  -6.8644  -6.8524
    -0.4115  -0.4115  -0.4094   7.0110   7.0110   7.0110   8.4587   8.4587
     8.4717   9.2496   9.2523   9.2523

          k = 0.0000 0.0000 0.2000 (   695 PWs)   bands (ev):

   -47.2481 -23.6753 -23.6715 -23.6715 -15.2279  -7.5507  -6.8464  -6.8371
    -0.3595  -0.3595  -0.2962   6.5692   6.9063   6.9063   8.0020   8.0020
     8.1053   8.4729   9.0417   9.0417

          k = 0.0000 0.0000 0.4000 (   683 PWs)   bands (ev):

   -47.2471 -23.6842 -23.6614 -23.6614 -15.1716  -7.6578  -6.8245  -6.6816
    -0.2711  -0.2711  -0.1134   5.8032   6.7439   6.7439   7.6540   7.6970
     7.6970   7.7964   8.7645   8.7645

          k = 0.0000 0.2000 0.2000 (   688 PWs)   bands (ev):

   -47.2476 -23.6841 -23.6695 -23.6570 -15.1977  -7.5045  -6.8526  -6.8125
    -0.4308  -0.3036  -0.1929   6.2498   6.7389   6.9661   7.2853   7.7061
     8.1343   8.4377   8.7268   8.9268

          k = 0.0000 0.2000 0.4000 (   682 PWs)   bands (ev):

   -47.2469 -23.6864 -23.6716 -23.6540 -15.1478  -7.5113  -6.8092  -6.7359
    -0.3767  -0.2095  -0.2011   5.6578   6.4291   6.6053   6.7864   7.4126
     8.0156   8.3522   8.4418   8.8397

          k = 0.0000 0.4000 0.4000 (   680 PWs)   bands (ev):

   -47.2464 -23.6895 -23.6842 -23.6576 -15.1087  -7.2664  -6.8306  -6.7798
    -0.4721  -0.3896  -0.1060   5.4027   5.7148   6.0264   6.8446   6.9916
     7.8137   8.3962   8.6150   9.3524

          k = 0.2000 0.2000 0.2000 (   690 PWs)   bands (ev):

   -47.2475 -23.6799 -23.6775 -23.6705 -15.1703  -7.4231  -6.8313  -6.8200
    -0.4749  -0.4735  -0.0473   5.9824   6.6783   6.6879   7.3387   7.3436
     7.4853   8.6977   8.7586   8.7675

          k = 0.2000 0.2000 0.4000 (   688 PWs)   bands (ev):

   -47.2469 -23.6952 -23.6772 -23.6712 -15.1254  -7.3646  -6.7833  -6.7610
    -0.5449  -0.4438  -0.1375   5.5515   6.2708   6.5929   6.6315   7.0903
     7.5424   8.5428   8.7651   8.8077

          k = 0.2000 0.4000 0.4000 (   680 PWs)   bands (ev):

   -47.2461 -23.6931 -23.6856 -23.6681 -15.0886  -7.1116  -6.7883  -6.7521
    -0.6586  -0.6549  -0.3386   5.3552   6.0443   6.1372   6.6962   7.0452
     7.1886   8.7142   8.8562   9.3477

          k = 0.4000 0.4000 0.4000 (   672 PWs)   bands (ev):

   -47.2451 -23.6892 -23.6870 -23.6822 -15.0556  -6.8448  -6.7171  -6.7067
    -0.9450  -0.9433  -0.7729   5.1376   6.0659   6.0814   6.7670   7.0297
     7.0332   9.3158   9.3211   9.3968

          k = 0.2000 0.0000 0.0000 (   695 PWs)   bands (ev):

   -47.2481 -23.6746 -23.6722 -23.6715 -15.2279  -7.5551  -6.8556  -6.8236
    -0.3593  -0.3574  -0.2984   6.5767   6.9058   6.9077   7.9947   8.0100
     8.1134   8.4745   9.0223   9.0377

          k = 0.4000 0.0000 0.0000 (   683 PWs)   bands (ev):

   -47.2471 -23.6812 -23.6645 -23.6614 -15.1715  -7.6655  -6.8334  -6.6657
    -0.2707  -0.2688  -0.1159   5.8249   6.7410   6.7468   7.6214   7.7085
     7.7134   7.8201   8.7347   8.7494

          k = 0.2000-0.2000 0.0000 (   688 PWs)   bands (ev):

   -47.2476 -23.6824 -23.6681 -23.6602 -15.1977  -7.5091  -6.8432  -6.8177
    -0.4318  -0.3017  -0.1939   6.2507   6.7475   6.9670   7.2913   7.7143
     8.1019   8.4281   8.7457   8.9331

          k = 0.4000-0.2000 0.0000 (   682 PWs)   bands (ev):

   -47.2468 -23.6836 -23.6714 -23.6572 -15.1477  -7.5205  -6.8152  -6.7218
    -0.3769  -0.2075  -0.2032   5.6724   6.4670   6.5761   6.7901   7.4250
     7.9946   8.3146   8.4614   8.8493

          k = 0.0000 0.4000 0.2000 (   682 PWs)   bands (ev):

   -47.2469 -23.6840 -23.6741 -23.6539 -15.1477  -7.5173  -6.8186  -6.7210
    -0.3752  -0.2093  -0.2028   5.6741   6.4555   6.5733   6.7807   7.4275
     8.0170   8.3367   8.4337   8.8415

          k = 0.4000-0.4000 0.0000 (   680 PWs)   bands (ev):

   -47.2463 -23.6875 -23.6832 -23.6608 -15.1087  -7.2787  -6.8218  -6.7777
    -0.4730  -0.3909  -0.1042   5.4066   5.7266   6.0346   6.8552   6.9987
     7.8068   8.3810   8.5967   9.3630

          k = 0.4000-0.2000 0.2000 (   688 PWs)   bands (ev):

   -47.2469 -23.6922 -23.6791 -23.6723 -15.1254  -7.3719  -6.7919  -6.7459
    -0.5435  -0.4457  -0.1369   5.5638   6.2901   6.5906   6.6234   7.0874
     7.5307   8.5333   8.7665   8.8150

          k = 0.4000-0.4000 0.2000 (   680 PWs)   bands (ev):

   -47.2461 -23.6913 -23.6845 -23.6712 -15.0886  -7.1221  -6.7791  -6.7518
    -0.6589  -0.6560  -0.3374   5.3595   6.0633   6.1376   6.6962   7.0474
     7.1828   8.7034   8.8423   9.3588

     highest occupied level (ev):     9.3968

!    total energy              =    -286.39647541 Ry
     estimated scf accuracy    <          2.0E-10 Ry

     The total energy is the sum of the following terms:
     one-electron contribution =     -74.90528126 Ry
     hartree contribution      =      59.60416819 Ry
     xc contribution           =     -66.90914831 Ry
     ewald contribution        =    -204.18621404 Ry

     convergence has been achieved in  13 iterations

     negative rho (up, down):  9.437E-02 0.000E+00

     Forces acting on atoms (cartesian axes, Ry/au):

     atom    1 type  1   force =     0.00000000    0.00000000   -0.00454603
     atom    2 type  2   force =     0.00000000    0.00000000   -0.02071786
     atom    3 type  3   force =     0.00000000    0.00000000    0.02836303
     atom    4 type  3   force =     0.00000000    0.00000000   -0.00154957
     atom    5 type  3   force =     0.00000000    0.00000000   -0.00154957

     Total force =     0.035485     Total SCF correction =     0.000018


     Computing stress (Cartesian axis) and pressure


     negative rho (up, down):  9.437E-02 0.000E+00
          total   stress  (Ry/bohr**3)                   (kbar)     P=    -1136.67
  -0.00773292   0.00000000   0.00000000        -1137.55        0.00        0.00
   0.00000000  -0.00773292   0.00000000            0.00    -1137.55        0.00
   0.00000000   0.00000000  -0.00771491            0.00        0.00    -1134.90


     Writing all to output data dir ./BTO_k5.save/ :
     XML data file, charge density, pseudopotentials, collected wavefunctions
 
     init_run     :      0.16s CPU      0.24s WALL (       1 calls)
     electrons    :      3.32s CPU      3.67s WALL (       1 calls)
     forces       :      0.04s CPU      0.04s WALL (       1 calls)
     stress       :      0.25s CPU      0.26s WALL (       1 calls)

     Called by init_run:
     wfcinit      :      0.06s CPU      0.08s WALL (       1 calls)
     potinit      :      0.01s CPU      0.01s WALL (       1 calls)
     hinit0       :      0.08s CPU      0.11s WALL (       1 calls)

     Called by electrons:
     c_bands      :      2.65s CPU      2.88s WALL (      13 calls)
     sum_band     :      0.44s CPU      0.50s WALL (      13 calls)
     v_of_rho     :      0.01s CPU      0.01s WALL (      14 calls)
     newd         :      0.23s CPU      0.28s WALL (      14 calls)
     mix_rho      :      0.01s CPU      0.01s WALL (      13 calls)

     Called by c_bands:
     init_us_2    :      0.02s CPU      0.03s WALL (     522 calls)
     init_us_2:cp :      0.02s CPU      0.03s WALL (     522 calls)
     ccgdiagg     :      2.34s CPU      2.55s WALL (     234 calls)
     wfcrot       :      0.34s CPU      0.39s WALL (     234 calls)

     Called by *cgdiagg:
     h_psi        :      1.35s CPU      1.47s WALL (   13768 calls)
     s_psi        :      0.19s CPU      0.21s WALL (   27302 calls)

     Called by h_psi:
     h_psi:calbec :      0.26s CPU      0.29s WALL (   13768 calls)
     vloc_psi     :      0.88s CPU      0.96s WALL (   13768 calls)
     add_vuspsi   :      0.11s CPU      0.12s WALL (   13768 calls)
     hs_1psi      :      1.27s CPU      1.38s WALL (   13534 calls)
     s_1psi       :      0.37s CPU      0.40s WALL (   13534 calls)

     General routines
     calbec       :      0.46s CPU      0.50s WALL (   27626 calls)
     fft          :      0.01s CPU      0.02s WALL (      90 calls)
     ffts         :      0.00s CPU      0.00s WALL (      27 calls)
     fftw         :      0.80s CPU      0.86s WALL (   41648 calls)
     interpolate  :      0.00s CPU      0.00s WALL (      14 calls)
 
     Parallel routines
 
     PWSCF        :      3.99s CPU      4.62s WALL

 
   This run was terminated on:  15:26:45  18Oct2025            

=------------------------------------------------------------------------------=
   JOB DONE.
=------------------------------------------------------------------------------=
TACC:  Shutdown complete. Exiting. 
