TACC:  Starting up job 2476562 
TACC:  Starting parallel tasks... 

     Program PWSCF v.7.3 starts on 18Oct2025 at 15:29: 1 

     This program is part of the open-source Quantum ESPRESSO suite
     for quantum simulation of materials; please cite
         "P. Giannozzi et al., J. Phys.:Condens. Matter 21 395502 (2009);
         "P. Giannozzi et al., J. Phys.:Condens. Matter 29 465901 (2017);
         "P. Giannozzi et al., J. Chem. Phys. 152 154105 (2020);
          URL http://www.quantum-espresso.org", 
     in publications or presentations arising from this work. More details at
     http://www.quantum-espresso.org/quote

     Parallel version (MPI & OpenMP), running on      10 processor cores
     Number of MPI processes:                10
     Threads/MPI process:                     1

     MPI processes distributed on     1 nodes
     184004 MiB available memory on the printing compute node when the environment starts
 
     Waiting for input...
     Reading input from standard input
Warning: card &CELL ignored
Warning: card  CELL_DYNAMICS = 'BFGS', ignored
Warning: card  PRESS=0.D0, ignored
Warning: card / ignored

     Current dimensions of program PWSCF are:
     Max number of different atomic species (ntypx) = 10
     Max number of k-points (npk) =  40000
     Max angular momentum in pseudopotentials (lmaxx) =  4
 
     R & G space division:  proc/nbgrp/npool/nimage =      10
     Subspace diagonalization in iterative solution of the eigenvalue problem:
     a serial algorithm will be used

 
     Parallelization info
     --------------------
     sticks:   dense  smooth     PW     G-vecs:    dense   smooth      PW
     Min          94      37     12                 2162      543     104
     Max          95      38     14                 2165      546     105
     Sum         949     373    129                21631     5449    1045
 
     Using Slab Decomposition
 


     bravais-lattice index     =            1
     lattice parameter (alat)  =       7.6794  a.u.
     unit-cell volume          =     452.8787 (a.u.)^3
     number of atoms/cell      =            5
     number of atomic types    =            3
     number of electrons       =        40.00
     number of Kohn-Sham states=           20
     kinetic-energy cutoff     =      20.0000  Ry
     charge density cutoff     =     200.0000  Ry
     scf convergence threshold =      1.0E-08
     mixing beta               =       0.7000
     number of iterations used =            8  plain     mixing
     Exchange-correlation= SLA  PZ   NOGX NOGC
                           (   1   1   0   0   0   0   0)

     celldm(1)=   7.679400  celldm(2)=   0.000000  celldm(3)=   0.000000
     celldm(4)=   0.000000  celldm(5)=   0.000000  celldm(6)=   0.000000

     crystal axes: (cart. coord. in units of alat)
               a(1) = (   1.000000   0.000000   0.000000 )  
               a(2) = (   0.000000   1.000000   0.000000 )  
               a(3) = (   0.000000   0.000000   1.000000 )  

     reciprocal axes: (cart. coord. in units 2 pi/alat)
               b(1) = (  1.000000  0.000000  0.000000 )  
               b(2) = (  0.000000  1.000000  0.000000 )  
               b(3) = (  0.000000  0.000000  1.000000 )  


     PseudoPot. # 1 for Ba read from file:
     /scratch/11018/zhc/Assisgnment2/Q1/1D/Kpoints/Ba_LDA.UPF
     MD5 check sum: 0ec7675c796dc0a11c6269c68e51391e
     Pseudo is Ultrasoft + core correction, Zval = 10.0
     Generated by new atomic code, or converted to UPF format
     Using radial grid of  907 points,  7 beta functions with: 
                l(1) =   0
                l(2) =   0
                l(3) =   1
                l(4) =   1
                l(5) =   2
                l(6) =   2
                l(7) =   3
     Q(r) pseudized with  6 coefficients,  rinner =    1.700   1.700   1.700
                                                       1.700   1.700   1.700
                                                       1.700

     PseudoPot. # 2 for Ti read from file:
     /scratch/11018/zhc/Assisgnment2/Q1/1D/Kpoints/Ti_LDA.UPF
     MD5 check sum: 0d9f225c038fe889ca2a701dcc8d72cb
     Pseudo is Ultrasoft + core correction, Zval = 12.0
     Generated by new atomic code, or converted to UPF format
     Using radial grid of  851 points,  6 beta functions with: 
                l(1) =   0
                l(2) =   0
                l(3) =   1
                l(4) =   1
                l(5) =   2
                l(6) =   2
     Q(r) pseudized with  6 coefficients,  rinner =    1.000   1.000   1.000
                                                       1.000   1.000

     PseudoPot. # 3 for O  read from file:
     /scratch/11018/zhc/Assisgnment2/Q1/1D/Kpoints/O_LDA.UPF
     MD5 check sum: 194b818514d2a7dbb603bb78519a4f40
     Pseudo is Ultrasoft + core correction, Zval =  6.0
     Generated by new atomic code, or converted to UPF format
     Using radial grid of  737 points,  5 beta functions with: 
                l(1) =   0
                l(2) =   0
                l(3) =   1
                l(4) =   1
                l(5) =   2
     Q(r) pseudized with  8 coefficients,  rinner =    0.900   0.900   0.900
                                                       0.900   0.900

     atomic species   valence    mass     pseudopotential
     Ba               10.00   137.32700     Ba( 1.00)
     Ti               12.00    47.88000     Ti( 1.00)
     O                 6.00    16.00000     O ( 1.00)

      8 Sym. Ops. (no inversion) found



   Cartesian axes

     site n.     atom                  positions (alat units)
         1        Ba     tau(   1) = (   0.0000000   0.0000000   0.0000000  )
         2        Ti     tau(   2) = (   0.5000000   0.5000000   0.4900000  )
         3        O      tau(   3) = (   0.5000000   0.5000000   0.0000000  )
         4        O      tau(   4) = (   0.5000000   0.0000000   0.5000000  )
         5        O      tau(   5) = (   0.0000000   0.5000000   0.5000000  )

     number of k points=   196

     Number of k-points >= 100: set verbosity='high' to print them.

     Dense  grid:    21631 G-vectors     FFT dimensions: (  36,  36,  36)

     Smooth grid:     5449 G-vectors     FFT dimensions: (  24,  24,  24)

     Estimated max dynamical RAM per process >      24.43 MB

     Estimated total dynamical RAM >     244.31 MB

     Check: negative core charge=   -0.000005

     Initial potential from superposition of free atoms

     starting charge      38.9872, renormalised to      40.0000

     negative rho (up, down):  1.016E-01 0.000E+00
     Starting wfcs are   35 randomized atomic wfcs

     total cpu time spent up to now is        1.1 secs

     Self-consistent Calculation

     iteration #  1     ecut=    20.00 Ry     beta= 0.70
     CG style diagonalization
     ethr =  1.00E-02,  avg # of iterations =  2.2

     negative rho (up, down):  9.645E-02 0.000E+00

     total cpu time spent up to now is        2.9 secs

     total energy              =    -286.16093789 Ry
     estimated scf accuracy    <       0.51206065 Ry

     iteration #  2     ecut=    20.00 Ry     beta= 0.70
     CG style diagonalization
     ethr =  1.28E-03,  avg # of iterations =  5.2

     negative rho (up, down):  9.512E-02 0.000E+00

     total cpu time spent up to now is        6.7 secs

     total energy              =    -285.37001699 Ry
     estimated scf accuracy    <       6.97083280 Ry

     iteration #  3     ecut=    20.00 Ry     beta= 0.70
     CG style diagonalization
     ethr =  1.28E-03,  avg # of iterations =  4.9

     negative rho (up, down):  9.476E-02 0.000E+00

     total cpu time spent up to now is       10.2 secs

     total energy              =    -286.39209291 Ry
     estimated scf accuracy    <       0.14866513 Ry

     iteration #  4     ecut=    20.00 Ry     beta= 0.70
     CG style diagonalization
     ethr =  3.72E-04,  avg # of iterations =  3.3

     negative rho (up, down):  9.445E-02 0.000E+00

     total cpu time spent up to now is       12.4 secs

     total energy              =    -286.39365992 Ry
     estimated scf accuracy    <       0.06659095 Ry

     iteration #  5     ecut=    20.00 Ry     beta= 0.70
     CG style diagonalization
     ethr =  1.66E-04,  avg # of iterations =  3.4

     negative rho (up, down):  9.440E-02 0.000E+00

     total cpu time spent up to now is       14.6 secs

     total energy              =    -286.39789887 Ry
     estimated scf accuracy    <       0.00970540 Ry

     iteration #  6     ecut=    20.00 Ry     beta= 0.70
     CG style diagonalization
     ethr =  2.43E-05,  avg # of iterations =  3.7

     negative rho (up, down):  9.441E-02 0.000E+00

     total cpu time spent up to now is       17.2 secs

     total energy              =    -286.40008987 Ry
     estimated scf accuracy    <       0.00054686 Ry

     iteration #  7     ecut=    20.00 Ry     beta= 0.70
     CG style diagonalization
     ethr =  1.37E-06,  avg # of iterations =  4.2

     negative rho (up, down):  9.440E-02 0.000E+00

     total cpu time spent up to now is       20.1 secs

     total energy              =    -286.40048364 Ry
     estimated scf accuracy    <       0.00008151 Ry

     iteration #  8     ecut=    20.00 Ry     beta= 0.70
     CG style diagonalization
     ethr =  2.04E-07,  avg # of iterations =  3.7

     negative rho (up, down):  9.440E-02 0.000E+00

     total cpu time spent up to now is       22.6 secs

     total energy              =    -286.40048808 Ry
     estimated scf accuracy    <       0.00006139 Ry

     iteration #  9     ecut=    20.00 Ry     beta= 0.70
     CG style diagonalization
     ethr =  1.53E-07,  avg # of iterations =  3.3

     negative rho (up, down):  9.440E-02 0.000E+00

     total cpu time spent up to now is       24.8 secs

     total energy              =    -286.40048761 Ry
     estimated scf accuracy    <       0.00002343 Ry

     iteration # 10     ecut=    20.00 Ry     beta= 0.70
     CG style diagonalization
     ethr =  5.86E-08,  avg # of iterations =  3.3

     negative rho (up, down):  9.440E-02 0.000E+00

     total cpu time spent up to now is       27.0 secs

     total energy              =    -286.40048930 Ry
     estimated scf accuracy    <       0.00000289 Ry

     iteration # 11     ecut=    20.00 Ry     beta= 0.70
     CG style diagonalization
     ethr =  7.22E-09,  avg # of iterations =  3.5

     negative rho (up, down):  9.439E-02 0.000E+00

     total cpu time spent up to now is       29.4 secs

     total energy              =    -286.40048946 Ry
     estimated scf accuracy    <       0.00000076 Ry

     iteration # 12     ecut=    20.00 Ry     beta= 0.70
     CG style diagonalization
     ethr =  1.90E-09,  avg # of iterations =  4.0

     negative rho (up, down):  9.439E-02 0.000E+00

     total cpu time spent up to now is       32.1 secs

     total energy              =    -286.40048980 Ry
     estimated scf accuracy    <       0.00000032 Ry

     iteration # 13     ecut=    20.00 Ry     beta= 0.70
     CG style diagonalization
     ethr =  7.97E-10,  avg # of iterations =  3.4

     negative rho (up, down):  9.439E-02 0.000E+00

     total cpu time spent up to now is       34.4 secs

     total energy              =    -286.40048982 Ry
     estimated scf accuracy    <       0.00000005 Ry

     iteration # 14     ecut=    20.00 Ry     beta= 0.70
     CG style diagonalization
     ethr =  1.25E-10,  avg # of iterations =  4.1

     negative rho (up, down):  9.439E-02 0.000E+00

     total cpu time spent up to now is       37.2 secs

     total energy              =    -286.40048985 Ry
     estimated scf accuracy    <       0.00000002 Ry

     iteration # 15     ecut=    20.00 Ry     beta= 0.70
     CG style diagonalization
     ethr =  4.86E-11,  avg # of iterations =  3.4

     negative rho (up, down):  9.439E-02 0.000E+00

     total cpu time spent up to now is       39.5 secs

     End of self-consistent calculation

     Number of k-points >= 100: set verbosity='high' to print the bands.

     highest occupied level (ev):     9.5626

!    total energy              =    -286.40048984 Ry
     estimated scf accuracy    <          3.0E-09 Ry

     The total energy is the sum of the following terms:
     one-electron contribution =     -74.91660412 Ry
     hartree contribution      =      59.61289930 Ry
     xc contribution           =     -66.91057098 Ry
     ewald contribution        =    -204.18621404 Ry

     convergence has been achieved in  15 iterations

     negative rho (up, down):  9.439E-02 0.000E+00

     Forces acting on atoms (cartesian axes, Ry/au):

     atom    1 type  1   force =     0.00000000    0.00000000   -0.00451268
     atom    2 type  2   force =     0.00000000    0.00000000   -0.01957601
     atom    3 type  3   force =     0.00000000    0.00000000    0.02792679
     atom    4 type  3   force =     0.00000000    0.00000000   -0.00191905
     atom    5 type  3   force =     0.00000000    0.00000000   -0.00191905

     Total force =     0.034509     Total SCF correction =     0.000013


     Computing stress (Cartesian axis) and pressure


     negative rho (up, down):  9.439E-02 0.000E+00
          total   stress  (Ry/bohr**3)                   (kbar)     P=    -1132.82
  -0.00770665   0.00000000   0.00000000        -1133.69        0.00        0.00
   0.00000000  -0.00770665   0.00000000            0.00    -1133.69        0.00
   0.00000000   0.00000000  -0.00768906            0.00        0.00    -1131.10


     Writing all to output data dir ./BTO_k12.save/ :
     XML data file, charge density, pseudopotentials, collected wavefunctions
 
     init_run     :      0.71s CPU      0.81s WALL (       1 calls)
     electrons    :     35.03s CPU     38.41s WALL (       1 calls)
     forces       :      0.18s CPU      0.19s WALL (       1 calls)
     stress       :      1.64s CPU      1.66s WALL (       1 calls)

     Called by init_run:
     wfcinit      :      0.60s CPU      0.65s WALL (       1 calls)
     potinit      :      0.01s CPU      0.01s WALL (       1 calls)
     hinit0       :      0.08s CPU      0.11s WALL (       1 calls)

     Called by electrons:
     c_bands      :     32.36s CPU     35.44s WALL (      15 calls)
     sum_band     :      2.41s CPU      2.63s WALL (      15 calls)
     v_of_rho     :      0.01s CPU      0.01s WALL (      16 calls)
     newd         :      0.25s CPU      0.32s WALL (      16 calls)
     mix_rho      :      0.01s CPU      0.01s WALL (      15 calls)

     Called by c_bands:
     init_us_2    :      0.26s CPU      0.29s WALL (    6468 calls)
     init_us_2:cp :      0.25s CPU      0.27s WALL (    6468 calls)
     ccgdiagg     :     28.55s CPU     31.25s WALL (    2940 calls)
     wfcrot       :      4.11s CPU      4.50s WALL (    2940 calls)

     Called by *cgdiagg:
     h_psi        :     16.38s CPU     17.95s WALL (  166650 calls)
     s_psi        :      2.43s CPU      2.67s WALL (  330360 calls)

     Called by h_psi:
     h_psi:calbec :      3.11s CPU      3.41s WALL (  166650 calls)
     vloc_psi     :     10.73s CPU     11.76s WALL (  166650 calls)
     add_vuspsi   :      1.32s CPU      1.45s WALL (  166650 calls)
     hs_1psi      :     15.47s CPU     16.93s WALL (  163710 calls)
     s_1psi       :      4.56s CPU      4.98s WALL (  163710 calls)

     General routines
     calbec       :      5.59s CPU      6.11s WALL (  334280 calls)
     fft          :      0.01s CPU      0.02s WALL (     102 calls)
     ffts         :      0.00s CPU      0.00s WALL (      31 calls)
     fftw         :      9.76s CPU     10.65s WALL (  509700 calls)
     interpolate  :      0.00s CPU      0.00s WALL (      16 calls)
 
     Parallel routines
 
     PWSCF        :     38.07s CPU     42.54s WALL

 
   This run was terminated on:  15:29:43  18Oct2025            

=------------------------------------------------------------------------------=
   JOB DONE.
=------------------------------------------------------------------------------=
TACC:  Shutdown complete. Exiting. 
