TACC:  Starting up job 2388099 
TACC:  Starting parallel tasks... 

     Program PWSCF v.7.3 starts on 19Sep2025 at 17:24:46 

     This program is part of the open-source Quantum ESPRESSO suite
     for quantum simulation of materials; please cite
         "P. Giannozzi et al., J. Phys.:Condens. Matter 21 395502 (2009);
         "P. Giannozzi et al., J. Phys.:Condens. Matter 29 465901 (2017);
         "P. Giannozzi et al., J. Chem. Phys. 152 154105 (2020);
          URL http://www.quantum-espresso.org", 
     in publications or presentations arising from this work. More details at
     http://www.quantum-espresso.org/quote

     Parallel version (MPI & OpenMP), running on      10 processor cores
     Number of MPI processes:                10
     Threads/MPI process:                     1

     MPI processes distributed on     1 nodes
     188177 MiB available memory on the printing compute node when the environment starts
 
     Waiting for input...
     Reading input from standard input
Warning: card &CELL ignored
Warning: card  CELL_DYNAMICS = 'BFGS', ignored
Warning: card  PRESS=0.D0, ignored
Warning: card / ignored
     Message from routine read_cards :
     DEPRECATED: no units specified in ATOMIC_POSITIONS card
     Message from routine read_cards :
     ATOMIC_POSITIONS: units set to alat

     Current dimensions of program PWSCF are:
     Max number of different atomic species (ntypx) = 10
     Max number of k-points (npk) =  40000
     Max angular momentum in pseudopotentials (lmaxx) =  4
 
     R & G space division:  proc/nbgrp/npool/nimage =      10
     Subspace diagonalization in iterative solution of the eigenvalue problem:
     a serial algorithm will be used

 
     Parallelization info
     --------------------
     sticks:   dense  smooth     PW     G-vecs:    dense   smooth      PW
     Min         173      68     21                 5381     1360     237
     Max         175      69     23                 5382     1363     238
     Sum        1733     681    221                53811    13613    2373
 
     Using Slab Decomposition
 


     bravais-lattice index     =            1
     lattice parameter (alat)  =       7.3573  a.u.
     unit-cell volume          =     398.2496 (a.u.)^3
     number of atoms/cell      =            5
     number of atomic types    =            3
     number of electrons       =        40.00
     number of Kohn-Sham states=           20
     kinetic-energy cutoff     =      40.0000  Ry
     charge density cutoff     =     400.0000  Ry
     scf convergence threshold =      1.0E-08
     mixing beta               =       0.7000
     number of iterations used =            8  plain     mixing
     Exchange-correlation= SLA  PZ   NOGX NOGC
                           (   1   1   0   0   0   0   0)

     celldm(1)=   7.357300  celldm(2)=   0.000000  celldm(3)=   0.000000
     celldm(4)=   0.000000  celldm(5)=   0.000000  celldm(6)=   0.000000

     crystal axes: (cart. coord. in units of alat)
               a(1) = (   1.000000   0.000000   0.000000 )  
               a(2) = (   0.000000   1.000000   0.000000 )  
               a(3) = (   0.000000   0.000000   1.000000 )  

     reciprocal axes: (cart. coord. in units 2 pi/alat)
               b(1) = (  1.000000  0.000000  0.000000 )  
               b(2) = (  0.000000  1.000000  0.000000 )  
               b(3) = (  0.000000  0.000000  1.000000 )  


     PseudoPot. # 1 for Ca read from file:
     /scratch/11018/zhc/assisgnment1/CaTiO3/Ca_LDA.UPF
     MD5 check sum: d2d4e7693e10d071152e9eeb7dd009f3
     Pseudo is Ultrasoft + core correction, Zval = 10.0
     Generated by new atomic code, or converted to UPF format
     Using radial grid of  845 points,  6 beta functions with: 
                l(1) =   0
                l(2) =   0
                l(3) =   1
                l(4) =   1
                l(5) =   2
                l(6) =   2
     Q(r) pseudized with  8 coefficients,  rinner =    1.500   1.500   1.500
                                                       1.500   1.500

     PseudoPot. # 2 for Ti read from file:
     /scratch/11018/zhc/assisgnment1/CaTiO3/Ti_LDA.UPF
     MD5 check sum: 0d9f225c038fe889ca2a701dcc8d72cb
     Pseudo is Ultrasoft + core correction, Zval = 12.0
     Generated by new atomic code, or converted to UPF format
     Using radial grid of  851 points,  6 beta functions with: 
                l(1) =   0
                l(2) =   0
                l(3) =   1
                l(4) =   1
                l(5) =   2
                l(6) =   2
     Q(r) pseudized with  6 coefficients,  rinner =    1.000   1.000   1.000
                                                       1.000   1.000

     PseudoPot. # 3 for O  read from file:
     /scratch/11018/zhc/assisgnment1/CaTiO3/O_LDA.UPF
     MD5 check sum: 194b818514d2a7dbb603bb78519a4f40
     Pseudo is Ultrasoft + core correction, Zval =  6.0
     Generated by new atomic code, or converted to UPF format
     Using radial grid of  737 points,  5 beta functions with: 
                l(1) =   0
                l(2) =   0
                l(3) =   1
                l(4) =   1
                l(5) =   2
     Q(r) pseudized with  8 coefficients,  rinner =    0.900   0.900   0.900
                                                       0.900   0.900

     atomic species   valence    mass     pseudopotential
     Ca               10.00    40.07800     Ca( 1.00)
     Ti               12.00    47.88000     Ti( 1.00)
     O                 6.00    16.00000     O ( 1.00)

      8 Sym. Ops. (no inversion) found



   Cartesian axes

     site n.     atom                  positions (alat units)
         1        Ca     tau(   1) = (   0.0000000   0.0000000   0.0500000  )
         2        Ti     tau(   2) = (   0.5000000   0.5000000   0.5000000  )
         3        O      tau(   3) = (   0.5000000   0.5000000   0.0000000  )
         4        O      tau(   4) = (   0.5000000   0.0000000   0.5000000  )
         5        O      tau(   5) = (   0.0000000   0.5000000   0.5000000  )

     number of k points=    40
                       cart. coord. in units 2pi/alat
        k(    1) = (   0.0000000   0.0000000   0.0000000), wk =   0.0092593
        k(    2) = (   0.0000000   0.0000000   0.1666667), wk =   0.0185185
        k(    3) = (   0.0000000   0.0000000   0.3333333), wk =   0.0185185
        k(    4) = (   0.0000000   0.0000000  -0.5000000), wk =   0.0092593
        k(    5) = (   0.0000000   0.1666667   0.1666667), wk =   0.0740741
        k(    6) = (   0.0000000   0.1666667   0.3333333), wk =   0.0740741
        k(    7) = (   0.0000000   0.1666667  -0.5000000), wk =   0.0370370
        k(    8) = (   0.0000000   0.3333333   0.3333333), wk =   0.0740741
        k(    9) = (   0.0000000   0.3333333  -0.5000000), wk =   0.0370370
        k(   10) = (   0.0000000  -0.5000000  -0.5000000), wk =   0.0185185
        k(   11) = (   0.1666667   0.1666667   0.1666667), wk =   0.0740741
        k(   12) = (   0.1666667   0.1666667   0.3333333), wk =   0.0740741
        k(   13) = (   0.1666667   0.1666667  -0.5000000), wk =   0.0370370
        k(   14) = (   0.1666667   0.3333333   0.3333333), wk =   0.1481481
        k(   15) = (   0.1666667   0.3333333  -0.5000000), wk =   0.0740741
        k(   16) = (   0.1666667  -0.5000000  -0.5000000), wk =   0.0370370
        k(   17) = (   0.3333333   0.3333333   0.3333333), wk =   0.0740741
        k(   18) = (   0.3333333   0.3333333  -0.5000000), wk =   0.0370370
        k(   19) = (   0.3333333  -0.5000000  -0.5000000), wk =   0.0370370
        k(   20) = (  -0.5000000  -0.5000000  -0.5000000), wk =   0.0092593
        k(   21) = (   0.1666667   0.0000000   0.0000000), wk =   0.0370370
        k(   22) = (   0.3333333   0.0000000   0.0000000), wk =   0.0370370
        k(   23) = (  -0.5000000   0.0000000   0.0000000), wk =   0.0185185
        k(   24) = (   0.1666667  -0.1666667   0.0000000), wk =   0.0370370
        k(   25) = (   0.3333333  -0.1666667   0.0000000), wk =   0.0740741
        k(   26) = (   0.0000000   0.3333333   0.1666667), wk =   0.0740741
        k(   27) = (  -0.5000000  -0.1666667   0.0000000), wk =   0.0370370
        k(   28) = (   0.0000000  -0.5000000   0.1666667), wk =   0.0370370
        k(   29) = (   0.3333333  -0.3333333   0.0000000), wk =   0.0370370
        k(   30) = (  -0.5000000  -0.3333333   0.0000000), wk =   0.0370370
        k(   31) = (   0.0000000  -0.5000000   0.3333333), wk =   0.0370370
        k(   32) = (  -0.5000000   0.5000000   0.0000000), wk =   0.0092593
        k(   33) = (   0.3333333  -0.1666667   0.1666667), wk =   0.1481481
        k(   34) = (  -0.5000000  -0.1666667   0.1666667), wk =   0.0740741
        k(   35) = (   0.3333333  -0.3333333   0.1666667), wk =   0.0740741
        k(   36) = (  -0.5000000  -0.3333333   0.1666667), wk =   0.0740741
        k(   37) = (  -0.1666667  -0.5000000   0.3333333), wk =   0.0740741
        k(   38) = (  -0.5000000   0.5000000   0.1666667), wk =   0.0185185
        k(   39) = (  -0.5000000  -0.3333333   0.3333333), wk =   0.0740741
        k(   40) = (  -0.5000000   0.5000000   0.3333333), wk =   0.0185185

     Dense  grid:    53811 G-vectors     FFT dimensions: (  48,  48,  48)

     Smooth grid:    13613 G-vectors     FFT dimensions: (  30,  30,  30)

     Estimated max dynamical RAM per process >      26.97 MB

     Estimated total dynamical RAM >     269.71 MB

     Check: negative core charge=   -0.000005

     Initial potential from superposition of free atoms

     starting charge      38.9952, renormalised to      40.0000

     negative rho (up, down):  6.523E-04 0.000E+00
     Starting wfcs are   32 randomized atomic wfcs

     total cpu time spent up to now is        0.7 secs

     Self-consistent Calculation

     iteration #  1     ecut=    40.00 Ry     beta= 0.70
     CG style diagonalization
     ethr =  1.00E-02,  avg # of iterations =  2.2

     negative rho (up, down):  8.404E-04 0.000E+00

     total cpu time spent up to now is        1.3 secs

     total energy              =    -291.29653386 Ry
     estimated scf accuracy    <       0.83000384 Ry

     iteration #  2     ecut=    40.00 Ry     beta= 0.70
     CG style diagonalization
     ethr =  2.08E-03,  avg # of iterations =  5.3

     negative rho (up, down):  5.507E-04 0.000E+00

     total cpu time spent up to now is        2.4 secs

     total energy              =    -290.57982872 Ry
     estimated scf accuracy    <       6.77744225 Ry

     iteration #  3     ecut=    40.00 Ry     beta= 0.70
     CG style diagonalization
     ethr =  2.08E-03,  avg # of iterations =  4.5

     negative rho (up, down):  5.978E-04 0.000E+00

     total cpu time spent up to now is        3.3 secs

     total energy              =    -291.72965076 Ry
     estimated scf accuracy    <       0.19129722 Ry

     iteration #  4     ecut=    40.00 Ry     beta= 0.70
     CG style diagonalization
     ethr =  4.78E-04,  avg # of iterations =  3.4

     negative rho (up, down):  6.305E-04 0.000E+00

     total cpu time spent up to now is        4.0 secs

     total energy              =    -291.73746113 Ry
     estimated scf accuracy    <       0.05493966 Ry

     iteration #  5     ecut=    40.00 Ry     beta= 0.70
     CG style diagonalization
     ethr =  1.37E-04,  avg # of iterations =  3.6

     negative rho (up, down):  6.436E-04 0.000E+00

     total cpu time spent up to now is        4.8 secs

     total energy              =    -291.74741440 Ry
     estimated scf accuracy    <       0.00104105 Ry

     iteration #  6     ecut=    40.00 Ry     beta= 0.70
     CG style diagonalization
     ethr =  2.60E-06,  avg # of iterations =  4.6

     negative rho (up, down):  6.502E-04 0.000E+00

     total cpu time spent up to now is        5.7 secs

     total energy              =    -291.74868761 Ry
     estimated scf accuracy    <       0.00072791 Ry

     iteration #  7     ecut=    40.00 Ry     beta= 0.70
     CG style diagonalization
     ethr =  1.82E-06,  avg # of iterations =  3.3

     negative rho (up, down):  6.469E-04 0.000E+00

     total cpu time spent up to now is        6.4 secs

     total energy              =    -291.74863809 Ry
     estimated scf accuracy    <       0.00037210 Ry

     iteration #  8     ecut=    40.00 Ry     beta= 0.70
     CG style diagonalization
     ethr =  9.30E-07,  avg # of iterations =  3.4

     negative rho (up, down):  6.460E-04 0.000E+00

     total cpu time spent up to now is        7.1 secs

     total energy              =    -291.74867070 Ry
     estimated scf accuracy    <       0.00003914 Ry

     iteration #  9     ecut=    40.00 Ry     beta= 0.70
     CG style diagonalization
     ethr =  9.79E-08,  avg # of iterations =  3.8

     negative rho (up, down):  6.455E-04 0.000E+00

     total cpu time spent up to now is        7.8 secs

     total energy              =    -291.74868090 Ry
     estimated scf accuracy    <       0.00000145 Ry

     iteration # 10     ecut=    40.00 Ry     beta= 0.70
     CG style diagonalization
     ethr =  3.62E-09,  avg # of iterations =  4.5

     negative rho (up, down):  6.456E-04 0.000E+00

     total cpu time spent up to now is        8.8 secs

     total energy              =    -291.74868274 Ry
     estimated scf accuracy    <       0.00000060 Ry

     iteration # 11     ecut=    40.00 Ry     beta= 0.70
     CG style diagonalization
     ethr =  1.49E-09,  avg # of iterations =  3.3

     negative rho (up, down):  6.457E-04 0.000E+00

     total cpu time spent up to now is        9.5 secs

     total energy              =    -291.74868274 Ry
     estimated scf accuracy    <       0.00000018 Ry

     iteration # 12     ecut=    40.00 Ry     beta= 0.70
     CG style diagonalization
     ethr =  4.45E-10,  avg # of iterations =  3.7

     negative rho (up, down):  6.457E-04 0.000E+00

     total cpu time spent up to now is       10.2 secs

     total energy              =    -291.74868279 Ry
     estimated scf accuracy    <       0.00000001 Ry

     iteration # 13     ecut=    40.00 Ry     beta= 0.70
     CG style diagonalization
     ethr =  3.59E-11,  avg # of iterations =  3.8

     negative rho (up, down):  6.457E-04 0.000E+00

     total cpu time spent up to now is       11.0 secs

     End of self-consistent calculation

          k = 0.0000 0.0000 0.0000 (  1743 PWs)   bands (ev):

   -47.1753 -30.1504 -23.7707 -23.7707 -23.7619 -11.3728 -11.3509 -11.3509
    -8.5696  -7.4927  -7.4427   5.5467   5.5514   5.5514   7.4461   7.4523
     7.4523   8.1770   8.1770   8.1925

          k = 0.0000 0.0000 0.1667 (  1723 PWs)   bands (ev):

   -47.1750 -30.1489 -23.7799 -23.7698 -23.7698 -11.4344 -11.3481 -11.3481
    -8.4123  -7.4827  -7.3657   5.2493   5.5668   5.5668   7.1073   7.1073
     7.2293   7.3868   8.0363   8.0363

          k = 0.0000 0.0000 0.3333 (  1727 PWs)   bands (ev):

   -47.1744 -30.1460 -23.8155 -23.7681 -23.7681 -11.5490 -11.3426 -11.3426
    -8.0963  -7.4626  -7.2025   4.6004   5.6475   5.6475   6.2935   6.4680
     6.4680   6.8492   7.9142   7.9142

          k = 0.0000 0.0000-0.5000 (  1686 PWs)   bands (ev):

   -47.1741 -30.1445 -23.8331 -23.7673 -23.7673 -11.6028 -11.3398 -11.3398
    -7.9389  -7.4525  -7.1128   4.2369   5.7867   5.7867   5.9013   6.0931
     6.0931   6.6791   7.8730   7.8730

          k = 0.0000 0.1667 0.1667 (  1715 PWs)   bands (ev):

   -47.1747 -30.1474 -23.7880 -23.7792 -23.7690 -11.4379 -11.3912 -11.3453
    -8.2678  -7.4331  -7.3335   5.0719   5.4198   5.5789   6.4011   6.8694
     7.2694   7.3789   7.7071   7.8140

          k = 0.0000 0.1667 0.3333 (  1711 PWs)   bands (ev):

   -47.1741 -30.1444 -23.8150 -23.7864 -23.7673 -11.5291 -11.3848 -11.3394
    -7.9944  -7.4061  -7.1700   4.5541   5.1704   5.6480   5.6498   6.3604
     6.6115   7.3229   7.5949   7.6100

          k = 0.0000 0.1667-0.5000 (  1704 PWs)   bands (ev):

   -47.1738 -30.1429 -23.8327 -23.7857 -23.7664 -11.5759 -11.3781 -11.3365
    -7.8673  -7.3900  -7.0719   4.2334   4.9129   5.5047   5.7809   6.0198
     6.3912   7.3164   7.5089   7.5334

          k = 0.0000 0.3333 0.3333 (  1682 PWs)   bands (ev):

   -47.1736 -30.1412 -23.8228 -23.8139 -23.7656 -11.4991 -11.4569 -11.3331
    -7.8522  -7.2255  -7.0915   4.2463   4.7164   4.7845   5.6795   6.0863
     6.6689   6.8401   7.1997   8.1893

          k = 0.0000 0.3333-0.5000 (  1686 PWs)   bands (ev):

   -47.1733 -30.1396 -23.8318 -23.8222 -23.7648 -11.5220 -11.4528 -11.3298
    -7.8161  -7.1527  -6.9893   4.0840   4.2029   4.7002   5.7624   5.8790
     6.6090   6.8026   7.0599   8.3290

          k = 0.0000-0.5000-0.5000 (  1692 PWs)   bands (ev):

   -47.1730 -30.1379 -23.8403 -23.8313 -23.7640 -11.4927 -11.4915 -11.3265
    -7.8196  -6.9908  -6.9491   3.7858   4.0571   4.3697   5.7483   5.8111
     6.6877   6.7162   6.8794   8.5843

          k = 0.1667 0.1667 0.1667 (  1719 PWs)   bands (ev):

   -47.1744 -30.1458 -23.7873 -23.7871 -23.7784 -11.4395 -11.3856 -11.3826
    -8.1297  -7.3671  -7.3281   4.9096   5.4049   5.4091   6.3016   6.3062
     6.7720   7.6117   7.6517   7.7289

          k = 0.1667 0.1667 0.3333 (  1704 PWs)   bands (ev):

   -47.1738 -30.1428 -23.8143 -23.7857 -23.7855 -11.5115 -11.3856 -11.3709
    -7.8731  -7.3643  -7.1547   4.5082   5.0825   5.3246   5.5304   5.7895
     6.5965   7.4084   7.5479   7.7401

          k = 0.1667 0.1667-0.5000 (  1688 PWs)   bands (ev):

   -47.1736 -30.1413 -23.8321 -23.7850 -23.7846 -11.5524 -11.3792 -11.3650
    -7.7556  -7.3630  -7.0468   4.2324   4.8040   5.2173   5.3124   5.6810
     6.6554   7.2615   7.5206   7.6615

          k = 0.1667 0.3333 0.3333 (  1693 PWs)   bands (ev):

   -47.1733 -30.1396 -23.8219 -23.8130 -23.7839 -11.4851 -11.4456 -11.3651
    -7.6940  -7.2151  -7.1062   4.2697   4.7476   4.7889   5.1964   5.4439
     6.1421   7.4460   7.5171   8.2077

          k = 0.1667 0.3333-0.5000 (  1706 PWs)   bands (ev):

   -47.1730 -30.1380 -23.8309 -23.8213 -23.7831 -11.5056 -11.4424 -11.3597
    -7.6501  -7.1702  -6.9957   4.1782   4.2062   4.6946   5.1412   5.2943
     6.1391   7.4395   7.4630   8.3453

          k = 0.1667-0.5000-0.5000 (  1696 PWs)   bands (ev):

   -47.1727 -30.1364 -23.8393 -23.8303 -23.7822 -11.4794 -11.4787 -11.3544
    -7.6466  -7.0111  -6.9704   3.9104   4.0649   4.3741   5.1236   5.1646
     6.0913   7.4256   7.4783   8.6016

          k = 0.3333 0.3333 0.3333 (  1709 PWs)   bands (ev):

   -47.1727 -30.1365 -23.8204 -23.8202 -23.8112 -11.4613 -11.4258 -11.4211
    -7.3959  -7.1589  -7.1307   4.2382   4.6827   4.6903   4.8461   4.9031
     4.9285   7.9858   8.0348   8.3161

          k = 0.3333 0.3333-0.5000 (  1706 PWs)   bands (ev):

   -47.1725 -30.1349 -23.8290 -23.8196 -23.8191 -11.4727 -11.4253 -11.4148
    -7.3273  -7.1738  -7.0076   4.1839   4.3112   4.5279   4.5743   4.8418
     4.9208   8.0523   8.2135   8.4409

          k = 0.3333-0.5000-0.5000 (  1700 PWs)   bands (ev):

   -47.1722 -30.1334 -23.8373 -23.8281 -23.8184 -11.4528 -11.4525 -11.4093
    -7.2753  -7.0525  -7.0135   4.0499   4.1678   4.3829   4.5004   4.5292
     4.8257   8.2682   8.3276   8.6368

          k =-0.5000-0.5000-0.5000 (  1736 PWs)   bands (ev):

   -47.1719 -30.1319 -23.8364 -23.8364 -23.8271 -11.4394 -11.4394 -11.4364
    -7.0735  -7.0735  -7.0364   3.9328   4.2772   4.3012   4.3012   4.3711
     4.3922   8.5977   8.6533   8.6533

          k = 0.1667 0.0000 0.0000 (  1723 PWs)   bands (ev):

   -47.1750 -30.1489 -23.7887 -23.7698 -23.7611 -11.4195 -11.3646 -11.3482
    -8.4084  -7.4548  -7.3959   5.2428   5.5656   5.5672   7.0882   7.0982
     7.2470   7.3818   8.0574   8.0650

          k = 0.3333 0.0000 0.0000 (  1727 PWs)   bands (ev):

   -47.1744 -30.1459 -23.8245 -23.7681 -23.7594 -11.5395 -11.3562 -11.3428
    -8.0820  -7.4340  -7.2412   4.5747   5.6525   5.6581   6.2922   6.4337
     6.4501   6.9030   7.9503   7.9516

          k =-0.5000 0.0000 0.0000 (  1686 PWs)   bands (ev):

   -47.1741 -30.1444 -23.8422 -23.7672 -23.7586 -11.5958 -11.3517 -11.3401
    -7.9176  -7.4260  -7.1553   4.2040   5.8241   5.8507   5.8996   6.0244
     6.0253   6.7473   7.9121   7.9129

          k = 0.1667-0.1667 0.0000 (  1715 PWs)   bands (ev):

   -47.1747 -30.1474 -23.7882 -23.7877 -23.7603 -11.4288 -11.3884 -11.3587
    -8.2634  -7.4009  -7.3685   5.0585   5.4202   5.5803   6.3927   6.8771
     7.3041   7.4036   7.6558   7.8353

          k = 0.3333-0.1667 0.0000 (  1711 PWs)   bands (ev):

   -47.1741 -30.1443 -23.8240 -23.7865 -23.7586 -11.5203 -11.3873 -11.3498
    -7.9773  -7.3812  -7.2076   4.5253   5.1425   5.6277   5.7027   6.3614
     6.6485   7.3674   7.5602   7.6333

          k = 0.0000 0.3333 0.1667 (  1711 PWs)   bands (ev):

   -47.1741 -30.1443 -23.8239 -23.7777 -23.7672 -11.5212 -11.3953 -11.3396
    -7.9855  -7.3795  -7.2028   4.5316   5.1578   5.6523   5.6917   6.3357
     6.5901   7.3564   7.6184   7.6286

          k =-0.5000-0.1667 0.0000 (  1704 PWs)   bands (ev):

   -47.1738 -30.1427 -23.8418 -23.7857 -23.7578 -11.5694 -11.3809 -11.3451
    -7.8415  -7.3704  -7.1119   4.1977   4.8827   5.5215   5.8435   5.9827
     6.4322   7.3657   7.4632   7.5721

          k = 0.0000-0.5000 0.1667 (  1704 PWs)   bands (ev):

   -47.1738 -30.1428 -23.8418 -23.7770 -23.7664 -11.5700 -11.3875 -11.3367
    -7.8546  -7.3572  -7.1138   4.1992   4.9057   5.5580   5.8231   5.9527
     6.3705   7.3550   7.5315   7.5626

          k = 0.3333-0.3333 0.0000 (  1682 PWs)   bands (ev):

   -47.1736 -30.1410 -23.8232 -23.8227 -23.7570 -11.4926 -11.4582 -11.3418
    -7.8257  -7.2240  -7.1148   4.2255   4.6991   4.7641   5.7076   6.1037
     6.7117   6.8741   7.2300   8.1152

          k =-0.5000-0.3333 0.0000 (  1686 PWs)   bands (ev):

   -47.1733 -30.1394 -23.8410 -23.8224 -23.7562 -11.5169 -11.4547 -11.3377
    -7.7831  -7.1424  -7.0264   4.0703   4.1603   4.7003   5.8189   5.8652
     6.6331   6.8545   7.0981   8.2564

          k = 0.0000-0.5000 0.3333 (  1686 PWs)   bands (ev):

   -47.1733 -30.1395 -23.8408 -23.8133 -23.7648 -11.5184 -11.4574 -11.3299
    -7.8142  -7.1112  -7.0315   4.0832   4.1689   4.7377   5.8148   5.8171
     6.5850   6.8361   7.0703   8.3351

          k =-0.5000 0.5000 0.0000 (  1692 PWs)   bands (ev):

   -47.1730 -30.1377 -23.8406 -23.8406 -23.7553 -11.4907 -11.4907 -11.3338
    -7.7847  -6.9842  -6.9842   3.7775   4.0269   4.3536   5.8017   5.8017
     6.7340   6.7340   6.9178   8.5060

          k = 0.3333-0.1667 0.1667 (  1704 PWs)   bands (ev):

   -47.1738 -30.1427 -23.8233 -23.7856 -23.7768 -11.5041 -11.3953 -11.3712
    -7.8614  -7.3389  -7.1890   4.4831   5.0671   5.3153   5.5478   5.8167
     6.6229   7.3789   7.5970   7.7318

          k =-0.5000-0.1667 0.1667 (  1688 PWs)   bands (ev):

   -47.1736 -30.1412 -23.8412 -23.7848 -23.7761 -11.5469 -11.3890 -11.3644
    -7.7375  -7.3378  -7.0862   4.1958   4.7806   5.2071   5.3524   5.7122
     6.6880   7.2282   7.5755   7.6528

          k = 0.3333-0.3333 0.1667 (  1693 PWs)   bands (ev):

   -47.1733 -30.1395 -23.8221 -23.8219 -23.7752 -11.4795 -11.4475 -11.3711
    -7.6704  -7.2125  -7.1294   4.2499   4.7385   4.7634   5.2163   5.4571
     6.1814   7.4963   7.5266   8.1441

          k =-0.5000-0.3333 0.1667 (  1706 PWs)   bands (ev):

   -47.1730 -30.1379 -23.8401 -23.8214 -23.7743 -11.5010 -11.4452 -11.3650
    -7.6175  -7.1615  -7.0325   4.1609   4.1656   4.6977   5.1400   5.3342
     6.1800   7.4488   7.5181   8.2788

          k =-0.1667-0.5000 0.3333 (  1706 PWs)   bands (ev):

   -47.1730 -30.1380 -23.8399 -23.8123 -23.7831 -11.5019 -11.4476 -11.3593
    -7.6475  -7.1314  -7.0358   4.1721   4.1761   4.7317   5.1053   5.3324
     6.1454   7.3915   7.5141   8.3495

          k =-0.5000 0.5000 0.1667 (  1696 PWs)   bands (ev):

   -47.1727 -30.1362 -23.8395 -23.8395 -23.7734 -11.4781 -11.4781 -11.3597
    -7.6108  -7.0063  -7.0063   3.8988   4.0375   4.3579   5.1629   5.1629
     6.1305   7.4830   7.4830   8.5285

          k =-0.5000-0.3333 0.3333 (  1706 PWs)   bands (ev):

   -47.1725 -30.1349 -23.8382 -23.8194 -23.8103 -11.4689 -11.4343 -11.4106
    -7.3117  -7.1502  -7.0455   4.1538   4.2940   4.5186   4.5949   4.8560
     4.9500   8.1152   8.1751   8.4179

          k =-0.5000 0.5000 0.3333 (  1700 PWs)   bands (ev):

   -47.1722 -30.1333 -23.8374 -23.8374 -23.8093 -11.4524 -11.4524 -11.4110
    -7.2379  -7.0509  -7.0509   4.0308   4.1485   4.3667   4.5283   4.5283
     4.8601   8.3278   8.3278   8.5743

     highest occupied level (ev):     8.6533

!    total energy              =    -291.74868279 Ry
     estimated scf accuracy    <          4.1E-09 Ry

     The total energy is the sum of the following terms:
     one-electron contribution =     -94.04048386 Ry
     hartree contribution      =      66.23481570 Ry
     xc contribution           =     -51.22309827 Ry
     ewald contribution        =    -212.71991636 Ry

     convergence has been achieved in  13 iterations

     negative rho (up, down):  6.457E-04 0.000E+00

     Forces acting on atoms (cartesian axes, Ry/au):

     atom    1 type  1   force =     0.00000000    0.00000000   -0.00156680
     atom    2 type  2   force =     0.00000000    0.00000000    0.01672737
     atom    3 type  3   force =     0.00000000    0.00000000    0.00789076
     atom    4 type  3   force =     0.00000000    0.00000000   -0.01152567
     atom    5 type  3   force =     0.00000000    0.00000000   -0.01152567

     Total force =     0.024702     Total SCF correction =     0.000045


     Computing stress (Cartesian axis) and pressure


     negative rho (up, down):  6.457E-04 0.000E+00
          total   stress  (Ry/bohr**3)                   (kbar)     P=     -113.11
  -0.00077000   0.00000000   0.00000000         -113.27        0.00        0.00
   0.00000000  -0.00077000   0.00000000            0.00     -113.27        0.00
   0.00000000   0.00000000  -0.00076669            0.00        0.00     -112.78


     Writing all to output data dir ./CTO.save/ :
     XML data file, charge density, pseudopotentials, collected wavefunctions
 
     init_run     :      0.33s CPU      0.42s WALL (       1 calls)
     electrons    :      9.70s CPU     10.31s WALL (       1 calls)
     forces       :      0.08s CPU      0.09s WALL (       1 calls)
     stress       :      0.79s CPU      0.79s WALL (       1 calls)

     Called by init_run:
     wfcinit      :      0.17s CPU      0.21s WALL (       1 calls)
     potinit      :      0.01s CPU      0.02s WALL (       1 calls)
     hinit0       :      0.09s CPU      0.11s WALL (       1 calls)

     Called by electrons:
     c_bands      :      8.26s CPU      8.79s WALL (      13 calls)
     sum_band     :      1.06s CPU      1.09s WALL (      13 calls)
     v_of_rho     :      0.02s CPU      0.02s WALL (      14 calls)
     newd         :      0.37s CPU      0.41s WALL (      14 calls)
     mix_rho      :      0.01s CPU      0.02s WALL (      13 calls)

     Called by c_bands:
     init_us_2    :      0.08s CPU      0.09s WALL (    1160 calls)
     init_us_2:cp :      0.08s CPU      0.08s WALL (    1160 calls)
     ccgdiagg     :      7.13s CPU      7.59s WALL (     520 calls)
     wfcrot       :      1.22s CPU      1.31s WALL (     520 calls)

     Called by *cgdiagg:
     h_psi        :      4.78s CPU      5.09s WALL (   30521 calls)
     s_psi        :      0.54s CPU      0.58s WALL (   60522 calls)

     Called by h_psi:
     h_psi:calbec :      0.71s CPU      0.76s WALL (   30521 calls)
     vloc_psi     :      3.54s CPU      3.77s WALL (   30521 calls)
     add_vuspsi   :      0.30s CPU      0.32s WALL (   30521 calls)
     hs_1psi      :      4.22s CPU      4.49s WALL (   30001 calls)
     s_1psi       :      0.99s CPU      1.05s WALL (   30001 calls)

     General routines
     calbec       :      1.29s CPU      1.38s WALL (   61242 calls)
     fft          :      0.01s CPU      0.02s WALL (      90 calls)
     ffts         :      0.00s CPU      0.01s WALL (      27 calls)
     fftw         :      3.30s CPU      3.49s WALL (   92162 calls)
     interpolate  :      0.00s CPU      0.01s WALL (      14 calls)
 
     Parallel routines
 
     PWSCF        :     11.15s CPU     12.25s WALL

 
   This run was terminated on:  17:24:58  19Sep2025            

=------------------------------------------------------------------------------=
   JOB DONE.
=------------------------------------------------------------------------------=
TACC:  Shutdown complete. Exiting. 
