TACC:  Starting up job 2406220 
TACC:  Starting parallel tasks... 

     Program PWSCF v.7.3 starts on 23Sep2025 at 23:59: 1 

     This program is part of the open-source Quantum ESPRESSO suite
     for quantum simulation of materials; please cite
         "P. Giannozzi et al., J. Phys.:Condens. Matter 21 395502 (2009);
         "P. Giannozzi et al., J. Phys.:Condens. Matter 29 465901 (2017);
         "P. Giannozzi et al., J. Chem. Phys. 152 154105 (2020);
          URL http://www.quantum-espresso.org", 
     in publications or presentations arising from this work. More details at
     http://www.quantum-espresso.org/quote

     Parallel version (MPI & OpenMP), running on      10 processor cores
     Number of MPI processes:                10
     Threads/MPI process:                     1

     MPI processes distributed on     1 nodes
     186695 MiB available memory on the printing compute node when the environment starts
 
     Waiting for input...
     Reading input from standard input
Warning: card &CELL ignored
Warning: card  CELL_DYNAMICS = 'BFGS', ignored
Warning: card  PRESS=0.D0, ignored
Warning: card / ignored
     Message from routine read_cards :
     DEPRECATED: no units specified in ATOMIC_POSITIONS card
     Message from routine read_cards :
     ATOMIC_POSITIONS: units set to alat

     Current dimensions of program PWSCF are:
     Max number of different atomic species (ntypx) = 10
     Max number of k-points (npk) =  40000
     Max angular momentum in pseudopotentials (lmaxx) =  4
 
     R & G space division:  proc/nbgrp/npool/nimage =      10
     Subspace diagonalization in iterative solution of the eigenvalue problem:
     a serial algorithm will be used

 
     Parallelization info
     --------------------
     sticks:   dense  smooth     PW     G-vecs:    dense   smooth      PW
     Min         304     120     35                12612     3190     513
     Max         305     121     36                12615     3195     514
     Sum        3045    1209    357               126131    31919    5137
 
     Using Slab Decomposition
 


     bravais-lattice index     =            1
     lattice parameter (alat)  =       7.3907  a.u.
     unit-cell volume          =     403.7050 (a.u.)^3
     number of atoms/cell      =            5
     number of atomic types    =            3
     number of electrons       =        40.00
     number of Kohn-Sham states=           20
     kinetic-energy cutoff     =      70.0000  Ry
     charge density cutoff     =     700.0000  Ry
     scf convergence threshold =      1.0E-08
     mixing beta               =       0.7000
     number of iterations used =            8  plain     mixing
     Exchange-correlation= SLA  PZ   NOGX NOGC
                           (   1   1   0   0   0   0   0)

     celldm(1)=   7.390742  celldm(2)=   0.000000  celldm(3)=   0.000000
     celldm(4)=   0.000000  celldm(5)=   0.000000  celldm(6)=   0.000000

     crystal axes: (cart. coord. in units of alat)
               a(1) = (   1.000000   0.000000   0.000000 )  
               a(2) = (   0.000000   1.000000   0.000000 )  
               a(3) = (   0.000000   0.000000   1.000000 )  

     reciprocal axes: (cart. coord. in units 2 pi/alat)
               b(1) = (  1.000000  0.000000  0.000000 )  
               b(2) = (  0.000000  1.000000  0.000000 )  
               b(3) = (  0.000000  0.000000  1.000000 )  


     PseudoPot. # 1 for Ca read from file:
     /scratch/11018/zhc/assisgnment1/CaTiO3/Ca_LDA.UPF
     MD5 check sum: d2d4e7693e10d071152e9eeb7dd009f3
     Pseudo is Ultrasoft + core correction, Zval = 10.0
     Generated by new atomic code, or converted to UPF format
     Using radial grid of  845 points,  6 beta functions with: 
                l(1) =   0
                l(2) =   0
                l(3) =   1
                l(4) =   1
                l(5) =   2
                l(6) =   2
     Q(r) pseudized with  8 coefficients,  rinner =    1.500   1.500   1.500
                                                       1.500   1.500

     PseudoPot. # 2 for Ti read from file:
     /scratch/11018/zhc/assisgnment1/CaTiO3/Ti_LDA.UPF
     MD5 check sum: 0d9f225c038fe889ca2a701dcc8d72cb
     Pseudo is Ultrasoft + core correction, Zval = 12.0
     Generated by new atomic code, or converted to UPF format
     Using radial grid of  851 points,  6 beta functions with: 
                l(1) =   0
                l(2) =   0
                l(3) =   1
                l(4) =   1
                l(5) =   2
                l(6) =   2
     Q(r) pseudized with  6 coefficients,  rinner =    1.000   1.000   1.000
                                                       1.000   1.000

     PseudoPot. # 3 for O  read from file:
     /scratch/11018/zhc/assisgnment1/CaTiO3/O_LDA.UPF
     MD5 check sum: 194b818514d2a7dbb603bb78519a4f40
     Pseudo is Ultrasoft + core correction, Zval =  6.0
     Generated by new atomic code, or converted to UPF format
     Using radial grid of  737 points,  5 beta functions with: 
                l(1) =   0
                l(2) =   0
                l(3) =   1
                l(4) =   1
                l(5) =   2
     Q(r) pseudized with  8 coefficients,  rinner =    0.900   0.900   0.900
                                                       0.900   0.900

     atomic species   valence    mass     pseudopotential
     Ca               10.00    40.07800     Ca( 1.00)
     Ti               12.00    47.88000     Ti( 1.00)
     O                 6.00    16.00000     O ( 1.00)

     48 Sym. Ops., with inversion, found



   Cartesian axes

     site n.     atom                  positions (alat units)
         1        Ca     tau(   1) = (   0.0000000   0.0000000   0.0000000  )
         2        Ti     tau(   2) = (   0.5000000   0.5000000   0.5000000  )
         3        O      tau(   3) = (   0.5000000   0.5000000   0.0000000  )
         4        O      tau(   4) = (   0.5000000   0.0000000   0.5000000  )
         5        O      tau(   5) = (   0.0000000   0.5000000   0.5000000  )

     number of k points=    20
                       cart. coord. in units 2pi/alat
        k(    1) = (   0.0000000   0.0000000   0.0000000), wk =   0.0092593
        k(    2) = (   0.0000000   0.0000000   0.1666667), wk =   0.0555556
        k(    3) = (   0.0000000   0.0000000   0.3333333), wk =   0.0555556
        k(    4) = (   0.0000000   0.0000000  -0.5000000), wk =   0.0277778
        k(    5) = (   0.0000000   0.1666667   0.1666667), wk =   0.1111111
        k(    6) = (   0.0000000   0.1666667   0.3333333), wk =   0.2222222
        k(    7) = (   0.0000000   0.1666667  -0.5000000), wk =   0.1111111
        k(    8) = (   0.0000000   0.3333333   0.3333333), wk =   0.1111111
        k(    9) = (   0.0000000   0.3333333  -0.5000000), wk =   0.1111111
        k(   10) = (   0.0000000  -0.5000000  -0.5000000), wk =   0.0277778
        k(   11) = (   0.1666667   0.1666667   0.1666667), wk =   0.0740741
        k(   12) = (   0.1666667   0.1666667   0.3333333), wk =   0.2222222
        k(   13) = (   0.1666667   0.1666667  -0.5000000), wk =   0.1111111
        k(   14) = (   0.1666667   0.3333333   0.3333333), wk =   0.2222222
        k(   15) = (   0.1666667   0.3333333  -0.5000000), wk =   0.2222222
        k(   16) = (   0.1666667  -0.5000000  -0.5000000), wk =   0.0555556
        k(   17) = (   0.3333333   0.3333333   0.3333333), wk =   0.0740741
        k(   18) = (   0.3333333   0.3333333  -0.5000000), wk =   0.1111111
        k(   19) = (   0.3333333  -0.5000000  -0.5000000), wk =   0.0555556
        k(   20) = (  -0.5000000  -0.5000000  -0.5000000), wk =   0.0092593

     Dense  grid:   126131 G-vectors     FFT dimensions: (  64,  64,  64)

     Smooth grid:    31919 G-vectors     FFT dimensions: (  40,  40,  40)

     Estimated max dynamical RAM per process >      55.98 MB

     Estimated total dynamical RAM >     559.79 MB

     Check: negative core charge=   -0.000003

     Initial potential from superposition of free atoms

     starting charge      38.9952, renormalised to      40.0000

     negative rho (up, down):  7.930E-04 0.000E+00
     Starting wfcs are   32 randomized atomic wfcs

     total cpu time spent up to now is        0.8 secs

     Self-consistent Calculation

     iteration #  1     ecut=    70.00 Ry     beta= 0.70
     CG style diagonalization
     ethr =  1.00E-02,  avg # of iterations =  2.2

     negative rho (up, down):  1.189E-03 0.000E+00

     total cpu time spent up to now is        1.4 secs

     total energy              =    -291.29471242 Ry
     estimated scf accuracy    <       0.82880401 Ry

     iteration #  2     ecut=    70.00 Ry     beta= 0.70
     CG style diagonalization
     ethr =  2.07E-03,  avg # of iterations =  5.2

     negative rho (up, down):  4.931E-04 0.000E+00

     total cpu time spent up to now is        2.3 secs

     total energy              =    -290.47412294 Ry
     estimated scf accuracy    <       7.52064727 Ry

     iteration #  3     ecut=    70.00 Ry     beta= 0.70
     CG style diagonalization
     ethr =  2.07E-03,  avg # of iterations =  4.6

     negative rho (up, down):  6.491E-04 0.000E+00

     total cpu time spent up to now is        3.0 secs

     total energy              =    -291.72807051 Ry
     estimated scf accuracy    <       0.19499380 Ry

     iteration #  4     ecut=    70.00 Ry     beta= 0.70
     CG style diagonalization
     ethr =  4.87E-04,  avg # of iterations =  3.4

     negative rho (up, down):  7.518E-04 0.000E+00

     total cpu time spent up to now is        3.7 secs

     total energy              =    -291.73436648 Ry
     estimated scf accuracy    <       0.06526374 Ry

     iteration #  5     ecut=    70.00 Ry     beta= 0.70
     CG style diagonalization
     ethr =  1.63E-04,  avg # of iterations =  3.6

     negative rho (up, down):  8.161E-04 0.000E+00

     total cpu time spent up to now is        4.3 secs

     total energy              =    -291.74485447 Ry
     estimated scf accuracy    <       0.00110196 Ry

     iteration #  6     ecut=    70.00 Ry     beta= 0.70
     CG style diagonalization
     ethr =  2.75E-06,  avg # of iterations =  4.7

     negative rho (up, down):  8.099E-04 0.000E+00

     total cpu time spent up to now is        5.1 secs

     total energy              =    -291.74665664 Ry
     estimated scf accuracy    <       0.00120172 Ry

     iteration #  7     ecut=    70.00 Ry     beta= 0.70
     CG style diagonalization
     ethr =  2.75E-06,  avg # of iterations =  3.4

     negative rho (up, down):  8.028E-04 0.000E+00

     total cpu time spent up to now is        5.7 secs

     total energy              =    -291.74669375 Ry
     estimated scf accuracy    <       0.00022028 Ry

     iteration #  8     ecut=    70.00 Ry     beta= 0.70
     CG style diagonalization
     ethr =  5.51E-07,  avg # of iterations =  3.6

     negative rho (up, down):  8.009E-04 0.000E+00

     total cpu time spent up to now is        6.3 secs

     total energy              =    -291.74673886 Ry
     estimated scf accuracy    <       0.00000323 Ry

     iteration #  9     ecut=    70.00 Ry     beta= 0.70
     CG style diagonalization
     ethr =  8.08E-09,  avg # of iterations =  4.6

     negative rho (up, down):  8.013E-04 0.000E+00

     total cpu time spent up to now is        7.1 secs

     total energy              =    -291.74674727 Ry
     estimated scf accuracy    <       0.00000210 Ry

     iteration # 10     ecut=    70.00 Ry     beta= 0.70
     CG style diagonalization
     ethr =  5.25E-09,  avg # of iterations =  3.4

     negative rho (up, down):  8.015E-04 0.000E+00

     total cpu time spent up to now is        7.7 secs

     total energy              =    -291.74674747 Ry
     estimated scf accuracy    <       0.00000016 Ry

     iteration # 11     ecut=    70.00 Ry     beta= 0.70
     CG style diagonalization
     ethr =  4.00E-10,  avg # of iterations =  4.0

     negative rho (up, down):  8.015E-04 0.000E+00

     total cpu time spent up to now is        8.4 secs

     End of self-consistent calculation

          k = 0.0000 0.0000 0.0000 (  3911 PWs)   bands (ev):

   -47.3891 -30.4361 -23.9704 -23.9704 -23.9704 -11.6284 -11.6284 -11.6284
    -8.6840  -7.5860  -7.5860   5.4156   5.4156   5.4156   7.3456   7.3456
     7.3456   8.0188   8.0188   8.0188

          k = 0.0000 0.0000 0.1667 (  3964 PWs)   bands (ev):

   -47.3888 -30.4347 -23.9873 -23.9696 -23.9696 -11.6851 -11.6259 -11.6259
    -8.5317  -7.5763  -7.5151   5.1137   5.4335   5.4335   6.9874   6.9874
     7.1252   7.2268   7.8922   7.8922

          k = 0.0000 0.0000 0.3333 (  3988 PWs)   bands (ev):

   -47.3882 -30.4320 -24.0210 -23.9680 -23.9680 -11.7913 -11.6207 -11.6207
    -8.2228  -7.5568  -7.3666   4.4641   5.5219   5.5219   6.1527   6.3371
     6.3371   6.7409   7.7789   7.7789

          k = 0.0000 0.0000-0.5000 (  3980 PWs)   bands (ev):

   -47.3880 -30.4306 -24.0377 -23.9672 -23.9672 -11.8414 -11.6181 -11.6181
    -8.0672  -7.5469  -7.2863   4.1056   5.6777   5.6777   5.7654   5.9466
     5.9466   6.5697   7.7391   7.7391

          k = 0.0000 0.1667 0.1667 (  3972 PWs)   bands (ev):

   -47.3885 -30.4333 -23.9868 -23.9865 -23.9688 -11.6924 -11.6604 -11.6231
    -8.3938  -7.5391  -7.4749   4.9419   5.2864   5.4477   6.2712   6.7592
     7.1336   7.2556   7.5531   7.6615

          k = 0.0000 0.1667 0.3333 (  4006 PWs)   bands (ev):

   -47.3880 -30.4305 -24.0205 -23.9852 -23.9673 -11.7744 -11.6576 -11.6176
    -8.1225  -7.5074  -7.3335   4.4192   5.0413   5.5247   5.5311   6.2352
     6.4771   7.2057   7.4572   7.4638

          k = 0.0000 0.1667-0.5000 (  3996 PWs)   bands (ev):

   -47.3877 -30.4291 -24.0372 -23.9845 -23.9665 -11.8182 -11.6515 -11.6149
    -7.9940  -7.4918  -7.2465   4.0999   4.7923   5.3883   5.6774   5.8745
     6.2584   7.1971   7.3635   7.3991

          k = 0.0000 0.3333 0.3333 (  3998 PWs)   bands (ev):

   -47.3874 -30.4276 -24.0196 -24.0192 -23.9657 -11.7501 -11.7205 -11.6116
    -7.9746  -7.3579  -7.2465   4.1308   4.5915   4.6561   5.5613   5.9738
     6.5435   6.7125   7.0519   8.0214

          k = 0.0000 0.3333-0.5000 (  4000 PWs)   bands (ev):

   -47.3872 -30.4261 -24.0363 -24.0188 -23.9650 -11.7720 -11.7170 -11.6085
    -7.9310  -7.2773  -7.1676   3.9762   4.0626   4.5936   5.6736   5.7359
     6.4705   6.6909   6.9173   8.1581

          k = 0.0000-0.5000-0.5000 (  4012 PWs)   bands (ev):

   -47.3869 -30.4246 -24.0359 -24.0359 -23.9642 -11.7490 -11.7490 -11.6054
    -7.9288  -7.1284  -7.1284   3.6813   3.9293   4.2599   5.6692   5.6692
     6.5735   6.5735   6.7292   8.4027

          k = 0.1667 0.1667 0.1667 (  4001 PWs)   bands (ev):

   -47.3883 -30.4319 -23.9860 -23.9860 -23.9858 -11.6958 -11.6551 -11.6551
    -8.2616  -7.4732  -7.4732   4.7873   5.2761   5.2761   6.1819   6.1819
     6.6157   7.4856   7.4856   7.6097

          k = 0.1667 0.1667 0.3333 (  4003 PWs)   bands (ev):

   -47.3877 -30.4291 -24.0198 -23.9846 -23.9843 -11.7595 -11.6591 -11.6444
    -8.0047  -7.4698  -7.3179   4.3744   4.9562   5.1962   5.4145   5.6718
     6.4691   7.2446   7.4334   7.6075

          k = 0.1667 0.1667-0.5000 (  3976 PWs)   bands (ev):

   -47.3874 -30.4277 -24.0366 -23.9840 -23.9835 -11.7980 -11.6532 -11.6390
    -7.8851  -7.4682  -7.2216   4.0973   4.6815   5.0945   5.2073   5.5609
     6.5310   7.0959   7.4110   7.5226

          k = 0.1667 0.3333 0.3333 (  3974 PWs)   bands (ev):

   -47.3872 -30.4262 -24.0186 -24.0185 -23.9829 -11.7377 -11.7107 -11.6396
    -7.8230  -7.3485  -7.2599   4.1517   4.6322   4.6546   5.0807   5.3297
     6.0089   7.3298   7.3680   8.0485

          k = 0.1667 0.3333-0.5000 (  3988 PWs)   bands (ev):

   -47.3869 -30.4247 -24.0355 -24.0179 -23.9821 -11.7576 -11.7080 -11.6345
    -7.7709  -7.2957  -7.1728   4.0663   4.0674   4.5896   5.0121   5.1980
     6.0088   7.2867   7.3553   8.1799

          k = 0.1667-0.5000-0.5000 (  4008 PWs)   bands (ev):

   -47.3866 -30.4233 -24.0349 -24.0349 -23.9813 -11.7374 -11.7374 -11.6297
    -7.7616  -7.1489  -7.1489   3.8021   3.9394   4.2642   5.0326   5.0326
     5.9570   7.3222   7.3222   8.4256

          k = 0.3333 0.3333 0.3333 (  3996 PWs)   bands (ev):

   -47.3866 -30.4234 -24.0172 -24.0168 -24.0168 -11.7172 -11.6909 -11.6909
    -7.5414  -7.2868  -7.2868   4.1242   4.5717   4.5717   4.7289   4.7924
     4.7924   7.8645   7.8645   8.1827

          k = 0.3333 0.3333-0.5000 (  4018 PWs)   bands (ev):

   -47.3863 -30.4220 -24.0338 -24.0163 -24.0158 -11.7285 -11.6948 -11.6809
    -7.4599  -7.3005  -7.1841   4.0502   4.1897   4.4073   4.4726   4.7358
     4.8155   7.9531   8.0426   8.2859

          k = 0.3333-0.5000-0.5000 (  4000 PWs)   bands (ev):

   -47.3861 -30.4206 -24.0329 -24.0329 -24.0152 -11.7139 -11.7139 -11.6780
    -7.4038  -7.1901  -7.1901   3.9278   4.0511   4.2728   4.4044   4.4044
     4.7178   8.1677   8.1677   8.4724

          k =-0.5000-0.5000-0.5000 (  4032 PWs)   bands (ev):

   -47.3858 -30.4192 -24.0320 -24.0320 -24.0320 -11.7019 -11.7019 -11.7019
    -7.2110  -7.2110  -7.2110   3.8157   4.1798   4.1798   4.1798   4.2771
     4.2771   8.4962   8.4962   8.4962

     highest occupied level (ev):     8.4962

!    total energy              =    -291.74674752 Ry
     estimated scf accuracy    <          9.3E-10 Ry

     The total energy is the sum of the following terms:
     one-electron contribution =     -94.64568710 Ry
     hartree contribution      =      66.24382202 Ry
     xc contribution           =     -51.16477390 Ry
     ewald contribution        =    -212.18010855 Ry

     convergence has been achieved in  11 iterations

     negative rho (up, down):  8.015E-04 0.000E+00

     Forces acting on atoms (cartesian axes, Ry/au):

     atom    1 type  1   force =     0.00000000    0.00000000    0.00000000
     atom    2 type  2   force =     0.00000000    0.00000000    0.00000000
     atom    3 type  3   force =     0.00000000    0.00000000    0.00000000
     atom    4 type  3   force =     0.00000000    0.00000000    0.00000000
     atom    5 type  3   force =     0.00000000    0.00000000    0.00000000

     Total force =     0.000000     Total SCF correction =     0.000000


     Computing stress (Cartesian axis) and pressure


     negative rho (up, down):  8.015E-04 0.000E+00
          total   stress  (Ry/bohr**3)                   (kbar)     P=     -139.42
  -0.00094778   0.00000000   0.00000000         -139.42        0.00        0.00
   0.00000000  -0.00094778   0.00000000            0.00     -139.42        0.00
   0.00000000   0.00000000  -0.00094778            0.00        0.00     -139.42


     Writing all to output data dir ./CTO_CELLDM_7.save/ :
     XML data file, charge density, pseudopotentials, collected wavefunctions
 
     init_run     :      0.48s CPU      0.57s WALL (       1 calls)
     electrons    :      7.15s CPU      7.61s WALL (       1 calls)
     forces       :      0.12s CPU      0.15s WALL (       1 calls)
     stress       :      1.07s CPU      1.11s WALL (       1 calls)

     Called by init_run:
     wfcinit      :      0.14s CPU      0.17s WALL (       1 calls)
     potinit      :      0.01s CPU      0.02s WALL (       1 calls)
     hinit0       :      0.12s CPU      0.15s WALL (       1 calls)

     Called by electrons:
     c_bands      :      5.18s CPU      5.42s WALL (      11 calls)
     sum_band     :      1.24s CPU      1.33s WALL (      11 calls)
     v_of_rho     :      0.03s CPU      0.03s WALL (      12 calls)
     newd         :      0.75s CPU      0.86s WALL (      12 calls)
     mix_rho      :      0.02s CPU      0.02s WALL (      11 calls)

     Called by c_bands:
     init_us_2    :      0.08s CPU      0.08s WALL (     500 calls)
     init_us_2:cp :      0.08s CPU      0.08s WALL (     500 calls)
     ccgdiagg     :      4.46s CPU      4.68s WALL (     220 calls)
     wfcrot       :      0.78s CPU      0.84s WALL (     220 calls)

     Called by *cgdiagg:
     h_psi        :      3.20s CPU      3.35s WALL (   13272 calls)
     s_psi        :      0.42s CPU      0.44s WALL (   26324 calls)

     Called by h_psi:
     h_psi:calbec :      0.50s CPU      0.53s WALL (   13272 calls)
     vloc_psi     :      2.34s CPU      2.45s WALL (   13272 calls)
     add_vuspsi   :      0.25s CPU      0.26s WALL (   13272 calls)
     hs_1psi      :      2.83s CPU      2.97s WALL (   13052 calls)
     s_1psi       :      0.61s CPU      0.64s WALL (   13052 calls)

     General routines
     calbec       :      0.86s CPU      0.91s WALL (   26644 calls)
     fft          :      0.03s CPU      0.04s WALL (      78 calls)
     ffts         :      0.00s CPU      0.00s WALL (      23 calls)
     fftw         :      1.95s CPU      2.04s WALL (   39784 calls)
     interpolate  :      0.01s CPU      0.01s WALL (      12 calls)
 
     Parallel routines
 
     PWSCF        :      9.06s CPU     10.29s WALL

 
   This run was terminated on:  23:59:11  23Sep2025            

=------------------------------------------------------------------------------=
   JOB DONE.
=------------------------------------------------------------------------------=
TACC:  Shutdown complete. Exiting. 
