TACC:  Starting up job 2388101 
TACC:  Starting parallel tasks... 

     Program PWSCF v.7.3 starts on 19Sep2025 at 17:26: 3 

     This program is part of the open-source Quantum ESPRESSO suite
     for quantum simulation of materials; please cite
         "P. Giannozzi et al., J. Phys.:Condens. Matter 21 395502 (2009);
         "P. Giannozzi et al., J. Phys.:Condens. Matter 29 465901 (2017);
         "P. Giannozzi et al., J. Chem. Phys. 152 154105 (2020);
          URL http://www.quantum-espresso.org", 
     in publications or presentations arising from this work. More details at
     http://www.quantum-espresso.org/quote

     Parallel version (MPI & OpenMP), running on      10 processor cores
     Number of MPI processes:                10
     Threads/MPI process:                     1

     MPI processes distributed on     1 nodes
     188218 MiB available memory on the printing compute node when the environment starts
 
     Waiting for input...
     Reading input from standard input
Warning: card &CELL ignored
Warning: card  CELL_DYNAMICS = 'BFGS', ignored
Warning: card  PRESS=0.D0, ignored
Warning: card / ignored
     Message from routine read_cards :
     DEPRECATED: no units specified in ATOMIC_POSITIONS card
     Message from routine read_cards :
     ATOMIC_POSITIONS: units set to alat

     Current dimensions of program PWSCF are:
     Max number of different atomic species (ntypx) = 10
     Max number of k-points (npk) =  40000
     Max angular momentum in pseudopotentials (lmaxx) =  4
 
     R & G space division:  proc/nbgrp/npool/nimage =      10
     Subspace diagonalization in iterative solution of the eigenvalue problem:
     a serial algorithm will be used

 
     Parallelization info
     --------------------
     sticks:   dense  smooth     PW     G-vecs:    dense   smooth      PW
     Min         259     104     30                 9897     2516     406
     Max         260     105     31                 9900     2519     409
     Sum        2593    1041    305                98985    25173    4067
 
     Using Slab Decomposition
 


     bravais-lattice index     =            1
     lattice parameter (alat)  =       7.3573  a.u.
     unit-cell volume          =     398.2496 (a.u.)^3
     number of atoms/cell      =            5
     number of atomic types    =            3
     number of electrons       =        40.00
     number of Kohn-Sham states=           20
     kinetic-energy cutoff     =      60.0000  Ry
     charge density cutoff     =     600.0000  Ry
     scf convergence threshold =      1.0E-08
     mixing beta               =       0.7000
     number of iterations used =            8  plain     mixing
     Exchange-correlation= SLA  PZ   NOGX NOGC
                           (   1   1   0   0   0   0   0)

     celldm(1)=   7.357300  celldm(2)=   0.000000  celldm(3)=   0.000000
     celldm(4)=   0.000000  celldm(5)=   0.000000  celldm(6)=   0.000000

     crystal axes: (cart. coord. in units of alat)
               a(1) = (   1.000000   0.000000   0.000000 )  
               a(2) = (   0.000000   1.000000   0.000000 )  
               a(3) = (   0.000000   0.000000   1.000000 )  

     reciprocal axes: (cart. coord. in units 2 pi/alat)
               b(1) = (  1.000000  0.000000  0.000000 )  
               b(2) = (  0.000000  1.000000  0.000000 )  
               b(3) = (  0.000000  0.000000  1.000000 )  


     PseudoPot. # 1 for Ca read from file:
     /scratch/11018/zhc/assisgnment1/CaTiO3/Ca_LDA.UPF
     MD5 check sum: d2d4e7693e10d071152e9eeb7dd009f3
     Pseudo is Ultrasoft + core correction, Zval = 10.0
     Generated by new atomic code, or converted to UPF format
     Using radial grid of  845 points,  6 beta functions with: 
                l(1) =   0
                l(2) =   0
                l(3) =   1
                l(4) =   1
                l(5) =   2
                l(6) =   2
     Q(r) pseudized with  8 coefficients,  rinner =    1.500   1.500   1.500
                                                       1.500   1.500

     PseudoPot. # 2 for Ti read from file:
     /scratch/11018/zhc/assisgnment1/CaTiO3/Ti_LDA.UPF
     MD5 check sum: 0d9f225c038fe889ca2a701dcc8d72cb
     Pseudo is Ultrasoft + core correction, Zval = 12.0
     Generated by new atomic code, or converted to UPF format
     Using radial grid of  851 points,  6 beta functions with: 
                l(1) =   0
                l(2) =   0
                l(3) =   1
                l(4) =   1
                l(5) =   2
                l(6) =   2
     Q(r) pseudized with  6 coefficients,  rinner =    1.000   1.000   1.000
                                                       1.000   1.000

     PseudoPot. # 3 for O  read from file:
     /scratch/11018/zhc/assisgnment1/CaTiO3/O_LDA.UPF
     MD5 check sum: 194b818514d2a7dbb603bb78519a4f40
     Pseudo is Ultrasoft + core correction, Zval =  6.0
     Generated by new atomic code, or converted to UPF format
     Using radial grid of  737 points,  5 beta functions with: 
                l(1) =   0
                l(2) =   0
                l(3) =   1
                l(4) =   1
                l(5) =   2
     Q(r) pseudized with  8 coefficients,  rinner =    0.900   0.900   0.900
                                                       0.900   0.900

     atomic species   valence    mass     pseudopotential
     Ca               10.00    40.07800     Ca( 1.00)
     Ti               12.00    47.88000     Ti( 1.00)
     O                 6.00    16.00000     O ( 1.00)

      8 Sym. Ops. (no inversion) found



   Cartesian axes

     site n.     atom                  positions (alat units)
         1        Ca     tau(   1) = (   0.0000000   0.0000000   0.0500000  )
         2        Ti     tau(   2) = (   0.5000000   0.5000000   0.5000000  )
         3        O      tau(   3) = (   0.5000000   0.5000000   0.0000000  )
         4        O      tau(   4) = (   0.5000000   0.0000000   0.5000000  )
         5        O      tau(   5) = (   0.0000000   0.5000000   0.5000000  )

     number of k points=    40
                       cart. coord. in units 2pi/alat
        k(    1) = (   0.0000000   0.0000000   0.0000000), wk =   0.0092593
        k(    2) = (   0.0000000   0.0000000   0.1666667), wk =   0.0185185
        k(    3) = (   0.0000000   0.0000000   0.3333333), wk =   0.0185185
        k(    4) = (   0.0000000   0.0000000  -0.5000000), wk =   0.0092593
        k(    5) = (   0.0000000   0.1666667   0.1666667), wk =   0.0740741
        k(    6) = (   0.0000000   0.1666667   0.3333333), wk =   0.0740741
        k(    7) = (   0.0000000   0.1666667  -0.5000000), wk =   0.0370370
        k(    8) = (   0.0000000   0.3333333   0.3333333), wk =   0.0740741
        k(    9) = (   0.0000000   0.3333333  -0.5000000), wk =   0.0370370
        k(   10) = (   0.0000000  -0.5000000  -0.5000000), wk =   0.0185185
        k(   11) = (   0.1666667   0.1666667   0.1666667), wk =   0.0740741
        k(   12) = (   0.1666667   0.1666667   0.3333333), wk =   0.0740741
        k(   13) = (   0.1666667   0.1666667  -0.5000000), wk =   0.0370370
        k(   14) = (   0.1666667   0.3333333   0.3333333), wk =   0.1481481
        k(   15) = (   0.1666667   0.3333333  -0.5000000), wk =   0.0740741
        k(   16) = (   0.1666667  -0.5000000  -0.5000000), wk =   0.0370370
        k(   17) = (   0.3333333   0.3333333   0.3333333), wk =   0.0740741
        k(   18) = (   0.3333333   0.3333333  -0.5000000), wk =   0.0370370
        k(   19) = (   0.3333333  -0.5000000  -0.5000000), wk =   0.0370370
        k(   20) = (  -0.5000000  -0.5000000  -0.5000000), wk =   0.0092593
        k(   21) = (   0.1666667   0.0000000   0.0000000), wk =   0.0370370
        k(   22) = (   0.3333333   0.0000000   0.0000000), wk =   0.0370370
        k(   23) = (  -0.5000000   0.0000000   0.0000000), wk =   0.0185185
        k(   24) = (   0.1666667  -0.1666667   0.0000000), wk =   0.0370370
        k(   25) = (   0.3333333  -0.1666667   0.0000000), wk =   0.0740741
        k(   26) = (   0.0000000   0.3333333   0.1666667), wk =   0.0740741
        k(   27) = (  -0.5000000  -0.1666667   0.0000000), wk =   0.0370370
        k(   28) = (   0.0000000  -0.5000000   0.1666667), wk =   0.0370370
        k(   29) = (   0.3333333  -0.3333333   0.0000000), wk =   0.0370370
        k(   30) = (  -0.5000000  -0.3333333   0.0000000), wk =   0.0370370
        k(   31) = (   0.0000000  -0.5000000   0.3333333), wk =   0.0370370
        k(   32) = (  -0.5000000   0.5000000   0.0000000), wk =   0.0092593
        k(   33) = (   0.3333333  -0.1666667   0.1666667), wk =   0.1481481
        k(   34) = (  -0.5000000  -0.1666667   0.1666667), wk =   0.0740741
        k(   35) = (   0.3333333  -0.3333333   0.1666667), wk =   0.0740741
        k(   36) = (  -0.5000000  -0.3333333   0.1666667), wk =   0.0740741
        k(   37) = (  -0.1666667  -0.5000000   0.3333333), wk =   0.0740741
        k(   38) = (  -0.5000000   0.5000000   0.1666667), wk =   0.0185185
        k(   39) = (  -0.5000000  -0.3333333   0.3333333), wk =   0.0740741
        k(   40) = (  -0.5000000   0.5000000   0.3333333), wk =   0.0185185

     Dense  grid:    98985 G-vectors     FFT dimensions: (  60,  60,  60)

     Smooth grid:    25173 G-vectors     FFT dimensions: (  40,  40,  40)

     Estimated max dynamical RAM per process >      46.66 MB

     Estimated total dynamical RAM >     466.64 MB

     Check: negative core charge=   -0.000003

     Initial potential from superposition of free atoms

     starting charge      38.9952, renormalised to      40.0000

     negative rho (up, down):  7.748E-04 0.000E+00
     Starting wfcs are   32 randomized atomic wfcs

     total cpu time spent up to now is        0.9 secs

     Self-consistent Calculation

     iteration #  1     ecut=    60.00 Ry     beta= 0.70
     CG style diagonalization
     ethr =  1.00E-02,  avg # of iterations =  2.2

     negative rho (up, down):  1.247E-03 0.000E+00

     total cpu time spent up to now is        1.7 secs

     total energy              =    -291.30132306 Ry
     estimated scf accuracy    <       0.82743469 Ry

     iteration #  2     ecut=    60.00 Ry     beta= 0.70
     CG style diagonalization
     ethr =  2.07E-03,  avg # of iterations =  5.3

     negative rho (up, down):  4.337E-04 0.000E+00

     total cpu time spent up to now is        3.1 secs

     total energy              =    -290.58148225 Ry
     estimated scf accuracy    <       6.76998417 Ry

     iteration #  3     ecut=    60.00 Ry     beta= 0.70
     CG style diagonalization
     ethr =  2.07E-03,  avg # of iterations =  4.5

     negative rho (up, down):  6.237E-04 0.000E+00

     total cpu time spent up to now is        4.4 secs

     total energy              =    -291.73260501 Ry
     estimated scf accuracy    <       0.18740275 Ry

     iteration #  4     ecut=    60.00 Ry     beta= 0.70
     CG style diagonalization
     ethr =  4.69E-04,  avg # of iterations =  3.4

     negative rho (up, down):  7.335E-04 0.000E+00

     total cpu time spent up to now is        5.3 secs

     total energy              =    -291.74003216 Ry
     estimated scf accuracy    <       0.05589564 Ry

     iteration #  5     ecut=    60.00 Ry     beta= 0.70
     CG style diagonalization
     ethr =  1.40E-04,  avg # of iterations =  3.6

     negative rho (up, down):  7.742E-04 0.000E+00

     total cpu time spent up to now is        6.3 secs

     total energy              =    -291.74975277 Ry
     estimated scf accuracy    <       0.00136816 Ry

     iteration #  6     ecut=    60.00 Ry     beta= 0.70
     CG style diagonalization
     ethr =  3.42E-06,  avg # of iterations =  4.4

     negative rho (up, down):  8.001E-04 0.000E+00

     total cpu time spent up to now is        7.5 secs

     total energy              =    -291.75109550 Ry
     estimated scf accuracy    <       0.00055804 Ry

     iteration #  7     ecut=    60.00 Ry     beta= 0.70
     CG style diagonalization
     ethr =  1.40E-06,  avg # of iterations =  3.5

     negative rho (up, down):  7.894E-04 0.000E+00

     total cpu time spent up to now is        8.5 secs

     total energy              =    -291.75105925 Ry
     estimated scf accuracy    <       0.00033293 Ry

     iteration #  8     ecut=    60.00 Ry     beta= 0.70
     CG style diagonalization
     ethr =  8.32E-07,  avg # of iterations =  3.4

     negative rho (up, down):  7.867E-04 0.000E+00

     total cpu time spent up to now is        9.4 secs

     total energy              =    -291.75108396 Ry
     estimated scf accuracy    <       0.00004229 Ry

     iteration #  9     ecut=    60.00 Ry     beta= 0.70
     CG style diagonalization
     ethr =  1.06E-07,  avg # of iterations =  3.7

     negative rho (up, down):  7.852E-04 0.000E+00

     total cpu time spent up to now is       10.4 secs

     total energy              =    -291.75109482 Ry
     estimated scf accuracy    <       0.00000111 Ry

     iteration # 10     ecut=    60.00 Ry     beta= 0.70
     CG style diagonalization
     ethr =  2.78E-09,  avg # of iterations =  4.7

     negative rho (up, down):  7.857E-04 0.000E+00

     total cpu time spent up to now is       11.7 secs

     total energy              =    -291.75109681 Ry
     estimated scf accuracy    <       0.00000093 Ry

     iteration # 11     ecut=    60.00 Ry     beta= 0.70
     CG style diagonalization
     ethr =  2.31E-09,  avg # of iterations =  3.2

     negative rho (up, down):  7.862E-04 0.000E+00

     total cpu time spent up to now is       12.6 secs

     total energy              =    -291.75109679 Ry
     estimated scf accuracy    <       0.00000025 Ry

     iteration # 12     ecut=    60.00 Ry     beta= 0.70
     CG style diagonalization
     ethr =  6.15E-10,  avg # of iterations =  3.7

     negative rho (up, down):  7.861E-04 0.000E+00

     total cpu time spent up to now is       13.7 secs

     total energy              =    -291.75109686 Ry
     estimated scf accuracy    <       0.00000002 Ry

     iteration # 13     ecut=    60.00 Ry     beta= 0.70
     CG style diagonalization
     ethr =  5.08E-11,  avg # of iterations =  3.7

     negative rho (up, down):  7.860E-04 0.000E+00

     total cpu time spent up to now is       14.7 secs

     End of self-consistent calculation

          k = 0.0000 0.0000 0.0000 (  3119 PWs)   bands (ev):

   -47.1764 -30.1511 -23.7714 -23.7714 -23.7627 -11.3738 -11.3519 -11.3519
    -8.5681  -7.4911  -7.4411   5.5460   5.5506   5.5506   7.4450   7.4513
     7.4513   8.1759   8.1759   8.1914

          k = 0.0000 0.0000 0.1667 (  3098 PWs)   bands (ev):

   -47.1761 -30.1497 -23.7807 -23.7706 -23.7706 -11.4354 -11.3491 -11.3491
    -8.4108  -7.4811  -7.3641   5.2486   5.5661   5.5661   7.1064   7.1064
     7.2284   7.3859   8.0353   8.0353

          k = 0.0000 0.0000 0.3333 (  3118 PWs)   bands (ev):

   -47.1755 -30.1467 -23.8165 -23.7689 -23.7689 -11.5499 -11.3436 -11.3436
    -8.0949  -7.4610  -7.2010   4.5997   5.6467   5.6467   6.2929   6.4672
     6.4672   6.8484   7.9131   7.9131

          k = 0.0000 0.0000-0.5000 (  3178 PWs)   bands (ev):

   -47.1752 -30.1453 -23.8342 -23.7680 -23.7680 -11.6037 -11.3408 -11.3408
    -7.9375  -7.4509  -7.1112   4.2363   5.7859   5.7859   5.9007   6.0922
     6.0922   6.6783   7.8719   7.8719

          k = 0.0000 0.1667 0.1667 (  3109 PWs)   bands (ev):

   -47.1758 -30.1481 -23.7888 -23.7800 -23.7697 -11.4389 -11.3922 -11.3463
    -8.2663  -7.4315  -7.3319   5.0712   5.4190   5.5781   6.4003   6.8685
     7.2685   7.3779   7.7061   7.8130

          k = 0.0000 0.1667 0.3333 (  3118 PWs)   bands (ev):

   -47.1752 -30.1451 -23.8160 -23.7873 -23.7681 -11.5300 -11.3858 -11.3404
    -7.9930  -7.4045  -7.1684   4.5535   5.1697   5.6473   5.6490   6.3596
     6.6107   7.3220   7.5938   7.6090

          k = 0.0000 0.1667-0.5000 (  3112 PWs)   bands (ev):

   -47.1749 -30.1436 -23.8338 -23.7865 -23.7672 -11.5768 -11.3791 -11.3375
    -7.8659  -7.3885  -7.0704   4.2329   4.9123   5.5040   5.7801   6.0190
     6.3905   7.3154   7.5079   7.5323

          k = 0.0000 0.3333 0.3333 (  3145 PWs)   bands (ev):

   -47.1746 -30.1419 -23.8238 -23.8149 -23.7664 -11.5000 -11.4579 -11.3341
    -7.8507  -7.2240  -7.0900   4.2458   4.7158   4.7837   5.6787   6.0855
     6.6681   6.8393   7.1986   8.1882

          k = 0.0000 0.3333-0.5000 (  3126 PWs)   bands (ev):

   -47.1743 -30.1403 -23.8329 -23.8232 -23.7656 -11.5230 -11.4537 -11.3309
    -7.8145  -7.1512  -6.9877   4.0835   4.2023   4.6996   5.7617   5.8782
     6.6082   6.8019   7.0589   8.3279

          k = 0.0000-0.5000-0.5000 (  3136 PWs)   bands (ev):

   -47.1740 -30.1387 -23.8414 -23.8324 -23.7648 -11.4936 -11.4925 -11.3276
    -7.8181  -6.9893  -6.9475   3.7853   4.0566   4.3690   5.7476   5.8104
     6.6869   6.7154   6.8783   8.5832

          k = 0.1667 0.1667 0.1667 (  3128 PWs)   bands (ev):

   -47.1755 -30.1466 -23.7882 -23.7879 -23.7792 -11.4405 -11.3866 -11.3836
    -8.1283  -7.3655  -7.3266   4.9090   5.4041   5.4084   6.3008   6.3054
     6.7712   7.6107   7.6507   7.7278

          k = 0.1667 0.1667 0.3333 (  3129 PWs)   bands (ev):

   -47.1749 -30.1435 -23.8153 -23.7866 -23.7864 -11.5125 -11.3866 -11.3719
    -7.8717  -7.3627  -7.1532   4.5076   5.0819   5.3239   5.5298   5.7886
     6.5956   7.4075   7.5469   7.7390

          k = 0.1667 0.1667-0.5000 (  3124 PWs)   bands (ev):

   -47.1746 -30.1420 -23.8332 -23.7859 -23.7855 -11.5533 -11.3802 -11.3661
    -7.7542  -7.3614  -7.0453   4.2318   4.8035   5.2167   5.3117   5.6802
     6.6545   7.2606   7.5196   7.6606

          k = 0.1667 0.3333 0.3333 (  3145 PWs)   bands (ev):

   -47.1743 -30.1403 -23.8230 -23.8140 -23.7848 -11.4860 -11.4466 -11.3662
    -7.6926  -7.2136  -7.1046   4.2692   4.7469   4.7882   5.1957   5.4432
     6.1412   7.4450   7.5162   8.2065

          k = 0.1667 0.3333-0.5000 (  3124 PWs)   bands (ev):

   -47.1740 -30.1388 -23.8320 -23.8223 -23.7840 -11.5066 -11.4434 -11.3607
    -7.6485  -7.1687  -6.9942   4.1778   4.2056   4.6940   5.1406   5.2936
     6.1382   7.4386   7.4621   8.3442

          k = 0.1667-0.5000-0.5000 (  3124 PWs)   bands (ev):

   -47.1737 -30.1371 -23.8404 -23.8314 -23.7831 -11.4804 -11.4797 -11.3554
    -7.6451  -7.0096  -6.9688   3.9099   4.0643   4.3735   5.1230   5.1640
     6.0904   7.4247   7.4773   8.6004

          k = 0.3333 0.3333 0.3333 (  3109 PWs)   bands (ev):

   -47.1737 -30.1372 -23.8214 -23.8212 -23.8122 -11.4623 -11.4268 -11.4221
    -7.3944  -7.1573  -7.1292   4.2377   4.6821   4.6897   4.8455   4.9024
     4.9278   7.9848   8.0338   8.3149

          k = 0.3333 0.3333-0.5000 (  3136 PWs)   bands (ev):

   -47.1734 -30.1357 -23.8302 -23.8206 -23.8202 -11.4737 -11.4263 -11.4158
    -7.3258  -7.1723  -7.0061   4.1834   4.3107   4.5274   4.5737   4.8411
     4.9202   8.0512   8.2124   8.4397

          k = 0.3333-0.5000-0.5000 (  3136 PWs)   bands (ev):

   -47.1731 -30.1341 -23.8384 -23.8292 -23.8194 -11.4538 -11.4535 -11.4104
    -7.2738  -7.0509  -7.0120   4.0494   4.1673   4.3823   4.4999   4.5286
     4.8250   8.2671   8.3265   8.6356

          k =-0.5000-0.5000-0.5000 (  3112 PWs)   bands (ev):

   -47.1728 -30.1326 -23.8374 -23.8374 -23.8282 -11.4404 -11.4404 -11.4374
    -7.0719  -7.0719  -7.0349   3.9323   4.2768   4.3007   4.3007   4.3705
     4.3916   8.5965   8.6521   8.6521

          k = 0.1667 0.0000 0.0000 (  3098 PWs)   bands (ev):

   -47.1761 -30.1496 -23.7896 -23.7706 -23.7619 -11.4205 -11.3656 -11.3492
    -8.4069  -7.4532  -7.3943   5.2421   5.5648   5.5665   7.0873   7.0972
     7.2461   7.3809   8.0564   8.0639

          k = 0.3333 0.0000 0.0000 (  3118 PWs)   bands (ev):

   -47.1755 -30.1467 -23.8255 -23.7688 -23.7602 -11.5404 -11.3572 -11.3439
    -8.0806  -7.4324  -7.2396   4.5740   5.6518   5.6573   6.2916   6.4328
     6.4493   6.9022   7.9492   7.9505

          k =-0.5000 0.0000 0.0000 (  3178 PWs)   bands (ev):

   -47.1752 -30.1452 -23.8433 -23.7680 -23.7594 -11.5967 -11.3527 -11.3412
    -7.9163  -7.4243  -7.1538   4.2034   5.8233   5.8499   5.8990   6.0236
     6.0245   6.7465   7.9110   7.9117

          k = 0.1667-0.1667 0.0000 (  3109 PWs)   bands (ev):

   -47.1758 -30.1481 -23.7891 -23.7886 -23.7611 -11.4298 -11.3894 -11.3597
    -8.2619  -7.3993  -7.3669   5.0578   5.4194   5.5795   6.3918   6.8762
     7.3032   7.4027   7.6548   7.8343

          k = 0.3333-0.1667 0.0000 (  3118 PWs)   bands (ev):

   -47.1752 -30.1450 -23.8250 -23.7873 -23.7594 -11.5212 -11.3883 -11.3508
    -7.9759  -7.3796  -7.2061   4.5247   5.1419   5.6270   5.7019   6.3606
     6.6477   7.3664   7.5593   7.6323

          k = 0.0000 0.3333 0.1667 (  3118 PWs)   bands (ev):

   -47.1752 -30.1451 -23.8249 -23.7786 -23.7680 -11.5221 -11.3963 -11.3406
    -7.9841  -7.3779  -7.2012   4.5310   5.1571   5.6516   5.6910   6.3349
     6.5894   7.3554   7.6173   7.6277

          k =-0.5000-0.1667 0.0000 (  3112 PWs)   bands (ev):

   -47.1749 -30.1435 -23.8429 -23.7866 -23.7586 -11.5703 -11.3819 -11.3462
    -7.8400  -7.3688  -7.1104   4.1971   4.8822   5.5208   5.8427   5.9819
     6.4315   7.3648   7.4622   7.5711

          k = 0.0000-0.5000 0.1667 (  3112 PWs)   bands (ev):

   -47.1749 -30.1435 -23.8428 -23.7778 -23.7672 -11.5709 -11.3885 -11.3378
    -7.8531  -7.3556  -7.1123   4.1986   4.9051   5.5572   5.8223   5.9520
     6.3698   7.3541   7.5305   7.5616

          k = 0.3333-0.3333 0.0000 (  3145 PWs)   bands (ev):

   -47.1746 -30.1417 -23.8242 -23.8237 -23.7578 -11.4935 -11.4592 -11.3429
    -7.8242  -7.2225  -7.1133   4.2249   4.6984   4.7634   5.7068   6.1030
     6.7110   6.8732   7.2290   8.1141

          k =-0.5000-0.3333 0.0000 (  3126 PWs)   bands (ev):

   -47.1743 -30.1401 -23.8421 -23.8234 -23.7570 -11.5179 -11.4556 -11.3387
    -7.7815  -7.1409  -7.0249   4.0698   4.1598   4.6996   5.8182   5.8645
     6.6324   6.8537   7.0970   8.2553

          k = 0.0000-0.5000 0.3333 (  3126 PWs)   bands (ev):

   -47.1743 -30.1403 -23.8419 -23.8143 -23.7656 -11.5194 -11.4584 -11.3310
    -7.8126  -7.1096  -7.0300   4.0828   4.1683   4.7371   5.8141   5.8163
     6.5842   6.8353   7.0693   8.3340

          k =-0.5000 0.5000 0.0000 (  3136 PWs)   bands (ev):

   -47.1740 -30.1384 -23.8417 -23.8417 -23.7561 -11.4917 -11.4917 -11.3348
    -7.7831  -6.9827  -6.9827   3.7771   4.0264   4.3529   5.8010   5.8010
     6.7332   6.7332   6.9167   8.5048

          k = 0.3333-0.1667 0.1667 (  3129 PWs)   bands (ev):

   -47.1749 -30.1435 -23.8243 -23.7865 -23.7777 -11.5050 -11.3963 -11.3722
    -7.8600  -7.3373  -7.1875   4.4825   5.0664   5.3146   5.5471   5.8159
     6.6221   7.3780   7.5960   7.7308

          k =-0.5000-0.1667 0.1667 (  3124 PWs)   bands (ev):

   -47.1746 -30.1419 -23.8423 -23.7857 -23.7769 -11.5478 -11.3900 -11.3654
    -7.7360  -7.3362  -7.0847   4.1952   4.7800   5.2065   5.3517   5.7114
     6.6872   7.2273   7.5745   7.6518

          k = 0.3333-0.3333 0.1667 (  3145 PWs)   bands (ev):

   -47.1743 -30.1402 -23.8232 -23.8229 -23.7760 -11.4805 -11.4485 -11.3722
    -7.6689  -7.2109  -7.1278   4.2493   4.7379   4.7627   5.2156   5.4564
     6.1805   7.4954   7.5256   8.1430

          k =-0.5000-0.3333 0.1667 (  3124 PWs)   bands (ev):

   -47.1740 -30.1386 -23.8412 -23.8224 -23.7752 -11.5019 -11.4462 -11.3660
    -7.6159  -7.1600  -7.0310   4.1604   4.1651   4.6971   5.1394   5.3336
     6.1792   7.4479   7.5172   8.2777

          k =-0.1667-0.5000 0.3333 (  3124 PWs)   bands (ev):

   -47.1740 -30.1387 -23.8410 -23.8133 -23.7840 -11.5029 -11.4486 -11.3604
    -7.6460  -7.1299  -7.0343   4.1715   4.1757   4.7310   5.1047   5.3318
     6.1446   7.3905   7.5131   8.3484

          k =-0.5000 0.5000 0.1667 (  3124 PWs)   bands (ev):

   -47.1737 -30.1370 -23.8406 -23.8406 -23.7743 -11.4791 -11.4791 -11.3607
    -7.6092  -7.0048  -7.0048   3.8984   4.0370   4.3573   5.1622   5.1622
     6.1295   7.4821   7.4821   8.5273

          k =-0.5000-0.3333 0.3333 (  3136 PWs)   bands (ev):

   -47.1734 -30.1356 -23.8393 -23.8204 -23.8113 -11.4699 -11.4353 -11.4116
    -7.3101  -7.1486  -7.0440   4.1533   4.2935   4.5181   4.5943   4.8553
     4.9494   8.1141   8.1740   8.4168

          k =-0.5000 0.5000 0.3333 (  3136 PWs)   bands (ev):

   -47.1731 -30.1341 -23.8385 -23.8385 -23.8103 -11.4534 -11.4534 -11.4120
    -7.2364  -7.0494  -7.0494   4.0303   4.1480   4.3661   4.5278   4.5278
     4.8594   8.3266   8.3266   8.5731

     highest occupied level (ev):     8.6521

!    total energy              =    -291.75109687 Ry
     estimated scf accuracy    <          4.1E-09 Ry

     The total energy is the sum of the following terms:
     one-electron contribution =     -94.04357033 Ry
     hartree contribution      =      66.23583341 Ry
     xc contribution           =     -51.22344359 Ry
     ewald contribution        =    -212.71991636 Ry

     convergence has been achieved in  13 iterations

     negative rho (up, down):  7.860E-04 0.000E+00

     Forces acting on atoms (cartesian axes, Ry/au):

     atom    1 type  1   force =     0.00000000    0.00000000   -0.00156165
     atom    2 type  2   force =     0.00000000    0.00000000    0.01673240
     atom    3 type  3   force =     0.00000000    0.00000000    0.00789202
     atom    4 type  3   force =     0.00000000    0.00000000   -0.01153138
     atom    5 type  3   force =     0.00000000    0.00000000   -0.01153138

     Total force =     0.024711     Total SCF correction =     0.000026


     Computing stress (Cartesian axis) and pressure


     negative rho (up, down):  7.860E-04 0.000E+00
          total   stress  (Ry/bohr**3)                   (kbar)     P=     -113.79
  -0.00077466   0.00000000   0.00000000         -113.96        0.00        0.00
   0.00000000  -0.00077466   0.00000000            0.00     -113.96        0.00
   0.00000000   0.00000000  -0.00077130            0.00        0.00     -113.46


     Writing all to output data dir ./CTO.save/ :
     XML data file, charge density, pseudopotentials, collected wavefunctions
 
     init_run     :      0.53s CPU      0.62s WALL (       1 calls)
     electrons    :     13.07s CPU     13.82s WALL (       1 calls)
     forces       :      0.15s CPU      0.15s WALL (       1 calls)
     stress       :      1.41s CPU      1.45s WALL (       1 calls)

     Called by init_run:
     wfcinit      :      0.26s CPU      0.28s WALL (       1 calls)
     potinit      :      0.01s CPU      0.02s WALL (       1 calls)
     hinit0       :      0.12s CPU      0.15s WALL (       1 calls)

     Called by electrons:
     c_bands      :     10.68s CPU     11.26s WALL (      13 calls)
     sum_band     :      1.67s CPU      1.77s WALL (      13 calls)
     v_of_rho     :      0.02s CPU      0.03s WALL (      14 calls)
     newd         :      0.71s CPU      0.78s WALL (      14 calls)
     mix_rho      :      0.02s CPU      0.02s WALL (      13 calls)

     Called by c_bands:
     init_us_2    :      0.14s CPU      0.15s WALL (    1160 calls)
     init_us_2:cp :      0.14s CPU      0.15s WALL (    1160 calls)
     ccgdiagg     :      9.14s CPU      9.63s WALL (     520 calls)
     wfcrot       :      1.66s CPU      1.76s WALL (     520 calls)

     Called by *cgdiagg:
     h_psi        :      6.55s CPU      6.89s WALL (   30404 calls)
     s_psi        :      0.79s CPU      0.84s WALL (   60288 calls)

     Called by h_psi:
     h_psi:calbec :      0.94s CPU      0.99s WALL (   30404 calls)
     vloc_psi     :      4.91s CPU      5.16s WALL (   30404 calls)
     add_vuspsi   :      0.46s CPU      0.48s WALL (   30404 calls)
     hs_1psi      :      5.72s CPU      6.02s WALL (   29884 calls)
     s_1psi       :      1.25s CPU      1.31s WALL (   29884 calls)

     General routines
     calbec       :      1.67s CPU      1.76s WALL (   61008 calls)
     fft          :      0.03s CPU      0.04s WALL (      90 calls)
     ffts         :      0.00s CPU      0.00s WALL (      27 calls)
     fftw         :      4.29s CPU      4.50s WALL (   91928 calls)
     interpolate  :      0.01s CPU      0.01s WALL (      14 calls)
 
     Parallel routines
 
     PWSCF        :     15.41s CPU     16.73s WALL

 
   This run was terminated on:  17:26:20  19Sep2025            

=------------------------------------------------------------------------------=
   JOB DONE.
=------------------------------------------------------------------------------=
TACC:  Shutdown complete. Exiting. 
