TACC:  Starting up job 2386222 
TACC:  Starting parallel tasks... 

     Program PWSCF v.7.3 starts on 19Sep2025 at  9:36:55 

     This program is part of the open-source Quantum ESPRESSO suite
     for quantum simulation of materials; please cite
         "P. Giannozzi et al., J. Phys.:Condens. Matter 21 395502 (2009);
         "P. Giannozzi et al., J. Phys.:Condens. Matter 29 465901 (2017);
         "P. Giannozzi et al., J. Chem. Phys. 152 154105 (2020);
          URL http://www.quantum-espresso.org", 
     in publications or presentations arising from this work. More details at
     http://www.quantum-espresso.org/quote

     Parallel version (MPI & OpenMP), running on      10 processor cores
     Number of MPI processes:                10
     Threads/MPI process:                     1

     MPI processes distributed on     1 nodes
     183345 MiB available memory on the printing compute node when the environment starts
 
     Waiting for input...
     Reading input from standard input
Warning: card &CELL ignored
Warning: card  CELL_DYNAMICS = 'BFGS', ignored
Warning: card  PRESS=0.D0, ignored
Warning: card / ignored
     Message from routine read_cards :
     DEPRECATED: no units specified in ATOMIC_POSITIONS card
     Message from routine read_cards :
     ATOMIC_POSITIONS: units set to alat

     Current dimensions of program PWSCF are:
     Max number of different atomic species (ntypx) = 10
     Max number of k-points (npk) =  40000
     Max angular momentum in pseudopotentials (lmaxx) =  4
 
     R & G space division:  proc/nbgrp/npool/nimage =      10
     Subspace diagonalization in iterative solution of the eigenvalue problem:
     a serial algorithm will be used

 
     Parallelization info
     --------------------
     sticks:   dense  smooth     PW     G-vecs:    dense   smooth      PW
     Min         388     156     43                18166     4596     709
     Max         389     158     44                18168     4597     714
     Sum        3885    1565    437               181667    45961    7123
 
     Using Slab Decomposition
 


     bravais-lattice index     =            1
     lattice parameter (alat)  =       7.3573  a.u.
     unit-cell volume          =     398.2496 (a.u.)^3
     number of atoms/cell      =            5
     number of atomic types    =            3
     number of electrons       =        40.00
     number of Kohn-Sham states=           20
     kinetic-energy cutoff     =      90.0000  Ry
     charge density cutoff     =     900.0000  Ry
     scf convergence threshold =      1.0E-08
     mixing beta               =       0.7000
     number of iterations used =            8  plain     mixing
     Exchange-correlation= SLA  PZ   NOGX NOGC
                           (   1   1   0   0   0   0   0)

     celldm(1)=   7.357300  celldm(2)=   0.000000  celldm(3)=   0.000000
     celldm(4)=   0.000000  celldm(5)=   0.000000  celldm(6)=   0.000000

     crystal axes: (cart. coord. in units of alat)
               a(1) = (   1.000000   0.000000   0.000000 )  
               a(2) = (   0.000000   1.000000   0.000000 )  
               a(3) = (   0.000000   0.000000   1.000000 )  

     reciprocal axes: (cart. coord. in units 2 pi/alat)
               b(1) = (  1.000000  0.000000  0.000000 )  
               b(2) = (  0.000000  1.000000  0.000000 )  
               b(3) = (  0.000000  0.000000  1.000000 )  


     PseudoPot. # 1 for Ca read from file:
     /scratch/11018/zhc/assisgnment1/CaTiO3/Ca_LDA.UPF
     MD5 check sum: d2d4e7693e10d071152e9eeb7dd009f3
     Pseudo is Ultrasoft + core correction, Zval = 10.0
     Generated by new atomic code, or converted to UPF format
     Using radial grid of  845 points,  6 beta functions with: 
                l(1) =   0
                l(2) =   0
                l(3) =   1
                l(4) =   1
                l(5) =   2
                l(6) =   2
     Q(r) pseudized with  8 coefficients,  rinner =    1.500   1.500   1.500
                                                       1.500   1.500

     PseudoPot. # 2 for Ti read from file:
     /scratch/11018/zhc/assisgnment1/CaTiO3/Ti_LDA.UPF
     MD5 check sum: 0d9f225c038fe889ca2a701dcc8d72cb
     Pseudo is Ultrasoft + core correction, Zval = 12.0
     Generated by new atomic code, or converted to UPF format
     Using radial grid of  851 points,  6 beta functions with: 
                l(1) =   0
                l(2) =   0
                l(3) =   1
                l(4) =   1
                l(5) =   2
                l(6) =   2
     Q(r) pseudized with  6 coefficients,  rinner =    1.000   1.000   1.000
                                                       1.000   1.000

     PseudoPot. # 3 for O  read from file:
     /scratch/11018/zhc/assisgnment1/CaTiO3/O_LDA.UPF
     MD5 check sum: 194b818514d2a7dbb603bb78519a4f40
     Pseudo is Ultrasoft + core correction, Zval =  6.0
     Generated by new atomic code, or converted to UPF format
     Using radial grid of  737 points,  5 beta functions with: 
                l(1) =   0
                l(2) =   0
                l(3) =   1
                l(4) =   1
                l(5) =   2
     Q(r) pseudized with  8 coefficients,  rinner =    0.900   0.900   0.900
                                                       0.900   0.900

     atomic species   valence    mass     pseudopotential
     Ca               10.00    40.07800     Ca( 1.00)
     Ti               12.00    47.88000     Ti( 1.00)
     O                 6.00    16.00000     O ( 1.00)

     48 Sym. Ops., with inversion, found



   Cartesian axes

     site n.     atom                  positions (alat units)
         1        Ca     tau(   1) = (   0.0000000   0.0000000   0.0000000  )
         2        Ti     tau(   2) = (   0.5000000   0.5000000   0.5000000  )
         3        O      tau(   3) = (   0.5000000   0.5000000   0.0000000  )
         4        O      tau(   4) = (   0.5000000   0.0000000   0.5000000  )
         5        O      tau(   5) = (   0.0000000   0.5000000   0.5000000  )

     number of k points=     4
                       cart. coord. in units 2pi/alat
        k(    1) = (   0.0000000   0.0000000   0.0000000), wk =   0.2500000
        k(    2) = (   0.0000000   0.0000000  -0.5000000), wk =   0.7500000
        k(    3) = (   0.0000000  -0.5000000  -0.5000000), wk =   0.7500000
        k(    4) = (  -0.5000000  -0.5000000  -0.5000000), wk =   0.2500000

     Dense  grid:   181667 G-vectors     FFT dimensions: (  72,  72,  72)

     Smooth grid:    45961 G-vectors     FFT dimensions: (  45,  45,  45)

     Estimated max dynamical RAM per process >      75.88 MB

     Estimated total dynamical RAM >     758.81 MB

     Check: negative core charge=   -0.000002

     Initial potential from superposition of free atoms

     starting charge      38.9952, renormalised to      40.0000

     negative rho (up, down):  7.220E-04 0.000E+00
     Starting wfcs are   32 randomized atomic wfcs

     total cpu time spent up to now is        0.9 secs

     Self-consistent Calculation

     iteration #  1     ecut=    90.00 Ry     beta= 0.70
     CG style diagonalization
     ethr =  1.00E-02,  avg # of iterations =  2.2

     negative rho (up, down):  1.411E-03 0.000E+00

     total cpu time spent up to now is        1.3 secs

     total energy              =    -291.23633781 Ry
     estimated scf accuracy    <       0.87243468 Ry

     iteration #  2     ecut=    90.00 Ry     beta= 0.70
     CG style diagonalization
     ethr =  2.18E-03,  avg # of iterations =  4.6

     negative rho (up, down):  6.030E-04 0.000E+00

     total cpu time spent up to now is        1.7 secs

     total energy              =    -290.90678183 Ry
     estimated scf accuracy    <       4.06718479 Ry

     iteration #  3     ecut=    90.00 Ry     beta= 0.70
     CG style diagonalization
     ethr =  2.18E-03,  avg # of iterations =  4.1

     negative rho (up, down):  6.985E-04 0.000E+00

     total cpu time spent up to now is        2.1 secs

     total energy              =    -291.67645601 Ry
     estimated scf accuracy    <       0.13452107 Ry

     iteration #  4     ecut=    90.00 Ry     beta= 0.70
     CG style diagonalization
     ethr =  3.36E-04,  avg # of iterations =  3.5

     negative rho (up, down):  7.735E-04 0.000E+00

     total cpu time spent up to now is        2.5 secs

     total energy              =    -291.69162733 Ry
     estimated scf accuracy    <       0.01862842 Ry

     iteration #  5     ecut=    90.00 Ry     beta= 0.70
     CG style diagonalization
     ethr =  4.66E-05,  avg # of iterations =  3.6

     negative rho (up, down):  7.636E-04 0.000E+00

     total cpu time spent up to now is        2.9 secs

     total energy              =    -291.69752119 Ry
     estimated scf accuracy    <       0.00130816 Ry

     iteration #  6     ecut=    90.00 Ry     beta= 0.70
     CG style diagonalization
     ethr =  3.27E-06,  avg # of iterations =  3.7

     negative rho (up, down):  7.645E-04 0.000E+00

     total cpu time spent up to now is        3.3 secs

     total energy              =    -291.69786405 Ry
     estimated scf accuracy    <       0.00002607 Ry

     iteration #  7     ecut=    90.00 Ry     beta= 0.70
     CG style diagonalization
     ethr =  6.52E-08,  avg # of iterations =  4.3

     negative rho (up, down):  7.649E-04 0.000E+00

     total cpu time spent up to now is        3.7 secs

     total energy              =    -291.69789525 Ry
     estimated scf accuracy    <       0.00000026 Ry

     iteration #  8     ecut=    90.00 Ry     beta= 0.70
     CG style diagonalization
     ethr =  6.60E-10,  avg # of iterations =  5.0

     negative rho (up, down):  7.654E-04 0.000E+00

     total cpu time spent up to now is        4.1 secs

     total energy              =    -291.69789583 Ry
     estimated scf accuracy    <       0.00000050 Ry

     iteration #  9     ecut=    90.00 Ry     beta= 0.70
     CG style diagonalization
     ethr =  6.60E-10,  avg # of iterations =  3.5

     negative rho (up, down):  7.654E-04 0.000E+00

     total cpu time spent up to now is        4.5 secs

     total energy              =    -291.69789589 Ry
     estimated scf accuracy    <       0.00000001 Ry

     iteration # 10     ecut=    90.00 Ry     beta= 0.70
     CG style diagonalization
     ethr =  3.45E-11,  avg # of iterations =  4.0

     negative rho (up, down):  7.654E-04 0.000E+00

     total cpu time spent up to now is        4.9 secs

     End of self-consistent calculation

          k = 0.0000 0.0000 0.0000 (  5743 PWs)   bands (ev):

   -47.5571 -30.2002 -24.1245 -24.1245 -24.1245 -11.3944 -11.3944 -11.3944
    -8.4751  -7.3524  -7.3524   5.6356   5.6356   5.6356   7.6002   7.6002
     7.6002   8.3075   8.3075   8.3075

          k = 0.0000 0.0000-0.5000 (  5750 PWs)   bands (ev):

   -47.5560 -30.1944 -24.1911 -24.1213 -24.1213 -11.6213 -11.3834 -11.3834
    -7.8330  -7.3112  -7.0367   4.2352   5.8961   5.8961   5.9902   6.1057
     6.1057   6.7922   8.0173   8.0173

          k = 0.0000-0.5000-0.5000 (  5712 PWs)   bands (ev):

   -47.5549 -30.1879 -24.1894 -24.1894 -24.1182 -11.5222 -11.5222 -11.3698
    -7.7024  -6.8686  -6.8686   3.8129   4.0888   4.3615   5.8210   5.8210
     6.8132   6.8132   6.9907   8.6859

          k =-0.5000-0.5000-0.5000 (  5832 PWs)   bands (ev):

   -47.5538 -30.1821 -24.1854 -24.1854 -24.1854 -11.4721 -11.4721 -11.4721
    -6.9574  -6.9574  -6.9574   4.0117   4.3223   4.3223   4.3223   4.3790
     4.3790   8.7841   8.7841   8.7841

     highest occupied level (ev):     8.7841

!    total energy              =    -291.69789590 Ry
     estimated scf accuracy    <          4.0E-10 Ry

     The total energy is the sum of the following terms:
     one-electron contribution =     -93.06014255 Ry
     hartree contribution      =      65.71998722 Ry
     xc contribution           =     -51.21317619 Ry
     ewald contribution        =    -213.14456438 Ry

     convergence has been achieved in  10 iterations

     negative rho (up, down):  7.654E-04 0.000E+00

     Forces acting on atoms (cartesian axes, Ry/au):

     atom    1 type  1   force =     0.00000000    0.00000000    0.00000000
     atom    2 type  2   force =     0.00000000    0.00000000    0.00000000
     atom    3 type  3   force =     0.00000000    0.00000000    0.00000000
     atom    4 type  3   force =     0.00000000    0.00000000    0.00000000
     atom    5 type  3   force =     0.00000000    0.00000000    0.00000000

     Total force =     0.000000     Total SCF correction =     0.000000


     Computing stress (Cartesian axis) and pressure


     negative rho (up, down):  7.654E-04 0.000E+00
          total   stress  (Ry/bohr**3)                   (kbar)     P=      -98.97
  -0.00067277   0.00000000   0.00000000          -98.97        0.00        0.00
   0.00000000  -0.00067277   0.00000000            0.00      -98.97        0.00
   0.00000000   0.00000000  -0.00067277            0.00        0.00      -98.97


     Writing all to output data dir ./CTO.save/ :
     XML data file, charge density, pseudopotentials, collected wavefunctions
 
     init_run     :      0.56s CPU      0.66s WALL (       1 calls)
     electrons    :      3.55s CPU      4.08s WALL (       1 calls)
     forces       :      0.14s CPU      0.16s WALL (       1 calls)
     stress       :      0.72s CPU      0.77s WALL (       1 calls)

     Called by init_run:
     wfcinit      :      0.05s CPU      0.07s WALL (       1 calls)
     potinit      :      0.01s CPU      0.02s WALL (       1 calls)
     hinit0       :      0.14s CPU      0.17s WALL (       1 calls)

     Called by electrons:
     c_bands      :      1.46s CPU      1.52s WALL (      10 calls)
     sum_band     :      1.19s CPU      1.31s WALL (      10 calls)
     v_of_rho     :      0.03s CPU      0.03s WALL (      11 calls)
     newd         :      0.92s CPU      1.20s WALL (      11 calls)
     mix_rho      :      0.02s CPU      0.02s WALL (      10 calls)

     Called by c_bands:
     init_us_2    :      0.02s CPU      0.02s WALL (      92 calls)
     init_us_2:cp :      0.02s CPU      0.02s WALL (      92 calls)
     ccgdiagg     :      1.23s CPU      1.28s WALL (      40 calls)
     wfcrot       :      0.25s CPU      0.29s WALL (      40 calls)

     Called by *cgdiagg:
     h_psi        :      1.01s CPU      1.06s WALL (    2414 calls)
     s_psi        :      0.13s CPU      0.13s WALL (    4788 calls)

     Called by h_psi:
     h_psi:calbec :      0.13s CPU      0.14s WALL (    2414 calls)
     vloc_psi     :      0.79s CPU      0.82s WALL (    2414 calls)
     add_vuspsi   :      0.07s CPU      0.08s WALL (    2414 calls)
     hs_1psi      :      0.86s CPU      0.90s WALL (    2374 calls)
     s_1psi       :      0.16s CPU      0.17s WALL (    2374 calls)

     General routines
     calbec       :      0.22s CPU      0.24s WALL (    4848 calls)
     fft          :      0.04s CPU      0.05s WALL (      72 calls)
     ffts         :      0.00s CPU      0.01s WALL (      21 calls)
     fftw         :      0.70s CPU      0.73s WALL (    7244 calls)
     interpolate  :      0.01s CPU      0.01s WALL (      11 calls)
 
     Parallel routines
 
     PWSCF        :      5.15s CPU      6.07s WALL

 
   This run was terminated on:   9:37: 1  19Sep2025            

=------------------------------------------------------------------------------=
   JOB DONE.
=------------------------------------------------------------------------------=
TACC:  Shutdown complete. Exiting. 
