TACC:  Starting up job 2560874 
TACC:  Starting parallel tasks... 

     Program PWSCF v.7.3 starts on 18Nov2025 at  0:27:17 

     This program is part of the open-source Quantum ESPRESSO suite
     for quantum simulation of materials; please cite
         "P. Giannozzi et al., J. Phys.:Condens. Matter 21 395502 (2009);
         "P. Giannozzi et al., J. Phys.:Condens. Matter 29 465901 (2017);
         "P. Giannozzi et al., J. Chem. Phys. 152 154105 (2020);
          URL http://www.quantum-espresso.org", 
     in publications or presentations arising from this work. More details at
     http://www.quantum-espresso.org/quote

     Parallel version (MPI & OpenMP), running on      10 processor cores
     Number of MPI processes:                10
     Threads/MPI process:                     1

     MPI processes distributed on     1 nodes
     186513 MiB available memory on the printing compute node when the environment starts
 
     Waiting for input...
     Reading input from standard input
Warning: card &CELL ignored
Warning: card  CELL_DYNAMICS = 'BFGS', ignored
Warning: card  PRESS=0.D0, ignored
Warning: card / ignored

     Current dimensions of program PWSCF are:
     Max number of different atomic species (ntypx) = 10
     Max number of k-points (npk) =  40000
     Max angular momentum in pseudopotentials (lmaxx) =  4
     Message from routine setup:
     using ibrav=0 with symmetry is DISCOURAGED, use correct ibrav instead
 
     R & G space division:  proc/nbgrp/npool/nimage =      10
     Subspace diagonalization in iterative solution of the eigenvalue problem:
     a serial algorithm will be used

 
     Parallelization info
     --------------------
     sticks:   dense  smooth     PW     G-vecs:    dense   smooth      PW
     Min         209      85     25                 7673     1943     323
     Max         210      86     27                 7676     1947     324
     Sum        2093     853    257                76739    19447    3235
 
     Using Slab Decomposition
 


     bravais-lattice index     =            0
     lattice parameter (alat)  =       7.2897  a.u.
     unit-cell volume          =     406.4854 (a.u.)^3
     number of atoms/cell      =            5
     number of atomic types    =            3
     number of electrons       =        44.00
     number of Kohn-Sham states=           22
     kinetic-energy cutoff     =      50.0000  Ry
     charge density cutoff     =     500.0000  Ry
     scf convergence threshold =      1.0E-08
     mixing beta               =       0.7000
     number of iterations used =            8  plain     mixing
     energy convergence thresh.=      1.0E-04
     force convergence thresh. =      1.0E-03
     Exchange-correlation= SLA  PZ   NOGX NOGC
                           (   1   1   0   0   0   0   0)
     nstep                     =           50


     celldm(1)=   7.289656  celldm(2)=   0.000000  celldm(3)=   0.000000
     celldm(4)=   0.000000  celldm(5)=   0.000000  celldm(6)=   0.000000

     crystal axes: (cart. coord. in units of alat)
               a(1) = (   1.000000   0.000000   0.000000 )  
               a(2) = (   0.000000   0.999482   0.000000 )  
               a(3) = (   0.000000   0.000000   1.049903 )  

     reciprocal axes: (cart. coord. in units 2 pi/alat)
               b(1) = (  1.000000  0.000000  0.000000 )  
               b(2) = (  0.000000  1.000519  0.000000 )  
               b(3) = (  0.000000  0.000000  0.952469 )  


     PseudoPot. # 1 for Pb read from file:
     /scratch/11018/zhc/assisgnment3/input_files/Pb_LDA.UPF
     MD5 check sum: 062a37469794d955244864f8fe2e5624
     Pseudo is Ultrasoft + core correction, Zval = 14.0
     Generated by new atomic code, or converted to UPF format
     Using radial grid of  899 points,  6 beta functions with: 
                l(1) =   0
                l(2) =   0
                l(3) =   1
                l(4) =   1
                l(5) =   2
                l(6) =   2
     Q(r) pseudized with  6 coefficients,  rinner =    1.000   1.000   1.000
                                                       1.000   1.000

     PseudoPot. # 2 for Ti read from file:
     /scratch/11018/zhc/assisgnment3/input_files/Ti_LDA.UPF
     MD5 check sum: 0d9f225c038fe889ca2a701dcc8d72cb
     Pseudo is Ultrasoft + core correction, Zval = 12.0
     Generated by new atomic code, or converted to UPF format
     Using radial grid of  851 points,  6 beta functions with: 
                l(1) =   0
                l(2) =   0
                l(3) =   1
                l(4) =   1
                l(5) =   2
                l(6) =   2
     Q(r) pseudized with  6 coefficients,  rinner =    1.000   1.000   1.000
                                                       1.000   1.000

     PseudoPot. # 3 for O  read from file:
     /scratch/11018/zhc/assisgnment3/input_files/O_LDA.UPF
     MD5 check sum: 194b818514d2a7dbb603bb78519a4f40
     Pseudo is Ultrasoft + core correction, Zval =  6.0
     Generated by new atomic code, or converted to UPF format
     Using radial grid of  737 points,  5 beta functions with: 
                l(1) =   0
                l(2) =   0
                l(3) =   1
                l(4) =   1
                l(5) =   2
     Q(r) pseudized with  8 coefficients,  rinner =    0.900   0.900   0.900
                                                       0.900   0.900

     atomic species   valence    mass     pseudopotential
     Pb               14.00   207.20000     Pb( 1.00)
     Ti               12.00    47.88000     Ti( 1.00)
     O                 6.00    16.00000     O ( 1.00)

      4 Sym. Ops. (no inversion) found



   Cartesian axes

     site n.     atom                  positions (alat units)
         1        Pb     tau(   1) = (   0.0000000   0.0000000   1.0553345  )
         2        Ti     tau(   2) = (   0.5000000   0.4997408   0.5664586  )
         3        O      tau(   3) = (   0.5000000   0.4997408   0.1044736  )
         4        O      tau(   4) = (   0.5000000   0.0000000   0.6420512  )
         5        O      tau(   5) = (   0.0000000   0.4997408   0.6420512  )

     number of k points=    48
                       cart. coord. in units 2pi/alat
        k(    1) = (   0.0000000   0.0000000   0.0000000), wk =   0.0138889
        k(    2) = (   0.0000000   0.0000000   0.2381173), wk =   0.0277778
        k(    3) = (   0.0000000   0.0000000  -0.4762347), wk =   0.0138889
        k(    4) = (   0.0000000   0.1667531   0.0000000), wk =   0.0277778
        k(    5) = (   0.0000000   0.1667531   0.2381173), wk =   0.0555556
        k(    6) = (   0.0000000   0.1667531  -0.4762347), wk =   0.0277778
        k(    7) = (   0.0000000   0.3335062   0.0000000), wk =   0.0277778
        k(    8) = (   0.0000000   0.3335062   0.2381173), wk =   0.0555556
        k(    9) = (   0.0000000   0.3335062  -0.4762347), wk =   0.0277778
        k(   10) = (   0.0000000  -0.5002594   0.0000000), wk =   0.0138889
        k(   11) = (   0.0000000  -0.5002594   0.2381173), wk =   0.0277778
        k(   12) = (   0.0000000  -0.5002594  -0.4762347), wk =   0.0138889
        k(   13) = (   0.1666667   0.0000000   0.0000000), wk =   0.0277778
        k(   14) = (   0.1666667   0.0000000   0.2381173), wk =   0.0555556
        k(   15) = (   0.1666667   0.0000000  -0.4762347), wk =   0.0277778
        k(   16) = (   0.1666667   0.1667531   0.0000000), wk =   0.0555556
        k(   17) = (   0.1666667   0.1667531   0.2381173), wk =   0.1111111
        k(   18) = (   0.1666667   0.1667531  -0.4762347), wk =   0.0555556
        k(   19) = (   0.1666667   0.3335062   0.0000000), wk =   0.0555556
        k(   20) = (   0.1666667   0.3335062   0.2381173), wk =   0.1111111
        k(   21) = (   0.1666667   0.3335062  -0.4762347), wk =   0.0555556
        k(   22) = (   0.1666667  -0.5002594   0.0000000), wk =   0.0277778
        k(   23) = (   0.1666667  -0.5002594   0.2381173), wk =   0.0555556
        k(   24) = (   0.1666667  -0.5002594  -0.4762347), wk =   0.0277778
        k(   25) = (   0.3333333   0.0000000   0.0000000), wk =   0.0277778
        k(   26) = (   0.3333333   0.0000000   0.2381173), wk =   0.0555556
        k(   27) = (   0.3333333   0.0000000  -0.4762347), wk =   0.0277778
        k(   28) = (   0.3333333   0.1667531   0.0000000), wk =   0.0555556
        k(   29) = (   0.3333333   0.1667531   0.2381173), wk =   0.1111111
        k(   30) = (   0.3333333   0.1667531  -0.4762347), wk =   0.0555556
        k(   31) = (   0.3333333   0.3335062   0.0000000), wk =   0.0555556
        k(   32) = (   0.3333333   0.3335062   0.2381173), wk =   0.1111111
        k(   33) = (   0.3333333   0.3335062  -0.4762347), wk =   0.0555556
        k(   34) = (   0.3333333  -0.5002594   0.0000000), wk =   0.0277778
        k(   35) = (   0.3333333  -0.5002594   0.2381173), wk =   0.0555556
        k(   36) = (   0.3333333  -0.5002594  -0.4762347), wk =   0.0277778
        k(   37) = (  -0.5000000   0.0000000   0.0000000), wk =   0.0138889
        k(   38) = (  -0.5000000   0.0000000   0.2381173), wk =   0.0277778
        k(   39) = (  -0.5000000   0.0000000  -0.4762347), wk =   0.0138889
        k(   40) = (  -0.5000000   0.1667531   0.0000000), wk =   0.0277778
        k(   41) = (  -0.5000000   0.1667531   0.2381173), wk =   0.0555556
        k(   42) = (  -0.5000000   0.1667531  -0.4762347), wk =   0.0277778
        k(   43) = (  -0.5000000   0.3335062   0.0000000), wk =   0.0277778
        k(   44) = (  -0.5000000   0.3335062   0.2381173), wk =   0.0555556
        k(   45) = (  -0.5000000   0.3335062  -0.4762347), wk =   0.0277778
        k(   46) = (  -0.5000000  -0.5002594   0.0000000), wk =   0.0138889
        k(   47) = (  -0.5000000  -0.5002594   0.2381173), wk =   0.0277778
        k(   48) = (  -0.5000000  -0.5002594  -0.4762347), wk =   0.0138889

     Dense  grid:    76739 G-vectors     FFT dimensions: (  54,  54,  60)

     Smooth grid:    19447 G-vectors     FFT dimensions: (  36,  36,  36)

     Estimated max dynamical RAM per process >      37.99 MB

     Estimated total dynamical RAM >     379.91 MB

     Check: negative core charge=   -0.000004

     Initial potential from superposition of free atoms

     starting charge      42.9982, renormalised to      44.0000

     negative rho (up, down):  1.669E-02 0.000E+00
     Starting wfcs are   31 randomized atomic wfcs

     total cpu time spent up to now is        0.8 secs

     Self-consistent Calculation

     iteration #  1     ecut=    50.00 Ry     beta= 0.70
     CG style diagonalization
     ethr =  1.00E-02,  avg # of iterations =  2.1

     negative rho (up, down):  1.400E-02 0.000E+00

     total cpu time spent up to now is        1.6 secs

     total energy              =    -380.06235992 Ry
     estimated scf accuracy    <       1.02152024 Ry

     iteration #  2     ecut=    50.00 Ry     beta= 0.70
     CG style diagonalization
     ethr =  2.32E-03,  avg # of iterations =  4.8

     negative rho (up, down):  1.451E-02 0.000E+00

     total cpu time spent up to now is        3.0 secs

     total energy              =    -379.74933622 Ry
     estimated scf accuracy    <       3.95283229 Ry

     iteration #  3     ecut=    50.00 Ry     beta= 0.70
     CG style diagonalization
     ethr =  2.32E-03,  avg # of iterations =  4.3

     negative rho (up, down):  1.513E-02 0.000E+00

     total cpu time spent up to now is        4.4 secs

     total energy              =    -380.53719071 Ry
     estimated scf accuracy    <       0.31418298 Ry

     iteration #  4     ecut=    50.00 Ry     beta= 0.70
     CG style diagonalization
     ethr =  7.14E-04,  avg # of iterations =  3.4

     negative rho (up, down):  1.512E-02 0.000E+00

     total cpu time spent up to now is        5.4 secs

     total energy              =    -380.55996792 Ry
     estimated scf accuracy    <       0.04317727 Ry

     iteration #  5     ecut=    50.00 Ry     beta= 0.70
     CG style diagonalization
     ethr =  9.81E-05,  avg # of iterations =  3.9

     negative rho (up, down):  1.512E-02 0.000E+00

     total cpu time spent up to now is        6.6 secs

     total energy              =    -380.57150339 Ry
     estimated scf accuracy    <       0.00766383 Ry

     iteration #  6     ecut=    50.00 Ry     beta= 0.70
     CG style diagonalization
     ethr =  1.74E-05,  avg # of iterations =  3.9

     negative rho (up, down):  1.512E-02 0.000E+00

     total cpu time spent up to now is        7.7 secs

     total energy              =    -380.57363817 Ry
     estimated scf accuracy    <       0.00618624 Ry

     iteration #  7     ecut=    50.00 Ry     beta= 0.70
     CG style diagonalization
     ethr =  1.41E-05,  avg # of iterations =  3.2

     negative rho (up, down):  1.514E-02 0.000E+00

     total cpu time spent up to now is        8.7 secs

     total energy              =    -380.57362188 Ry
     estimated scf accuracy    <       0.00166640 Ry

     iteration #  8     ecut=    50.00 Ry     beta= 0.70
     CG style diagonalization
     ethr =  3.79E-06,  avg # of iterations =  3.7

     negative rho (up, down):  1.516E-02 0.000E+00

     total cpu time spent up to now is        9.8 secs

     total energy              =    -380.57398490 Ry
     estimated scf accuracy    <       0.00000960 Ry

     iteration #  9     ecut=    50.00 Ry     beta= 0.70
     CG style diagonalization
     c_bands:  1 eigenvalues not converged
     c_bands:  1 eigenvalues not converged
     c_bands:  1 eigenvalues not converged
     ethr =  2.18E-08,  avg # of iterations =  7.8

     negative rho (up, down):  1.519E-02 0.000E+00

     total cpu time spent up to now is       12.2 secs

     total energy              =    -380.57404673 Ry
     estimated scf accuracy    <       0.00003925 Ry

     iteration # 10     ecut=    50.00 Ry     beta= 0.70
     CG style diagonalization
     ethr =  2.18E-08,  avg # of iterations =  3.5

     negative rho (up, down):  1.524E-02 0.000E+00

     total cpu time spent up to now is       13.2 secs

     total energy              =    -380.57404318 Ry
     estimated scf accuracy    <       0.00002156 Ry

     iteration # 11     ecut=    50.00 Ry     beta= 0.70
     CG style diagonalization
     ethr =  2.18E-08,  avg # of iterations =  3.7

     negative rho (up, down):  1.531E-02 0.000E+00

     total cpu time spent up to now is       14.3 secs

     total energy              =    -380.57404311 Ry
     estimated scf accuracy    <       0.00000401 Ry

     iteration # 12     ecut=    50.00 Ry     beta= 0.70
     CG style diagonalization
     ethr =  9.12E-09,  avg # of iterations =  4.2

     negative rho (up, down):  1.530E-02 0.000E+00

     total cpu time spent up to now is       15.6 secs

     total energy              =    -380.57404438 Ry
     estimated scf accuracy    <       0.00000083 Ry

     iteration # 13     ecut=    50.00 Ry     beta= 0.70
     CG style diagonalization
     ethr =  1.88E-09,  avg # of iterations =  5.8

     negative rho (up, down):  1.530E-02 0.000E+00

     total cpu time spent up to now is       17.3 secs

     total energy              =    -380.57404517 Ry
     estimated scf accuracy    <       0.00000005 Ry

     iteration # 14     ecut=    50.00 Ry     beta= 0.70
     CG style diagonalization
     c_bands:  1 eigenvalues not converged
     ethr =  1.11E-10,  avg # of iterations =  9.1

     negative rho (up, down):  1.531E-02 0.000E+00

     total cpu time spent up to now is       20.1 secs

     total energy              =    -380.57404543 Ry
     estimated scf accuracy    <       0.00000001 Ry

     iteration # 15     ecut=    50.00 Ry     beta= 0.70
     CG style diagonalization
     ethr =  3.22E-11,  avg # of iterations =  5.8

     negative rho (up, down):  1.531E-02 0.000E+00

     total cpu time spent up to now is       21.9 secs

     End of self-consistent calculation

          k = 0.0000 0.0000 0.0000 (  2421 PWs)   bands (ev):

   -45.1710 -21.8519 -21.7675 -21.7669  -7.1661  -6.0140  -5.7578  -4.4139
    -4.4138  -4.3742  -4.2574  -4.1421   4.8419   6.7324   6.7364   7.1117
     8.7118   8.7127   8.9528   9.2897   9.4405   9.4413

          k = 0.0000 0.0000 0.2381 (  2429 PWs)   bands (ev):

   -45.1706 -21.8754 -21.7665 -21.7660  -6.9579  -5.9521  -5.6875  -4.4317
    -4.4316  -4.3727  -4.2450  -4.2193   3.9796   6.7877   6.7910   7.3045
     8.4570   8.4590   8.8690   9.3782   9.5600   9.5604

          k = 0.0000 0.0000-0.4762 (  2410 PWs)   bands (ev):

   -45.1703 -21.8988 -21.7656 -21.7650  -6.7318  -5.8842  -5.6237  -4.4494
    -4.4493  -4.3712  -4.3025  -4.2342   3.4361   6.6055   6.8221   6.8244
     8.2986   8.3020   8.7894   9.6364   9.6366  10.6562

          k = 0.0000 0.1668 0.0000 (  2427 PWs)   bands (ev):

   -45.1706 -21.8511 -21.7878 -21.7661  -7.0210  -5.9798  -5.7271  -4.4382
    -4.4123  -4.3891  -4.2602  -4.1306   4.3525   6.8032   6.8427   7.1434
     8.6687   8.7326   8.9481   9.0651   9.1706   9.5628

          k = 0.0000 0.1668 0.2381 (  2428 PWs)   bands (ev):

   -45.1702 -21.8744 -21.7868 -21.7651  -6.8293  -5.9340  -5.6512  -4.4366
    -4.4308  -4.3882  -4.2543  -4.1701   3.7463   6.5832   6.9093   7.3906
     8.1242   8.4388   8.7652   9.1626   9.2312   9.9353

          k = 0.0000 0.1668-0.4762 (  2426 PWs)   bands (ev):

   -45.1699 -21.8976 -21.7857 -21.7641  -6.6311  -5.8820  -5.5721  -4.4490
    -4.4329  -4.3873  -4.2586  -4.2055   3.2924   6.2620   6.9495   7.0344
     7.9299   8.2896   8.8323   9.2199   9.3126  10.5762

          k = 0.0000 0.3335 0.0000 (  2422 PWs)   bands (ev):

   -45.1698 -21.8494 -21.8282 -21.7644  -6.7060  -5.9058  -5.6817  -4.4754
    -4.4186  -4.4090  -4.2542  -4.1363   3.7240   6.4315   7.0987   7.1250
     8.3307   8.3550   8.8033   8.8537   9.2902  10.2135

          k = 0.0000 0.3335 0.2381 (  2425 PWs)   bands (ev):

   -45.1695 -21.8723 -21.8270 -21.7634  -6.5804  -5.8636  -5.5846  -4.4420
    -4.4288  -4.4188  -4.2473  -4.1095   3.3603   6.3015   7.0012   7.2247
     7.7591   8.1823   8.3381   8.9056   9.4273  10.2925

          k = 0.0000 0.3335-0.4762 (  2428 PWs)   bands (ev):

   -45.1691 -21.8951 -21.8258 -21.7623  -6.4876  -5.7962  -5.4563  -4.4482
    -4.4192  -4.4007  -4.2832  -4.0558   3.0412   5.9756   6.7617   7.2686
     7.6431   7.8116   8.1238   8.9362   9.8592  10.1243

          k = 0.0000-0.5003 0.0000 (  2432 PWs)   bands (ev):

   -45.1694 -21.8487 -21.8481 -21.7635  -6.5321  -5.8494  -5.6870  -4.4915
    -4.4332  -4.4074  -4.2267  -4.1698   3.5044   6.0471   7.3638   7.3683
     7.8368   7.9729   8.7244   8.8910   9.3213  11.0165

          k = 0.0000-0.5003 0.2381 (  2430 PWs)   bands (ev):

   -45.1691 -21.8710 -21.8472 -21.7625  -6.4725  -5.7734  -5.5789  -4.4544
    -4.4341  -4.4277  -4.2128  -4.1052   3.2089   6.0189   7.0311   7.2710
     7.5765   7.7738   8.4487   8.8829   9.4294  10.4922

          k = 0.0000-0.5003-0.4762 (  2432 PWs)   bands (ev):

   -45.1688 -21.8937 -21.8457 -21.7615  -6.4542  -5.6920  -5.4026  -4.4478
    -4.4350  -4.4094  -4.2683  -3.9936   2.9409   5.8363   6.4494   7.3299
     7.5937   7.8022   7.8239   8.8775   9.7900  10.1616

          k = 0.1667 0.0000 0.0000 (  2423 PWs)   bands (ev):

   -45.1706 -21.8511 -21.7872 -21.7666  -7.0216  -5.9800  -5.7273  -4.4383
    -4.4122  -4.3890  -4.2602  -4.1307   4.3523   6.8012   6.8467   7.1442
     8.6673   8.7339   8.9476   9.0647   9.1710   9.5629

          k = 0.1667 0.0000 0.2381 (  2428 PWs)   bands (ev):

   -45.1702 -21.8744 -21.7861 -21.7657  -6.8298  -5.9340  -5.6512  -4.4368
    -4.4306  -4.3881  -4.2541  -4.1707   3.7459   6.5815   6.9124   7.3911
     8.1248   8.4408   8.7654   9.1610   9.2316   9.9348

          k = 0.1667 0.0000-0.4762 (  2426 PWs)   bands (ev):

   -45.1699 -21.8976 -21.7851 -21.7647  -6.6318  -5.8818  -5.5722  -4.4489
    -4.4329  -4.3872  -4.2583  -4.2064   3.2919   6.2608   6.9516   7.0351
     7.9290   8.2930   8.8332   9.2178   9.3134  10.5771

          k = 0.1667 0.1668 0.0000 (  2425 PWs)   bands (ev):

   -45.1702 -21.8502 -21.7870 -21.7862  -6.8790  -5.9448  -5.7185  -4.4443
    -4.4284  -4.3926  -4.2362  -4.1200   4.0208   6.7214   6.9772   7.1992
     8.1944   8.3060   9.0430   9.0756   9.3809   9.7961

          k = 0.1667 0.1668 0.2381 (  2422 PWs)   bands (ev):

   -45.1699 -21.8734 -21.7859 -21.7852  -6.6983  -5.9187  -5.6430  -4.4471
    -4.4235  -4.3864  -4.2253  -4.1359   3.6222   6.4990   6.6084   7.3344
     8.0235   8.0394   8.8456   9.2241   9.4601   9.9042

          k = 0.1667 0.1668-0.4762 (  2444 PWs)   bands (ev):

   -45.1695 -21.8965 -21.7848 -21.7841  -6.5188  -5.8924  -5.5545  -4.4601
    -4.4020  -4.3632  -4.2304  -4.1579   3.2593   6.2830   6.3291   7.0261
     7.9294   7.9671   8.7472   9.2988   9.5182  10.2720

          k = 0.1667 0.3335 0.0000 (  2426 PWs)   bands (ev):

   -45.1694 -21.8486 -21.8271 -21.7844  -6.5725  -5.8725  -5.7160  -4.4687
    -4.4175  -4.3768  -4.2112  -4.1258   3.5073   6.4288   6.9735   7.2733
     7.6548   8.2407   8.5485   9.2189   9.4091  10.2934

          k = 0.1667 0.3335 0.2381 (  2429 PWs)   bands (ev):

   -45.1691 -21.8713 -21.8260 -21.7834  -6.4431  -5.8633  -5.6332  -4.4440
    -4.4182  -4.3534  -4.1901  -4.0837   3.3636   6.2501   6.3800   6.9361
     7.3877   8.0782   8.8995   9.1780   9.5168  10.0032

          k = 0.1667 0.3335-0.4762 (  2422 PWs)   bands (ev):

   -45.1688 -21.8941 -21.8248 -21.7823  -6.3527  -5.8398  -5.5101  -4.4417
    -4.3923  -4.3119  -4.2027  -4.0287   3.1750   5.8946   6.3111   6.6337
     6.8783   7.9375   9.0022   9.2227   9.5075   9.9538

          k = 0.1667-0.5003 0.0000 (  2428 PWs)   bands (ev):

   -45.1690 -21.8475 -21.8472 -21.7834  -6.4048  -5.8187  -5.7418  -4.4717
    -4.4095  -4.3552  -4.1915  -4.1604   3.3075   6.0657   7.0902   7.3193
     7.6190   7.9648   8.4083   9.2520   9.4070  10.6271

          k = 0.1667-0.5003 0.2381 (  2426 PWs)   bands (ev):

   -45.1687 -21.8701 -21.8461 -21.7824  -6.3339  -5.7837  -5.6562  -4.4422
    -4.4046  -4.3319  -4.1664  -4.0778   3.2454   6.0234   6.2745   6.6839
     7.3477   8.2213   8.6665   9.1885   9.5266   9.9647

          k = 0.1667-0.5003-0.4762 (  2416 PWs)   bands (ev):

   -45.1684 -21.8927 -21.8448 -21.7814  -6.3183  -5.7501  -5.4935  -4.4363
    -4.3602  -4.3093  -4.1851  -3.9673   3.1355   5.7888   6.1434   6.2948
     6.7283   8.0508   8.8709   9.1341   9.1646  10.1715

          k = 0.3333 0.0000 0.0000 (  2422 PWs)   bands (ev):

   -45.1698 -21.8494 -21.8273 -21.7649  -6.7076  -5.9065  -5.6821  -4.4756
    -4.4184  -4.4088  -4.2546  -4.1366   3.7241   6.4339   7.0989   7.1290
     8.3298   8.3566   8.8029   8.8536   9.2903  10.2126

          k = 0.3333 0.0000 0.2381 (  2423 PWs)   bands (ev):

   -45.1695 -21.8723 -21.8261 -21.7639  -6.5820  -5.8639  -5.5849  -4.4422
    -4.4287  -4.4186  -4.2471  -4.1106   3.3595   6.3026   7.0022   7.2278
     7.7604   8.1842   8.3394   8.9068   9.4263  10.2916

          k = 0.3333 0.0000-0.4762 (  2428 PWs)   bands (ev):

   -45.1692 -21.8951 -21.8249 -21.7629  -6.4891  -5.7962  -5.4565  -4.4481
    -4.4190  -4.4008  -4.2831  -4.0574   3.0397   5.9751   6.7637   7.2702
     7.6455   7.8129   8.1272   8.9380   9.8560  10.1279

          k = 0.3333 0.1668 0.0000 (  2426 PWs)   bands (ev):

   -45.1694 -21.8485 -21.8262 -21.7851  -6.5735  -5.8730  -5.7162  -4.4687
    -4.4175  -4.3768  -4.2114  -4.1259   3.5075   6.4314   6.9743   7.2743
     7.6542   8.2405   8.5484   9.2208   9.4091  10.2922

          k = 0.3333 0.1668 0.2381 (  2428 PWs)   bands (ev):

   -45.1691 -21.8713 -21.8251 -21.7840  -6.4441  -5.8636  -5.6334  -4.4440
    -4.4183  -4.3533  -4.1898  -4.0846   3.3631   6.2511   6.3813   6.9365
     7.3879   8.0794   8.9025   9.1791   9.5161  10.0023

          k = 0.3333 0.1668-0.4762 (  2422 PWs)   bands (ev):

   -45.1688 -21.8941 -21.8239 -21.7830  -6.3537  -5.8399  -5.5103  -4.4418
    -4.3924  -4.3118  -4.2022  -4.0301   3.1739   5.8942   6.3122   6.6341
     6.8808   7.9382   9.0048   9.2255   9.5075   9.9529

          k = 0.3333 0.3335 0.0000 (  2438 PWs)   bands (ev):

   -45.1687 -21.8468 -21.8250 -21.8240  -6.3086  -5.8057  -5.7664  -4.4486
    -4.3979  -4.3045  -4.1300  -4.1286   3.1005   6.4139   6.5104   7.3806
     7.5340   7.6773   8.3466   9.0679   9.8836  10.0261

          k = 0.3333 0.3335 0.2381 (  2423 PWs)   bands (ev):

   -45.1683 -21.8693 -21.8240 -21.8231  -6.1695  -5.8542  -5.7219  -4.4063
    -4.3910  -4.2440  -4.0817  -4.0476   3.2909   5.9592   6.0300   6.4096
     7.0536   7.5532   8.9674   9.4798   9.5212   9.8997

          k = 0.3333 0.3335-0.4762 (  2428 PWs)   bands (ev):

   -45.1680 -21.8919 -21.8229 -21.8220  -6.0987  -5.8993  -5.5965  -4.3839
    -4.3643  -4.1784  -4.0312  -3.9690   3.4577   5.5533   5.5749   6.1526
     6.8055   6.9703   8.2121   9.8545   9.8701  10.0342

          k = 0.3333-0.5003 0.0000 (  2454 PWs)   bands (ev):

   -45.1683 -21.8455 -21.8452 -21.8230  -6.1890  -5.7816  -5.7621  -4.4402
    -4.3740  -4.2389  -4.1637  -4.0948   2.9134   6.0586   6.5578   7.1913
     7.7209   7.8429   7.9671   9.0363   9.7086  10.0908

          k = 0.3333-0.5003 0.2381 (  2430 PWs)   bands (ev):

   -45.1679 -21.8681 -21.8440 -21.8220  -6.0514  -5.8087  -5.7807  -4.3971
    -4.3622  -4.1495  -4.0798  -4.0176   3.2167   5.8508   6.0031   6.0721
     6.8362   7.6235   8.4927   9.4786   9.5065  10.0585

          k = 0.3333-0.5003-0.4762 (  2420 PWs)   bands (ev):

   -45.1676 -21.8907 -21.8428 -21.8210  -6.0406  -5.8522  -5.6348  -4.3665
    -4.3394  -4.0870  -3.9949  -3.9117   3.5985   5.2855   5.4815   5.9102
     6.5653   6.9830   7.4259   9.9552  10.0303  10.1955

          k =-0.5000 0.0000 0.0000 (  2432 PWs)   bands (ev):

   -45.1694 -21.8481 -21.8476 -21.7641  -6.5342  -5.8505  -5.6872  -4.4917
    -4.4329  -4.4073  -4.2277  -4.1697   3.5046   6.0509   7.3653   7.3732
     7.8352   7.9738   8.7244   8.8910   9.3214  11.0142

          k =-0.5000 0.0000 0.2381 (  2430 PWs)   bands (ev):

   -45.1691 -21.8710 -21.8462 -21.7630  -6.4744  -5.7743  -5.5791  -4.4546
    -4.4338  -4.4276  -4.2128  -4.1067   3.2078   6.0222   7.0310   7.2732
     7.5815   7.7738   8.4495   8.8842   9.4293  10.4920

          k =-0.5000 0.0000-0.4762 (  2440 PWs)   bands (ev):

   -45.1688 -21.8937 -21.8447 -21.7620  -6.4558  -5.6927  -5.4029  -4.4477
    -4.4347  -4.4096  -4.2684  -3.9954   2.9389   5.8370   6.4522   7.3318
     7.5933   7.8073   7.8254   8.8795   9.7942  10.1598

          k =-0.5000 0.1668 0.0000 (  2424 PWs)   bands (ev):

   -45.1690 -21.8473 -21.8465 -21.7841  -6.4062  -5.8196  -5.7419  -4.4718
    -4.4095  -4.3552  -4.1923  -4.1600   3.3078   6.0697   7.0919   7.3176
     7.6214   7.9638   8.4085   9.2542   9.4076  10.6249

          k =-0.5000 0.1668 0.2381 (  2426 PWs)   bands (ev):

   -45.1687 -21.8701 -21.8451 -21.7831  -6.3351  -5.7846  -5.6562  -4.4422
    -4.4046  -4.3318  -4.1660  -4.0791   3.2448   6.0266   6.2763   6.6831
     7.3476   8.2218   8.6715   9.1895   9.5265   9.9643

          k =-0.5000 0.1668-0.4762 (  2412 PWs)   bands (ev):

   -45.1684 -21.8928 -21.8437 -21.7821  -6.3192  -5.7509  -5.4937  -4.4363
    -4.3603  -4.3093  -4.1846  -3.9691   3.1339   5.7890   6.1452   6.2971
     6.7289   8.0511   8.8767   9.1361   9.1663  10.1700

          k =-0.5000 0.3335 0.0000 (  2454 PWs)   bands (ev):

   -45.1683 -21.8455 -21.8441 -21.8239  -6.1893  -5.7813  -5.7629  -4.4402
    -4.3740  -4.2396  -4.1630  -4.0950   2.9135   6.0623   6.5549   7.1915
     7.7212   7.8458   7.9647   9.0363   9.7110  10.0889

          k =-0.5000 0.3335 0.2381 (  2430 PWs)   bands (ev):

   -45.1680 -21.8681 -21.8429 -21.8230  -6.0514  -5.8097  -5.7804  -4.3970
    -4.3623  -4.1499  -4.0788  -4.0185   3.2166   5.8516   6.0043   6.0720
     6.8353   7.6233   8.4946   9.4787   9.5067  10.0594

          k =-0.5000 0.3335-0.4762 (  2420 PWs)   bands (ev):

   -45.1676 -21.8907 -21.8417 -21.8219  -6.0402  -5.8533  -5.6348  -4.3664
    -4.3397  -4.0872  -3.9935  -3.9133   3.5979   5.2862   5.4800   5.9121
     6.5675   6.9808   7.4279   9.9570  10.0318  10.1941

          k =-0.5000-0.5003 0.0000 (  2480 PWs)   bands (ev):

   -45.1679 -21.8441 -21.8440 -21.8430  -6.1335  -5.7374  -5.7367  -4.4293
    -4.3261  -4.1853  -4.1844  -4.0445   2.7200   5.9088   6.3889   7.4032
     7.4034   7.9603   7.9636   8.8034   9.2363  10.3498

          k =-0.5000-0.5003 0.2381 (  2432 PWs)   bands (ev):

   -45.1676 -21.8669 -21.8429 -21.8419  -5.9171  -5.8239  -5.8228  -4.3847
    -4.3239  -4.0384  -4.0371  -4.0099   3.1379   5.8654   5.9734   5.9746
     6.3956   7.5643   7.8392   9.5087   9.5092  10.3321

          k =-0.5000-0.5003-0.4762 (  2400 PWs)   bands (ev):

   -45.1672 -21.8895 -21.8418 -21.8407  -5.8992  -5.8980  -5.6940  -4.3400
    -4.3217  -3.9636  -3.9000  -3.8984   3.8155   5.3122   5.3132   5.7459
     6.4023   6.4179   6.6671  10.2057  10.2071  10.3146

     highest occupied level (ev):    11.0165

!    total energy              =    -380.57404544 Ry
     estimated scf accuracy    <          1.6E-09 Ry

     The total energy is the sum of the following terms:
     one-electron contribution =     -79.70796523 Ry
     hartree contribution      =      69.93141401 Ry
     xc contribution           =    -102.67703166 Ry
     ewald contribution        =    -268.12046256 Ry

     convergence has been achieved in  15 iterations

     negative rho (up, down):  1.531E-02 0.000E+00

     Forces acting on atoms (cartesian axes, Ry/au):

     atom    1 type  1   force =     0.00000000    0.00000000    0.00013094
     atom    2 type  2   force =     0.00000000    0.00000000    0.00047643
     atom    3 type  3   force =     0.00000000    0.00000000   -0.00039666
     atom    4 type  3   force =     0.00000000    0.00000000   -0.00005002
     atom    5 type  3   force =     0.00000000    0.00000000   -0.00016069

     Total force =     0.000656     Total SCF correction =     0.000135
     SCF correction compared to forces is large: reduce conv_thr to get better values


     Computing stress (Cartesian axis) and pressure


     negative rho (up, down):  1.531E-02 0.000E+00
          total   stress  (Ry/bohr**3)                   (kbar)     P=        0.01
  -0.00000468   0.00000000   0.00000000           -0.69        0.00        0.00
   0.00000000   0.00000196   0.00000000            0.00        0.29        0.00
   0.00000000   0.00000000   0.00000302            0.00        0.00        0.44


     BFGS Geometry Optimization
     Energy error            =      0.0E+00 Ry
     Gradient error          =      4.8E-04 Ry/Bohr

     bfgs converged in   1 scf cycles and   0 bfgs steps
     (criteria: energy <  1.0E-04 Ry, force <  1.0E-03 Ry/Bohr)

     End of BFGS Geometry Optimization

     Final energy             =    -380.5740454402 Ry
Begin final coordinates

ATOMIC_POSITIONS (crystal)
Pb               0.0000000000        0.0000000000        1.0051738283
Ti               0.5000000000        0.5000000000        0.5395344294
O                0.5000000000        0.5000000000        0.0995079024
O                0.5000000000        0.0000000000        0.6115340639
O                0.0000000000        0.5000000000        0.6115340639
End final coordinates



     Writing all to output data dir ./pto_T4_eta0p002.save/ :
     XML data file, charge density, pseudopotentials, collected wavefunctions
 
     init_run     :      0.46s CPU      0.54s WALL (       1 calls)
     electrons    :     19.87s CPU     21.10s WALL (       1 calls)
     forces       :      0.13s CPU      0.13s WALL (       1 calls)
     stress       :      1.37s CPU      1.39s WALL (       1 calls)

     Called by init_run:
     wfcinit      :      0.25s CPU      0.28s WALL (       1 calls)
     potinit      :      0.01s CPU      0.01s WALL (       1 calls)
     hinit0       :      0.11s CPU      0.14s WALL (       1 calls)

     Called by electrons:
     c_bands      :     17.39s CPU     18.47s WALL (      15 calls)
     sum_band     :      1.80s CPU      1.88s WALL (      15 calls)
     v_of_rho     :      0.02s CPU      0.03s WALL (      16 calls)
     newd         :      0.67s CPU      0.72s WALL (      16 calls)
     mix_rho      :      0.02s CPU      0.02s WALL (      15 calls)

     Called by c_bands:
     init_us_2    :      0.15s CPU      0.16s WALL (    1584 calls)
     init_us_2:cp :      0.15s CPU      0.16s WALL (    1584 calls)
     ccgdiagg     :     15.43s CPU     16.42s WALL (     720 calls)
     wfcrot       :      2.06s CPU      2.16s WALL (     720 calls)

     Called by *cgdiagg:
     h_psi        :      9.97s CPU     10.57s WALL (   59077 calls)
     s_psi        :      1.54s CPU      1.64s WALL (  117434 calls)

     Called by h_psi:
     h_psi:calbec :      1.53s CPU      1.62s WALL (   59077 calls)
     vloc_psi     :      7.12s CPU      7.54s WALL (   59077 calls)
     add_vuspsi   :      0.85s CPU      0.91s WALL (   59077 calls)
     hs_1psi      :      9.42s CPU     10.01s WALL (   58357 calls)
     s_1psi       :      2.29s CPU      2.43s WALL (   58357 calls)

     General routines
     calbec       :      2.73s CPU      2.91s WALL (  118394 calls)
     fft          :      0.03s CPU      0.04s WALL (     102 calls)
     ffts         :      0.00s CPU      0.00s WALL (      31 calls)
     fftw         :      6.06s CPU      6.41s WALL (  165098 calls)
     interpolate  :      0.01s CPU      0.01s WALL (      16 calls)
 
     Parallel routines
 
     PWSCF        :     22.11s CPU     23.85s WALL

 
   This run was terminated on:   0:27:41  18Nov2025            

=------------------------------------------------------------------------------=
   JOB DONE.
=------------------------------------------------------------------------------=
TACC:  Shutdown complete. Exiting. 
