TACC:  Starting up job 2483037 
TACC:  Starting parallel tasks... 

     Program PWSCF v.7.3 starts on 20Oct2025 at 22:26:17 

     This program is part of the open-source Quantum ESPRESSO suite
     for quantum simulation of materials; please cite
         "P. Giannozzi et al., J. Phys.:Condens. Matter 21 395502 (2009);
         "P. Giannozzi et al., J. Phys.:Condens. Matter 29 465901 (2017);
         "P. Giannozzi et al., J. Chem. Phys. 152 154105 (2020);
          URL http://www.quantum-espresso.org", 
     in publications or presentations arising from this work. More details at
     http://www.quantum-espresso.org/quote

     Parallel version (MPI & OpenMP), running on      10 processor cores
     Number of MPI processes:                10
     Threads/MPI process:                     1

     MPI processes distributed on     1 nodes
     188030 MiB available memory on the printing compute node when the environment starts
 
     Waiting for input...
     Reading input from standard input
Warning: card &CELL ignored
Warning: card  CELL_DYNAMICS = 'BFGS', ignored
Warning: card  PRESS=0.D0, ignored
Warning: card / ignored
     Message from routine read_cards :
     DEPRECATED: no units specified in ATOMIC_POSITIONS card
     Message from routine read_cards :
     ATOMIC_POSITIONS: units set to alat

     Current dimensions of program PWSCF are:
     Max number of different atomic species (ntypx) = 10
     Max number of k-points (npk) =  40000
     Max angular momentum in pseudopotentials (lmaxx) =  4
     Message from routine setup:
     using ibrav=0 with symmetry is DISCOURAGED, use correct ibrav instead
 
     R & G space division:  proc/nbgrp/npool/nimage =      10
     Subspace diagonalization in iterative solution of the eigenvalue problem:
     a serial algorithm will be used

 
     Parallelization info
     --------------------
     sticks:   dense  smooth     PW     G-vecs:    dense   smooth      PW
     Min         374     100     33                14627     2016     398
     Max         375     101     34                14630     2017     400
     Sum        3747    1003    337               146285    20161    3989
 
     Using Slab Decomposition
 


     bravais-lattice index     =            0
     lattice parameter (alat)  =       6.6800  a.u.
     unit-cell volume          =     149.0316 (a.u.)^3
     number of atoms/cell      =            2
     number of atomic types    =            1
     number of electrons       =         8.00
     number of Kohn-Sham states=            4
     kinetic-energy cutoff     =     100.0000  Ry
     charge density cutoff     =    1500.0000  Ry
     scf convergence threshold =      1.0E-08
     mixing beta               =       0.7000
     number of iterations used =            8  plain     mixing
     Exchange-correlation= SLA  PZ   NOGX NOGC
                           (   1   1   0   0   0   0   0)

     celldm(1)=   6.680000  celldm(2)=   0.000000  celldm(3)=   0.000000
     celldm(4)=   0.000000  celldm(5)=   0.000000  celldm(6)=   0.000000

     crystal axes: (cart. coord. in units of alat)
               a(1) = (  -0.502000   0.502000   0.496000 )  
               a(2) = (   0.502000  -0.502000   0.496000 )  
               a(3) = (   0.502000   0.502000  -0.496000 )  

     reciprocal axes: (cart. coord. in units 2 pi/alat)
               b(1) = (  0.000000  0.996016  1.008065 )  
               b(2) = (  0.996016  0.000000  1.008065 )  
               b(3) = (  0.996016  0.996016  0.000000 )  


     PseudoPot. # 1 for C  read from file:
     /scratch/11018/zhc/Assisgnment2/Q2/Diamond/Diamond/C_LDA.UPF
     MD5 check sum: 407c1fe918d93b14b177d5600f28733c
     Pseudo is Ultrasoft + core correction, Zval =  4.0
     Generated by new atomic code, or converted to UPF format
     Using radial grid of  721 points,  4 beta functions with: 
                l(1) =   0
                l(2) =   0
                l(3) =   1
                l(4) =   1
     Q(r) pseudized with  8 coefficients,  rinner =    1.100   1.100   1.100


     atomic species   valence    mass     pseudopotential
     C                 4.00    12.01100     C ( 1.00)

      2 Sym. Ops. (no inversion) found



   Cartesian axes

     site n.     atom                  positions (alat units)
         1        C      tau(   1) = (   0.0000000   0.0000000   0.0000000  )
         2        C      tau(   2) = (   0.2492943   0.2492943   0.2492943  )

     number of k points=    68
                       cart. coord. in units 2pi/alat
        k(    1) = (   0.0000000   0.0000000   0.0000000), wk =   0.0092593
        k(    2) = (   0.1660027   0.1660027   0.0000000), wk =   0.0185185
        k(    3) = (   0.3320053   0.3320053   0.0000000), wk =   0.0185185
        k(    4) = (  -0.4980080  -0.4980080   0.0000000), wk =   0.0092593
        k(    5) = (   0.1660027   0.0000000   0.1680108), wk =   0.0370370
        k(    6) = (   0.3320053   0.1660027   0.1680108), wk =   0.0370370
        k(    7) = (   0.4980080   0.3320053   0.1680108), wk =   0.0370370
        k(    8) = (   0.3320053   0.0000000   0.3360215), wk =   0.0370370
        k(    9) = (   0.4980080   0.1660027   0.3360215), wk =   0.0370370
        k(   10) = (   0.6640106   0.3320053   0.3360215), wk =   0.0370370
        k(   11) = (   0.1660027  -0.1660027   0.3360215), wk =   0.0370370
        k(   12) = (  -0.4980080   0.0000000  -0.5040323), wk =   0.0185185
        k(   13) = (  -0.3320053   0.1660027  -0.5040323), wk =   0.0370370
        k(   14) = (   0.3320053   0.3320053   0.3360215), wk =   0.0185185
        k(   15) = (   0.4980080   0.4980080   0.3360215), wk =   0.0185185
        k(   16) = (   0.0000000   0.0000000   0.3360215), wk =   0.0185185
        k(   17) = (   0.4980080   0.3320053   0.5040323), wk =   0.0370370
        k(   18) = (  -0.0000000  -0.1660027   0.5040323), wk =   0.0370370
        k(   19) = (  -0.9960159  -0.3320053  -0.3360215), wk =   0.0370370
        k(   20) = (  -0.8300133  -0.1660027  -0.3360215), wk =   0.0370370
        k(   21) = (  -0.0000000   0.4980080  -0.1680108), wk =   0.0370370
        k(   22) = (  -0.8300133  -0.3320053  -0.1680108), wk =   0.0370370
        k(   23) = (   0.0000000   0.3320053   0.0000000), wk =   0.0370370
        k(   24) = (   0.1660027   0.4980080   0.0000000), wk =   0.0370370
        k(   25) = (  -0.6640106  -0.3320053   0.0000000), wk =   0.0185185
        k(   26) = (  -0.0000000  -0.0000000   0.6720430), wk =   0.0185185
        k(   27) = (  -0.9960159  -0.1660027  -0.1680108), wk =   0.0370370
        k(   28) = (  -0.0000000   0.6640106  -0.0000000), wk =   0.0370370
        k(   29) = (  -0.8300133  -0.1660027  -0.0000000), wk =   0.0185185
        k(   30) = (  -0.9960159  -0.9960159  -1.0080645), wk =   0.0092593
        k(   31) = (  -0.1660027   0.1660027   0.0000000), wk =   0.0185185
        k(   32) = (  -0.3320053   0.3320053   0.0000000), wk =   0.0185185
        k(   33) = (   0.4980080  -0.4980080   0.0000000), wk =   0.0092593
        k(   34) = (   0.1660027   0.0000000  -0.1680108), wk =   0.0370370
        k(   35) = (  -0.3320053   0.1660027  -0.1680108), wk =   0.0370370
        k(   36) = (   0.3320053  -0.1660027  -0.1680108), wk =   0.0370370
        k(   37) = (   0.1660027   0.3320053  -0.1680108), wk =   0.0370370
        k(   38) = (  -0.4980080   0.3320053  -0.1680108), wk =   0.0370370
        k(   39) = (   0.4980080  -0.3320053  -0.1680108), wk =   0.0370370
        k(   40) = (   0.3320053   0.4980080  -0.1680108), wk =   0.0370370
        k(   41) = (   0.3320053   0.0000000  -0.3360215), wk =   0.0370370
        k(   42) = (  -0.4980080   0.1660027  -0.3360215), wk =   0.0370370
        k(   43) = (   0.4980080  -0.1660027  -0.3360215), wk =   0.0370370
        k(   44) = (   0.1660027   0.4980080  -0.3360215), wk =   0.0370370
        k(   45) = (  -0.6640106   0.3320053  -0.3360215), wk =   0.0185185
        k(   46) = (   0.6640106  -0.3320053  -0.3360215), wk =   0.0185185
        k(   47) = (  -0.1660027  -0.1660027  -0.3360215), wk =   0.0185185
        k(   48) = (   0.1660027   0.1660027  -0.3360215), wk =   0.0185185
        k(   49) = (  -0.4980080   0.0000000   0.5040323), wk =   0.0185185
        k(   50) = (   0.3320053   0.1660027   0.5040323), wk =   0.0370370
        k(   51) = (  -0.3320053  -0.1660027   0.5040323), wk =   0.0370370
        k(   52) = (   0.1660027  -0.3320053   0.5040323), wk =   0.0370370
        k(   53) = (  -0.3320053   0.3320053  -0.3360215), wk =   0.0370370
        k(   54) = (   0.3320053   0.3320053  -0.3360215), wk =   0.0185185
        k(   55) = (  -0.4980080   0.4980080  -0.3360215), wk =   0.0185185
        k(   56) = (   0.4980080  -0.3320053  -0.5040323), wk =   0.0370370
        k(   57) = (   0.0000000  -0.1660027  -0.5040323), wk =   0.0370370
        k(   58) = (   0.9960159  -0.3320053   0.3360215), wk =   0.0370370
        k(   59) = (   0.8300133  -0.1660027   0.3360215), wk =   0.0185185
        k(   60) = (  -0.8300133   0.1660027   0.3360215), wk =   0.0185185
        k(   61) = (   0.0000000   0.4980080   0.1680108), wk =   0.0370370
        k(   62) = (   0.8300133  -0.3320053   0.1680108), wk =   0.0370370
        k(   63) = (  -0.8300133   0.3320053   0.1680108), wk =   0.0370370
        k(   64) = (  -0.3320053  -0.8300133   0.1680108), wk =   0.0370370
        k(   65) = (  -0.1660027   0.4980080   0.0000000), wk =   0.0370370
        k(   66) = (   0.6640106  -0.3320053   0.0000000), wk =   0.0185185
        k(   67) = (   0.9960159  -0.1660027   0.1680108), wk =   0.0370370
        k(   68) = (   0.8300133  -0.1660027   0.0000000), wk =   0.0185185

     Dense  grid:   146285 G-vectors     FFT dimensions: (  72,  72,  72)

     Smooth grid:    20161 G-vectors     FFT dimensions: (  40,  40,  40)

     Estimated max dynamical RAM per process >      22.00 MB

     Estimated total dynamical RAM >     220.01 MB

     Initial potential from superposition of free atoms

     starting charge       7.9999, renormalised to       8.0000
     Starting wfcs are    8 randomized atomic wfcs

     total cpu time spent up to now is        0.4 secs

     Self-consistent Calculation

     iteration #  1     ecut=   100.00 Ry     beta= 0.70
     CG style diagonalization
     ethr =  1.00E-02,  avg # of iterations =  2.8

     Threshold (ethr) on eigenvalues was too large:
     Diagonalizing with lowered threshold

     CG style diagonalization
     ethr =  5.45E-04,  avg # of iterations =  2.0

     total cpu time spent up to now is        0.9 secs

     total energy              =     -22.63099858 Ry
     estimated scf accuracy    <       0.04191174 Ry

     iteration #  2     ecut=   100.00 Ry     beta= 0.70
     CG style diagonalization
     ethr =  5.24E-04,  avg # of iterations =  3.7

     total cpu time spent up to now is        1.2 secs

     total energy              =     -22.63550865 Ry
     estimated scf accuracy    <       0.00100902 Ry

     iteration #  3     ecut=   100.00 Ry     beta= 0.70
     CG style diagonalization
     ethr =  1.26E-05,  avg # of iterations =  3.6

     total cpu time spent up to now is        1.5 secs

     total energy              =     -22.63564022 Ry
     estimated scf accuracy    <       0.00004903 Ry

     iteration #  4     ecut=   100.00 Ry     beta= 0.70
     CG style diagonalization
     ethr =  6.13E-07,  avg # of iterations =  4.2

     total cpu time spent up to now is        1.9 secs

     total energy              =     -22.63566488 Ry
     estimated scf accuracy    <       0.00000267 Ry

     iteration #  5     ecut=   100.00 Ry     beta= 0.70
     CG style diagonalization
     c_bands:  1 eigenvalues not converged
     ethr =  3.34E-08,  avg # of iterations =  5.0

     total cpu time spent up to now is        2.3 secs

     total energy              =     -22.63566788 Ry
     estimated scf accuracy    <       0.00000393 Ry

     iteration #  6     ecut=   100.00 Ry     beta= 0.70
     CG style diagonalization
     ethr =  3.34E-08,  avg # of iterations =  3.4

     total cpu time spent up to now is        2.6 secs

     total energy              =     -22.63566799 Ry
     estimated scf accuracy    <       0.00000074 Ry

     iteration #  7     ecut=   100.00 Ry     beta= 0.70
     CG style diagonalization
     ethr =  9.22E-09,  avg # of iterations =  3.7

     total cpu time spent up to now is        2.9 secs

     total energy              =     -22.63566813 Ry
     estimated scf accuracy    <       0.00000010 Ry

     iteration #  8     ecut=   100.00 Ry     beta= 0.70
     CG style diagonalization
     c_bands:  2 eigenvalues not converged
     ethr =  1.24E-09,  avg # of iterations =  4.8

     total cpu time spent up to now is        3.3 secs

     total energy              =     -22.63566807 Ry
     estimated scf accuracy    <       0.00000029 Ry

     iteration #  9     ecut=   100.00 Ry     beta= 0.70
     CG style diagonalization
     ethr =  1.24E-09,  avg # of iterations =  4.4

     total cpu time spent up to now is        3.6 secs

     End of self-consistent calculation

          k = 0.0000 0.0000 0.0000 (  2491 PWs)   bands (ev):

   -11.3829  -2.8485   3.2022   3.2441

          k = 0.1660 0.1660 0.0000 (  2517 PWs)   bands (ev):

   -10.9457  -3.7021   3.0716   3.4617

          k = 0.3320 0.3320 0.0000 (  2519 PWs)   bands (ev):

    -9.6877  -5.6188   2.9373   4.2114

          k =-0.4980-0.4980 0.0000 (  2520 PWs)   bands (ev):

    -7.8157  -7.7695   3.4613   3.4790

          k = 0.1660 0.0000 0.1680 (  2515 PWs)   bands (ev):

   -10.9419  -3.6969   3.0285   3.4798

          k = 0.3320 0.1660 0.1680 (  2512 PWs)   bands (ev):

   -10.0243  -5.3243   4.1346   4.5795

          k = 0.4980 0.3320 0.1680 (  2524 PWs)   bands (ev):

    -8.3372  -7.1214   2.1124   4.5376

          k = 0.3320 0.0000 0.3360 (  2515 PWs)   bands (ev):

    -9.6747  -5.6022   2.8810   4.1918

          k = 0.4980 0.1660 0.3360 (  2518 PWs)   bands (ev):

    -8.3284  -7.1092   2.1010   4.4933

          k = 0.6640 0.3320 0.3360 (  2509 PWs)   bands (ev):

    -8.3304  -6.3516  -0.2756   3.0645

          k = 0.1660-0.1660 0.3360 (  2521 PWs)   bands (ev):

   -10.2496  -3.9508   0.7965   2.8817

          k =-0.4980 0.0000-0.5040 (  2530 PWs)   bands (ev):

    -7.7913  -7.7535   3.3876   3.4621

          k =-0.3320 0.1660-0.5040 (  2510 PWs)   bands (ev):

    -8.8470  -6.1135   0.7802   3.3898

          k = 0.3320 0.3320 0.3360 (  2496 PWs)   bands (ev):

    -8.6432  -6.8808   2.7752   2.8724

          k = 0.4980 0.4980 0.3360 (  2518 PWs)   bands (ev):

    -8.2613  -6.6079   0.3805   1.7973

          k = 0.0000 0.0000 0.3360 (  2511 PWs)   bands (ev):

   -10.5718  -3.7481   1.7740   3.0843

          k = 0.4980 0.3320 0.5040 (  2502 PWs)   bands (ev):

    -8.2650  -6.5920   0.4264   1.7304

          k =-0.0000-0.1660 0.5040 (  2522 PWs)   bands (ev):

    -9.6899  -3.8485  -0.3989   2.2715

          k =-0.9960-0.3320-0.3360 (  2522 PWs)   bands (ev):

    -9.1321  -3.8984  -1.4883   1.9011

          k =-0.8300-0.1660-0.3360 (  2518 PWs)   bands (ev):

    -8.5127  -5.7697  -0.0901   3.5068

          k =-0.0000 0.4980-0.1680 (  2508 PWs)   bands (ev):

    -9.7167  -3.8391  -0.3333   2.2569

          k =-0.8300-0.3320-0.1680 (  2520 PWs)   bands (ev):

    -8.5356  -5.7668  -0.0404   3.5074

          k = 0.0000 0.3320 0.0000 (  2521 PWs)   bands (ev):

   -10.5914  -3.7375   1.8146   3.1033

          k = 0.1660 0.4980 0.0000 (  2523 PWs)   bands (ev):

    -9.3812  -5.5415   1.9737   4.0046

          k =-0.6640-0.3320 0.0000 (  2526 PWs)   bands (ev):

    -7.6032  -7.5571   2.6915   2.7123

          k =-0.0000-0.0000 0.6720 (  2526 PWs)   bands (ev):

    -8.6209  -5.4319   0.6480   2.6900

          k =-0.9960-0.1660-0.1680 (  2522 PWs)   bands (ev):

    -8.2081  -5.3692   0.1839   1.8907

          k =-0.0000 0.6640-0.0000 (  2525 PWs)   bands (ev):

    -8.6659  -5.4023   0.7249   2.7151

          k =-0.8300-0.1660-0.0000 (  2520 PWs)   bands (ev):

    -7.1483  -7.1026   2.1472   2.1742

          k =-0.9960-0.9960-1.0081 (  2510 PWs)   bands (ev):

    -6.9047  -6.8596   2.7687   2.8479

          k =-0.1660 0.1660 0.0000 (  2517 PWs)   bands (ev):

   -11.0144  -2.9173   1.7264   2.9443

          k =-0.3320 0.3320 0.0000 (  2519 PWs)   bands (ev):

   -10.1064  -3.0556  -0.8001   2.4054

          k = 0.4980-0.4980 0.0000 (  2520 PWs)   bands (ev):

    -9.5045  -3.1251  -2.0542   2.1603

          k = 0.1660 0.0000-0.1680 (  2515 PWs)   bands (ev):

   -11.0077  -2.9254   1.7539   2.8987

          k =-0.3320 0.1660-0.1680 (  2512 PWs)   bands (ev):

   -10.2658  -3.9355   0.7894   2.9334

          k = 0.3320-0.1660-0.1680 (  2512 PWs)   bands (ev):

   -10.3593  -3.0302   0.1238   2.0450

          k = 0.1660 0.3320-0.1680 (  2512 PWs)   bands (ev):

   -10.2590  -3.9612   0.8194   2.9055

          k =-0.4980 0.3320-0.1680 (  2524 PWs)   bands (ev):

    -9.3810  -4.1653  -1.2715   2.4469

          k = 0.4980-0.3320-0.1680 (  2524 PWs)   bands (ev):

    -9.5277  -3.1377  -1.4406   1.1270

          k = 0.3320 0.4980-0.1680 (  2524 PWs)   bands (ev):

    -8.8638  -6.1283   0.8089   3.4356

          k = 0.3320 0.0000-0.3360 (  2515 PWs)   bands (ev):

   -10.0809  -3.0794  -0.7874   2.3368

          k =-0.4980 0.1660-0.3360 (  2518 PWs)   bands (ev):

    -8.8683  -6.0914   0.7951   3.4172

          k = 0.4980-0.1660-0.3360 (  2518 PWs)   bands (ev):

    -9.5077  -3.1532  -1.4304   1.0788

          k = 0.1660 0.4980-0.3360 (  2518 PWs)   bands (ev):

    -9.3517  -4.2041  -1.2675   2.3974

          k =-0.6640 0.3320-0.3360 (  2509 PWs)   bands (ev):

    -8.3582  -6.3135  -0.2569   3.0737

          k = 0.6640-0.3320-0.3360 (  2509 PWs)   bands (ev):

    -9.1930  -3.1934  -0.7424  -0.7219

          k =-0.1660-0.1660-0.3360 (  2521 PWs)   bands (ev):

   -10.0107  -5.3296   4.1034   4.5451

          k = 0.1660 0.1660-0.3360 (  2521 PWs)   bands (ev):

   -10.3422  -3.0461   0.0905   2.0579

          k =-0.4980 0.0000 0.5040 (  2530 PWs)   bands (ev):

    -9.4637  -3.1563  -2.0557   2.0823

          k = 0.3320 0.1660 0.5040 (  2510 PWs)   bands (ev):

    -8.3076  -7.1267   2.1369   4.4666

          k =-0.3320-0.1660 0.5040 (  2510 PWs)   bands (ev):

    -9.4956  -3.1609  -1.4625   1.1011

          k = 0.1660-0.3320 0.5040 (  2510 PWs)   bands (ev):

    -9.3452  -4.1989  -1.2778   2.3844

          k =-0.3320 0.3320-0.3360 (  2496 PWs)   bands (ev):

    -9.4895  -4.3265  -0.4584   1.5270

          k = 0.3320 0.3320-0.3360 (  2496 PWs)   bands (ev):

    -9.4796  -4.3497  -0.4900   1.5727

          k =-0.4980 0.4980-0.3360 (  2518 PWs)   bands (ev):

    -9.0220  -4.5016  -1.0240   0.7340

          k = 0.4980-0.3320-0.5040 (  2502 PWs)   bands (ev):

    -9.0045  -4.5194  -1.0472   0.7410

          k = 0.0000-0.1660-0.5040 (  2522 PWs)   bands (ev):

    -9.3475  -5.5494   1.8766   3.9968

          k = 0.9960-0.3320 0.3360 (  2522 PWs)   bands (ev):

    -7.5909  -7.5343   2.5983   2.6553

          k = 0.8300-0.1660 0.3360 (  2518 PWs)   bands (ev):

    -7.7471  -7.1217   1.5812   3.3629

          k =-0.8300 0.1660 0.3360 (  2518 PWs)   bands (ev):

    -9.0472  -3.7378  -0.8149   0.5718

          k = 0.0000 0.4980 0.1680 (  2508 PWs)   bands (ev):

    -9.3826  -5.5192   1.9156   4.0640

          k = 0.8300-0.3320 0.1680 (  2520 PWs)   bands (ev):

    -8.5593  -5.7209  -0.0725   3.6011

          k =-0.8300 0.3320 0.1680 (  2520 PWs)   bands (ev):

    -9.0721  -3.7223  -0.7741   0.5739

          k =-0.3320-0.8300 0.1680 (  2520 PWs)   bands (ev):

    -7.7965  -7.0888   1.5786   3.4730

          k =-0.1660 0.4980 0.0000 (  2523 PWs)   bands (ev):

    -9.7290  -3.8177  -0.3701   2.3279

          k = 0.6640-0.3320 0.0000 (  2526 PWs)   bands (ev):

    -9.1698  -3.8621  -1.4924   1.9861

          k = 0.9960-0.1660 0.1680 (  2522 PWs)   bands (ev):

    -7.1490  -7.0859   2.0857   2.1177

          k = 0.8300-0.1660 0.0000 (  2520 PWs)   bands (ev):

    -8.2334  -5.3418   0.1639   1.9716

     highest occupied level (ev):     4.5795

!    total energy              =     -22.63566814 Ry
     estimated scf accuracy    <          1.3E-09 Ry

     The total energy is the sum of the following terms:
     one-electron contribution =      -0.13822176 Ry
     hartree contribution      =       3.43218726 Ry
     xc contribution           =      -6.57480965 Ry
     ewald contribution        =     -19.35482400 Ry

     convergence has been achieved in   9 iterations

     Forces acting on atoms (cartesian axes, Ry/au):

     atom    1 type  1   force =     0.00600957    0.00600957    0.00662913
     atom    2 type  1   force =    -0.00600957   -0.00600957   -0.00662913

     Total force =     0.015243     Total SCF correction =     0.000017


     Computing stress (Cartesian axis) and pressure

          total   stress  (Ry/bohr**3)                   (kbar)     P=     -636.35
  -0.00437007  -0.00550375  -0.00548076         -642.86     -809.63     -806.25
  -0.00550375  -0.00437007  -0.00548076         -809.63     -642.86     -806.25
  -0.00548076  -0.00548076  -0.00423731         -806.25     -806.25     -623.33


     Writing all to output data dir ./diamond_tetragonal_eta0p004.save/ :
     XML data file, charge density, pseudopotentials, collected wavefunctions
 
     init_run     :      0.28s CPU      0.34s WALL (       1 calls)
     electrons    :      2.98s CPU      3.21s WALL (       1 calls)
     forces       :      0.04s CPU      0.04s WALL (       1 calls)
     stress       :      0.16s CPU      0.17s WALL (       1 calls)

     Called by init_run:
     wfcinit      :      0.11s CPU      0.13s WALL (       1 calls)
     potinit      :      0.01s CPU      0.01s WALL (       1 calls)
     hinit0       :      0.04s CPU      0.05s WALL (       1 calls)

     Called by electrons:
     c_bands      :      2.43s CPU      2.59s WALL (      10 calls)
     sum_band     :      0.42s CPU      0.45s WALL (      10 calls)
     v_of_rho     :      0.03s CPU      0.03s WALL (      10 calls)
     newd         :      0.08s CPU      0.10s WALL (      10 calls)
     mix_rho      :      0.01s CPU      0.02s WALL (      10 calls)

     Called by c_bands:
     init_us_2    :      0.06s CPU      0.06s WALL (    1564 calls)
     init_us_2:cp :      0.06s CPU      0.06s WALL (    1564 calls)
     ccgdiagg     :      2.01s CPU      2.14s WALL (     680 calls)
     wfcrot       :      0.46s CPU      0.50s WALL (     612 calls)

     Called by *cgdiagg:
     h_psi        :      1.71s CPU      1.82s WALL (    8628 calls)
     s_psi        :      0.07s CPU      0.07s WALL (   16644 calls)

     Called by h_psi:
     h_psi:calbec :      0.16s CPU      0.17s WALL (    8628 calls)
     vloc_psi     :      1.44s CPU      1.53s WALL (    8628 calls)
     add_vuspsi   :      0.04s CPU      0.05s WALL (    8628 calls)
     hs_1psi      :      1.41s CPU      1.50s WALL (    8016 calls)
     s_1psi       :      0.18s CPU      0.19s WALL (    8016 calls)

     General routines
     calbec       :      0.27s CPU      0.29s WALL (   17664 calls)
     fft          :      0.04s CPU      0.05s WALL (      67 calls)
     ffts         :      0.00s CPU      0.00s WALL (      20 calls)
     fftw         :      1.15s CPU      1.22s WALL (   24192 calls)
     interpolate  :      0.01s CPU      0.01s WALL (      10 calls)
 
     Parallel routines
 
     PWSCF        :      3.53s CPU      4.33s WALL

 
   This run was terminated on:  22:26:22  20Oct2025            

=------------------------------------------------------------------------------=
   JOB DONE.
=------------------------------------------------------------------------------=
TACC:  Shutdown complete. Exiting. 
