TACC:  Starting up job 2482953 
TACC:  Starting parallel tasks... 

     Program PWSCF v.7.3 starts on 20Oct2025 at 21:53:29 

     This program is part of the open-source Quantum ESPRESSO suite
     for quantum simulation of materials; please cite
         "P. Giannozzi et al., J. Phys.:Condens. Matter 21 395502 (2009);
         "P. Giannozzi et al., J. Phys.:Condens. Matter 29 465901 (2017);
         "P. Giannozzi et al., J. Chem. Phys. 152 154105 (2020);
          URL http://www.quantum-espresso.org", 
     in publications or presentations arising from this work. More details at
     http://www.quantum-espresso.org/quote

     Parallel version (MPI & OpenMP), running on      10 processor cores
     Number of MPI processes:                10
     Threads/MPI process:                     1

     MPI processes distributed on     1 nodes
     186582 MiB available memory on the printing compute node when the environment starts
 
     Waiting for input...
     Reading input from standard input
Warning: card &CELL ignored
Warning: card  CELL_DYNAMICS = 'BFGS', ignored
Warning: card  PRESS=0.D0, ignored
Warning: card / ignored
     Message from routine read_cards :
     DEPRECATED: no units specified in ATOMIC_POSITIONS card
     Message from routine read_cards :
     ATOMIC_POSITIONS: units set to alat

     Current dimensions of program PWSCF are:
     Max number of different atomic species (ntypx) = 10
     Max number of k-points (npk) =  40000
     Max angular momentum in pseudopotentials (lmaxx) =  4
 
     R & G space division:  proc/nbgrp/npool/nimage =      10
     Subspace diagonalization in iterative solution of the eigenvalue problem:
     a serial algorithm will be used

 
     Parallelization info
     --------------------
     sticks:   dense  smooth     PW     G-vecs:    dense   smooth      PW
     Min         139      36     12                 3401      463      89
     Max         140      37     13                 3402      466      92
     Sum        1393     367    121                34015     4645     893
 
     Using Slab Decomposition
 


     bravais-lattice index     =            2
     lattice parameter (alat)  =       6.6800  a.u.
     unit-cell volume          =      74.5194 (a.u.)^3
     number of atoms/cell      =            2
     number of atomic types    =            1
     number of electrons       =         8.00
     number of Kohn-Sham states=            4
     kinetic-energy cutoff     =      60.0000  Ry
     charge density cutoff     =     900.0000  Ry
     scf convergence threshold =      1.0E-08
     mixing beta               =       0.7000
     number of iterations used =            8  plain     mixing
     Exchange-correlation= SLA  PZ   NOGX NOGC
                           (   1   1   0   0   0   0   0)

     celldm(1)=   6.680000  celldm(2)=   0.000000  celldm(3)=   0.000000
     celldm(4)=   0.000000  celldm(5)=   0.000000  celldm(6)=   0.000000

     crystal axes: (cart. coord. in units of alat)
               a(1) = (  -0.500000   0.000000   0.500000 )  
               a(2) = (   0.000000   0.500000   0.500000 )  
               a(3) = (  -0.500000   0.500000   0.000000 )  

     reciprocal axes: (cart. coord. in units 2 pi/alat)
               b(1) = ( -1.000000 -1.000000  1.000000 )  
               b(2) = (  1.000000  1.000000  1.000000 )  
               b(3) = ( -1.000000  1.000000 -1.000000 )  


     PseudoPot. # 1 for C  read from file:
     /scratch/11018/zhc/Assisgnment2/Q2/Diamond/Diamond/C_LDA.UPF
     MD5 check sum: 407c1fe918d93b14b177d5600f28733c
     Pseudo is Ultrasoft + core correction, Zval =  4.0
     Generated by new atomic code, or converted to UPF format
     Using radial grid of  721 points,  4 beta functions with: 
                l(1) =   0
                l(2) =   0
                l(3) =   1
                l(4) =   1
     Q(r) pseudized with  8 coefficients,  rinner =    1.100   1.100   1.100


     atomic species   valence    mass     pseudopotential
     C                 4.00    12.01100     C ( 1.00)

      6 Sym. Ops. (no inversion) found



   Cartesian axes

     site n.     atom                  positions (alat units)
         1        C      tau(   1) = (   0.0000000   0.0000000   0.0000000  )
         2        C      tau(   2) = (   0.2492943   0.2492943   0.2492943  )

     number of k points=    65
                       cart. coord. in units 2pi/alat
        k(    1) = (   0.0000000   0.0000000   0.0000000), wk =   0.0039062
        k(    2) = (  -0.1250000   0.1250000  -0.1250000), wk =   0.0234375
        k(    3) = (  -0.2500000   0.2500000  -0.2500000), wk =   0.0234375
        k(    4) = (  -0.3750000   0.3750000  -0.3750000), wk =   0.0234375
        k(    5) = (   0.5000000  -0.5000000   0.5000000), wk =   0.0117188
        k(    6) = (   0.0000000   0.2500000   0.0000000), wk =   0.0234375
        k(    7) = (  -0.1250000   0.3750000  -0.1250000), wk =   0.0234375
        k(    8) = (  -0.2500000   0.5000000  -0.2500000), wk =   0.0234375
        k(    9) = (   0.6250000  -0.3750000   0.6250000), wk =   0.0234375
        k(   10) = (   0.5000000  -0.2500000   0.5000000), wk =   0.0234375
        k(   11) = (   0.3750000  -0.1250000   0.3750000), wk =   0.0234375
        k(   12) = (   0.2500000   0.0000000   0.2500000), wk =   0.0234375
        k(   13) = (   0.0000000   0.5000000   0.0000000), wk =   0.0234375
        k(   14) = (  -0.1250000   0.6250000  -0.1250000), wk =   0.0234375
        k(   15) = (   0.7500000  -0.2500000   0.7500000), wk =   0.0234375
        k(   16) = (   0.6250000  -0.1250000   0.6250000), wk =   0.0234375
        k(   17) = (   0.5000000   0.0000000   0.5000000), wk =   0.0234375
        k(   18) = (   0.0000000   0.7500000   0.0000000), wk =   0.0234375
        k(   19) = (   0.8750000  -0.1250000   0.8750000), wk =   0.0234375
        k(   20) = (   0.7500000   0.0000000   0.7500000), wk =   0.0234375
        k(   21) = (   0.0000000  -1.0000000   0.0000000), wk =   0.0117188
        k(   22) = (  -0.2500000   0.5000000   0.0000000), wk =   0.0468750
        k(   23) = (   0.6250000  -0.3750000   0.8750000), wk =   0.0468750
        k(   24) = (   0.5000000  -0.2500000   0.7500000), wk =   0.0468750
        k(   25) = (   0.7500000  -0.2500000   1.0000000), wk =   0.0468750
        k(   26) = (   0.6250000  -0.1250000   0.8750000), wk =   0.0468750
        k(   27) = (   0.5000000   0.0000000   0.7500000), wk =   0.0468750
        k(   28) = (  -0.2500000  -1.0000000   0.0000000), wk =   0.0468750
        k(   29) = (  -0.5000000  -1.0000000   0.0000000), wk =   0.0234375
        k(   30) = (  -0.1250000  -0.1250000  -0.1250000), wk =   0.0078125
        k(   31) = (  -0.2500000  -0.2500000  -0.2500000), wk =   0.0078125
        k(   32) = (  -0.3750000  -0.3750000  -0.3750000), wk =   0.0078125
        k(   33) = (   0.5000000   0.5000000   0.5000000), wk =   0.0039062
        k(   34) = (   0.3750000   0.1250000  -0.1250000), wk =   0.0468750
        k(   35) = (  -0.3750000  -0.1250000  -0.1250000), wk =   0.0234375
        k(   36) = (   0.5000000   0.2500000  -0.2500000), wk =   0.0468750
        k(   37) = (  -0.5000000  -0.2500000  -0.2500000), wk =   0.0234375
        k(   38) = (  -0.3750000  -0.6250000   0.6250000), wk =   0.0468750
        k(   39) = (   0.3750000   0.6250000   0.6250000), wk =   0.0234375
        k(   40) = (  -0.2500000  -0.5000000   0.5000000), wk =   0.0468750
        k(   41) = (   0.2500000   0.5000000   0.5000000), wk =   0.0234375
        k(   42) = (  -0.1250000  -0.3750000   0.3750000), wk =   0.0468750
        k(   43) = (   0.1250000   0.3750000   0.3750000), wk =   0.0234375
        k(   44) = (   0.0000000  -0.2500000   0.2500000), wk =   0.0234375
        k(   45) = (   0.6250000   0.1250000  -0.1250000), wk =   0.0468750
        k(   46) = (  -0.6250000  -0.1250000  -0.1250000), wk =   0.0234375
        k(   47) = (  -0.2500000  -0.7500000   0.7500000), wk =   0.0468750
        k(   48) = (   0.2500000   0.7500000   0.7500000), wk =   0.0234375
        k(   49) = (  -0.1250000  -0.6250000   0.6250000), wk =   0.0468750
        k(   50) = (   0.1250000   0.6250000   0.6250000), wk =   0.0234375
        k(   51) = (   0.0000000  -0.5000000   0.5000000), wk =   0.0234375
        k(   52) = (  -0.1250000  -0.8750000   0.8750000), wk =   0.0468750
        k(   53) = (   0.1250000   0.8750000   0.8750000), wk =   0.0234375
        k(   54) = (   0.0000000  -0.7500000   0.7500000), wk =   0.0234375
        k(   55) = (   0.5000000   0.2500000   0.0000000), wk =   0.0468750
        k(   56) = (  -0.3750000  -0.6250000   0.8750000), wk =   0.0468750
        k(   57) = (   0.3750000   0.6250000   0.8750000), wk =   0.0468750
        k(   58) = (  -0.8750000  -0.3750000   0.6250000), wk =   0.0468750
        k(   59) = (   0.2500000   0.5000000   0.7500000), wk =   0.0234375
        k(   60) = (  -0.7500000  -0.2500000   0.5000000), wk =   0.0234375
        k(   61) = (  -0.2500000  -0.7500000   1.0000000), wk =   0.0468750
        k(   62) = (  -0.1250000  -0.6250000   0.8750000), wk =   0.0468750
        k(   63) = (   0.1250000   0.6250000   0.8750000), wk =   0.0468750
        k(   64) = (  -0.8750000  -0.1250000   0.6250000), wk =   0.0468750
        k(   65) = (   0.0000000  -0.5000000   0.7500000), wk =   0.0468750

     Dense  grid:    34015 G-vectors     FFT dimensions: (  45,  45,  45)

     Smooth grid:     4645 G-vectors     FFT dimensions: (  24,  24,  24)

     Estimated max dynamical RAM per process >       5.62 MB

     Estimated total dynamical RAM >      56.18 MB

     Initial potential from superposition of free atoms

     starting charge       7.9999, renormalised to       8.0000
     Starting wfcs are    8 randomized atomic wfcs

     total cpu time spent up to now is        0.3 secs

     Self-consistent Calculation

     iteration #  1     ecut=    60.00 Ry     beta= 0.70
     CG style diagonalization
     ethr =  1.00E-02,  avg # of iterations =  3.0

     total cpu time spent up to now is        0.4 secs

     total energy              =     -23.04042666 Ry
     estimated scf accuracy    <       0.14065278 Ry

     iteration #  2     ecut=    60.00 Ry     beta= 0.70
     CG style diagonalization
     ethr =  1.76E-03,  avg # of iterations =  3.6

     total cpu time spent up to now is        0.6 secs

     total energy              =     -23.05704332 Ry
     estimated scf accuracy    <       0.00144062 Ry

     iteration #  3     ecut=    60.00 Ry     beta= 0.70
     CG style diagonalization
     ethr =  1.80E-05,  avg # of iterations =  4.0

     total cpu time spent up to now is        0.8 secs

     total energy              =     -23.05755385 Ry
     estimated scf accuracy    <       0.00004905 Ry

     iteration #  4     ecut=    60.00 Ry     beta= 0.70
     CG style diagonalization
     ethr =  6.13E-07,  avg # of iterations =  4.1

     total cpu time spent up to now is        0.9 secs

     total energy              =     -23.05757244 Ry
     estimated scf accuracy    <       0.00000270 Ry

     iteration #  5     ecut=    60.00 Ry     beta= 0.70
     CG style diagonalization
     ethr =  3.37E-08,  avg # of iterations =  4.0

     total cpu time spent up to now is        1.1 secs

     total energy              =     -23.05757334 Ry
     estimated scf accuracy    <       0.00000006 Ry

     iteration #  6     ecut=    60.00 Ry     beta= 0.70
     CG style diagonalization
     ethr =  6.92E-10,  avg # of iterations =  4.2

     total cpu time spent up to now is        1.3 secs

     End of self-consistent calculation

          k = 0.0000 0.0000 0.0000 (   561 PWs)   bands (ev):

    -8.0905  13.5001  13.6174  13.6174

          k =-0.1250 0.1250-0.1250 (   576 PWs)   bands (ev):

    -7.6513  11.1541  12.8531  12.9452

          k =-0.2500 0.2500-0.2500 (   580 PWs)   bands (ev):

    -6.3456   6.9264  11.7437  11.8278

          k =-0.3750 0.3750-0.3750 (   595 PWs)   bands (ev):

    -4.2315   2.7757  10.9501  11.0326

          k = 0.5000-0.5000 0.5000 (   580 PWs)   bands (ev):

    -2.1023  -0.0669  10.6738  10.7564

          k = 0.0000 0.2500 0.0000 (   568 PWs)   bands (ev):

    -7.5052  11.7744  11.8266  12.3026

          k =-0.1250 0.3750-0.1250 (   580 PWs)   bands (ev):

    -6.4888   8.4609  10.6510  11.5012

          k =-0.2500 0.5000-0.2500 (   588 PWs)   bands (ev):

    -4.6399   4.3743   9.9950  10.3145

          k = 0.6250-0.3750 0.6250 (   586 PWs)   bands (ev):

    -2.2077   0.8210   9.3426  10.0012

          k = 0.5000-0.2500 0.5000 (   585 PWs)   bands (ev):

    -3.0266   1.8749   8.8985  10.6371

          k = 0.3750-0.1250 0.3750 (   588 PWs)   bands (ev):

    -5.3449   5.7418   9.1111  11.7348

          k = 0.2500 0.0000 0.2500 (   576 PWs)   bands (ev):

    -6.9236   9.5566  10.2481  12.8415

          k = 0.0000 0.5000 0.0000 (   576 PWs)   bands (ev):

    -5.7678   9.1401   9.3389   9.3645

          k =-0.1250 0.6250-0.1250 (   589 PWs)   bands (ev):

    -4.2086   6.0717   8.2401   8.6209

          k = 0.7500-0.2500 0.7500 (   584 PWs)   bands (ev):

    -1.9377   2.7044   6.7096   8.6002

          k = 0.6250-0.1250 0.6250 (   583 PWs)   bands (ev):

    -1.1894   1.8402   5.6902   9.2942

          k = 0.5000 0.0000 0.5000 (   590 PWs)   bands (ev):

    -3.5348   4.8419   5.7978  10.5182

          k = 0.0000 0.7500 0.0000 (   584 PWs)   bands (ev):

    -2.9478   5.0397   7.6820   7.7078

          k = 0.8750-0.1250 0.8750 (   594 PWs)   bands (ev):

    -0.9420   2.9415   6.0125   7.5230

          k = 0.7500 0.0000 0.7500 (   588 PWs)   bands (ev):

     0.6687   1.8070   3.9517   8.0963

          k = 0.0000-1.0000 0.0000 (   588 PWs)   bands (ev):

     0.7734   0.7912   7.1111   7.1355

          k =-0.2500 0.5000 0.0000 (   592 PWs)   bands (ev):

    -5.2000   7.0837   7.9453  10.6209

          k = 0.6250-0.3750 0.8750 (   583 PWs)   bands (ev):

    -3.1264   3.6505   7.2087   9.3911

          k = 0.5000-0.2500 0.7500 (   578 PWs)   bands (ev):

    -1.0859   0.9979   7.1824   8.7762

          k = 0.7500-0.2500 1.0000 (   588 PWs)   bands (ev):

    -2.4227   4.6303   6.4153   7.4537

          k = 0.6250-0.1250 0.8750 (   588 PWs)   bands (ev):

    -0.1432   2.3865   4.9470   7.0669

          k = 0.5000 0.0000 0.7500 (   586 PWs)   bands (ev):

    -0.9582   3.1567   4.4752   7.9792

          k =-0.2500-1.0000 0.0000 (   586 PWs)   bands (ev):

     1.1383   1.1596   6.0528   6.0787

          k =-0.5000-1.0000 0.0000 (   604 PWs)   bands (ev):

     1.6459   1.6753   4.9725   5.0044

          k =-0.1250-0.1250-0.1250 (   576 PWs)   bands (ev):

    -7.6514  11.0941  12.9363  12.9363

          k =-0.2500-0.2500-0.2500 (   580 PWs)   bands (ev):

    -6.3459   6.8920  11.8077  11.8077

          k =-0.3750-0.3750-0.3750 (   595 PWs)   bands (ev):

    -4.2307   2.7502  11.0058  11.0058

          k = 0.5000 0.5000 0.5000 (   580 PWs)   bands (ev):

    -2.0858  -0.1052  10.7273  10.7273

          k = 0.3750 0.1250-0.1250 (   580 PWs)   bands (ev):

    -6.4889   8.4534  10.6054  11.5642

          k =-0.3750-0.1250-0.1250 (   580 PWs)   bands (ev):

    -6.4891   8.4125  10.6413  11.5764

          k = 0.5000 0.2500-0.2500 (   588 PWs)   bands (ev):

    -4.6400   4.3706   9.9465  10.3730

          k =-0.5000-0.2500-0.2500 (   588 PWs)   bands (ev):

    -4.6398   4.3432   9.9788  10.3721

          k =-0.3750-0.6250 0.6250 (   586 PWs)   bands (ev):

    -2.2074   0.8197   9.3906   9.9529

          k = 0.3750 0.6250 0.6250 (   586 PWs)   bands (ev):

    -2.1985   0.7881   9.3893   9.9814

          k =-0.2500-0.5000 0.5000 (   585 PWs)   bands (ev):

    -3.0267   1.8763   8.9422  10.5823

          k = 0.2500 0.5000 0.5000 (   585 PWs)   bands (ev):

    -3.0234   1.8486   8.9398  10.6174

          k =-0.1250-0.3750 0.3750 (   588 PWs)   bands (ev):

    -5.3447   5.7471   9.1491  11.6735

          k = 0.1250 0.3750 0.3750 (   588 PWs)   bands (ev):

    -5.3450   5.7133   9.1513  11.7210

          k = 0.0000-0.2500 0.2500 (   576 PWs)   bands (ev):

    -6.9233   9.6075  10.2416  12.7748

          k = 0.6250 0.1250-0.1250 (   589 PWs)   bands (ev):

    -4.2086   6.0529   8.2932   8.5903

          k =-0.6250-0.1250-0.1250 (   589 PWs)   bands (ev):

    -4.2085   6.0215   8.3037   8.6152

          k =-0.2500-0.7500 0.7500 (   584 PWs)   bands (ev):

    -1.9372   2.6957   6.7509   8.5657

          k = 0.2500 0.7500 0.7500 (   584 PWs)   bands (ev):

    -1.9333   2.6665   6.7546   8.5922

          k =-0.1250-0.6250 0.6250 (   583 PWs)   bands (ev):

    -1.1912   1.8422   5.7205   9.2556

          k = 0.1250 0.6250 0.6250 (   583 PWs)   bands (ev):

    -1.1810   1.8057   5.7231   9.2874

          k = 0.0000-0.5000 0.5000 (   590 PWs)   bands (ev):

    -3.5352   4.8744   5.7957  10.4744

          k =-0.1250-0.8750 0.8750 (   594 PWs)   bands (ev):

    -0.9413   2.9324   6.0472   7.4962

          k = 0.1250 0.8750 0.8750 (   594 PWs)   bands (ev):

    -0.9393   2.9235   6.0318   7.5212

          k = 0.0000-0.7500 0.7500 (   588 PWs)   bands (ev):

     0.6510   1.8285   3.9717   8.0676

          k = 0.5000 0.2500 0.0000 (   592 PWs)   bands (ev):

    -5.2001   7.0422   7.9498  10.6717

          k =-0.3750-0.6250 0.8750 (   583 PWs)   bands (ev):

    -3.1261   3.6427   7.1876   9.4280

          k = 0.3750 0.6250 0.8750 (   583 PWs)   bands (ev):

    -3.1250   3.6163   7.2218   9.4192

          k =-0.8750-0.3750 0.6250 (   583 PWs)   bands (ev):

    -3.1263   3.6458   7.2288   9.3746

          k = 0.2500 0.5000 0.7500 (   578 PWs)   bands (ev):

    -1.0680   0.9548   7.2107   8.7763

          k =-0.7500-0.2500 0.5000 (   578 PWs)   bands (ev):

    -1.0860   0.9966   7.2287   8.7264

          k =-0.2500-0.7500 1.0000 (   588 PWs)   bands (ev):

    -2.4218   4.6011   6.4173   7.4850

          k =-0.1250-0.6250 0.8750 (   588 PWs)   bands (ev):

    -0.1413   2.3739   4.9743   7.0500

          k = 0.1250 0.6250 0.8750 (   588 PWs)   bands (ev):

    -0.1310   2.3405   4.9840   7.0658

          k =-0.8750-0.1250 0.6250 (   588 PWs)   bands (ev):

    -0.1434   2.3765   4.9934   7.0279

          k = 0.0000-0.5000 0.7500 (   586 PWs)   bands (ev):

    -0.9629   3.1842   4.4794   7.9461

     highest occupied level (ev):    13.6174

!    total energy              =     -23.05757330 Ry
     estimated scf accuracy    <          7.4E-11 Ry

     The total energy is the sum of the following terms:
     one-electron contribution =       8.24542677 Ry
     hartree contribution      =       1.89086544 Ry
     xc contribution           =      -7.38890541 Ry
     ewald contribution        =     -25.80496010 Ry

     convergence has been achieved in   6 iterations

     Forces acting on atoms (cartesian axes, Ry/au):

     atom    1 type  1   force =    -0.00376510   -0.00376510   -0.00376510
     atom    2 type  1   force =     0.00376510    0.00376510    0.00376510

     Total force =     0.009223     Total SCF correction =     0.000000


     Computing stress (Cartesian axis) and pressure

          total   stress  (Ry/bohr**3)                   (kbar)     P=       -8.84
  -0.00006011   0.00001031   0.00001031           -8.84        1.52        1.52
   0.00001031  -0.00006011   0.00001031            1.52       -8.84        1.52
   0.00001031   0.00001031  -0.00006011            1.52        1.52       -8.84


     Writing all to output data dir ./Diamond_k8.save/ :
     XML data file, charge density, pseudopotentials, collected wavefunctions
 
     init_run     :      0.10s CPU      0.17s WALL (       1 calls)
     electrons    :      0.92s CPU      1.04s WALL (       1 calls)
     forces       :      0.01s CPU      0.01s WALL (       1 calls)
     stress       :      0.04s CPU      0.04s WALL (       1 calls)

     Called by init_run:
     wfcinit      :      0.04s CPU      0.07s WALL (       1 calls)
     potinit      :      0.01s CPU      0.01s WALL (       1 calls)
     hinit0       :      0.03s CPU      0.05s WALL (       1 calls)

     Called by electrons:
     c_bands      :      0.82s CPU      0.90s WALL (       6 calls)
     sum_band     :      0.08s CPU      0.09s WALL (       6 calls)
     v_of_rho     :      0.01s CPU      0.01s WALL (       7 calls)
     newd         :      0.01s CPU      0.02s WALL (       7 calls)
     mix_rho      :      0.00s CPU      0.01s WALL (       6 calls)

     Called by c_bands:
     init_us_2    :      0.01s CPU      0.02s WALL (     975 calls)
     init_us_2:cp :      0.01s CPU      0.01s WALL (     975 calls)
     ccgdiagg     :      0.70s CPU      0.77s WALL (     390 calls)
     wfcrot       :      0.14s CPU      0.17s WALL (     390 calls)

     Called by *cgdiagg:
     h_psi        :      0.45s CPU      0.50s WALL (    5044 calls)
     s_psi        :      0.02s CPU      0.03s WALL (    9698 calls)

     Called by h_psi:
     h_psi:calbec :      0.07s CPU      0.08s WALL (    5044 calls)
     vloc_psi     :      0.33s CPU      0.36s WALL (    5044 calls)
     add_vuspsi   :      0.01s CPU      0.02s WALL (    5044 calls)
     hs_1psi      :      0.39s CPU      0.43s WALL (    4654 calls)
     s_1psi       :      0.09s CPU      0.10s WALL (    4654 calls)

     General routines
     calbec       :      0.13s CPU      0.14s WALL (   10413 calls)
     fft          :      0.01s CPU      0.03s WALL (      48 calls)
     ffts         :      0.00s CPU      0.00s WALL (      13 calls)
     fftw         :      0.28s CPU      0.30s WALL (   14508 calls)
     interpolate  :      0.00s CPU      0.01s WALL (       7 calls)
 
     Parallel routines
 
     PWSCF        :      1.15s CPU      1.66s WALL

 
   This run was terminated on:  21:53:31  20Oct2025            

=------------------------------------------------------------------------------=
   JOB DONE.
=------------------------------------------------------------------------------=
TACC:  Shutdown complete. Exiting. 
