TACC:  Starting up job 2410699 
TACC:  Starting parallel tasks... 

     Program PWSCF v.7.3 starts on 24Sep2025 at 20:11:46 

     This program is part of the open-source Quantum ESPRESSO suite
     for quantum simulation of materials; please cite
         "P. Giannozzi et al., J. Phys.:Condens. Matter 21 395502 (2009);
         "P. Giannozzi et al., J. Phys.:Condens. Matter 29 465901 (2017);
         "P. Giannozzi et al., J. Chem. Phys. 152 154105 (2020);
          URL http://www.quantum-espresso.org", 
     in publications or presentations arising from this work. More details at
     http://www.quantum-espresso.org/quote

     Parallel version (MPI & OpenMP), running on      10 processor cores
     Number of MPI processes:                10
     Threads/MPI process:                     1

     MPI processes distributed on     1 nodes
     186341 MiB available memory on the printing compute node when the environment starts
 
     Waiting for input...
     Reading input from standard input
Warning: card &CELL ignored
Warning: card  CELL_DYNAMICS = 'BFGS', ignored
Warning: card  PRESS=0.D0, ignored
Warning: card / ignored
     Message from routine read_cards :
     DEPRECATED: no units specified in ATOMIC_POSITIONS card
     Message from routine read_cards :
     ATOMIC_POSITIONS: units set to alat

     Current dimensions of program PWSCF are:
     Max number of different atomic species (ntypx) = 10
     Max number of k-points (npk) =  40000
     Max angular momentum in pseudopotentials (lmaxx) =  4
 
     R & G space division:  proc/nbgrp/npool/nimage =      10
     Subspace diagonalization in iterative solution of the eigenvalue problem:
     a serial algorithm will be used

 
     Parallelization info
     --------------------
     sticks:   dense  smooth     PW     G-vecs:    dense   smooth      PW
     Min         414     164     48                20066     5070     788
     Max         415     165     49                20071     5075     789
     Sum        4149    1649    481               200693    50733    7881
 
     Using Slab Decomposition
 


     bravais-lattice index     =            1
     lattice parameter (alat)  =       7.2205  a.u.
     unit-cell volume          =     376.4376 (a.u.)^3
     number of atoms/cell      =            5
     number of atomic types    =            3
     number of electrons       =        40.00
     number of Kohn-Sham states=           20
     kinetic-energy cutoff     =     100.0000  Ry
     charge density cutoff     =    1000.0000  Ry
     scf convergence threshold =      1.0E-08
     mixing beta               =       0.7000
     number of iterations used =            8  plain     mixing
     Exchange-correlation= SLA  PZ   NOGX NOGC
                           (   1   1   0   0   0   0   0)

     celldm(1)=   7.220451  celldm(2)=   0.000000  celldm(3)=   0.000000
     celldm(4)=   0.000000  celldm(5)=   0.000000  celldm(6)=   0.000000

     crystal axes: (cart. coord. in units of alat)
               a(1) = (   1.000000   0.000000   0.000000 )  
               a(2) = (   0.000000   1.000000   0.000000 )  
               a(3) = (   0.000000   0.000000   1.000000 )  

     reciprocal axes: (cart. coord. in units 2 pi/alat)
               b(1) = (  1.000000  0.000000  0.000000 )  
               b(2) = (  0.000000  1.000000  0.000000 )  
               b(3) = (  0.000000  0.000000  1.000000 )  


     PseudoPot. # 1 for Ca read from file:
     /scratch/11018/zhc/assisgnment1/CaTiO3/Ca_LDA.UPF
     MD5 check sum: d2d4e7693e10d071152e9eeb7dd009f3
     Pseudo is Ultrasoft + core correction, Zval = 10.0
     Generated by new atomic code, or converted to UPF format
     Using radial grid of  845 points,  6 beta functions with: 
                l(1) =   0
                l(2) =   0
                l(3) =   1
                l(4) =   1
                l(5) =   2
                l(6) =   2
     Q(r) pseudized with  8 coefficients,  rinner =    1.500   1.500   1.500
                                                       1.500   1.500

     PseudoPot. # 2 for Ti read from file:
     /scratch/11018/zhc/assisgnment1/CaTiO3/Ti_LDA.UPF
     MD5 check sum: 0d9f225c038fe889ca2a701dcc8d72cb
     Pseudo is Ultrasoft + core correction, Zval = 12.0
     Generated by new atomic code, or converted to UPF format
     Using radial grid of  851 points,  6 beta functions with: 
                l(1) =   0
                l(2) =   0
                l(3) =   1
                l(4) =   1
                l(5) =   2
                l(6) =   2
     Q(r) pseudized with  6 coefficients,  rinner =    1.000   1.000   1.000
                                                       1.000   1.000

     PseudoPot. # 3 for O  read from file:
     /scratch/11018/zhc/assisgnment1/CaTiO3/O_LDA.UPF
     MD5 check sum: 194b818514d2a7dbb603bb78519a4f40
     Pseudo is Ultrasoft + core correction, Zval =  6.0
     Generated by new atomic code, or converted to UPF format
     Using radial grid of  737 points,  5 beta functions with: 
                l(1) =   0
                l(2) =   0
                l(3) =   1
                l(4) =   1
                l(5) =   2
     Q(r) pseudized with  8 coefficients,  rinner =    0.900   0.900   0.900
                                                       0.900   0.900

     atomic species   valence    mass     pseudopotential
     Ca               10.00    40.07800     Ca( 1.00)
     Ti               12.00    47.88000     Ti( 1.00)
     O                 6.00    16.00000     O ( 1.00)

     48 Sym. Ops., with inversion, found



   Cartesian axes

     site n.     atom                  positions (alat units)
         1        Ca     tau(   1) = (   0.0000000   0.0000000   0.0000000  )
         2        Ti     tau(   2) = (   0.5000000   0.5000000   0.5000000  )
         3        O      tau(   3) = (   0.5000000   0.5000000   0.0000000  )
         4        O      tau(   4) = (   0.5000000   0.0000000   0.5000000  )
         5        O      tau(   5) = (   0.0000000   0.5000000   0.5000000  )

     number of k points=    20
                       cart. coord. in units 2pi/alat
        k(    1) = (   0.0000000   0.0000000   0.0000000), wk =   0.0092593
        k(    2) = (   0.0000000   0.0000000   0.1666667), wk =   0.0555556
        k(    3) = (   0.0000000   0.0000000   0.3333333), wk =   0.0555556
        k(    4) = (   0.0000000   0.0000000  -0.5000000), wk =   0.0277778
        k(    5) = (   0.0000000   0.1666667   0.1666667), wk =   0.1111111
        k(    6) = (   0.0000000   0.1666667   0.3333333), wk =   0.2222222
        k(    7) = (   0.0000000   0.1666667  -0.5000000), wk =   0.1111111
        k(    8) = (   0.0000000   0.3333333   0.3333333), wk =   0.1111111
        k(    9) = (   0.0000000   0.3333333  -0.5000000), wk =   0.1111111
        k(   10) = (   0.0000000  -0.5000000  -0.5000000), wk =   0.0277778
        k(   11) = (   0.1666667   0.1666667   0.1666667), wk =   0.0740741
        k(   12) = (   0.1666667   0.1666667   0.3333333), wk =   0.2222222
        k(   13) = (   0.1666667   0.1666667  -0.5000000), wk =   0.1111111
        k(   14) = (   0.1666667   0.3333333   0.3333333), wk =   0.2222222
        k(   15) = (   0.1666667   0.3333333  -0.5000000), wk =   0.2222222
        k(   16) = (   0.1666667  -0.5000000  -0.5000000), wk =   0.0555556
        k(   17) = (   0.3333333   0.3333333   0.3333333), wk =   0.0740741
        k(   18) = (   0.3333333   0.3333333  -0.5000000), wk =   0.1111111
        k(   19) = (   0.3333333  -0.5000000  -0.5000000), wk =   0.0555556
        k(   20) = (  -0.5000000  -0.5000000  -0.5000000), wk =   0.0092593

     Dense  grid:   200693 G-vectors     FFT dimensions: (  75,  75,  75)

     Smooth grid:    50733 G-vectors     FFT dimensions: (  45,  45,  45)

     Estimated max dynamical RAM per process >      86.51 MB

     Estimated total dynamical RAM >     865.09 MB

     Check: negative core charge=   -0.000001

     Initial potential from superposition of free atoms

     starting charge      38.9952, renormalised to      40.0000

     negative rho (up, down):  8.159E-04 0.000E+00
     Starting wfcs are   32 randomized atomic wfcs

     total cpu time spent up to now is        1.2 secs

     Self-consistent Calculation

     iteration #  1     ecut=   100.00 Ry     beta= 0.70
     CG style diagonalization
     ethr =  1.00E-02,  avg # of iterations =  2.2

     negative rho (up, down):  1.066E-03 0.000E+00

     total cpu time spent up to now is        2.0 secs

     total energy              =    -291.31635103 Ry
     estimated scf accuracy    <       0.82930700 Ry

     iteration #  2     ecut=   100.00 Ry     beta= 0.70
     CG style diagonalization
     ethr =  2.07E-03,  avg # of iterations =  5.0

     negative rho (up, down):  6.542E-04 0.000E+00

     total cpu time spent up to now is        3.5 secs

     total energy              =    -290.80656156 Ry
     estimated scf accuracy    <       5.12618954 Ry

     iteration #  3     ecut=   100.00 Ry     beta= 0.70
     CG style diagonalization
     ethr =  2.07E-03,  avg # of iterations =  4.4

     negative rho (up, down):  7.459E-04 0.000E+00

     total cpu time spent up to now is        4.7 secs

     total energy              =    -291.74317870 Ry
     estimated scf accuracy    <       0.14427306 Ry

     iteration #  4     ecut=   100.00 Ry     beta= 0.70
     CG style diagonalization
     ethr =  3.61E-04,  avg # of iterations =  3.7

     negative rho (up, down):  8.153E-04 0.000E+00

     total cpu time spent up to now is        5.8 secs

     total energy              =    -291.75501231 Ry
     estimated scf accuracy    <       0.03764031 Ry

     iteration #  5     ecut=   100.00 Ry     beta= 0.70
     CG style diagonalization
     ethr =  9.41E-05,  avg # of iterations =  3.6

     negative rho (up, down):  8.486E-04 0.000E+00

     total cpu time spent up to now is        6.9 secs

     total energy              =    -291.76283096 Ry
     estimated scf accuracy    <       0.00046365 Ry

     iteration #  6     ecut=   100.00 Ry     beta= 0.70
     CG style diagonalization
     ethr =  1.16E-06,  avg # of iterations =  4.9

     negative rho (up, down):  8.405E-04 0.000E+00

     total cpu time spent up to now is        8.2 secs

     total energy              =    -291.76368026 Ry
     estimated scf accuracy    <       0.00101590 Ry

     iteration #  7     ecut=   100.00 Ry     beta= 0.70
     CG style diagonalization
     ethr =  1.16E-06,  avg # of iterations =  3.5

     negative rho (up, down):  8.337E-04 0.000E+00

     total cpu time spent up to now is        9.3 secs

     total energy              =    -291.76367188 Ry
     estimated scf accuracy    <       0.00022557 Ry

     iteration #  8     ecut=   100.00 Ry     beta= 0.70
     CG style diagonalization
     ethr =  5.64E-07,  avg # of iterations =  3.5

     negative rho (up, down):  8.321E-04 0.000E+00

     total cpu time spent up to now is       10.3 secs

     total energy              =    -291.76370535 Ry
     estimated scf accuracy    <       0.00000521 Ry

     iteration #  9     ecut=   100.00 Ry     beta= 0.70
     CG style diagonalization
     ethr =  1.30E-08,  avg # of iterations =  4.2

     negative rho (up, down):  8.319E-04 0.000E+00

     total cpu time spent up to now is       11.5 secs

     total energy              =    -291.76370964 Ry
     estimated scf accuracy    <       0.00000068 Ry

     iteration # 10     ecut=   100.00 Ry     beta= 0.70
     CG style diagonalization
     ethr =  1.70E-09,  avg # of iterations =  3.7

     negative rho (up, down):  8.320E-04 0.000E+00

     total cpu time spent up to now is       12.6 secs

     total energy              =    -291.76370992 Ry
     estimated scf accuracy    <       0.00000019 Ry

     iteration # 11     ecut=   100.00 Ry     beta= 0.70
     CG style diagonalization
     ethr =  4.83E-10,  avg # of iterations =  3.6

     negative rho (up, down):  8.320E-04 0.000E+00

     total cpu time spent up to now is       13.6 secs

     End of self-consistent calculation

          k = 0.0000 0.0000 0.0000 (  6403 PWs)   bands (ev):

   -46.1555 -29.2547 -22.7953 -22.7953 -22.7953 -10.4625 -10.4625 -10.4625
    -8.0169  -6.8415  -6.8415   6.2681   6.2681   6.2681   8.1783   8.1783
     8.1783   9.0073   9.0073   9.0073

          k = 0.0000 0.0000 0.1667 (  6387 PWs)   bands (ev):

   -46.1551 -29.2528 -22.8190 -22.7942 -22.7942 -10.5509 -10.4590 -10.4590
    -7.8241  -6.8295  -6.7405   5.9439   6.2736   6.2736   7.7916   7.7916
     7.9282   8.1490   8.8702   8.8702

          k = 0.0000 0.0000 0.3333 (  6359 PWs)   bands (ev):

   -46.1543 -29.2489 -22.8658 -22.7919 -22.7919 -10.7096 -10.4520 -10.4520
    -7.4424  -6.8054  -6.5270   5.2313   6.3371   6.3371   6.9753   7.1060
     7.1060   7.4963   8.7456   8.7456

          k = 0.0000 0.0000-0.5000 (  6382 PWs)   bands (ev):

   -46.1538 -29.2470 -22.8889 -22.7907 -22.7907 -10.7820 -10.4485 -10.4485
    -7.2546  -6.7932  -6.4088   4.8271   6.5000   6.5000   6.5543   6.6825
     6.6825   7.3051   8.7026   8.7026

          k = 0.0000 0.1667 0.1667 (  6378 PWs)   bands (ev):

   -46.1547 -29.2508 -22.8184 -22.8177 -22.7930 -10.5641 -10.5082 -10.4553
    -7.6568  -6.7775  -6.6846   5.7303   6.1290   6.2735   7.0531   7.5352
     8.0342   8.1146   8.4397   8.6335

          k = 0.0000 0.1667 0.3333 (  6352 PWs)   bands (ev):

   -46.1539 -29.2468 -22.8651 -22.8160 -22.7908 -10.6819 -10.5046 -10.4478
    -7.3362  -6.7338  -6.4821   5.1681   5.7746   6.3202   6.3431   6.9815
     7.2793   8.0853   8.3194   8.4203

          k = 0.0000 0.1667-0.5000 (  6358 PWs)   bands (ev):

   -46.1534 -29.2448 -22.8884 -22.8150 -22.7896 -10.7440 -10.4954 -10.4441
    -7.1918  -6.7105  -6.3548   4.8230   5.4530   6.2202   6.4722   6.5965
     7.0394   8.0835   8.2008   8.3589

          k = 0.0000 0.3333 0.3333 (  6344 PWs)   bands (ev):

   -46.1530 -29.2425 -22.8641 -22.8634 -22.7885 -10.6410 -10.5916 -10.4394
    -7.2090  -6.5093  -6.3630   4.7760   5.3659   5.4029   6.3117   6.6823
     7.3489   7.5407   8.0297   8.9245

          k = 0.0000 0.3333-0.5000 (  6350 PWs)   bands (ev):

   -46.1526 -29.2404 -22.8873 -22.8631 -22.7874 -10.6680 -10.5859 -10.4351
    -7.1831  -6.3982  -6.2487   4.5635   4.8019   5.3535   6.3993   6.4320
     7.2774   7.5148   7.9039   9.0738

          k = 0.0000-0.5000-0.5000 (  6304 PWs)   bands (ev):

   -46.1522 -29.2381 -22.8868 -22.8868 -22.7863 -10.6298 -10.6298 -10.4307
    -7.2064  -6.1963  -6.1963   4.2423   4.6916   4.9408   6.3531   6.3531
     7.3944   7.3944   7.7415   9.3419

          k = 0.1667 0.1667 0.1667 (  6358 PWs)   bands (ev):

   -46.1543 -29.2488 -22.8171 -22.8171 -22.8167 -10.5694 -10.5004 -10.5004
    -7.4998  -6.6843  -6.6843   5.5418   6.0965   6.0965   6.9426   6.9426
     7.5569   8.3807   8.3807   8.4680

          k = 0.1667 0.1667 0.3333 (  6360 PWs)   bands (ev):

   -46.1534 -29.2447 -22.8642 -22.8151 -22.8146 -10.6575 -10.5071 -10.4847
    -7.2010  -6.6838  -6.4618   5.1049   5.6967   5.9175   6.1764   6.4838
     7.3592   8.1126   8.3120   8.4610

          k = 0.1667 0.1667-0.5000 (  6352 PWs)   bands (ev):

   -46.1530 -29.2427 -22.8876 -22.8143 -22.8134 -10.7113 -10.4982 -10.4767
    -7.0667  -6.6836  -6.3220   4.8222   5.3358   5.7622   5.9778   6.4092
     7.4322   7.9467   8.2839   8.3640

          k = 0.1667 0.3333 0.3333 (  6365 PWs)   bands (ev):

   -46.1526 -29.2405 -22.8627 -22.8624 -22.8126 -10.6217 -10.5772 -10.4780
    -7.0236  -6.5015  -6.3840   4.8107   5.3885   5.3973   5.8029   6.0206
     6.9159   8.1857   8.2274   8.9527

          k = 0.1667 0.3333-0.5000 (  6364 PWs)   bands (ev):

   -46.1522 -29.2384 -22.8861 -22.8617 -22.8114 -10.6459 -10.5730 -10.4706
    -6.9875  -6.4282  -6.2582   4.6660   4.8091   5.3422   5.6810   5.9085
     6.9263   8.1375   8.2098   9.0971

          k = 0.1667-0.5000-0.5000 (  6344 PWs)   bands (ev):

   -46.1518 -29.2362 -22.8853 -22.8853 -22.8103 -10.6131 -10.6131 -10.4638
    -7.0026  -6.2272  -6.2272   4.3810   4.7070   4.9456   5.7027   5.7027
     6.8927   8.1754   8.1754   9.3678

          k = 0.3333 0.3333 0.3333 (  6364 PWs)   bands (ev):

   -46.1518 -29.2364 -22.8606 -22.8599 -22.8599 -10.5891 -10.5481 -10.5481
    -6.6826  -6.4267  -6.4267   4.8003   5.2442   5.2442   5.5209   5.5209
     5.5614   8.7581   8.7581   9.1001

          k = 0.3333 0.3333-0.5000 (  6346 PWs)   bands (ev):

   -46.1514 -29.2344 -22.8836 -22.8593 -22.8585 -10.6014 -10.5539 -10.5333
    -6.6044  -6.4484  -6.2788   4.8089   4.8114   5.0468   5.1642   5.4861
     5.5848   8.8514   8.9545   9.2134

          k = 0.3333-0.5000-0.5000 (  6340 PWs)   bands (ev):

   -46.1510 -29.2324 -22.8824 -22.8824 -22.8575 -10.5790 -10.5790 -10.5292
    -6.5621  -6.2898  -6.2898   4.6667   4.7222   4.9553   5.0481   5.0481
     5.4947   9.0877   9.0877   9.4209

          k =-0.5000-0.5000-0.5000 (  6272 PWs)   bands (ev):

   -46.1506 -29.2305 -22.8809 -22.8809 -22.8809 -10.5615 -10.5615 -10.5615
    -6.3216  -6.3216  -6.3216   4.6376   4.8141   4.8141   4.8141   4.9601
     4.9601   9.4481   9.4481   9.4481

     highest occupied level (ev):     9.4481

!    total energy              =    -291.76370996 Ry
     estimated scf accuracy    <          5.3E-09 Ry

     The total energy is the sum of the following terms:
     one-electron contribution =     -87.29776499 Ry
     hartree contribution      =      64.12532245 Ry
     xc contribution           =     -51.40698927 Ry
     ewald contribution        =    -217.18427815 Ry

     convergence has been achieved in  11 iterations

     negative rho (up, down):  8.320E-04 0.000E+00

     Forces acting on atoms (cartesian axes, Ry/au):

     atom    1 type  1   force =     0.00000000    0.00000000    0.00000000
     atom    2 type  2   force =     0.00000000    0.00000000    0.00000000
     atom    3 type  3   force =     0.00000000    0.00000000    0.00000000
     atom    4 type  3   force =     0.00000000    0.00000000    0.00000000
     atom    5 type  3   force =     0.00000000    0.00000000    0.00000000

     Total force =     0.000000     Total SCF correction =     0.000000


     Computing stress (Cartesian axis) and pressure


     negative rho (up, down):  8.320E-04 0.000E+00
          total   stress  (Ry/bohr**3)                   (kbar)     P=      -21.42
  -0.00014564   0.00000000   0.00000000          -21.42        0.00        0.00
   0.00000000  -0.00014564   0.00000000            0.00      -21.42        0.00
   0.00000000   0.00000000  -0.00014564            0.00        0.00      -21.42


     Writing all to output data dir ./CTO_module_11.save/ :
     XML data file, charge density, pseudopotentials, collected wavefunctions
 
     init_run     :      0.82s CPU      0.92s WALL (       1 calls)
     electrons    :     11.69s CPU     12.48s WALL (       1 calls)
     forces       :      0.21s CPU      0.23s WALL (       1 calls)
     stress       :      1.67s CPU      1.73s WALL (       1 calls)

     Called by init_run:
     wfcinit      :      0.23s CPU      0.26s WALL (       1 calls)
     potinit      :      0.02s CPU      0.03s WALL (       1 calls)
     hinit0       :      0.42s CPU      0.45s WALL (       1 calls)

     Called by electrons:
     c_bands      :      8.52s CPU      8.80s WALL (      11 calls)
     sum_band     :      2.06s CPU      2.25s WALL (      11 calls)
     v_of_rho     :      0.04s CPU      0.04s WALL (      12 calls)
     newd         :      1.12s CPU      1.44s WALL (      12 calls)
     mix_rho      :      0.03s CPU      0.03s WALL (      11 calls)

     Called by c_bands:
     init_us_2    :      0.13s CPU      0.13s WALL (     500 calls)
     init_us_2:cp :      0.12s CPU      0.13s WALL (     500 calls)
     ccgdiagg     :      7.21s CPU      7.46s WALL (     220 calls)
     wfcrot       :      1.43s CPU      1.48s WALL (     220 calls)

     Called by *cgdiagg:
     h_psi        :      5.85s CPU      6.04s WALL (   13171 calls)
     s_psi        :      0.83s CPU      0.85s WALL (   26122 calls)

     Called by h_psi:
     h_psi:calbec :      0.75s CPU      0.77s WALL (   13171 calls)
     vloc_psi     :      4.52s CPU      4.66s WALL (   13171 calls)
     add_vuspsi   :      0.47s CPU      0.48s WALL (   13171 calls)
     hs_1psi      :      5.07s CPU      5.25s WALL (   12951 calls)
     s_1psi       :      1.01s CPU      1.04s WALL (   12951 calls)

     General routines
     calbec       :      1.33s CPU      1.38s WALL (   26442 calls)
     fft          :      0.06s CPU      0.07s WALL (      78 calls)
     ffts         :      0.00s CPU      0.01s WALL (      23 calls)
     fftw         :      3.99s CPU      4.11s WALL (   39582 calls)
     interpolate  :      0.01s CPU      0.02s WALL (      12 calls)
 
     Parallel routines
 
     PWSCF        :     14.61s CPU     15.98s WALL

 
   This run was terminated on:  20:12: 1  24Sep2025            

=------------------------------------------------------------------------------=
   JOB DONE.
=------------------------------------------------------------------------------=
TACC:  Shutdown complete. Exiting. 
