TACC:  Starting up job 2476558 
TACC:  Starting parallel tasks... 

     Program PWSCF v.7.3 starts on 18Oct2025 at 15:27:59 

     This program is part of the open-source Quantum ESPRESSO suite
     for quantum simulation of materials; please cite
         "P. Giannozzi et al., J. Phys.:Condens. Matter 21 395502 (2009);
         "P. Giannozzi et al., J. Phys.:Condens. Matter 29 465901 (2017);
         "P. Giannozzi et al., J. Chem. Phys. 152 154105 (2020);
          URL http://www.quantum-espresso.org", 
     in publications or presentations arising from this work. More details at
     http://www.quantum-espresso.org/quote

     Parallel version (MPI & OpenMP), running on      10 processor cores
     Number of MPI processes:                10
     Threads/MPI process:                     1

     MPI processes distributed on     1 nodes
     187902 MiB available memory on the printing compute node when the environment starts
 
     Waiting for input...
     Reading input from standard input
Warning: card &CELL ignored
Warning: card  CELL_DYNAMICS = 'BFGS', ignored
Warning: card  PRESS=0.D0, ignored
Warning: card / ignored

     Current dimensions of program PWSCF are:
     Max number of different atomic species (ntypx) = 10
     Max number of k-points (npk) =  40000
     Max angular momentum in pseudopotentials (lmaxx) =  4
 
     R & G space division:  proc/nbgrp/npool/nimage =      10
     Subspace diagonalization in iterative solution of the eigenvalue problem:
     a serial algorithm will be used

 
     Parallelization info
     --------------------
     sticks:   dense  smooth     PW     G-vecs:    dense   smooth      PW
     Min          94      37     12                 2162      543     102
     Max          95      38     13                 2165      546     103
     Sum         949     373    121                21631     5449    1021
 
     Using Slab Decomposition
 


     bravais-lattice index     =            1
     lattice parameter (alat)  =       7.6794  a.u.
     unit-cell volume          =     452.8787 (a.u.)^3
     number of atoms/cell      =            5
     number of atomic types    =            3
     number of electrons       =        40.00
     number of Kohn-Sham states=           20
     kinetic-energy cutoff     =      20.0000  Ry
     charge density cutoff     =     200.0000  Ry
     scf convergence threshold =      1.0E-08
     mixing beta               =       0.7000
     number of iterations used =            8  plain     mixing
     Exchange-correlation= SLA  PZ   NOGX NOGC
                           (   1   1   0   0   0   0   0)

     celldm(1)=   7.679400  celldm(2)=   0.000000  celldm(3)=   0.000000
     celldm(4)=   0.000000  celldm(5)=   0.000000  celldm(6)=   0.000000

     crystal axes: (cart. coord. in units of alat)
               a(1) = (   1.000000   0.000000   0.000000 )  
               a(2) = (   0.000000   1.000000   0.000000 )  
               a(3) = (   0.000000   0.000000   1.000000 )  

     reciprocal axes: (cart. coord. in units 2 pi/alat)
               b(1) = (  1.000000  0.000000  0.000000 )  
               b(2) = (  0.000000  1.000000  0.000000 )  
               b(3) = (  0.000000  0.000000  1.000000 )  


     PseudoPot. # 1 for Ba read from file:
     /scratch/11018/zhc/Assisgnment2/Q1/1D/Kpoints/Ba_LDA.UPF
     MD5 check sum: 0ec7675c796dc0a11c6269c68e51391e
     Pseudo is Ultrasoft + core correction, Zval = 10.0
     Generated by new atomic code, or converted to UPF format
     Using radial grid of  907 points,  7 beta functions with: 
                l(1) =   0
                l(2) =   0
                l(3) =   1
                l(4) =   1
                l(5) =   2
                l(6) =   2
                l(7) =   3
     Q(r) pseudized with  6 coefficients,  rinner =    1.700   1.700   1.700
                                                       1.700   1.700   1.700
                                                       1.700

     PseudoPot. # 2 for Ti read from file:
     /scratch/11018/zhc/Assisgnment2/Q1/1D/Kpoints/Ti_LDA.UPF
     MD5 check sum: 0d9f225c038fe889ca2a701dcc8d72cb
     Pseudo is Ultrasoft + core correction, Zval = 12.0
     Generated by new atomic code, or converted to UPF format
     Using radial grid of  851 points,  6 beta functions with: 
                l(1) =   0
                l(2) =   0
                l(3) =   1
                l(4) =   1
                l(5) =   2
                l(6) =   2
     Q(r) pseudized with  6 coefficients,  rinner =    1.000   1.000   1.000
                                                       1.000   1.000

     PseudoPot. # 3 for O  read from file:
     /scratch/11018/zhc/Assisgnment2/Q1/1D/Kpoints/O_LDA.UPF
     MD5 check sum: 194b818514d2a7dbb603bb78519a4f40
     Pseudo is Ultrasoft + core correction, Zval =  6.0
     Generated by new atomic code, or converted to UPF format
     Using radial grid of  737 points,  5 beta functions with: 
                l(1) =   0
                l(2) =   0
                l(3) =   1
                l(4) =   1
                l(5) =   2
     Q(r) pseudized with  8 coefficients,  rinner =    0.900   0.900   0.900
                                                       0.900   0.900

     atomic species   valence    mass     pseudopotential
     Ba               10.00   137.32700     Ba( 1.00)
     Ti               12.00    47.88000     Ti( 1.00)
     O                 6.00    16.00000     O ( 1.00)

      8 Sym. Ops. (no inversion) found



   Cartesian axes

     site n.     atom                  positions (alat units)
         1        Ba     tau(   1) = (   0.0000000   0.0000000   0.0000000  )
         2        Ti     tau(   2) = (   0.5000000   0.5000000   0.4900000  )
         3        O      tau(   3) = (   0.5000000   0.5000000   0.0000000  )
         4        O      tau(   4) = (   0.5000000   0.0000000   0.5000000  )
         5        O      tau(   5) = (   0.0000000   0.5000000   0.5000000  )

     number of k points=    75
                       cart. coord. in units 2pi/alat
        k(    1) = (   0.0000000   0.0000000   0.0000000), wk =   0.0027435
        k(    2) = (   0.0000000   0.0000000   0.1111111), wk =   0.0054870
        k(    3) = (   0.0000000   0.0000000   0.2222222), wk =   0.0054870
        k(    4) = (   0.0000000   0.0000000   0.3333333), wk =   0.0054870
        k(    5) = (   0.0000000   0.0000000   0.4444444), wk =   0.0054870
        k(    6) = (   0.0000000   0.1111111   0.1111111), wk =   0.0219479
        k(    7) = (   0.0000000   0.1111111   0.2222222), wk =   0.0219479
        k(    8) = (   0.0000000   0.1111111   0.3333333), wk =   0.0219479
        k(    9) = (   0.0000000   0.1111111   0.4444444), wk =   0.0219479
        k(   10) = (   0.0000000   0.2222222   0.2222222), wk =   0.0219479
        k(   11) = (   0.0000000   0.2222222   0.3333333), wk =   0.0219479
        k(   12) = (   0.0000000   0.2222222   0.4444444), wk =   0.0219479
        k(   13) = (   0.0000000   0.3333333   0.3333333), wk =   0.0219479
        k(   14) = (   0.0000000   0.3333333   0.4444444), wk =   0.0219479
        k(   15) = (   0.0000000   0.4444444   0.4444444), wk =   0.0219479
        k(   16) = (   0.1111111   0.1111111   0.1111111), wk =   0.0219479
        k(   17) = (   0.1111111   0.1111111   0.2222222), wk =   0.0219479
        k(   18) = (   0.1111111   0.1111111   0.3333333), wk =   0.0219479
        k(   19) = (   0.1111111   0.1111111   0.4444444), wk =   0.0219479
        k(   20) = (   0.1111111   0.2222222   0.2222222), wk =   0.0438957
        k(   21) = (   0.1111111   0.2222222   0.3333333), wk =   0.0438957
        k(   22) = (   0.1111111   0.2222222   0.4444444), wk =   0.0438957
        k(   23) = (   0.1111111   0.3333333   0.3333333), wk =   0.0438957
        k(   24) = (   0.1111111   0.3333333   0.4444444), wk =   0.0438957
        k(   25) = (   0.1111111   0.4444444   0.4444444), wk =   0.0438957
        k(   26) = (   0.2222222   0.2222222   0.2222222), wk =   0.0219479
        k(   27) = (   0.2222222   0.2222222   0.3333333), wk =   0.0219479
        k(   28) = (   0.2222222   0.2222222   0.4444444), wk =   0.0219479
        k(   29) = (   0.2222222   0.3333333   0.3333333), wk =   0.0438957
        k(   30) = (   0.2222222   0.3333333   0.4444444), wk =   0.0438957
        k(   31) = (   0.2222222   0.4444444   0.4444444), wk =   0.0438957
        k(   32) = (   0.3333333   0.3333333   0.3333333), wk =   0.0219479
        k(   33) = (   0.3333333   0.3333333   0.4444444), wk =   0.0219479
        k(   34) = (   0.3333333   0.4444444   0.4444444), wk =   0.0438957
        k(   35) = (   0.4444444   0.4444444   0.4444444), wk =   0.0219479
        k(   36) = (   0.1111111   0.0000000   0.0000000), wk =   0.0109739
        k(   37) = (   0.2222222   0.0000000   0.0000000), wk =   0.0109739
        k(   38) = (   0.3333333   0.0000000   0.0000000), wk =   0.0109739
        k(   39) = (   0.4444444   0.0000000   0.0000000), wk =   0.0109739
        k(   40) = (   0.1111111  -0.1111111   0.0000000), wk =   0.0109739
        k(   41) = (   0.2222222  -0.1111111   0.0000000), wk =   0.0219479
        k(   42) = (   0.0000000   0.2222222   0.1111111), wk =   0.0219479
        k(   43) = (   0.3333333  -0.1111111   0.0000000), wk =   0.0219479
        k(   44) = (   0.0000000   0.3333333   0.1111111), wk =   0.0219479
        k(   45) = (   0.4444444  -0.1111111   0.0000000), wk =   0.0219479
        k(   46) = (   0.0000000   0.4444444   0.1111111), wk =   0.0219479
        k(   47) = (   0.2222222  -0.2222222   0.0000000), wk =   0.0109739
        k(   48) = (   0.3333333  -0.2222222   0.0000000), wk =   0.0219479
        k(   49) = (   0.0000000   0.3333333   0.2222222), wk =   0.0219479
        k(   50) = (   0.4444444  -0.2222222   0.0000000), wk =   0.0219479
        k(   51) = (   0.0000000   0.4444444   0.2222222), wk =   0.0219479
        k(   52) = (   0.3333333  -0.3333333   0.0000000), wk =   0.0109739
        k(   53) = (   0.4444444  -0.3333333   0.0000000), wk =   0.0219479
        k(   54) = (   0.0000000   0.4444444   0.3333333), wk =   0.0219479
        k(   55) = (   0.4444444  -0.4444444   0.0000000), wk =   0.0109739
        k(   56) = (   0.2222222  -0.1111111   0.1111111), wk =   0.0438957
        k(   57) = (   0.3333333  -0.1111111   0.1111111), wk =   0.0438957
        k(   58) = (   0.4444444  -0.1111111   0.1111111), wk =   0.0438957
        k(   59) = (   0.2222222  -0.2222222   0.1111111), wk =   0.0219479
        k(   60) = (   0.3333333  -0.2222222   0.1111111), wk =   0.0438957
        k(   61) = (  -0.1111111   0.3333333   0.2222222), wk =   0.0438957
        k(   62) = (   0.4444444  -0.2222222   0.1111111), wk =   0.0438957
        k(   63) = (  -0.1111111   0.4444444   0.2222222), wk =   0.0438957
        k(   64) = (   0.3333333  -0.3333333   0.1111111), wk =   0.0219479
        k(   65) = (   0.4444444  -0.3333333   0.1111111), wk =   0.0438957
        k(   66) = (  -0.1111111   0.4444444   0.3333333), wk =   0.0438957
        k(   67) = (   0.4444444  -0.4444444   0.1111111), wk =   0.0219479
        k(   68) = (   0.3333333  -0.2222222   0.2222222), wk =   0.0438957
        k(   69) = (   0.4444444  -0.2222222   0.2222222), wk =   0.0438957
        k(   70) = (   0.3333333  -0.3333333   0.2222222), wk =   0.0219479
        k(   71) = (   0.4444444  -0.3333333   0.2222222), wk =   0.0438957
        k(   72) = (  -0.2222222   0.4444444   0.3333333), wk =   0.0438957
        k(   73) = (   0.4444444  -0.4444444   0.2222222), wk =   0.0219479
        k(   74) = (   0.4444444  -0.3333333   0.3333333), wk =   0.0438957
        k(   75) = (   0.4444444  -0.4444444   0.3333333), wk =   0.0219479

     Dense  grid:    21631 G-vectors     FFT dimensions: (  36,  36,  36)

     Smooth grid:     5449 G-vectors     FFT dimensions: (  24,  24,  24)

     Estimated max dynamical RAM per process >      21.92 MB

     Estimated total dynamical RAM >     219.20 MB

     Check: negative core charge=   -0.000005

     Initial potential from superposition of free atoms

     starting charge      38.9872, renormalised to      40.0000

     negative rho (up, down):  1.016E-01 0.000E+00
     Starting wfcs are   35 randomized atomic wfcs

     total cpu time spent up to now is        0.7 secs

     Self-consistent Calculation

     iteration #  1     ecut=    20.00 Ry     beta= 0.70
     CG style diagonalization
     ethr =  1.00E-02,  avg # of iterations =  2.2

     negative rho (up, down):  9.647E-02 0.000E+00

     total cpu time spent up to now is        1.4 secs

     total energy              =    -286.15630024 Ry
     estimated scf accuracy    <       0.51252049 Ry

     iteration #  2     ecut=    20.00 Ry     beta= 0.70
     CG style diagonalization
     ethr =  1.28E-03,  avg # of iterations =  5.3

     negative rho (up, down):  9.513E-02 0.000E+00

     total cpu time spent up to now is        2.9 secs

     total energy              =    -285.38137350 Ry
     estimated scf accuracy    <       6.83791369 Ry

     iteration #  3     ecut=    20.00 Ry     beta= 0.70
     CG style diagonalization
     ethr =  1.28E-03,  avg # of iterations =  5.0

     negative rho (up, down):  9.478E-02 0.000E+00

     total cpu time spent up to now is        4.3 secs

     total energy              =    -286.38731336 Ry
     estimated scf accuracy    <       0.14543474 Ry

     iteration #  4     ecut=    20.00 Ry     beta= 0.70
     CG style diagonalization
     ethr =  3.64E-04,  avg # of iterations =  3.4

     negative rho (up, down):  9.446E-02 0.000E+00

     total cpu time spent up to now is        5.2 secs

     total energy              =    -286.38939190 Ry
     estimated scf accuracy    <       0.06479065 Ry

     iteration #  5     ecut=    20.00 Ry     beta= 0.70
     CG style diagonalization
     ethr =  1.62E-04,  avg # of iterations =  3.4

     negative rho (up, down):  9.441E-02 0.000E+00

     total cpu time spent up to now is        6.1 secs

     total energy              =    -286.39341068 Ry
     estimated scf accuracy    <       0.00958395 Ry

     iteration #  6     ecut=    20.00 Ry     beta= 0.70
     CG style diagonalization
     ethr =  2.40E-05,  avg # of iterations =  3.8

     negative rho (up, down):  9.440E-02 0.000E+00

     total cpu time spent up to now is        7.1 secs

     total energy              =    -286.39562096 Ry
     estimated scf accuracy    <       0.00041556 Ry

     iteration #  7     ecut=    20.00 Ry     beta= 0.70
     CG style diagonalization
     ethr =  1.04E-06,  avg # of iterations =  4.3

     negative rho (up, down):  9.440E-02 0.000E+00

     total cpu time spent up to now is        8.2 secs

     total energy              =    -286.39600133 Ry
     estimated scf accuracy    <       0.00009926 Ry

     iteration #  8     ecut=    20.00 Ry     beta= 0.70
     CG style diagonalization
     ethr =  2.48E-07,  avg # of iterations =  3.5

     negative rho (up, down):  9.439E-02 0.000E+00

     total cpu time spent up to now is        9.2 secs

     total energy              =    -286.39599934 Ry
     estimated scf accuracy    <       0.00007626 Ry

     iteration #  9     ecut=    20.00 Ry     beta= 0.70
     CG style diagonalization
     ethr =  1.91E-07,  avg # of iterations =  3.2

     negative rho (up, down):  9.439E-02 0.000E+00

     total cpu time spent up to now is       10.0 secs

     total energy              =    -286.39599678 Ry
     estimated scf accuracy    <       0.00003172 Ry

     iteration # 10     ecut=    20.00 Ry     beta= 0.70
     CG style diagonalization
     ethr =  7.93E-08,  avg # of iterations =  3.4

     negative rho (up, down):  9.439E-02 0.000E+00

     total cpu time spent up to now is       10.9 secs

     total energy              =    -286.39599935 Ry
     estimated scf accuracy    <       0.00000306 Ry

     iteration # 11     ecut=    20.00 Ry     beta= 0.70
     CG style diagonalization
     ethr =  7.66E-09,  avg # of iterations =  3.7

     negative rho (up, down):  9.438E-02 0.000E+00

     total cpu time spent up to now is       11.9 secs

     total energy              =    -286.39599984 Ry
     estimated scf accuracy    <       0.00000055 Ry

     iteration # 12     ecut=    20.00 Ry     beta= 0.70
     CG style diagonalization
     ethr =  1.39E-09,  avg # of iterations =  4.1

     negative rho (up, down):  9.438E-02 0.000E+00

     total cpu time spent up to now is       13.0 secs

     total energy              =    -286.39600010 Ry
     estimated scf accuracy    <       0.00000019 Ry

     iteration # 13     ecut=    20.00 Ry     beta= 0.70
     CG style diagonalization
     ethr =  4.65E-10,  avg # of iterations =  3.5

     negative rho (up, down):  9.438E-02 0.000E+00

     total cpu time spent up to now is       13.9 secs

     total energy              =    -286.39600013 Ry
     estimated scf accuracy    <       0.00000002 Ry

     iteration # 14     ecut=    20.00 Ry     beta= 0.70
     CG style diagonalization
     ethr =  4.13E-11,  avg # of iterations =  4.3

     negative rho (up, down):  9.438E-02 0.000E+00

     total cpu time spent up to now is       15.0 secs

     End of self-consistent calculation

          k = 0.0000 0.0000 0.0000 (   691 PWs)   bands (ev):

   -47.2452 -23.6592 -23.6557 -23.6557 -15.2616  -7.5408  -6.8655  -6.8535
    -0.4113  -0.4113  -0.4093   7.0102   7.0103   7.0103   8.4577   8.4577
     8.4706   9.2484   9.2512   9.2512

          k = 0.0000 0.0000 0.1111 (   703 PWs)   bands (ev):

   -47.2457 -23.6732 -23.6732 -23.6683 -15.2502  -7.5387  -6.8658  -6.8546
    -0.3952  -0.3952  -0.3706   6.8863   6.9634   6.9634   8.2006   8.2006
     8.3043   8.9378   9.1376   9.1376

          k = 0.0000 0.0000 0.2222 (   683 PWs)   bands (ev):

   -47.2446 -23.6711 -23.6552 -23.6552 -15.2210  -7.5594  -6.8416  -6.8243
    -0.3480  -0.3480  -0.2733   6.4862   6.9562   6.9562   8.0000   8.0000
     8.0840   8.3579   9.0212   9.0212

          k = 0.0000 0.0000 0.3333 (   687 PWs)   bands (ev):

   -47.2444 -23.6866 -23.6593 -23.6593 -15.1871  -7.6224  -6.8315  -6.7363
    -0.2959  -0.2959  -0.1639   5.9705   6.8152   6.8152   7.7664   7.7664
     7.8360   7.8603   8.8331   8.8331

          k = 0.0000 0.0000 0.4444 (   695 PWs)   bands (ev):

   -47.2448 -23.6996 -23.6648 -23.6648 -15.1647  -7.6754  -6.8254  -6.6615
    -0.2604  -0.2604  -0.0943   5.6761   6.6672   6.6672   7.5687   7.6515
     7.6515   7.6528   8.7336   8.7336

          k = 0.0000 0.1111 0.1111 (   697 PWs)   bands (ev):

   -47.2453 -23.6804 -23.6690 -23.6591 -15.2392  -7.5318  -6.8631  -6.8490
    -0.4168  -0.3765  -0.3077   6.7217   6.9518   6.9901   7.9466   8.1161
     8.3607   8.7491   9.0508   9.0555

          k = 0.0000 0.1111 0.2222 (   687 PWs)   bands (ev):

   -47.2447 -23.6775 -23.6634 -23.6545 -15.2111  -7.5358  -6.8412  -6.8270
    -0.3988  -0.3293  -0.2220   6.3733   6.8638   6.9366   7.5791   7.8871
     8.2128   8.3931   8.8888   8.9144

          k = 0.0000 0.1111 0.3333 (   685 PWs)   bands (ev):

   -47.2444 -23.6847 -23.6586 -23.6561 -15.1785  -7.5795  -6.8245  -6.7518
    -0.3451  -0.2756  -0.1591   5.9163   6.7247   6.8153   7.2198   7.6716
     7.9174   8.3156   8.6895   8.7736

          k = 0.0000 0.1111 0.4444 (   680 PWs)   bands (ev):

   -47.2439 -23.6853 -23.6566 -23.6508 -15.1569  -7.6241  -6.8153  -6.6804
    -0.2943  -0.2389  -0.1350   5.6757   6.6834   6.7075   6.9721   7.5788
     7.7934   8.3732   8.5814   8.5910

          k = 0.0000 0.2222 0.2222 (   690 PWs)   bands (ev):

   -47.2448 -23.6843 -23.6725 -23.6542 -15.1858  -7.4931  -6.8517  -6.8032
    -0.4356  -0.2811  -0.1818   6.1036   6.6438   6.9453   7.0727   7.6016
     8.0478   8.4449   8.6238   8.9305

          k = 0.0000 0.2222 0.3333 (   680 PWs)   bands (ev):

   -47.2439 -23.6838 -23.6640 -23.6483 -15.1564  -7.4767  -6.8260  -6.7701
    -0.4211  -0.2237  -0.1920   5.7908   6.4644   6.6774   6.8655   7.4165
     8.0538   8.3963   8.4516   8.9597

          k = 0.0000 0.2222 0.4444 (   686 PWs)   bands (ev):

   -47.2439 -23.6919 -23.6752 -23.6533 -15.1372  -7.4891  -6.8042  -6.7317
    -0.3728  -0.2425  -0.1856   5.5680   6.2444   6.4562   6.7545   7.3266
     8.0479   8.2323   8.4108   8.8988

          k = 0.0000 0.3333 0.3333 (   678 PWs)   bands (ev):

   -47.2436 -23.6786 -23.6716 -23.6524 -15.1311  -7.3746  -6.8381  -6.7637
    -0.4592  -0.2740  -0.1636   5.6127   6.1397   6.2516   6.8916   7.1607
     8.0812   8.1676   8.5634   9.1799

          k = 0.0000 0.3333 0.4444 (   691 PWs)   bands (ev):

   -47.2440 -23.6930 -23.6917 -23.6615 -15.1145  -7.3232  -6.8145  -6.7771
    -0.4467  -0.3645  -0.1234   5.4253   5.7863   6.0886   6.7914   7.0366
     7.8806   8.3047   8.4791   9.2383

          k = 0.0000 0.4444 0.4444 (   678 PWs)   bands (ev):

   -47.2431 -23.6889 -23.6801 -23.6552 -15.0995  -7.2011  -6.8308  -6.8042
    -0.4767  -0.4496  -0.0806   5.2980   5.5778   5.9670   6.8558   6.9221
     7.7046   8.5395   8.6394   9.4395

          k = 0.1111 0.1111 0.1111 (   697 PWs)   bands (ev):

   -47.2452 -23.6789 -23.6766 -23.6593 -15.2286  -7.5197  -6.8597  -6.8479
    -0.4113  -0.4100  -0.2364   6.5432   6.9466   6.9492   7.8355   7.8393
     8.4779   8.5013   8.9918   8.9927

          k = 0.1111 0.1111 0.2222 (   691 PWs)   bands (ev):

   -47.2448 -23.6817 -23.6645 -23.6635 -15.2015  -7.5094  -6.8364  -6.8348
    -0.4052  -0.3940  -0.1484   6.2687   6.7835   6.8810   7.5730   7.5742
     8.1152   8.4720   8.8415   8.8440

          k = 0.1111 0.1111 0.3333 (   687 PWs)   bands (ev):

   -47.2444 -23.6875 -23.6604 -23.6599 -15.1700  -7.5372  -6.8185  -6.7659
    -0.3751  -0.3370  -0.1130   5.8470   6.6568   6.7694   7.1773   7.3451
     8.0822   8.3779   8.6662   8.6684

          k = 0.1111 0.1111 0.4444 (   677 PWs)   bands (ev):

   -47.2437 -23.6831 -23.6552 -23.6493 -15.1493  -7.5731  -6.8058  -6.6963
    -0.3617  -0.2374  -0.1481   5.6433   6.6481   6.7248   6.8401   7.2830
     8.2099   8.3377   8.4309   8.5867

          k = 0.1111 0.2222 0.2222 (   689 PWs)   bands (ev):

   -47.2445 -23.6821 -23.6721 -23.6601 -15.1769  -7.4580  -6.8425  -6.8106
    -0.4563  -0.3999  -0.0850   6.0189   6.6314   6.7977   7.1654   7.4657
     7.8059   8.5927   8.6627   8.8670

          k = 0.1111 0.2222 0.3333 (   688 PWs)   bands (ev):

   -47.2442 -23.6852 -23.6717 -23.6646 -15.1486  -7.4324  -6.8168  -6.7798
    -0.4615  -0.3843  -0.0944   5.7353   6.4017   6.6256   6.8649   7.2773
     7.7725   8.4675   8.5664   8.9034

          k = 0.1111 0.2222 0.4444 (   685 PWs)   bands (ev):

   -47.2438 -23.6877 -23.6741 -23.6608 -15.1299  -7.4378  -6.7945  -6.7374
    -0.4564  -0.3301  -0.1550   5.5500   6.2468   6.4813   6.7208   7.1865
     7.8558   8.3839   8.5076   8.8953

          k = 0.1111 0.3333 0.3333 (   686 PWs)   bands (ev):

   -47.2438 -23.6882 -23.6776 -23.6655 -15.1239  -7.3265  -6.8269  -6.7646
    -0.5100  -0.4285  -0.1288   5.5589   6.1377   6.2391   6.8185   7.1158
     7.6529   8.3936   8.6355   9.1613

          k = 0.1111 0.3333 0.4444 (   684 PWs)   bands (ev):

   -47.2435 -23.6914 -23.6849 -23.6583 -15.1076  -7.2709  -6.8007  -6.7699
    -0.5221  -0.4510  -0.1756   5.4159   5.8986   6.1326   6.7974   7.0629
     7.6035   8.4579   8.5955   9.2549

          k = 0.1111 0.4444 0.4444 (   683 PWs)   bands (ev):

   -47.2434 -23.6924 -23.6887 -23.6588 -15.0928  -7.1480  -6.8170  -6.7910
    -0.5462  -0.5293  -0.2012   5.2773   5.7501   5.9584   6.8924   6.9439
     7.3957   8.6068   8.6720   9.4306

          k = 0.2222 0.2222 0.2222 (   693 PWs)   bands (ev):

   -47.2445 -23.6805 -23.6775 -23.6766 -15.1544  -7.3818  -6.8233  -6.8120
    -0.5094  -0.5079  -0.0415   5.8485   6.5639   6.5759   7.2283   7.2472
     7.2491   8.7211   8.7280   8.7795

          k = 0.2222 0.2222 0.3333 (   683 PWs)   bands (ev):

   -47.2437 -23.6838 -23.6705 -23.6663 -15.1284  -7.3196  -6.7953  -6.7857
    -0.5687  -0.5272  -0.1011   5.6497   6.3422   6.5794   6.7918   7.1136
     7.3707   8.6337   8.8264   8.8867

          k = 0.2222 0.2222 0.4444 (   676 PWs)   bands (ev):

   -47.2431 -23.6837 -23.6679 -23.6613 -15.1113  -7.3017  -6.7689  -6.7517
    -0.6060  -0.4742  -0.2088   5.4870   6.2344   6.5175   6.5659   7.0701
     7.4616   8.6074   8.8254   8.9719

          k = 0.2222 0.3333 0.3333 (   681 PWs)   bands (ev):

   -47.2433 -23.6896 -23.6740 -23.6662 -15.1053  -7.2016  -6.7940  -6.7581
    -0.6397  -0.6348  -0.2132   5.5299   6.2096   6.3413   6.6643   7.0910
     7.1889   8.7009   8.8495   9.1383

          k = 0.2222 0.3333 0.4444 (   682 PWs)   bands (ev):

   -47.2432 -23.6880 -23.6851 -23.6710 -15.0900  -7.1359  -6.7722  -6.7481
    -0.7067  -0.6242  -0.3453   5.3735   6.1165   6.2132   6.5969   7.0294
     7.1884   8.7117   8.8848   9.2714

          k = 0.2222 0.4444 0.4444 (   674 PWs)   bands (ev):

   -47.2427 -23.6849 -23.6816 -23.6665 -15.0760  -7.0118  -6.7760  -6.7536
    -0.7224  -0.7155  -0.4777   5.2415   6.0238   6.2020   6.6996   7.0072
     7.0438   8.8938   8.9480   9.4772

          k = 0.3333 0.3333 0.3333 (   675 PWs)   bands (ev):

   -47.2427 -23.6795 -23.6767 -23.6754 -15.0839  -7.0623  -6.7558  -6.7450
    -0.7761  -0.7744  -0.3975   5.4385   6.2440   6.2620   6.4809   7.0445
     7.0450   9.0177   9.0214   9.2488

          k = 0.3333 0.3333 0.4444 (   675 PWs)   bands (ev):

   -47.2425 -23.6900 -23.6809 -23.6744 -15.0699  -6.9705  -6.7474  -6.7205
    -0.8664  -0.7998  -0.5764   5.2704   6.1362   6.2516   6.5153   7.0242
     7.0804   9.0306   9.1646   9.3253

          k = 0.3333 0.4444 0.4444 (   671 PWs)   bands (ev):

   -47.2421 -23.6872 -23.6840 -23.6751 -15.0566  -6.8503  -6.7298  -6.7127
    -0.9207  -0.9035  -0.7687   5.1331   6.0388   6.2298   6.6601   7.0432
     7.0558   9.2282   9.2489   9.4895

          k = 0.4444 0.4444 0.4444 (   675 PWs)   bands (ev):

   -47.2420 -23.6946 -23.6884 -23.6868 -15.0439  -6.7399  -6.6975  -6.6881
    -1.0254  -1.0237  -0.9668   4.9684   6.0500   6.0682   6.9198   7.0191
     7.0237   9.4451   9.4513   9.5199

          k = 0.1111 0.0000 0.0000 (   703 PWs)   bands (ev):

   -47.2457 -23.6765 -23.6732 -23.6650 -15.2502  -7.5403  -6.8655  -6.8531
    -0.3951  -0.3932  -0.3726   6.8886   6.9632   6.9641   8.2038   8.2051
     8.3001   8.9316   9.1299   9.1455

          k = 0.2222 0.0000 0.0000 (   683 PWs)   bands (ev):

   -47.2446 -23.6678 -23.6585 -23.6552 -15.2210  -7.5645  -6.8508  -6.8103
    -0.3478  -0.3460  -0.2755   6.4949   6.9555   6.9577   7.9866   8.0087
     8.0965   8.3608   9.0015   9.0170

          k = 0.3333 0.0000 0.0000 (   687 PWs)   bands (ev):

   -47.2444 -23.6834 -23.6625 -23.6593 -15.1870  -7.6297  -6.8405  -6.7207
    -0.2955  -0.2937  -0.1664   5.9876   6.8131   6.8176   7.7340   7.7801
     7.8516   7.8803   8.8062   8.8207

          k = 0.4444 0.0000 0.0000 (   695 PWs)   bands (ev):

   -47.2448 -23.6964 -23.6681 -23.6648 -15.1646  -7.6834  -6.8344  -6.6454
    -0.2600  -0.2582  -0.0969   5.6996   6.6635   6.6700   7.5411   7.6156
     7.6697   7.7184   8.7024   8.7170

          k = 0.1111-0.1111 0.0000 (   697 PWs)   bands (ev):

   -47.2453 -23.6787 -23.6723 -23.6576 -15.2392  -7.5335  -6.8588  -6.8516
    -0.4177  -0.3746  -0.3087   6.7221   6.9523   6.9929   7.9483   8.1196
     8.3590   8.7255   9.0517   9.0745

          k = 0.2222-0.1111 0.0000 (   687 PWs)   bands (ev):

   -47.2447 -23.6747 -23.6629 -23.6578 -15.2110  -7.5411  -6.8441  -6.8192
    -0.3994  -0.3272  -0.2234   6.3793   6.8672   6.9382   7.5857   7.8919
     8.2012   8.3814   8.8761   8.9319

          k = 0.0000 0.2222 0.1111 (   687 PWs)   bands (ev):

   -47.2447 -23.6755 -23.6654 -23.6545 -15.2111  -7.5396  -6.8489  -6.8158
    -0.3981  -0.3291  -0.2227   6.3800   6.8646   6.9358   7.5778   7.8928
     8.2176   8.3875   8.8774   8.9124

          k = 0.3333-0.1111 0.0000 (   685 PWs)   bands (ev):

   -47.2443 -23.6815 -23.6594 -23.6585 -15.1784  -7.5872  -6.8325  -6.7368
    -0.3453  -0.2735  -0.1611   5.9304   6.7287   6.8182   7.2249   7.6732
     7.9118   8.3124   8.6621   8.7855

          k = 0.0000 0.3333 0.1111 (   685 PWs)   bands (ev):

   -47.2443 -23.6815 -23.6619 -23.6561 -15.1784  -7.5861  -6.8341  -6.7363
    -0.3437  -0.2753  -0.1607   5.9314   6.7287   6.8128   7.2137   7.6839
     7.9203   8.3147   8.6691   8.7662

          k = 0.4444-0.1111 0.0000 (   680 PWs)   bands (ev):

   -47.2439 -23.6821 -23.6599 -23.6508 -15.1568  -7.6325  -6.8238  -6.6645
    -0.2939  -0.2367  -0.1375   5.6970   6.6898   6.7131   6.9682   7.5774
     7.7960   8.3794   8.5013   8.6387

          k = 0.0000 0.4444 0.1111 (   680 PWs)   bands (ev):

   -47.2439 -23.6821 -23.6566 -23.6541 -15.1568  -7.6316  -6.8246  -6.6644
    -0.2920  -0.2385  -0.1375   5.6972   6.6947   6.7032   6.9567   7.5964
     7.7950   8.3774   8.5655   8.5688

          k = 0.2222-0.2222 0.0000 (   690 PWs)   bands (ev):

   -47.2448 -23.6824 -23.6711 -23.6575 -15.1857  -7.4986  -6.8424  -6.8075
    -0.4365  -0.2792  -0.1829   6.1045   6.6550   6.9454   7.0784   7.6105
     8.0143   8.4339   8.6428   8.9378

          k = 0.3333-0.2222 0.0000 (   680 PWs)   bands (ev):

   -47.2438 -23.6815 -23.6631 -23.6516 -15.1564  -7.4855  -6.8251  -6.7633
    -0.4217  -0.2217  -0.1936   5.7996   6.4925   6.6609   6.8699   7.4286
     8.0215   8.3839   8.4612   8.9691

          k = 0.0000 0.3333 0.2222 (   680 PWs)   bands (ev):

   -47.2438 -23.6827 -23.6652 -23.6483 -15.1564  -7.4808  -6.8321  -6.7603
    -0.4204  -0.2235  -0.1928   5.8005   6.4774   6.6614   6.8621   7.4249
     8.0538   8.3873   8.4471   8.9612

          k = 0.4444-0.2222 0.0000 (   686 PWs)   bands (ev):

   -47.2439 -23.6889 -23.6751 -23.6566 -15.1371  -7.4989  -6.8107  -6.7166
    -0.3727  -0.2450  -0.1835   5.5840   6.2778   6.4311   6.7584   7.3398
     8.0283   8.2037   8.4170   8.9102

          k = 0.0000 0.4444 0.2222 (   686 PWs)   bands (ev):

   -47.2439 -23.6891 -23.6781 -23.6533 -15.1372  -7.4952  -6.8140  -6.7163
    -0.3707  -0.2448  -0.1853   5.5857   6.2671   6.4264   6.7478   7.3435
     8.0494   8.2163   8.4022   8.9017

          k = 0.3333-0.3333 0.0000 (   678 PWs)   bands (ev):

   -47.2435 -23.6766 -23.6704 -23.6557 -15.1311  -7.3840  -6.8295  -6.7640
    -0.4602  -0.2752  -0.1617   5.6158   6.1819   6.2271   6.8989   7.1690
     8.0379   8.1926   8.5466   9.1901

          k = 0.4444-0.3333 0.0000 (   691 PWs)   bands (ev):

   -47.2440 -23.6930 -23.6885 -23.6649 -15.1144  -7.3354  -6.8121  -6.7687
    -0.4468  -0.3666  -0.1215   5.4339   5.8042   6.0871   6.7956   7.0515
     7.8688   8.2912   8.4614   9.2494

          k = 0.0000 0.4444 0.3333 (   691 PWs)   bands (ev):

   -47.2440 -23.6962 -23.6885 -23.6616 -15.1145  -7.3267  -6.8198  -6.7685
    -0.4451  -0.3661  -0.1233   5.4336   5.7950   6.0766   6.7813   7.0524
     7.8732   8.3046   8.4777   9.2394

          k = 0.4444-0.4444 0.0000 (   678 PWs)   bands (ev):

   -47.2431 -23.6870 -23.6788 -23.6585 -15.0994  -7.2161  -6.8208  -6.8009
    -0.4777  -0.4509  -0.0788   5.3022   5.5876   5.9789   6.8696   6.9282
     7.6970   8.5215   8.6202   9.4503

          k = 0.2222-0.1111 0.1111 (   691 PWs)   bands (ev):

   -47.2448 -23.6793 -23.6669 -23.6635 -15.2014  -7.5133  -6.8443  -6.8232
    -0.4060  -0.3929  -0.1488   6.2733   6.7882   6.8806   7.5717   7.5827
     8.1002   8.4747   8.8232   8.8593

          k = 0.3333-0.1111 0.1111 (   687 PWs)   bands (ev):

   -47.2444 -23.6843 -23.6635 -23.6601 -15.1700  -7.5442  -6.8274  -6.7507
    -0.3738  -0.3377  -0.1136   5.8599   6.6643   6.7697   7.1790   7.3448
     8.0667   8.3821   8.6353   8.6919

          k = 0.4444-0.1111 0.1111 (   677 PWs)   bands (ev):

   -47.2437 -23.6801 -23.6571 -23.6505 -15.1492  -7.5811  -6.8147  -6.6804
    -0.3603  -0.2379  -0.1489   5.6630   6.6704   6.7260   6.8221   7.2827
     8.1878   8.3460   8.4290   8.5817

          k = 0.2222-0.2222 0.1111 (   689 PWs)   bands (ev):

   -47.2445 -23.6802 -23.6710 -23.6630 -15.1769  -7.4621  -6.8329  -6.8165
    -0.4573  -0.3988  -0.0851   6.0205   6.6428   6.7960   7.1698   7.4719
     7.7862   8.5889   8.6617   8.8752

          k = 0.3333-0.2222 0.1111 (   688 PWs)   bands (ev):

   -47.2442 -23.6824 -23.6713 -23.6678 -15.1485  -7.4404  -6.8165  -6.7730
    -0.4617  -0.3844  -0.0943   5.7438   6.4237   6.6177   6.8661   7.2819
     7.7521   8.4710   8.5519   8.9140

          k =-0.1111 0.3333 0.2222 (   688 PWs)   bands (ev):

   -47.2442 -23.6830 -23.6739 -23.6646 -15.1486  -7.4369  -6.8230  -6.7697
    -0.4604  -0.3854  -0.0944   5.7439   6.4127   6.6174   6.8614   7.2816
     7.7638   8.4665   8.5649   8.9047

          k = 0.4444-0.2222 0.1111 (   685 PWs)   bands (ev):

   -47.2438 -23.6847 -23.6744 -23.6636 -15.1298  -7.4472  -6.8014  -6.7223
    -0.4556  -0.3322  -0.1539   5.5652   6.2746   6.4649   6.7228   7.1898
     7.8371   8.3802   8.4959   8.9070

          k =-0.1111 0.4444 0.2222 (   685 PWs)   bands (ev):

   -47.2438 -23.6846 -23.6771 -23.6610 -15.1299  -7.4443  -6.8040  -6.7220
    -0.4544  -0.3326  -0.1545   5.5662   6.2670   6.4597   6.7168   7.1934
     7.8415   8.3891   8.5004   8.8971

          k = 0.3333-0.3333 0.1111 (   686 PWs)   bands (ev):

   -47.2438 -23.6863 -23.6764 -23.6687 -15.1238  -7.3351  -6.8181  -6.7656
    -0.5110  -0.4285  -0.1281   5.5628   6.1773   6.2160   6.8224   7.1228
     7.6403   8.3891   8.6193   9.1722

          k = 0.4444-0.3333 0.1111 (   684 PWs)   bands (ev):

   -47.2435 -23.6885 -23.6847 -23.6615 -15.1075  -7.2827  -6.7972  -6.7628
    -0.5218  -0.4533  -0.1739   5.4252   5.9185   6.1293   6.8006   7.0732
     7.5924   8.4454   8.5792   9.2662

          k =-0.1111 0.4444 0.3333 (   684 PWs)   bands (ev):

   -47.2435 -23.6893 -23.6870 -23.6583 -15.1076  -7.2747  -6.8046  -6.7625
    -0.5199  -0.4536  -0.1752   5.4244   5.9097   6.1181   6.7904   7.0746
     7.5963   8.4575   8.5949   9.2557

          k = 0.4444-0.4444 0.1111 (   683 PWs)   bands (ev):

   -47.2434 -23.6900 -23.6880 -23.6622 -15.0928  -7.1627  -6.8068  -6.7879
    -0.5471  -0.5306  -0.1994   5.2813   5.7602   5.9700   6.9084   6.9450
     7.3867   8.5900   8.6543   9.4414

          k = 0.3333-0.2222 0.2222 (   683 PWs)   bands (ev):

   -47.2437 -23.6810 -23.6725 -23.6671 -15.1284  -7.3248  -6.7949  -6.7813
    -0.5674  -0.5287  -0.1009   5.6562   6.3587   6.5740   6.7904   7.1103
     7.3627   8.6252   8.8265   8.8938

          k = 0.4444-0.2222 0.2222 (   676 PWs)   bands (ev):

   -47.2431 -23.6810 -23.6696 -23.6625 -15.1113  -7.3095  -6.7775  -6.7361
    -0.6047  -0.4767  -0.2078   5.5003   6.2570   6.5055   6.5627   7.0684
     7.4515   8.5968   8.8270   8.9784

          k = 0.3333-0.3333 0.2222 (   681 PWs)   bands (ev):

   -47.2433 -23.6878 -23.6726 -23.6695 -15.1053  -7.2075  -6.7849  -6.7620
    -0.6388  -0.6362  -0.2128   5.5333   6.2318   6.3328   6.6625   7.0925
     7.1814   8.6965   8.8370   9.1496

          k = 0.4444-0.3333 0.2222 (   682 PWs)   bands (ev):

   -47.2432 -23.6854 -23.6848 -23.6741 -15.0900  -7.1463  -6.7635  -6.7473
    -0.7057  -0.6267  -0.3438   5.3825   6.1463   6.2007   6.5928   7.0316
     7.1811   8.6989   8.8765   9.2823

          k =-0.2222 0.4444 0.3333 (   682 PWs)   bands (ev):

   -47.2432 -23.6882 -23.6848 -23.6710 -15.0900  -7.1408  -6.7693  -6.7464
    -0.7047  -0.6269  -0.3445   5.3815   6.1324   6.1973   6.5964   7.0333
     7.1810   8.7051   8.8904   9.2717

          k = 0.4444-0.4444 0.2222 (   674 PWs)   bands (ev):

   -47.2426 -23.6823 -23.6811 -23.6697 -15.0760  -7.0252  -6.7654  -6.7518
    -0.7227  -0.7170  -0.4759   5.2466   6.0379   6.2093   6.6973   7.0089
     7.0402   8.8813   8.9343   9.4881

          k = 0.4444-0.3333 0.3333 (   675 PWs)   bands (ev):

   -47.2425 -23.6874 -23.6827 -23.6754 -15.0699  -6.9776  -6.7333  -6.7279
    -0.8651  -0.8022  -0.5754   5.2760   6.1464   6.2424   6.5191   7.0264
     7.0741   9.0200   9.1665   9.3308

          k = 0.4444-0.4444 0.3333 (   671 PWs)   bands (ev):

   -47.2421 -23.6849 -23.6847 -23.6769 -15.0566  -6.8607  -6.7185  -6.7140
    -0.9206  -0.9048  -0.7675   5.1362   6.0527   6.2185   6.6667   7.0430
     7.0530   9.2214   9.2395   9.5001

     highest occupied level (ev):     9.5199

!    total energy              =    -286.39600013 Ry
     estimated scf accuracy    <          9.2E-09 Ry

     The total energy is the sum of the following terms:
     one-electron contribution =     -74.90515678 Ry
     hartree contribution      =      59.60432011 Ry
     xc contribution           =     -66.90894942 Ry
     ewald contribution        =    -204.18621404 Ry

     convergence has been achieved in  14 iterations

     negative rho (up, down):  9.438E-02 0.000E+00

     Forces acting on atoms (cartesian axes, Ry/au):

     atom    1 type  1   force =     0.00000000    0.00000000   -0.00451391
     atom    2 type  2   force =     0.00000000    0.00000000   -0.01976320
     atom    3 type  3   force =     0.00000000    0.00000000    0.02805100
     atom    4 type  3   force =     0.00000000    0.00000000   -0.00188695
     atom    5 type  3   force =     0.00000000    0.00000000   -0.00188695

     Total force =     0.034712     Total SCF correction =     0.000007


     Computing stress (Cartesian axis) and pressure


     negative rho (up, down):  9.438E-02 0.000E+00
          total   stress  (Ry/bohr**3)                   (kbar)     P=    -1137.39
  -0.00773767   0.00000000   0.00000000        -1138.25        0.00        0.00
   0.00000000  -0.00773767   0.00000000            0.00    -1138.25        0.00
   0.00000000   0.00000000  -0.00772003            0.00        0.00    -1135.66


     Writing all to output data dir ./BTO_k9.save/ :
     XML data file, charge density, pseudopotentials, collected wavefunctions
 
     init_run     :      0.33s CPU      0.42s WALL (       1 calls)
     electrons    :     13.11s CPU     14.38s WALL (       1 calls)
     forces       :      0.09s CPU      0.09s WALL (       1 calls)
     stress       :      0.69s CPU      0.70s WALL (       1 calls)

     Called by init_run:
     wfcinit      :      0.23s CPU      0.26s WALL (       1 calls)
     potinit      :      0.00s CPU      0.01s WALL (       1 calls)
     hinit0       :      0.08s CPU      0.11s WALL (       1 calls)

     Called by electrons:
     c_bands      :     11.83s CPU     12.92s WALL (      14 calls)
     sum_band     :      1.04s CPU      1.14s WALL (      14 calls)
     v_of_rho     :      0.01s CPU      0.01s WALL (      15 calls)
     newd         :      0.23s CPU      0.30s WALL (      15 calls)
     mix_rho      :      0.01s CPU      0.01s WALL (      14 calls)

     Called by c_bands:
     init_us_2    :      0.10s CPU      0.10s WALL (    2325 calls)
     init_us_2:cp :      0.09s CPU      0.10s WALL (    2325 calls)
     ccgdiagg     :     10.47s CPU     11.44s WALL (    1050 calls)
     wfcrot       :      1.48s CPU      1.61s WALL (    1050 calls)

     Called by *cgdiagg:
     h_psi        :      5.97s CPU      6.52s WALL (   61164 calls)
     s_psi        :      0.89s CPU      0.97s WALL (  121278 calls)

     Called by h_psi:
     h_psi:calbec :      1.16s CPU      1.27s WALL (   61164 calls)
     vloc_psi     :      3.89s CPU      4.25s WALL (   61164 calls)
     add_vuspsi   :      0.48s CPU      0.53s WALL (   61164 calls)
     hs_1psi      :      5.66s CPU      6.18s WALL (   60114 calls)
     s_1psi       :      1.68s CPU      1.83s WALL (   60114 calls)

     General routines
     calbec       :      2.08s CPU      2.27s WALL (  122703 calls)
     fft          :      0.01s CPU      0.02s WALL (      96 calls)
     ffts         :      0.00s CPU      0.00s WALL (      29 calls)
     fftw         :      3.53s CPU      3.83s WALL (  185478 calls)
     interpolate  :      0.00s CPU      0.00s WALL (      15 calls)
 
     Parallel routines
 
     PWSCF        :     14.54s CPU     16.35s WALL

 
   This run was terminated on:  15:28:15  18Oct2025            

=------------------------------------------------------------------------------=
   JOB DONE.
=------------------------------------------------------------------------------=
TACC:  Shutdown complete. Exiting. 
