TACC:  Starting up job 2475240 
TACC:  Starting parallel tasks... 

     Program PWSCF v.7.3 starts on 17Oct2025 at 21:43:57 

     This program is part of the open-source Quantum ESPRESSO suite
     for quantum simulation of materials; please cite
         "P. Giannozzi et al., J. Phys.:Condens. Matter 21 395502 (2009);
         "P. Giannozzi et al., J. Phys.:Condens. Matter 29 465901 (2017);
         "P. Giannozzi et al., J. Chem. Phys. 152 154105 (2020);
          URL http://www.quantum-espresso.org", 
     in publications or presentations arising from this work. More details at
     http://www.quantum-espresso.org/quote

     Parallel version (MPI & OpenMP), running on      10 processor cores
     Number of MPI processes:                10
     Threads/MPI process:                     1

     MPI processes distributed on     1 nodes
     185503 MiB available memory on the printing compute node when the environment starts
 
     Waiting for input...
     Reading input from standard input

     Current dimensions of program PWSCF are:
     Max number of different atomic species (ntypx) = 10
     Max number of k-points (npk) =  40000
     Max angular momentum in pseudopotentials (lmaxx) =  4
 
     R & G space division:  proc/nbgrp/npool/nimage =      10
     Subspace diagonalization in iterative solution of the eigenvalue problem:
     a serial algorithm will be used

 
     Parallelization info
     --------------------
     sticks:   dense  smooth     PW     G-vecs:    dense   smooth      PW
     Min         162      43     13                 4273      595     106
     Max         163      44     14                 4274      598     107
     Sum        1627     433    139                42735     5961    1067
 
     Using Slab Decomposition
 


     bravais-lattice index     =            2
     lattice parameter (alat)  =      10.2000  a.u.
     unit-cell volume          =     265.3020 (a.u.)^3
     number of atoms/cell      =            2
     number of atomic types    =            1
     number of electrons       =         8.00
     number of Kohn-Sham states=            8
     kinetic-energy cutoff     =      30.0000  Ry
     charge density cutoff     =     450.0000  Ry
     scf convergence threshold =      1.0E-08
     mixing beta               =       0.7000
     number of iterations used =            8  plain     mixing
     Exchange-correlation= SLA  PZ   NOGX NOGC
                           (   1   1   0   0   0   0   0)

     celldm(1)=  10.200000  celldm(2)=   0.000000  celldm(3)=   0.000000
     celldm(4)=   0.000000  celldm(5)=   0.000000  celldm(6)=   0.000000

     crystal axes: (cart. coord. in units of alat)
               a(1) = (  -0.500000   0.000000   0.500000 )  
               a(2) = (   0.000000   0.500000   0.500000 )  
               a(3) = (  -0.500000   0.500000   0.000000 )  

     reciprocal axes: (cart. coord. in units 2 pi/alat)
               b(1) = ( -1.000000 -1.000000  1.000000 )  
               b(2) = (  1.000000  1.000000  1.000000 )  
               b(3) = ( -1.000000  1.000000 -1.000000 )  


     PseudoPot. # 1 for Si read from file:
     /scratch/11018/zhc/Assisgnment2/Q1/1A/energy_cutoff_test/Si_LDA.UPF
     MD5 check sum: b5ade7b37ee992b02096e360e546dc2d
     Pseudo is Ultrasoft + core correction, Zval =  4.0
     Generated by new atomic code, or converted to UPF format
     Using radial grid of  899 points,  6 beta functions with: 
                l(1) =   0
                l(2) =   0
                l(3) =   1
                l(4) =   1
                l(5) =   2
                l(6) =   2
     Q(r) pseudized with  8 coefficients,  rinner =    0.900   0.900   0.900
                                                       0.900   0.900

     atomic species   valence    mass     pseudopotential
     Si                4.00    28.08550     Si( 1.00)

      2 Sym. Ops. (no inversion) found



   Cartesian axes

     site n.     atom                  positions (alat units)
         1        Si     tau(   1) = (   0.0000000   0.0000000   0.0000000  )
         2        Si     tau(   2) = (  -0.2400000   0.2400000   0.2500000  )

     number of k points=    24
                       cart. coord. in units 2pi/alat
        k(    1) = (   0.0000000   0.0000000   0.0000000), wk =   0.0312500
        k(    2) = (  -0.2500000   0.2500000  -0.2500000), wk =   0.0625000
        k(    3) = (   0.5000000  -0.5000000   0.5000000), wk =   0.0312500
        k(    4) = (   0.0000000   0.5000000   0.0000000), wk =   0.1250000
        k(    5) = (   0.7500000  -0.2500000   0.7500000), wk =   0.1250000
        k(    6) = (   0.5000000   0.0000000   0.5000000), wk =   0.1250000
        k(    7) = (   0.0000000  -1.0000000   0.0000000), wk =   0.0625000
        k(    8) = (  -0.5000000  -1.0000000   0.0000000), wk =   0.1250000
        k(    9) = (   0.2500000   0.2500000   0.2500000), wk =   0.1250000
        k(   10) = (  -0.2500000   0.2500000   0.2500000), wk =   0.0625000
        k(   11) = (  -0.5000000  -0.5000000  -0.5000000), wk =   0.0625000
        k(   12) = (   0.5000000  -0.5000000  -0.5000000), wk =   0.0312500
        k(   13) = (   0.0000000   0.0000000   0.5000000), wk =   0.0625000
        k(   14) = (  -0.7500000  -0.2500000  -0.7500000), wk =   0.1250000
        k(   15) = (   0.7500000   0.2500000  -0.7500000), wk =   0.1250000
        k(   16) = (   0.2500000  -0.7500000  -0.7500000), wk =   0.1250000
        k(   17) = (  -0.7500000   0.7500000  -0.2500000), wk =   0.0625000
        k(   18) = (  -0.7500000  -0.7500000   0.2500000), wk =   0.1250000
        k(   19) = (   0.7500000  -0.7500000  -0.2500000), wk =   0.0625000
        k(   20) = (   0.5000000   0.0000000  -0.5000000), wk =   0.1250000
        k(   21) = (  -0.5000000   0.5000000   0.0000000), wk =   0.0625000
        k(   22) = (  -0.5000000  -0.5000000   0.0000000), wk =   0.0625000
        k(   23) = (   0.0000000   0.0000000  -1.0000000), wk =   0.0312500
        k(   24) = (   0.0000000   1.0000000  -0.5000000), wk =   0.0625000

     Dense  grid:    42735 G-vectors     FFT dimensions: (  50,  50,  50)

     Smooth grid:     5961 G-vectors     FFT dimensions: (  25,  25,  25)

     Estimated max dynamical RAM per process >      17.68 MB

     Estimated total dynamical RAM >     176.81 MB

     Initial potential from superposition of free atoms

     starting charge       7.9988, renormalised to       8.0000
     Starting wfcs are    8 randomized atomic wfcs

     total cpu time spent up to now is        0.3 secs

     Self-consistent Calculation

     iteration #  1     ecut=    30.00 Ry     beta= 0.70
     CG style diagonalization
     ethr =  1.00E-02,  avg # of iterations =  3.6

     Threshold (ethr) on eigenvalues was too large:
     Diagonalizing with lowered threshold

     CG style diagonalization
     ethr =  8.07E-04,  avg # of iterations =  2.0

     total cpu time spent up to now is        0.6 secs

     total energy              =     -19.23894605 Ry
     estimated scf accuracy    <       0.06574881 Ry

     iteration #  2     ecut=    30.00 Ry     beta= 0.70
     CG style diagonalization
     ethr =  8.22E-04,  avg # of iterations =  3.0

     total cpu time spent up to now is        0.7 secs

     total energy              =     -19.24248113 Ry
     estimated scf accuracy    <       0.00196209 Ry

     iteration #  3     ecut=    30.00 Ry     beta= 0.70
     CG style diagonalization
     ethr =  2.45E-05,  avg # of iterations =  3.6

     total cpu time spent up to now is        0.9 secs

     total energy              =     -19.24271964 Ry
     estimated scf accuracy    <       0.00004083 Ry

     iteration #  4     ecut=    30.00 Ry     beta= 0.70
     CG style diagonalization
     ethr =  5.10E-07,  avg # of iterations =  4.3

     total cpu time spent up to now is        1.1 secs

     total energy              =     -19.24275201 Ry
     estimated scf accuracy    <       0.00000068 Ry

     iteration #  5     ecut=    30.00 Ry     beta= 0.70
     CG style diagonalization
     ethr =  8.52E-09,  avg # of iterations =  4.0

     total cpu time spent up to now is        1.2 secs

     total energy              =     -19.24275283 Ry
     estimated scf accuracy    <       0.00000001 Ry

     iteration #  6     ecut=    30.00 Ry     beta= 0.70
     CG style diagonalization
     ethr =  1.28E-10,  avg # of iterations =  3.8

     total cpu time spent up to now is        1.4 secs

     End of self-consistent calculation

          k = 0.0000 0.0000 0.0000 (   725 PWs)   bands (ev):

    -5.8637   5.8789   6.2519   6.6210   8.5417   8.7354   8.9747   9.6284

          k =-0.2500 0.2500-0.2500 (   745 PWs)   bands (ev):

    -5.0675   2.4252   5.2362   5.5267   8.1326   9.4807   9.7835  13.1880

          k = 0.5000-0.5000 0.5000 (   754 PWs)   bands (ev):

    -3.5950  -0.6011   4.8226   5.1091   7.6533   9.2433   9.5780  13.6515

          k = 0.0000 0.5000 0.0000 (   729 PWs)   bands (ev):

    -4.7652   2.6949   4.2011   4.4287   7.2314   9.2552  11.9873  12.0110

          k = 0.7500-0.2500 0.7500 (   735 PWs)   bands (ev):

    -3.1705  -0.0134   2.5873   3.8932   7.4929  10.7121  11.9081  12.1271

          k = 0.5000 0.0000 0.5000 (   742 PWs)   bands (ev):

    -3.8230   0.8830   2.3604   4.7418   8.4465  11.1536  11.2480  12.4077

          k = 0.0000-1.0000 0.0000 (   740 PWs)   bands (ev):

    -1.8202  -1.4785   3.2410   3.4227   6.6545   6.9117  16.3299  16.4074

          k =-0.5000-1.0000 0.0000 (   724 PWs)   bands (ev):

    -1.6080  -1.3436   2.1951   2.3516  10.2445  10.5198  11.2118  11.2575

          k = 0.2500 0.2500 0.2500 (   745 PWs)   bands (ev):

    -5.0508   2.2465   5.2322   5.7198   8.2002   9.4622   9.9535  13.1054

          k =-0.2500 0.2500 0.2500 (   745 PWs)   bands (ev):

    -5.0337   2.0727   5.4185   5.6905   8.2975   9.6511   9.9145  13.0465

          k =-0.5000-0.5000-0.5000 (   754 PWs)   bands (ev):

    -3.4815  -0.8502   4.7946   5.2749   7.7061   9.2254   9.7894  13.7346

          k = 0.5000-0.5000-0.5000 (   754 PWs)   bands (ev):

    -3.3461  -1.1184   4.9529   5.2204   7.7811   9.4522   9.7693  13.8354

          k = 0.0000 0.0000 0.5000 (   729 PWs)   bands (ev):

    -4.7645   2.6684   4.3078   4.3561   7.2387   9.2369  11.9782  12.0044

          k =-0.7500-0.2500-0.7500 (   735 PWs)   bands (ev):

    -3.0949  -0.2494   2.7768   3.8760   7.4770  10.7332  11.9436  12.3073

          k = 0.7500 0.2500-0.7500 (   735 PWs)   bands (ev):

    -3.1053  -0.1591   2.4389   4.1141   7.7641  10.4263  11.9231  12.0790

          k = 0.2500-0.7500-0.7500 (   735 PWs)   bands (ev):

    -3.0209  -0.4050   2.6278   4.0949   7.7488  10.4761  11.9789  12.2095

          k =-0.7500 0.7500-0.2500 (   735 PWs)   bands (ev):

    -3.1725   0.0285   2.4219   4.0091   7.6460  10.5216  11.9300  12.0108

          k =-0.7500-0.7500 0.2500 (   735 PWs)   bands (ev):

    -3.0974  -0.2141   2.5953   4.0229   7.6014  10.6043  11.8759  12.2354

          k = 0.7500-0.7500-0.2500 (   735 PWs)   bands (ev):

    -3.0118  -0.4537   2.8005   3.9723   7.6148  10.5934  12.0048  12.3382

          k = 0.5000 0.0000-0.5000 (   742 PWs)   bands (ev):

    -3.7445   0.5357   2.3897   5.0468   8.7318  10.8577  11.3599  12.2605

          k =-0.5000 0.5000 0.0000 (   742 PWs)   bands (ev):

    -3.7843   0.6972   2.3876   4.8910   8.6040  10.9801  11.3033  12.3312

          k =-0.5000-0.5000 0.0000 (   742 PWs)   bands (ev):

    -3.7851   0.7163   2.3514   4.9213   8.5569  11.0396  11.2701  12.3451

          k = 0.0000 0.0000-1.0000 (   740 PWs)   bands (ev):

    -1.6711  -1.6398   3.3297   3.3533   6.7660   6.7919  16.3690  16.3911

          k = 0.0000 1.0000-0.5000 (   724 PWs)   bands (ev):

    -1.6581  -1.2850   2.1578   2.3788  10.2012  10.5994  11.2037  11.2244

     highest occupied, lowest unoccupied level (ev):     6.6210    6.6545

!    total energy              =     -19.24275284 Ry
     estimated scf accuracy    <          5.3E-10 Ry

     The total energy is the sum of the following terms:
     one-electron contribution =       5.18249540 Ry
     hartree contribution      =       1.12278269 Ry
     xc contribution           =      -8.65353199 Ry
     ewald contribution        =     -16.89449894 Ry

     convergence has been achieved in   6 iterations

     Forces acting on atoms (cartesian axes, Ry/au):

     atom    1 type  1   force =     0.02979628   -0.02979628   -0.00425373
     atom    2 type  1   force =    -0.02979628    0.02979628    0.00425373

     Total force =     0.059895     Total SCF correction =     0.000006


     Computing stress (Cartesian axis) and pressure

          total   stress  (Ry/bohr**3)                   (kbar)     P=       10.08
   0.00006410  -0.00001885  -0.00014561            9.43       -2.77      -21.42
  -0.00001885   0.00006410   0.00014561           -2.77        9.43       21.42
  -0.00014561   0.00014561   0.00007741          -21.42       21.42       11.39


     Writing all to output data dir ./Si_k4.save/ :
     XML data file, charge density, pseudopotentials, collected wavefunctions
 
     init_run     :      0.09s CPU      0.16s WALL (       1 calls)
     electrons    :      1.01s CPU      1.10s WALL (       1 calls)
     forces       :      0.02s CPU      0.02s WALL (       1 calls)
     stress       :      0.11s CPU      0.11s WALL (       1 calls)

     Called by init_run:
     wfcinit      :      0.02s CPU      0.04s WALL (       1 calls)
     potinit      :      0.00s CPU      0.01s WALL (       1 calls)
     hinit0       :      0.04s CPU      0.07s WALL (       1 calls)

     Called by electrons:
     c_bands      :      0.76s CPU      0.82s WALL (       7 calls)
     sum_band     :      0.17s CPU      0.18s WALL (       7 calls)
     v_of_rho     :      0.01s CPU      0.01s WALL (       7 calls)
     newd         :      0.07s CPU      0.08s WALL (       7 calls)
     mix_rho      :      0.00s CPU      0.01s WALL (       7 calls)

     Called by c_bands:
     init_us_2    :      0.01s CPU      0.01s WALL (     408 calls)
     init_us_2:cp :      0.01s CPU      0.01s WALL (     408 calls)
     ccgdiagg     :      0.65s CPU      0.71s WALL (     168 calls)
     wfcrot       :      0.11s CPU      0.13s WALL (     144 calls)

     Called by *cgdiagg:
     h_psi        :      0.45s CPU      0.49s WALL (    3846 calls)
     s_psi        :      0.03s CPU      0.03s WALL (    7548 calls)

     Called by h_psi:
     h_psi:calbec :      0.06s CPU      0.07s WALL (    3846 calls)
     vloc_psi     :      0.34s CPU      0.37s WALL (    3846 calls)
     add_vuspsi   :      0.02s CPU      0.02s WALL (    3846 calls)
     hs_1psi      :      0.39s CPU      0.43s WALL (    3702 calls)
     s_1psi       :      0.08s CPU      0.09s WALL (    3702 calls)

     General routines
     calbec       :      0.11s CPU      0.12s WALL (    7836 calls)
     fft          :      0.01s CPU      0.03s WALL (      49 calls)
     ffts         :      0.00s CPU      0.00s WALL (      14 calls)
     fftw         :      0.31s CPU      0.33s WALL (   11052 calls)
     interpolate  :      0.00s CPU      0.00s WALL (       7 calls)
 
     Parallel routines
 
     PWSCF        :      1.31s CPU      1.73s WALL

 
   This run was terminated on:  21:43:59  17Oct2025            

=------------------------------------------------------------------------------=
   JOB DONE.
=------------------------------------------------------------------------------=
TACC:  Shutdown complete. Exiting. 
