TACC:  Starting up job 2403577 
TACC:  Starting parallel tasks... 

     Program PWSCF v.7.3 starts on 23Sep2025 at 13:23:45 

     This program is part of the open-source Quantum ESPRESSO suite
     for quantum simulation of materials; please cite
         "P. Giannozzi et al., J. Phys.:Condens. Matter 21 395502 (2009);
         "P. Giannozzi et al., J. Phys.:Condens. Matter 29 465901 (2017);
         "P. Giannozzi et al., J. Chem. Phys. 152 154105 (2020);
          URL http://www.quantum-espresso.org", 
     in publications or presentations arising from this work. More details at
     http://www.quantum-espresso.org/quote

     Parallel version (MPI & OpenMP), running on      10 processor cores
     Number of MPI processes:                10
     Threads/MPI process:                     1

     MPI processes distributed on     1 nodes
     187199 MiB available memory on the printing compute node when the environment starts
 
     Waiting for input...
     Reading input from standard input
Warning: card &CELL ignored
Warning: card  CELL_DYNAMICS = 'BFGS', ignored
Warning: card  PRESS=0.D0, ignored
Warning: card / ignored
     Message from routine read_cards :
     DEPRECATED: no units specified in ATOMIC_POSITIONS card
     Message from routine read_cards :
     ATOMIC_POSITIONS: units set to alat

     Current dimensions of program PWSCF are:
     Max number of different atomic species (ntypx) = 10
     Max number of k-points (npk) =  40000
     Max angular momentum in pseudopotentials (lmaxx) =  4
 
     R & G space division:  proc/nbgrp/npool/nimage =      10
     Subspace diagonalization in iterative solution of the eigenvalue problem:
     a serial algorithm will be used

 
     Parallelization info
     --------------------
     sticks:   dense  smooth     PW     G-vecs:    dense   smooth      PW
     Min         430     173     49                21291     5381     837
     Max         431     175     50                21292     5382     840
     Sum        4309    1733    497               212911    53811    8385
 
     Using Slab Decomposition
 


     bravais-lattice index     =            1
     lattice parameter (alat)  =       7.3573  a.u.
     unit-cell volume          =     398.2496 (a.u.)^3
     number of atoms/cell      =            5
     number of atomic types    =            3
     number of electrons       =        40.00
     number of Kohn-Sham states=           20
     kinetic-energy cutoff     =     100.0000  Ry
     charge density cutoff     =    1000.0000  Ry
     scf convergence threshold =      1.0E-08
     mixing beta               =       0.7000
     number of iterations used =            8  plain     mixing
     Exchange-correlation= SLA  PZ   NOGX NOGC
                           (   1   1   0   0   0   0   0)

     celldm(1)=   7.357300  celldm(2)=   0.000000  celldm(3)=   0.000000
     celldm(4)=   0.000000  celldm(5)=   0.000000  celldm(6)=   0.000000

     crystal axes: (cart. coord. in units of alat)
               a(1) = (   1.000000   0.000000   0.000000 )  
               a(2) = (   0.000000   1.000000   0.000000 )  
               a(3) = (   0.000000   0.000000   1.000000 )  

     reciprocal axes: (cart. coord. in units 2 pi/alat)
               b(1) = (  1.000000  0.000000  0.000000 )  
               b(2) = (  0.000000  1.000000  0.000000 )  
               b(3) = (  0.000000  0.000000  1.000000 )  


     PseudoPot. # 1 for Ca read from file:
     /scratch/11018/zhc/assisgnment1/CaTiO3/Ca_LDA.UPF
     MD5 check sum: d2d4e7693e10d071152e9eeb7dd009f3
     Pseudo is Ultrasoft + core correction, Zval = 10.0
     Generated by new atomic code, or converted to UPF format
     Using radial grid of  845 points,  6 beta functions with: 
                l(1) =   0
                l(2) =   0
                l(3) =   1
                l(4) =   1
                l(5) =   2
                l(6) =   2
     Q(r) pseudized with  8 coefficients,  rinner =    1.500   1.500   1.500
                                                       1.500   1.500

     PseudoPot. # 2 for Ti read from file:
     /scratch/11018/zhc/assisgnment1/CaTiO3/Ti_LDA.UPF
     MD5 check sum: 0d9f225c038fe889ca2a701dcc8d72cb
     Pseudo is Ultrasoft + core correction, Zval = 12.0
     Generated by new atomic code, or converted to UPF format
     Using radial grid of  851 points,  6 beta functions with: 
                l(1) =   0
                l(2) =   0
                l(3) =   1
                l(4) =   1
                l(5) =   2
                l(6) =   2
     Q(r) pseudized with  6 coefficients,  rinner =    1.000   1.000   1.000
                                                       1.000   1.000

     PseudoPot. # 3 for O  read from file:
     /scratch/11018/zhc/assisgnment1/CaTiO3/O_LDA.UPF
     MD5 check sum: 194b818514d2a7dbb603bb78519a4f40
     Pseudo is Ultrasoft + core correction, Zval =  6.0
     Generated by new atomic code, or converted to UPF format
     Using radial grid of  737 points,  5 beta functions with: 
                l(1) =   0
                l(2) =   0
                l(3) =   1
                l(4) =   1
                l(5) =   2
     Q(r) pseudized with  8 coefficients,  rinner =    0.900   0.900   0.900
                                                       0.900   0.900

     atomic species   valence    mass     pseudopotential
     Ca               10.00    40.07800     Ca( 1.00)
     Ti               12.00    47.88000     Ti( 1.00)
     O                 6.00    16.00000     O ( 1.00)

      8 Sym. Ops. (no inversion) found



   Cartesian axes

     site n.     atom                  positions (alat units)
         1        Ca     tau(   1) = (   0.0000000   0.0000000   0.0500000  )
         2        Ti     tau(   2) = (   0.5000000   0.5000000   0.5000000  )
         3        O      tau(   3) = (   0.5000000   0.5000000   0.0000000  )
         4        O      tau(   4) = (   0.5000000   0.0000000   0.5000000  )
         5        O      tau(   5) = (   0.0000000   0.5000000   0.5000000  )

     number of k points=     6
                       cart. coord. in units 2pi/alat
        k(    1) = (   0.0000000   0.0000000   0.0000000), wk =   0.2500000
        k(    2) = (   0.0000000   0.0000000  -0.5000000), wk =   0.2500000
        k(    3) = (   0.0000000  -0.5000000  -0.5000000), wk =   0.5000000
        k(    4) = (  -0.5000000  -0.5000000  -0.5000000), wk =   0.2500000
        k(    5) = (  -0.5000000   0.0000000   0.0000000), wk =   0.5000000
        k(    6) = (  -0.5000000   0.5000000   0.0000000), wk =   0.2500000

     Dense  grid:   212911 G-vectors     FFT dimensions: (  75,  75,  75)

     Smooth grid:    53811 G-vectors     FFT dimensions: (  48,  48,  48)

     Estimated max dynamical RAM per process >      88.24 MB

     Estimated total dynamical RAM >     882.38 MB

     Check: negative core charge=   -0.000001

     Initial potential from superposition of free atoms

     starting charge      38.9952, renormalised to      40.0000

     negative rho (up, down):  8.541E-04 0.000E+00
     Starting wfcs are   32 randomized atomic wfcs

     total cpu time spent up to now is        0.7 secs

     Self-consistent Calculation

     iteration #  1     ecut=   100.00 Ry     beta= 0.70
     CG style diagonalization
     ethr =  1.00E-02,  avg # of iterations =  2.2

     negative rho (up, down):  1.147E-03 0.000E+00

     total cpu time spent up to now is        1.2 secs

     total energy              =    -291.23280743 Ry
     estimated scf accuracy    <       0.87666535 Ry

     iteration #  2     ecut=   100.00 Ry     beta= 0.70
     CG style diagonalization
     ethr =  2.19E-03,  avg # of iterations =  4.7

     negative rho (up, down):  7.256E-04 0.000E+00

     total cpu time spent up to now is        1.8 secs

     total energy              =    -290.90420064 Ry
     estimated scf accuracy    <       4.09742667 Ry

     iteration #  3     ecut=   100.00 Ry     beta= 0.70
     CG style diagonalization
     ethr =  2.19E-03,  avg # of iterations =  4.2

     negative rho (up, down):  8.209E-04 0.000E+00

     total cpu time spent up to now is        2.3 secs

     total energy              =    -291.67499631 Ry
     estimated scf accuracy    <       0.14164405 Ry

     iteration #  4     ecut=   100.00 Ry     beta= 0.70
     CG style diagonalization
     ethr =  3.54E-04,  avg # of iterations =  3.5

     negative rho (up, down):  8.983E-04 0.000E+00

     total cpu time spent up to now is        2.7 secs

     total energy              =    -291.69214454 Ry
     estimated scf accuracy    <       0.01780385 Ry

     iteration #  5     ecut=   100.00 Ry     beta= 0.70
     CG style diagonalization
     ethr =  4.45E-05,  avg # of iterations =  3.8

     negative rho (up, down):  8.913E-04 0.000E+00

     total cpu time spent up to now is        3.2 secs

     total energy              =    -291.69799588 Ry
     estimated scf accuracy    <       0.00170346 Ry

     iteration #  6     ecut=   100.00 Ry     beta= 0.70
     CG style diagonalization
     ethr =  4.26E-06,  avg # of iterations =  3.7

     negative rho (up, down):  8.881E-04 0.000E+00

     total cpu time spent up to now is        3.7 secs

     total energy              =    -291.69829279 Ry
     estimated scf accuracy    <       0.00036647 Ry

     iteration #  7     ecut=   100.00 Ry     beta= 0.70
     CG style diagonalization
     ethr =  9.16E-07,  avg # of iterations =  3.6

     negative rho (up, down):  8.888E-04 0.000E+00

     total cpu time spent up to now is        4.1 secs

     total energy              =    -291.69836937 Ry
     estimated scf accuracy    <       0.00001479 Ry

     iteration #  8     ecut=   100.00 Ry     beta= 0.70
     CG style diagonalization
     ethr =  3.70E-08,  avg # of iterations =  4.3

     negative rho (up, down):  8.886E-04 0.000E+00

     total cpu time spent up to now is        4.6 secs

     total energy              =    -291.69837933 Ry
     estimated scf accuracy    <       0.00000044 Ry

     iteration #  9     ecut=   100.00 Ry     beta= 0.70
     CG style diagonalization
     ethr =  1.09E-09,  avg # of iterations =  4.8

     negative rho (up, down):  8.890E-04 0.000E+00

     total cpu time spent up to now is        5.2 secs

     total energy              =    -291.69837967 Ry
     estimated scf accuracy    <       0.00000060 Ry

     iteration # 10     ecut=   100.00 Ry     beta= 0.70
     CG style diagonalization
     ethr =  1.09E-09,  avg # of iterations =  3.6

     negative rho (up, down):  8.892E-04 0.000E+00

     total cpu time spent up to now is        5.6 secs

     End of self-consistent calculation

          k = 0.0000 0.0000 0.0000 (  6763 PWs)   bands (ev):

   -47.5815 -30.1343 -24.1525 -24.1525 -24.1434 -11.3558 -11.3347 -11.3347
    -8.4873  -7.4020  -7.3511   5.6033   5.6080   5.6080   7.5373   7.5451
     7.5451   8.2753   8.2753   8.2909

          k = 0.0000 0.0000-0.5000 (  6696 PWs)   bands (ev):

   -47.5804 -30.1285 -24.2097 -24.1493 -24.1493 -11.5826 -11.3236 -11.3236
    -7.8567  -7.3614  -7.0276   4.2275   5.8462   5.8462   5.9742   6.1099
     6.1099   6.7583   7.9656   7.9656

          k = 0.0000-0.5000-0.5000 (  6728 PWs)   bands (ev):

   -47.5792 -30.1219 -24.2174 -24.2081 -24.1462 -11.4755 -11.4742 -11.3104
    -7.7318  -6.9064  -6.8631   3.8088   4.0699   4.3391   5.7677   5.8300
     6.7694   6.7972   6.9462   8.6858

          k =-0.5000-0.5000-0.5000 (  6776 PWs)   bands (ev):

   -47.5781 -30.1158 -24.2138 -24.2138 -24.2041 -11.4229 -11.4229 -11.4196
    -6.9884  -6.9884  -6.9496   3.9716   4.2980   4.3217   4.3217   4.3397
     4.3617   8.7006   8.7564   8.7564

          k =-0.5000 0.0000 0.0000 (  6696 PWs)   bands (ev):

   -47.5803 -30.1284 -24.2192 -24.1493 -24.1403 -11.5761 -11.3350 -11.3239
    -7.8348  -7.3340  -7.0718   4.1938   5.8837   5.9108   5.9698   6.0415
     6.0473   6.8261   8.0054   8.0065

          k =-0.5000 0.5000 0.0000 (  6728 PWs)   bands (ev):

   -47.5792 -30.1216 -24.2177 -24.2177 -24.1371 -11.4737 -11.4737 -11.3172
    -7.6950  -6.8999  -6.8999   3.8007   4.0396   4.3223   5.8204   5.8204
     6.8159   6.8159   6.9862   8.6069

     highest occupied level (ev):     8.7564

!    total energy              =    -291.69837976 Ry
     estimated scf accuracy    <          8.1E-09 Ry

     The total energy is the sum of the following terms:
     one-electron contribution =     -93.87781752 Ry
     hartree contribution      =      66.12546746 Ry
     xc contribution           =     -51.22611334 Ry
     ewald contribution        =    -212.71991636 Ry

     convergence has been achieved in  10 iterations

     negative rho (up, down):  8.892E-04 0.000E+00

     Forces acting on atoms (cartesian axes, Ry/au):

     atom    1 type  1   force =     0.00000000    0.00000000   -0.00026140
     atom    2 type  2   force =     0.00000000    0.00000000    0.02033016
     atom    3 type  3   force =     0.00000000    0.00000000    0.00680525
     atom    4 type  3   force =     0.00000000    0.00000000   -0.01343700
     atom    5 type  3   force =     0.00000000    0.00000000   -0.01343700

     Total force =     0.028650     Total SCF correction =     0.000034


     Computing stress (Cartesian axis) and pressure


     negative rho (up, down):  8.892E-04 0.000E+00
          total   stress  (Ry/bohr**3)                   (kbar)     P=      -92.94
  -0.00063514   0.00000000   0.00000000          -93.43        0.00        0.00
   0.00000000  -0.00063514   0.00000000            0.00      -93.43        0.00
   0.00000000   0.00000000  -0.00062514            0.00        0.00      -91.96


     Writing all to output data dir ./CTO_DIS_K2.save/ :
     XML data file, charge density, pseudopotentials, collected wavefunctions
 
     init_run     :      0.37s CPU      0.47s WALL (       1 calls)
     electrons    :      4.56s CPU      4.98s WALL (       1 calls)
     forces       :      0.17s CPU      0.20s WALL (       1 calls)
     stress       :      0.97s CPU      1.02s WALL (       1 calls)

     Called by init_run:
     wfcinit      :      0.06s CPU      0.08s WALL (       1 calls)
     potinit      :      0.02s CPU      0.02s WALL (       1 calls)
     hinit0       :      0.15s CPU      0.18s WALL (       1 calls)

     Called by electrons:
     c_bands      :      2.00s CPU      2.08s WALL (      10 calls)
     sum_band     :      1.41s CPU      1.55s WALL (      10 calls)
     v_of_rho     :      0.04s CPU      0.04s WALL (      11 calls)
     newd         :      1.16s CPU      1.32s WALL (      11 calls)
     mix_rho      :      0.03s CPU      0.03s WALL (      10 calls)

     Called by c_bands:
     init_us_2    :      0.04s CPU      0.04s WALL (     138 calls)
     init_us_2:cp :      0.04s CPU      0.04s WALL (     138 calls)
     ccgdiagg     :      1.73s CPU      1.79s WALL (      60 calls)
     wfcrot       :      0.30s CPU      0.33s WALL (      60 calls)

     Called by *cgdiagg:
     h_psi        :      1.26s CPU      1.31s WALL (    3606 calls)
     s_psi        :      0.23s CPU      0.23s WALL (    7152 calls)

     Called by h_psi:
     h_psi:calbec :      0.22s CPU      0.23s WALL (    3606 calls)
     vloc_psi     :      0.88s CPU      0.92s WALL (    3606 calls)
     add_vuspsi   :      0.13s CPU      0.13s WALL (    3606 calls)
     hs_1psi      :      1.14s CPU      1.18s WALL (    3546 calls)
     s_1psi       :      0.27s CPU      0.28s WALL (    3546 calls)

     General routines
     calbec       :      0.37s CPU      0.39s WALL (    7242 calls)
     fft          :      0.05s CPU      0.07s WALL (      72 calls)
     ffts         :      0.00s CPU      0.01s WALL (      21 calls)
     fftw         :      0.69s CPU      0.72s WALL (   10836 calls)
     interpolate  :      0.01s CPU      0.01s WALL (      11 calls)
 
     Parallel routines
 
     PWSCF        :      6.26s CPU      7.27s WALL

 
   This run was terminated on:  13:23:53  23Sep2025            

=------------------------------------------------------------------------------=
   JOB DONE.
=------------------------------------------------------------------------------=
TACC:  Shutdown complete. Exiting. 
