TACC:  Starting up job 2403615 
TACC:  Starting parallel tasks... 

     Program PWSCF v.7.3 starts on 23Sep2025 at 13:32:46 

     This program is part of the open-source Quantum ESPRESSO suite
     for quantum simulation of materials; please cite
         "P. Giannozzi et al., J. Phys.:Condens. Matter 21 395502 (2009);
         "P. Giannozzi et al., J. Phys.:Condens. Matter 29 465901 (2017);
         "P. Giannozzi et al., J. Chem. Phys. 152 154105 (2020);
          URL http://www.quantum-espresso.org", 
     in publications or presentations arising from this work. More details at
     http://www.quantum-espresso.org/quote

     Parallel version (MPI & OpenMP), running on      10 processor cores
     Number of MPI processes:                10
     Threads/MPI process:                     1

     MPI processes distributed on     1 nodes
     186727 MiB available memory on the printing compute node when the environment starts
 
     Waiting for input...
     Reading input from standard input
Warning: card &CELL ignored
Warning: card  CELL_DYNAMICS = 'BFGS', ignored
Warning: card  PRESS=0.D0, ignored
Warning: card / ignored
     Message from routine read_cards :
     DEPRECATED: no units specified in ATOMIC_POSITIONS card
     Message from routine read_cards :
     ATOMIC_POSITIONS: units set to alat

     Current dimensions of program PWSCF are:
     Max number of different atomic species (ntypx) = 10
     Max number of k-points (npk) =  40000
     Max angular momentum in pseudopotentials (lmaxx) =  4
 
     R & G space division:  proc/nbgrp/npool/nimage =      10
     Subspace diagonalization in iterative solution of the eigenvalue problem:
     a serial algorithm will be used

 
     Parallelization info
     --------------------
     sticks:   dense  smooth     PW     G-vecs:    dense   smooth      PW
     Min         430     173     48                21291     5381     820
     Max         431     175     49                21292     5382     823
     Sum        4309    1733    489               212911    53811    8217
 
     Using Slab Decomposition
 


     bravais-lattice index     =            1
     lattice parameter (alat)  =       7.3573  a.u.
     unit-cell volume          =     398.2496 (a.u.)^3
     number of atoms/cell      =            5
     number of atomic types    =            3
     number of electrons       =        40.00
     number of Kohn-Sham states=           20
     kinetic-energy cutoff     =     100.0000  Ry
     charge density cutoff     =    1000.0000  Ry
     scf convergence threshold =      1.0E-08
     mixing beta               =       0.7000
     number of iterations used =            8  plain     mixing
     Exchange-correlation= SLA  PZ   NOGX NOGC
                           (   1   1   0   0   0   0   0)

     celldm(1)=   7.357300  celldm(2)=   0.000000  celldm(3)=   0.000000
     celldm(4)=   0.000000  celldm(5)=   0.000000  celldm(6)=   0.000000

     crystal axes: (cart. coord. in units of alat)
               a(1) = (   1.000000   0.000000   0.000000 )  
               a(2) = (   0.000000   1.000000   0.000000 )  
               a(3) = (   0.000000   0.000000   1.000000 )  

     reciprocal axes: (cart. coord. in units 2 pi/alat)
               b(1) = (  1.000000  0.000000  0.000000 )  
               b(2) = (  0.000000  1.000000  0.000000 )  
               b(3) = (  0.000000  0.000000  1.000000 )  


     PseudoPot. # 1 for Ca read from file:
     /scratch/11018/zhc/assisgnment1/CaTiO3/Ca_LDA.UPF
     MD5 check sum: d2d4e7693e10d071152e9eeb7dd009f3
     Pseudo is Ultrasoft + core correction, Zval = 10.0
     Generated by new atomic code, or converted to UPF format
     Using radial grid of  845 points,  6 beta functions with: 
                l(1) =   0
                l(2) =   0
                l(3) =   1
                l(4) =   1
                l(5) =   2
                l(6) =   2
     Q(r) pseudized with  8 coefficients,  rinner =    1.500   1.500   1.500
                                                       1.500   1.500

     PseudoPot. # 2 for Ti read from file:
     /scratch/11018/zhc/assisgnment1/CaTiO3/Ti_LDA.UPF
     MD5 check sum: 0d9f225c038fe889ca2a701dcc8d72cb
     Pseudo is Ultrasoft + core correction, Zval = 12.0
     Generated by new atomic code, or converted to UPF format
     Using radial grid of  851 points,  6 beta functions with: 
                l(1) =   0
                l(2) =   0
                l(3) =   1
                l(4) =   1
                l(5) =   2
                l(6) =   2
     Q(r) pseudized with  6 coefficients,  rinner =    1.000   1.000   1.000
                                                       1.000   1.000

     PseudoPot. # 3 for O  read from file:
     /scratch/11018/zhc/assisgnment1/CaTiO3/O_LDA.UPF
     MD5 check sum: 194b818514d2a7dbb603bb78519a4f40
     Pseudo is Ultrasoft + core correction, Zval =  6.0
     Generated by new atomic code, or converted to UPF format
     Using radial grid of  737 points,  5 beta functions with: 
                l(1) =   0
                l(2) =   0
                l(3) =   1
                l(4) =   1
                l(5) =   2
     Q(r) pseudized with  8 coefficients,  rinner =    0.900   0.900   0.900
                                                       0.900   0.900

     atomic species   valence    mass     pseudopotential
     Ca               10.00    40.07800     Ca( 1.00)
     Ti               12.00    47.88000     Ti( 1.00)
     O                 6.00    16.00000     O ( 1.00)

      8 Sym. Ops. (no inversion) found



   Cartesian axes

     site n.     atom                  positions (alat units)
         1        Ca     tau(   1) = (   0.0000000   0.0000000   0.0500000  )
         2        Ti     tau(   2) = (   0.5000000   0.5000000   0.5000000  )
         3        O      tau(   3) = (   0.5000000   0.5000000   0.0000000  )
         4        O      tau(   4) = (   0.5000000   0.0000000   0.5000000  )
         5        O      tau(   5) = (   0.0000000   0.5000000   0.5000000  )

     number of k points=   126

     Number of k-points >= 100: set verbosity='high' to print them.

     Dense  grid:   212911 G-vectors     FFT dimensions: (  75,  75,  75)

     Smooth grid:    53811 G-vectors     FFT dimensions: (  48,  48,  48)

     Estimated max dynamical RAM per process >     112.85 MB

     Estimated total dynamical RAM >       1.10 GB

     Check: negative core charge=   -0.000001

     Initial potential from superposition of free atoms

     starting charge      38.9952, renormalised to      40.0000

     negative rho (up, down):  8.541E-04 0.000E+00
     Starting wfcs are   32 randomized atomic wfcs

     total cpu time spent up to now is        1.9 secs

     Self-consistent Calculation

     iteration #  1     ecut=   100.00 Ry     beta= 0.70
     CG style diagonalization
     ethr =  1.00E-02,  avg # of iterations =  2.2

     negative rho (up, down):  1.119E-03 0.000E+00

     total cpu time spent up to now is        5.4 secs

     total energy              =    -291.29601327 Ry
     estimated scf accuracy    <       0.83450704 Ry

     iteration #  2     ecut=   100.00 Ry     beta= 0.70
     CG style diagonalization
     ethr =  2.09E-03,  avg # of iterations =  5.4

     negative rho (up, down):  6.369E-04 0.000E+00

     total cpu time spent up to now is       12.5 secs

     total energy              =    -290.49476586 Ry
     estimated scf accuracy    <       7.38397550 Ry

     iteration #  3     ecut=   100.00 Ry     beta= 0.70
     CG style diagonalization
     ethr =  2.09E-03,  avg # of iterations =  4.7

     negative rho (up, down):  7.337E-04 0.000E+00

     total cpu time spent up to now is       18.5 secs

     total energy              =    -291.72671973 Ry
     estimated scf accuracy    <       0.17432722 Ry

     iteration #  4     ecut=   100.00 Ry     beta= 0.70
     CG style diagonalization
     ethr =  4.36E-04,  avg # of iterations =  3.6

     negative rho (up, down):  8.123E-04 0.000E+00

     total cpu time spent up to now is       23.2 secs

     total energy              =    -291.74158958 Ry
     estimated scf accuracy    <       0.06464536 Ry

     iteration #  5     ecut=   100.00 Ry     beta= 0.70
     CG style diagonalization
     ethr =  1.62E-04,  avg # of iterations =  3.5

     negative rho (up, down):  8.416E-04 0.000E+00

     total cpu time spent up to now is       27.7 secs

     total energy              =    -291.75120433 Ry
     estimated scf accuracy    <       0.00296527 Ry

     iteration #  6     ecut=   100.00 Ry     beta= 0.70
     CG style diagonalization
     ethr =  7.41E-06,  avg # of iterations =  4.1

     negative rho (up, down):  8.583E-04 0.000E+00

     total cpu time spent up to now is       32.9 secs

     total energy              =    -291.75275613 Ry
     estimated scf accuracy    <       0.00015054 Ry

     iteration #  7     ecut=   100.00 Ry     beta= 0.70
     CG style diagonalization
     ethr =  3.76E-07,  avg # of iterations =  4.9

     negative rho (up, down):  8.530E-04 0.000E+00

     total cpu time spent up to now is       39.2 secs

     total energy              =    -291.75285399 Ry
     estimated scf accuracy    <       0.00055882 Ry

     iteration #  8     ecut=   100.00 Ry     beta= 0.70
     CG style diagonalization
     ethr =  3.76E-07,  avg # of iterations =  4.0

     negative rho (up, down):  8.514E-04 0.000E+00

     total cpu time spent up to now is       44.4 secs

     total energy              =    -291.75288510 Ry
     estimated scf accuracy    <       0.00006523 Ry

     iteration #  9     ecut=   100.00 Ry     beta= 0.70
     CG style diagonalization
     ethr =  1.63E-07,  avg # of iterations =  3.7

     negative rho (up, down):  8.508E-04 0.000E+00

     total cpu time spent up to now is       49.0 secs

     total energy              =    -291.75289466 Ry
     estimated scf accuracy    <       0.00000215 Ry

     iteration # 10     ecut=   100.00 Ry     beta= 0.70
     CG style diagonalization
     ethr =  5.38E-09,  avg # of iterations =  4.4

     negative rho (up, down):  8.508E-04 0.000E+00

     total cpu time spent up to now is       54.7 secs

     total energy              =    -291.75289637 Ry
     estimated scf accuracy    <       0.00000033 Ry

     iteration # 11     ecut=   100.00 Ry     beta= 0.70
     CG style diagonalization
     ethr =  8.35E-10,  avg # of iterations =  3.7

     negative rho (up, down):  8.511E-04 0.000E+00

     total cpu time spent up to now is       59.5 secs

     total energy              =    -291.75289643 Ry
     estimated scf accuracy    <       0.00000019 Ry

     iteration # 12     ecut=   100.00 Ry     beta= 0.70
     CG style diagonalization
     ethr =  4.85E-10,  avg # of iterations =  3.7

     negative rho (up, down):  8.510E-04 0.000E+00

     total cpu time spent up to now is       64.2 secs

     total energy              =    -291.75289648 Ry
     estimated scf accuracy    <       0.00000003 Ry

     iteration # 13     ecut=   100.00 Ry     beta= 0.70
     CG style diagonalization
     ethr =  7.29E-11,  avg # of iterations =  3.5

     negative rho (up, down):  8.510E-04 0.000E+00

     total cpu time spent up to now is       68.7 secs

     End of self-consistent calculation

     Number of k-points >= 100: set verbosity='high' to print the bands.

     highest occupied level (ev):     8.6178

!    total energy              =    -291.75289648 Ry
     estimated scf accuracy    <          5.2E-09 Ry

     The total energy is the sum of the following terms:
     one-electron contribution =     -94.04740170 Ry
     hartree contribution      =      66.23810181 Ry
     xc contribution           =     -51.22368023 Ry
     ewald contribution        =    -212.71991636 Ry

     convergence has been achieved in  13 iterations

     negative rho (up, down):  8.510E-04 0.000E+00

     Forces acting on atoms (cartesian axes, Ry/au):

     atom    1 type  1   force =     0.00000000    0.00000000   -0.00155524
     atom    2 type  2   force =     0.00000000    0.00000000    0.01671427
     atom    3 type  3   force =     0.00000000    0.00000000    0.00789557
     atom    4 type  3   force =     0.00000000    0.00000000   -0.01152730
     atom    5 type  3   force =     0.00000000    0.00000000   -0.01152730

     Total force =     0.024696     Total SCF correction =     0.000045


     Computing stress (Cartesian axis) and pressure


     negative rho (up, down):  8.510E-04 0.000E+00
          total   stress  (Ry/bohr**3)                   (kbar)     P=     -113.64
  -0.00077357   0.00000000   0.00000000         -113.80        0.00        0.00
   0.00000000  -0.00077357   0.00000000            0.00     -113.80        0.00
   0.00000000   0.00000000  -0.00077043            0.00        0.00     -113.33


     Writing all to output data dir ./CTO_DIS_K11.save/ :
     XML data file, charge density, pseudopotentials, collected wavefunctions
 
     init_run     :      1.52s CPU      1.65s WALL (       1 calls)
     electrons    :     64.25s CPU     66.80s WALL (       1 calls)
     forces       :      0.59s CPU      0.62s WALL (       1 calls)
     stress       :      7.73s CPU      7.79s WALL (       1 calls)

     Called by init_run:
     wfcinit      :      1.20s CPU      1.26s WALL (       1 calls)
     potinit      :      0.02s CPU      0.02s WALL (       1 calls)
     hinit0       :      0.15s CPU      0.18s WALL (       1 calls)

     Called by electrons:
     c_bands      :     56.42s CPU     58.55s WALL (      13 calls)
     sum_band     :      6.33s CPU      6.55s WALL (      13 calls)
     v_of_rho     :      0.05s CPU      0.05s WALL (      14 calls)
     newd         :      1.48s CPU      1.68s WALL (      14 calls)
     mix_rho      :      0.04s CPU      0.04s WALL (      13 calls)

     Called by c_bands:
     init_us_2    :      0.91s CPU      0.95s WALL (    3654 calls)
     init_us_2:cp :      0.90s CPU      0.94s WALL (    3654 calls)
     ccgdiagg     :     48.78s CPU     50.68s WALL (    1638 calls)
     wfcrot       :      8.02s CPU      8.25s WALL (    1638 calls)

     Called by *cgdiagg:
     h_psi        :     34.81s CPU     36.09s WALL (  101449 calls)
     s_psi        :      5.39s CPU      5.61s WALL (  201260 calls)

     Called by h_psi:
     h_psi:calbec :      6.06s CPU      6.29s WALL (  101449 calls)
     vloc_psi     :     24.59s CPU     25.49s WALL (  101449 calls)
     add_vuspsi   :      3.20s CPU      3.33s WALL (  101449 calls)
     hs_1psi      :     31.28s CPU     32.49s WALL (   99811 calls)
     s_1psi       :      7.23s CPU      7.50s WALL (   99811 calls)

     General routines
     calbec       :     10.49s CPU     10.90s WALL (  203528 calls)
     fft          :      0.07s CPU      0.09s WALL (      90 calls)
     ffts         :      0.00s CPU      0.01s WALL (      27 calls)
     fftw         :     19.30s CPU     19.96s WALL (  300926 calls)
     interpolate  :      0.01s CPU      0.02s WALL (      14 calls)
 
     Parallel routines
 
     PWSCF        :   1m14.56s CPU   1m18.96s WALL

 
   This run was terminated on:  13:34: 5  23Sep2025            

=------------------------------------------------------------------------------=
   JOB DONE.
=------------------------------------------------------------------------------=
TACC:  Shutdown complete. Exiting. 
