TACC:  Starting up job 2475126 
TACC:  Starting parallel tasks... 

     Program PWSCF v.7.3 starts on 17Oct2025 at 20:41: 2 

     This program is part of the open-source Quantum ESPRESSO suite
     for quantum simulation of materials; please cite
         "P. Giannozzi et al., J. Phys.:Condens. Matter 21 395502 (2009);
         "P. Giannozzi et al., J. Phys.:Condens. Matter 29 465901 (2017);
         "P. Giannozzi et al., J. Chem. Phys. 152 154105 (2020);
          URL http://www.quantum-espresso.org", 
     in publications or presentations arising from this work. More details at
     http://www.quantum-espresso.org/quote

     Parallel version (MPI & OpenMP), running on      10 processor cores
     Number of MPI processes:                10
     Threads/MPI process:                     1

     MPI processes distributed on     1 nodes
     188591 MiB available memory on the printing compute node when the environment starts
 
     Waiting for input...
     Reading input from standard input

     Current dimensions of program PWSCF are:
     Max number of different atomic species (ntypx) = 10
     Max number of k-points (npk) =  40000
     Max angular momentum in pseudopotentials (lmaxx) =  4
 
     R & G space division:  proc/nbgrp/npool/nimage =      10
     Subspace diagonalization in iterative solution of the eigenvalue problem:
     a serial algorithm will be used

 
     Parallelization info
     --------------------
     sticks:   dense  smooth     PW     G-vecs:    dense   smooth      PW
     Min         162      43     15                 4273      595     113
     Max         163      44     16                 4274      598     114
     Sum        1627     433    151                42735     5961    1139
 
     Using Slab Decomposition
 


     bravais-lattice index     =            2
     lattice parameter (alat)  =      10.2000  a.u.
     unit-cell volume          =     265.3020 (a.u.)^3
     number of atoms/cell      =            2
     number of atomic types    =            1
     number of electrons       =         8.00
     number of Kohn-Sham states=            8
     kinetic-energy cutoff     =      30.0000  Ry
     charge density cutoff     =     450.0000  Ry
     scf convergence threshold =      1.0E-08
     mixing beta               =       0.7000
     number of iterations used =            8  plain     mixing
     Exchange-correlation= SLA  PZ   NOGX NOGC
                           (   1   1   0   0   0   0   0)

     celldm(1)=  10.200000  celldm(2)=   0.000000  celldm(3)=   0.000000
     celldm(4)=   0.000000  celldm(5)=   0.000000  celldm(6)=   0.000000

     crystal axes: (cart. coord. in units of alat)
               a(1) = (  -0.500000   0.000000   0.500000 )  
               a(2) = (   0.000000   0.500000   0.500000 )  
               a(3) = (  -0.500000   0.500000   0.000000 )  

     reciprocal axes: (cart. coord. in units 2 pi/alat)
               b(1) = ( -1.000000 -1.000000  1.000000 )  
               b(2) = (  1.000000  1.000000  1.000000 )  
               b(3) = ( -1.000000  1.000000 -1.000000 )  


     PseudoPot. # 1 for Si read from file:
     /scratch/11018/zhc/Assisgnment2/Q1/1A/energy_cutoff_test/Si_LDA.UPF
     MD5 check sum: b5ade7b37ee992b02096e360e546dc2d
     Pseudo is Ultrasoft + core correction, Zval =  4.0
     Generated by new atomic code, or converted to UPF format
     Using radial grid of  899 points,  6 beta functions with: 
                l(1) =   0
                l(2) =   0
                l(3) =   1
                l(4) =   1
                l(5) =   2
                l(6) =   2
     Q(r) pseudized with  8 coefficients,  rinner =    0.900   0.900   0.900
                                                       0.900   0.900

     atomic species   valence    mass     pseudopotential
     Si                4.00    28.08550     Si( 1.00)

      2 Sym. Ops. (no inversion) found



   Cartesian axes

     site n.     atom                  positions (alat units)
         1        Si     tau(   1) = (   0.0000000   0.0000000   0.0000000  )
         2        Si     tau(   2) = (  -0.2400000   0.2400000   0.2500000  )

     number of k points=   476

     Number of k-points >= 100: set verbosity='high' to print them.

     Dense  grid:    42735 G-vectors     FFT dimensions: (  50,  50,  50)

     Smooth grid:     5961 G-vectors     FFT dimensions: (  25,  25,  25)

     Estimated max dynamical RAM per process >      21.71 MB

     Estimated total dynamical RAM >     217.09 MB

     Initial potential from superposition of free atoms

     starting charge       7.9988, renormalised to       8.0000
     Starting wfcs are    8 randomized atomic wfcs

     total cpu time spent up to now is        0.7 secs

     Self-consistent Calculation

     iteration #  1     ecut=    30.00 Ry     beta= 0.70
     CG style diagonalization
     ethr =  1.00E-02,  avg # of iterations =  3.8

     Threshold (ethr) on eigenvalues was too large:
     Diagonalizing with lowered threshold

     CG style diagonalization
     ethr =  7.33E-04,  avg # of iterations =  2.1

     total cpu time spent up to now is        5.5 secs

     total energy              =     -19.25391639 Ry
     estimated scf accuracy    <       0.05945930 Ry

     iteration #  2     ecut=    30.00 Ry     beta= 0.70
     CG style diagonalization
     ethr =  7.43E-04,  avg # of iterations =  3.0

     total cpu time spent up to now is        7.6 secs

     total energy              =     -19.25736167 Ry
     estimated scf accuracy    <       0.00169264 Ry

     iteration #  3     ecut=    30.00 Ry     beta= 0.70
     CG style diagonalization
     ethr =  2.12E-05,  avg # of iterations =  3.9

     total cpu time spent up to now is       10.4 secs

     total energy              =     -19.25757589 Ry
     estimated scf accuracy    <       0.00003986 Ry

     iteration #  4     ecut=    30.00 Ry     beta= 0.70
     CG style diagonalization
     ethr =  4.98E-07,  avg # of iterations =  4.4

     total cpu time spent up to now is       13.6 secs

     total energy              =     -19.25760684 Ry
     estimated scf accuracy    <       0.00000045 Ry

     iteration #  5     ecut=    30.00 Ry     beta= 0.70
     CG style diagonalization
     ethr =  5.61E-09,  avg # of iterations =  4.0

     total cpu time spent up to now is       16.4 secs

     total energy              =     -19.25760758 Ry
     estimated scf accuracy    <       0.00000001 Ry

     iteration #  6     ecut=    30.00 Ry     beta= 0.70
     CG style diagonalization
     ethr =  1.43E-10,  avg # of iterations =  3.6

     total cpu time spent up to now is       19.0 secs

     End of self-consistent calculation

     Number of k-points >= 100: set verbosity='high' to print the bands.

     highest occupied, lowest unoccupied level (ev):     6.5753    6.6094

!    total energy              =     -19.25760759 Ry
     estimated scf accuracy    <          4.3E-10 Ry

     The total energy is the sum of the following terms:
     one-electron contribution =       5.18130635 Ry
     hartree contribution      =       1.09892294 Ry
     xc contribution           =      -8.64333794 Ry
     ewald contribution        =     -16.89449894 Ry

     convergence has been achieved in   6 iterations

     Forces acting on atoms (cartesian axes, Ry/au):

     atom    1 type  1   force =     0.02872417   -0.02872417   -0.00418898
     atom    2 type  1   force =    -0.02872417    0.02872417    0.00418898

     Total force =     0.057753     Total SCF correction =     0.000002


     Computing stress (Cartesian axis) and pressure

          total   stress  (Ry/bohr**3)                   (kbar)     P=        3.62
   0.00001999  -0.00001768  -0.00015126            2.94       -2.60      -22.25
  -0.00001768   0.00001999   0.00015126           -2.60        2.94       22.25
  -0.00015126   0.00015126   0.00003388          -22.25       22.25        4.98


     Writing all to output data dir ./Si_k10.save/ :
     XML data file, charge density, pseudopotentials, collected wavefunctions
 
     init_run     :      0.46s CPU      0.55s WALL (       1 calls)
     electrons    :     16.77s CPU     18.30s WALL (       1 calls)
     forces       :      0.14s CPU      0.14s WALL (       1 calls)
     stress       :      0.94s CPU      0.95s WALL (       1 calls)

     Called by init_run:
     wfcinit      :      0.38s CPU      0.43s WALL (       1 calls)
     potinit      :      0.01s CPU      0.01s WALL (       1 calls)
     hinit0       :      0.04s CPU      0.07s WALL (       1 calls)

     Called by electrons:
     c_bands      :     15.21s CPU     16.64s WALL (       7 calls)
     sum_band     :      1.48s CPU      1.55s WALL (       7 calls)
     v_of_rho     :      0.01s CPU      0.01s WALL (       7 calls)
     newd         :      0.08s CPU      0.08s WALL (       7 calls)
     mix_rho      :      0.00s CPU      0.01s WALL (       7 calls)

     Called by c_bands:
     init_us_2    :      0.20s CPU      0.21s WALL (    8092 calls)
     init_us_2:cp :      0.18s CPU      0.20s WALL (    8092 calls)
     ccgdiagg     :     13.36s CPU     14.61s WALL (    3332 calls)
     wfcrot       :      1.99s CPU      2.18s WALL (    2856 calls)

     Called by *cgdiagg:
     h_psi        :      8.88s CPU      9.71s WALL (   78222 calls)
     s_psi        :      0.61s CPU      0.67s WALL (  153588 calls)

     Called by h_psi:
     h_psi:calbec :      1.26s CPU      1.38s WALL (   78222 calls)
     vloc_psi     :      6.72s CPU      7.35s WALL (   78222 calls)
     add_vuspsi   :      0.34s CPU      0.38s WALL (   78222 calls)
     hs_1psi      :      8.00s CPU      8.75s WALL (   75366 calls)
     s_1psi       :      1.67s CPU      1.82s WALL (   75366 calls)

     General routines
     calbec       :      2.23s CPU      2.44s WALL (  159300 calls)
     fft          :      0.01s CPU      0.03s WALL (      49 calls)
     ffts         :      0.00s CPU      0.00s WALL (      14 calls)
     fftw         :      6.10s CPU      6.63s WALL (  223084 calls)
     interpolate  :      0.00s CPU      0.01s WALL (       7 calls)
 
     Parallel routines
 
     PWSCF        :     18.73s CPU     22.08s WALL

 
   This run was terminated on:  20:41:24  17Oct2025            

=------------------------------------------------------------------------------=
   JOB DONE.
=------------------------------------------------------------------------------=
TACC:  Shutdown complete. Exiting. 
