TACC:  Starting up job 2560871 
TACC:  Starting parallel tasks... 

     Program PWSCF v.7.3 starts on 18Nov2025 at  0:25:17 

     This program is part of the open-source Quantum ESPRESSO suite
     for quantum simulation of materials; please cite
         "P. Giannozzi et al., J. Phys.:Condens. Matter 21 395502 (2009);
         "P. Giannozzi et al., J. Phys.:Condens. Matter 29 465901 (2017);
         "P. Giannozzi et al., J. Chem. Phys. 152 154105 (2020);
          URL http://www.quantum-espresso.org", 
     in publications or presentations arising from this work. More details at
     http://www.quantum-espresso.org/quote

     Parallel version (MPI & OpenMP), running on      10 processor cores
     Number of MPI processes:                10
     Threads/MPI process:                     1

     MPI processes distributed on     1 nodes
     189420 MiB available memory on the printing compute node when the environment starts
 
     Waiting for input...
     Reading input from standard input
Warning: card &CELL ignored
Warning: card  CELL_DYNAMICS = 'BFGS', ignored
Warning: card  PRESS=0.D0, ignored
Warning: card / ignored

     Current dimensions of program PWSCF are:
     Max number of different atomic species (ntypx) = 10
     Max number of k-points (npk) =  40000
     Max angular momentum in pseudopotentials (lmaxx) =  4
     Message from routine setup:
     using ibrav=0 with symmetry is DISCOURAGED, use correct ibrav instead
 
     R & G space division:  proc/nbgrp/npool/nimage =      10
     Subspace diagonalization in iterative solution of the eigenvalue problem:
     a serial algorithm will be used

 
     Parallelization info
     --------------------
     sticks:   dense  smooth     PW     G-vecs:    dense   smooth      PW
     Min         209      84     25                 7671     1944     321
     Max         210      85     26                 7676     1947     324
     Sum        2093     845    253                76731    19455    3227
 
     Using Slab Decomposition
 


     bravais-lattice index     =            0
     lattice parameter (alat)  =       7.2821  a.u.
     unit-cell volume          =     406.4649 (a.u.)^3
     number of atoms/cell      =            5
     number of atomic types    =            3
     number of electrons       =        44.00
     number of Kohn-Sham states=           22
     kinetic-energy cutoff     =      50.0000  Ry
     charge density cutoff     =     500.0000  Ry
     scf convergence threshold =      1.0E-08
     mixing beta               =       0.7000
     number of iterations used =            8  plain     mixing
     energy convergence thresh.=      1.0E-04
     force convergence thresh. =      1.0E-03
     Exchange-correlation= SLA  PZ   NOGX NOGC
                           (   1   1   0   0   0   0   0)
     nstep                     =           50


     celldm(1)=   7.282097  celldm(2)=   0.000000  celldm(3)=   0.000000
     celldm(4)=   0.000000  celldm(5)=   0.000000  celldm(6)=   0.000000

     crystal axes: (cart. coord. in units of alat)
               a(1) = (   1.000000   0.000000   0.000000 )  
               a(2) = (   0.000000   1.000519   0.000000 )  
               a(3) = (   0.000000   0.000000   1.052030 )  

     reciprocal axes: (cart. coord. in units 2 pi/alat)
               b(1) = (  1.000000  0.000000  0.000000 )  
               b(2) = (  0.000000  0.999481  0.000000 )  
               b(3) = (  0.000000  0.000000  0.950543 )  


     PseudoPot. # 1 for Pb read from file:
     /scratch/11018/zhc/assisgnment3/input_files/Pb_LDA.UPF
     MD5 check sum: 062a37469794d955244864f8fe2e5624
     Pseudo is Ultrasoft + core correction, Zval = 14.0
     Generated by new atomic code, or converted to UPF format
     Using radial grid of  899 points,  6 beta functions with: 
                l(1) =   0
                l(2) =   0
                l(3) =   1
                l(4) =   1
                l(5) =   2
                l(6) =   2
     Q(r) pseudized with  6 coefficients,  rinner =    1.000   1.000   1.000
                                                       1.000   1.000

     PseudoPot. # 2 for Ti read from file:
     /scratch/11018/zhc/assisgnment3/input_files/Ti_LDA.UPF
     MD5 check sum: 0d9f225c038fe889ca2a701dcc8d72cb
     Pseudo is Ultrasoft + core correction, Zval = 12.0
     Generated by new atomic code, or converted to UPF format
     Using radial grid of  851 points,  6 beta functions with: 
                l(1) =   0
                l(2) =   0
                l(3) =   1
                l(4) =   1
                l(5) =   2
                l(6) =   2
     Q(r) pseudized with  6 coefficients,  rinner =    1.000   1.000   1.000
                                                       1.000   1.000

     PseudoPot. # 3 for O  read from file:
     /scratch/11018/zhc/assisgnment3/input_files/O_LDA.UPF
     MD5 check sum: 194b818514d2a7dbb603bb78519a4f40
     Pseudo is Ultrasoft + core correction, Zval =  6.0
     Generated by new atomic code, or converted to UPF format
     Using radial grid of  737 points,  5 beta functions with: 
                l(1) =   0
                l(2) =   0
                l(3) =   1
                l(4) =   1
                l(5) =   2
     Q(r) pseudized with  8 coefficients,  rinner =    0.900   0.900   0.900
                                                       0.900   0.900

     atomic species   valence    mass     pseudopotential
     Pb               14.00   207.20000     Pb( 1.00)
     Ti               12.00    47.88000     Ti( 1.00)
     O                 6.00    16.00000     O ( 1.00)

      4 Sym. Ops. (no inversion) found



   Cartesian axes

     site n.     atom                  positions (alat units)
         1        Pb     tau(   1) = (   0.0000000   0.0000000   1.0574734  )
         2        Ti     tau(   2) = (   0.5000000   0.5002595   0.5676066  )
         3        O      tau(   3) = (   0.5000000   0.5002595   0.1046853  )
         4        O      tau(   4) = (   0.5000000   0.0000000   0.6433524  )
         5        O      tau(   5) = (   0.0000000   0.5002595   0.6433524  )

     number of k points=    48
                       cart. coord. in units 2pi/alat
        k(    1) = (   0.0000000   0.0000000   0.0000000), wk =   0.0138889
        k(    2) = (   0.0000000   0.0000000   0.2376357), wk =   0.0277778
        k(    3) = (   0.0000000   0.0000000  -0.4752715), wk =   0.0138889
        k(    4) = (   0.0000000   0.1665802   0.0000000), wk =   0.0277778
        k(    5) = (   0.0000000   0.1665802   0.2376357), wk =   0.0555556
        k(    6) = (   0.0000000   0.1665802  -0.4752715), wk =   0.0277778
        k(    7) = (   0.0000000   0.3331604   0.0000000), wk =   0.0277778
        k(    8) = (   0.0000000   0.3331604   0.2376357), wk =   0.0555556
        k(    9) = (   0.0000000   0.3331604  -0.4752715), wk =   0.0277778
        k(   10) = (   0.0000000  -0.4997406   0.0000000), wk =   0.0138889
        k(   11) = (   0.0000000  -0.4997406   0.2376357), wk =   0.0277778
        k(   12) = (   0.0000000  -0.4997406  -0.4752715), wk =   0.0138889
        k(   13) = (   0.1666667   0.0000000   0.0000000), wk =   0.0277778
        k(   14) = (   0.1666667   0.0000000   0.2376357), wk =   0.0555556
        k(   15) = (   0.1666667   0.0000000  -0.4752715), wk =   0.0277778
        k(   16) = (   0.1666667   0.1665802   0.0000000), wk =   0.0555556
        k(   17) = (   0.1666667   0.1665802   0.2376357), wk =   0.1111111
        k(   18) = (   0.1666667   0.1665802  -0.4752715), wk =   0.0555556
        k(   19) = (   0.1666667   0.3331604   0.0000000), wk =   0.0555556
        k(   20) = (   0.1666667   0.3331604   0.2376357), wk =   0.1111111
        k(   21) = (   0.1666667   0.3331604  -0.4752715), wk =   0.0555556
        k(   22) = (   0.1666667  -0.4997406   0.0000000), wk =   0.0277778
        k(   23) = (   0.1666667  -0.4997406   0.2376357), wk =   0.0555556
        k(   24) = (   0.1666667  -0.4997406  -0.4752715), wk =   0.0277778
        k(   25) = (   0.3333333   0.0000000   0.0000000), wk =   0.0277778
        k(   26) = (   0.3333333   0.0000000   0.2376357), wk =   0.0555556
        k(   27) = (   0.3333333   0.0000000  -0.4752715), wk =   0.0277778
        k(   28) = (   0.3333333   0.1665802   0.0000000), wk =   0.0555556
        k(   29) = (   0.3333333   0.1665802   0.2376357), wk =   0.1111111
        k(   30) = (   0.3333333   0.1665802  -0.4752715), wk =   0.0555556
        k(   31) = (   0.3333333   0.3331604   0.0000000), wk =   0.0555556
        k(   32) = (   0.3333333   0.3331604   0.2376357), wk =   0.1111111
        k(   33) = (   0.3333333   0.3331604  -0.4752715), wk =   0.0555556
        k(   34) = (   0.3333333  -0.4997406   0.0000000), wk =   0.0277778
        k(   35) = (   0.3333333  -0.4997406   0.2376357), wk =   0.0555556
        k(   36) = (   0.3333333  -0.4997406  -0.4752715), wk =   0.0277778
        k(   37) = (  -0.5000000   0.0000000   0.0000000), wk =   0.0138889
        k(   38) = (  -0.5000000   0.0000000   0.2376357), wk =   0.0277778
        k(   39) = (  -0.5000000   0.0000000  -0.4752715), wk =   0.0138889
        k(   40) = (  -0.5000000   0.1665802   0.0000000), wk =   0.0277778
        k(   41) = (  -0.5000000   0.1665802   0.2376357), wk =   0.0555556
        k(   42) = (  -0.5000000   0.1665802  -0.4752715), wk =   0.0277778
        k(   43) = (  -0.5000000   0.3331604   0.0000000), wk =   0.0277778
        k(   44) = (  -0.5000000   0.3331604   0.2376357), wk =   0.0555556
        k(   45) = (  -0.5000000   0.3331604  -0.4752715), wk =   0.0277778
        k(   46) = (  -0.5000000  -0.4997406   0.0000000), wk =   0.0138889
        k(   47) = (  -0.5000000  -0.4997406   0.2376357), wk =   0.0277778
        k(   48) = (  -0.5000000  -0.4997406  -0.4752715), wk =   0.0138889

     Dense  grid:    76731 G-vectors     FFT dimensions: (  54,  54,  60)

     Smooth grid:    19455 G-vectors     FFT dimensions: (  36,  36,  36)

     Estimated max dynamical RAM per process >      37.99 MB

     Estimated total dynamical RAM >     379.91 MB

     Check: negative core charge=   -0.000004

     Initial potential from superposition of free atoms

     starting charge      42.9982, renormalised to      44.0000

     negative rho (up, down):  1.669E-02 0.000E+00
     Starting wfcs are   31 randomized atomic wfcs

     total cpu time spent up to now is        0.8 secs

     Self-consistent Calculation

     iteration #  1     ecut=    50.00 Ry     beta= 0.70
     CG style diagonalization
     ethr =  1.00E-02,  avg # of iterations =  2.1

     negative rho (up, down):  1.400E-02 0.000E+00

     total cpu time spent up to now is        1.6 secs

     total energy              =    -380.06202892 Ry
     estimated scf accuracy    <       1.02193717 Ry

     iteration #  2     ecut=    50.00 Ry     beta= 0.70
     CG style diagonalization
     ethr =  2.32E-03,  avg # of iterations =  4.8

     negative rho (up, down):  1.451E-02 0.000E+00

     total cpu time spent up to now is        3.0 secs

     total energy              =    -379.75340098 Ry
     estimated scf accuracy    <       3.92780679 Ry

     iteration #  3     ecut=    50.00 Ry     beta= 0.70
     CG style diagonalization
     ethr =  2.32E-03,  avg # of iterations =  4.3

     negative rho (up, down):  1.512E-02 0.000E+00

     total cpu time spent up to now is        4.3 secs

     total energy              =    -380.53712382 Ry
     estimated scf accuracy    <       0.31169587 Ry

     iteration #  4     ecut=    50.00 Ry     beta= 0.70
     CG style diagonalization
     ethr =  7.08E-04,  avg # of iterations =  3.5

     negative rho (up, down):  1.511E-02 0.000E+00

     total cpu time spent up to now is        5.3 secs

     total energy              =    -380.56008816 Ry
     estimated scf accuracy    <       0.04218330 Ry

     iteration #  5     ecut=    50.00 Ry     beta= 0.70
     CG style diagonalization
     ethr =  9.59E-05,  avg # of iterations =  3.9

     negative rho (up, down):  1.512E-02 0.000E+00

     total cpu time spent up to now is        6.5 secs

     total energy              =    -380.57150582 Ry
     estimated scf accuracy    <       0.00786608 Ry

     iteration #  6     ecut=    50.00 Ry     beta= 0.70
     CG style diagonalization
     ethr =  1.79E-05,  avg # of iterations =  3.9

     negative rho (up, down):  1.512E-02 0.000E+00

     total cpu time spent up to now is        7.6 secs

     total energy              =    -380.57361664 Ry
     estimated scf accuracy    <       0.00618413 Ry

     iteration #  7     ecut=    50.00 Ry     beta= 0.70
     CG style diagonalization
     ethr =  1.41E-05,  avg # of iterations =  3.3

     negative rho (up, down):  1.513E-02 0.000E+00

     total cpu time spent up to now is        8.6 secs

     total energy              =    -380.57362402 Ry
     estimated scf accuracy    <       0.00162578 Ry

     iteration #  8     ecut=    50.00 Ry     beta= 0.70
     CG style diagonalization
     ethr =  3.69E-06,  avg # of iterations =  3.7

     negative rho (up, down):  1.516E-02 0.000E+00

     total cpu time spent up to now is        9.7 secs

     total energy              =    -380.57398072 Ry
     estimated scf accuracy    <       0.00000988 Ry

     iteration #  9     ecut=    50.00 Ry     beta= 0.70
     CG style diagonalization
     c_bands:  1 eigenvalues not converged
     c_bands:  1 eigenvalues not converged
     c_bands:  1 eigenvalues not converged
     ethr =  2.25E-08,  avg # of iterations =  7.8

     negative rho (up, down):  1.519E-02 0.000E+00

     total cpu time spent up to now is       12.0 secs

     total energy              =    -380.57404364 Ry
     estimated scf accuracy    <       0.00003907 Ry

     iteration # 10     ecut=    50.00 Ry     beta= 0.70
     CG style diagonalization
     ethr =  2.25E-08,  avg # of iterations =  3.5

     negative rho (up, down):  1.525E-02 0.000E+00

     total cpu time spent up to now is       13.1 secs

     total energy              =    -380.57403895 Ry
     estimated scf accuracy    <       0.00002160 Ry

     iteration # 11     ecut=    50.00 Ry     beta= 0.70
     CG style diagonalization
     ethr =  2.25E-08,  avg # of iterations =  3.7

     negative rho (up, down):  1.531E-02 0.000E+00

     total cpu time spent up to now is       14.2 secs

     total energy              =    -380.57404005 Ry
     estimated scf accuracy    <       0.00000228 Ry

     iteration # 12     ecut=    50.00 Ry     beta= 0.70
     CG style diagonalization
     ethr =  5.17E-09,  avg # of iterations =  4.8

     negative rho (up, down):  1.530E-02 0.000E+00

     total cpu time spent up to now is       15.6 secs

     total energy              =    -380.57404123 Ry
     estimated scf accuracy    <       0.00000096 Ry

     iteration # 13     ecut=    50.00 Ry     beta= 0.70
     CG style diagonalization
     ethr =  2.19E-09,  avg # of iterations =  5.1

     negative rho (up, down):  1.530E-02 0.000E+00

     total cpu time spent up to now is       17.2 secs

     total energy              =    -380.57404185 Ry
     estimated scf accuracy    <       0.00000003 Ry

     iteration # 14     ecut=    50.00 Ry     beta= 0.70
     CG style diagonalization
     c_bands:  1 eigenvalues not converged
     c_bands:  2 eigenvalues not converged
     c_bands:  1 eigenvalues not converged
     c_bands:  1 eigenvalues not converged
     ethr =  5.97E-11,  avg # of iterations = 10.8

     negative rho (up, down):  1.531E-02 0.000E+00

     total cpu time spent up to now is       20.5 secs

     End of self-consistent calculation

          k = 0.0000 0.0000 0.0000 (  2421 PWs)   bands (ev):

   -45.1710 -21.8502 -21.7681 -21.7676  -7.1669  -6.0146  -5.7560  -4.4125
    -4.4124  -4.3723  -4.2544  -4.1430   4.8399   6.7356   6.7397   7.1076
     8.7133   8.7142   8.9497   9.2902   9.4429   9.4437

          k = 0.0000 0.0000 0.2376 (  2433 PWs)   bands (ev):

   -45.1707 -21.8734 -21.7672 -21.7667  -6.9601  -5.9531  -5.6867  -4.4302
    -4.4301  -4.3708  -4.2426  -4.2197   3.9789   6.7906   6.7940   7.3079
     8.4600   8.4620   8.8669   9.3762   9.5618   9.5621

          k = 0.0000 0.0000-0.4753 (  2418 PWs)   bands (ev):

   -45.1704 -21.8965 -21.7663 -21.7657  -6.7354  -5.8858  -5.6240  -4.4477
    -4.4476  -4.3694  -4.3023  -4.2323   3.4365   6.6150   6.8251   6.8275
     8.3023   8.3056   8.7882   9.6378   9.6380  10.6504

          k = 0.0000 0.1666 0.0000 (  2423 PWs)   bands (ev):

   -45.1706 -21.8494 -21.7880 -21.7673  -7.0220  -5.9805  -5.7251  -4.4370
    -4.4108  -4.3872  -4.2574  -4.1312   4.3520   6.7989   6.8497   7.1405
     8.6695   8.7365   8.9482   9.0658   9.1711   9.5632

          k = 0.0000 0.1666 0.2376 (  2428 PWs)   bands (ev):

   -45.1703 -21.8724 -21.7869 -21.7663  -6.8317  -5.9349  -5.6500  -4.4355
    -4.4291  -4.3863  -4.2518  -4.1707   3.7454   6.5828   6.9152   7.3912
     8.1290   8.4443   8.7671   9.1609   9.2326   9.9332

          k = 0.0000 0.1666-0.4753 (  2426 PWs)   bands (ev):

   -45.1700 -21.8953 -21.7859 -21.7654  -6.6349  -5.8831  -5.5722  -4.4472
    -4.4318  -4.3855  -4.2568  -4.2058   3.2919   6.2669   6.9546   7.0385
     7.9325   8.2968   8.8343   9.2195   9.3142  10.5730

          k = 0.0000 0.3332 0.0000 (  2422 PWs)   bands (ev):

   -45.1699 -21.8477 -21.8283 -21.7656  -6.7075  -5.9065  -5.6792  -4.4742
    -4.4168  -4.4075  -4.2525  -4.1362   3.7245   6.4310   7.0933   7.1311
     8.3284   8.3596   8.8021   8.8552   9.2899  10.2169

          k = 0.0000 0.3332 0.2376 (  2417 PWs)   bands (ev):

   -45.1695 -21.8703 -21.8272 -21.7646  -6.5834  -5.8641  -5.5827  -4.4411
    -4.4271  -4.4169  -4.2454  -4.1102   3.3591   6.3012   7.0014   7.2299
     7.7631   8.1873   8.3415   8.9090   9.4237  10.2950

          k = 0.0000 0.3332-0.4753 (  2426 PWs)   bands (ev):

   -45.1692 -21.8928 -21.8259 -21.7636  -6.4913  -5.7968  -5.4558  -4.4464
    -4.4174  -4.4001  -4.2815  -4.0571   3.0391   5.9790   6.7640   7.2732
     7.6495   7.8149   8.1293   8.9403   9.8624  10.1239

          k = 0.0000-0.4997 0.0000 (  2436 PWs)   bands (ev):

   -45.1695 -21.8488 -21.8464 -21.7647  -6.5340  -5.8499  -5.6841  -4.4903
    -4.4313  -4.4059  -4.2264  -4.1685   3.5051   6.0473   7.3608   7.3737
     7.8306   7.9774   8.7237   8.8936   9.3207  11.0200

          k = 0.0000-0.4997 0.2376 (  2430 PWs)   bands (ev):

   -45.1692 -21.8690 -21.8473 -21.7637  -6.4757  -5.7741  -5.5762  -4.4535
    -4.4322  -4.4260  -4.2114  -4.1060   3.2075   6.0190   7.0318   7.2743
     7.5808   7.7785   8.4510   8.8876   9.4242  10.4999

          k = 0.0000-0.4997-0.4753 (  2432 PWs)   bands (ev):

   -45.1688 -21.8914 -21.8459 -21.7627  -6.4576  -5.6928  -5.4017  -4.4460
    -4.4332  -4.4089  -4.2669  -3.9953   2.9381   5.8385   6.4536   7.3344
     7.5991   7.8051   7.8280   8.8835   9.7988  10.1600

          k = 0.1667 0.0000 0.0000 (  2423 PWs)   bands (ev):

   -45.1706 -21.8493 -21.7886 -21.7667  -7.0215  -5.9803  -5.7250  -4.4369
    -4.4109  -4.3873  -4.2574  -4.1310   4.3522   6.8009   6.8457   7.1397
     8.6710   8.7353   8.9486   9.0661   9.1707   9.5631

          k = 0.1667 0.0000 0.2376 (  2425 PWs)   bands (ev):

   -45.1703 -21.8724 -21.7876 -21.7658  -6.8311  -5.9348  -5.6500  -4.4354
    -4.4292  -4.3864  -4.2520  -4.1701   3.7458   6.5845   6.9120   7.3907
     8.1284   8.4423   8.7670   9.1625   9.2322   9.9337

          k = 0.1667 0.0000-0.4753 (  2426 PWs)   bands (ev):

   -45.1700 -21.8953 -21.7866 -21.7648  -6.6342  -5.8833  -5.5721  -4.4473
    -4.4317  -4.3855  -4.2570  -4.2049   3.2925   6.2682   6.9525   7.0378
     7.9335   8.2934   8.8334   9.2216   9.3134  10.5721

          k = 0.1667 0.1666 0.0000 (  2421 PWs)   bands (ev):

   -45.1703 -21.8485 -21.7878 -21.7870  -6.8789  -5.9453  -5.7163  -4.4427
    -4.4271  -4.3909  -4.2334  -4.1201   4.0214   6.7224   6.9730   7.1966
     8.1940   8.3069   9.0414   9.0792   9.3838   9.7983

          k = 0.1667 0.1666 0.2376 (  2422 PWs)   bands (ev):

   -45.1699 -21.8714 -21.7867 -21.7860  -6.6997  -5.9194  -5.6415  -4.4457
    -4.4221  -4.3848  -4.2229  -4.1358   3.6220   6.5004   6.6093   7.3346
     8.0243   8.0424   8.8498   9.2236   9.4623   9.9037

          k = 0.1667 0.1666-0.4753 (  2444 PWs)   bands (ev):

   -45.1696 -21.8942 -21.7857 -21.7850  -6.5214  -5.8933  -5.5543  -4.4586
    -4.4005  -4.3621  -4.2283  -4.1576   3.2592   6.2851   6.3367   7.0262
     7.9325   7.9681   8.7532   9.2991   9.5206  10.2699

          k = 0.1667 0.3332 0.0000 (  2426 PWs)   bands (ev):

   -45.1695 -21.8469 -21.8272 -21.7858  -6.5726  -5.8730  -5.7138  -4.4672
    -4.4161  -4.3751  -4.2088  -4.1253   3.5091   6.4287   6.9732   7.2698
     7.6529   8.2416   8.5465   9.2225   9.4098  10.2966

          k = 0.1667 0.3332 0.2376 (  2428 PWs)   bands (ev):

   -45.1692 -21.8693 -21.8261 -21.7848  -6.4449  -5.8637  -5.6315  -4.4427
    -4.4168  -4.3517  -4.1878  -4.0841   3.3634   6.2499   6.3811   6.9373
     7.3896   8.0809   8.9029   9.1812   9.5156  10.0058

          k = 0.1667 0.3332-0.4753 (  2426 PWs)   bands (ev):

   -45.1688 -21.8918 -21.8249 -21.7838  -6.3553  -5.8402  -5.5097  -4.4403
    -4.3910  -4.3106  -4.2004  -4.0297   3.1735   5.8970   6.3132   6.6390
     6.8802   7.9391   9.0117   9.2271   9.5107   9.9518

          k = 0.1667-0.4997 0.0000 (  2420 PWs)   bands (ev):

   -45.1691 -21.8476 -21.8455 -21.7849  -6.4052  -5.8192  -5.7397  -4.4702
    -4.4081  -4.3533  -4.1904  -4.1588   3.3097   6.0662   7.0900   7.3161
     7.6164   7.9618   8.4110   9.2564   9.4070  10.6275

          k = 0.1667-0.4997 0.2376 (  2430 PWs)   bands (ev):

   -45.1688 -21.8681 -21.8463 -21.7839  -6.3358  -5.7843  -5.6540  -4.4409
    -4.4032  -4.3297  -4.1648  -4.0782   3.2453   6.0235   6.2759   6.6834
     7.3506   8.2239   8.6699   9.1918   9.5238   9.9700

          k = 0.1667-0.4997-0.4753 (  2412 PWs)   bands (ev):

   -45.1685 -21.8905 -21.8449 -21.7829  -6.3204  -5.7508  -5.4930  -4.4349
    -4.3592  -4.3071  -4.1835  -3.9688   3.1334   5.7908   6.1449   6.2964
     6.7349   8.0519   8.8804   9.1413   9.1690  10.1692

          k = 0.3333 0.0000 0.0000 (  2422 PWs)   bands (ev):

   -45.1699 -21.8477 -21.8292 -21.7650  -6.7059  -5.9058  -5.6789  -4.4740
    -4.4170  -4.4076  -4.2521  -4.1359   3.7244   6.4286   7.0931   7.1270
     8.3293   8.3580   8.8025   8.8553   9.2898  10.2177

          k = 0.3333 0.0000 0.2376 (  2421 PWs)   bands (ev):

   -45.1695 -21.8703 -21.8281 -21.7640  -6.5818  -5.8637  -5.5825  -4.4409
    -4.4273  -4.4171  -4.2455  -4.1091   3.3599   6.3001   7.0004   7.2267
     7.7619   8.1854   8.3403   8.9078   9.4246  10.2958

          k = 0.3333 0.0000-0.4753 (  2426 PWs)   bands (ev):

   -45.1692 -21.8928 -21.8268 -21.7630  -6.4898  -5.7967  -5.4555  -4.4465
    -4.4176  -4.3999  -4.2816  -4.0555   3.0406   5.9795   6.7621   7.2716
     7.6471   7.8136   8.1259   8.9385   9.8656  10.1204

          k = 0.3333 0.1666 0.0000 (  2426 PWs)   bands (ev):

   -45.1695 -21.8469 -21.8281 -21.7851  -6.5717  -5.8725  -5.7136  -4.4672
    -4.4161  -4.3752  -4.2087  -4.1252   3.5089   6.4261   6.9724   7.2688
     7.6536   8.2418   8.5465   9.2206   9.4097  10.2978

          k = 0.3333 0.1666 0.2376 (  2427 PWs)   bands (ev):

   -45.1692 -21.8693 -21.8271 -21.7841  -6.4439  -5.8634  -5.6314  -4.4426
    -4.4167  -4.3517  -4.1881  -4.0832   3.3639   6.2489   6.3798   6.9369
     7.3894   8.0797   8.8999   9.1800   9.5163  10.0067

          k = 0.3333 0.1666-0.4753 (  2426 PWs)   bands (ev):

   -45.1688 -21.8918 -21.8259 -21.7831  -6.3543  -5.8400  -5.5096  -4.4402
    -4.3910  -4.3106  -4.2009  -4.0283   3.1745   5.8974   6.3122   6.6386
     6.8777   7.9383   9.0091   9.2244   9.5107   9.9528

          k = 0.3333 0.3332 0.0000 (  2436 PWs)   bands (ev):

   -45.1687 -21.8451 -21.8259 -21.8250  -6.3062  -5.8058  -5.7651  -4.4469
    -4.3964  -4.3029  -4.1278  -4.1265   3.1037   6.4123   6.5067   7.3773
     7.5297   7.6781   8.3430   9.0674   9.8866  10.0266

          k = 0.3333 0.3332 0.2376 (  2426 PWs)   bands (ev):

   -45.1684 -21.8673 -21.8250 -21.8241  -6.1690  -5.8541  -5.7205  -4.4049
    -4.3893  -4.2422  -4.0791  -4.0471   3.2925   5.9581   6.0296   6.4091
     7.0518   7.5562   8.9657   9.4780   9.5228   9.9026

          k = 0.3333 0.3332-0.4753 (  2426 PWs)   bands (ev):

   -45.1681 -21.8896 -21.8239 -21.8230  -6.0991  -5.8990  -5.5963  -4.3822
    -4.3631  -4.1764  -4.0295  -3.9688   3.4575   5.5549   5.5746   6.1567
     6.8087   6.9676   8.2165   9.8565   9.8724  10.0354

          k = 0.3333-0.4997 0.0000 (  2454 PWs)   bands (ev):

   -45.1683 -21.8453 -21.8438 -21.8248  -6.1860  -5.7809  -5.7627  -4.4385
    -4.3723  -4.2380  -4.1617  -4.0914   2.9172   6.0595   6.5511   7.1894
     7.7217   7.8408   7.9615   9.0355   9.7080  10.0911

          k = 0.3333-0.4997 0.2376 (  2428 PWs)   bands (ev):

   -45.1680 -21.8661 -21.8441 -21.8240  -6.0506  -5.8093  -5.7791  -4.3955
    -4.3606  -4.1475  -4.0779  -4.0164   3.2187   5.8510   6.0027   6.0708
     6.8335   7.6276   8.4916   9.4767   9.5056  10.0624

          k = 0.3333-0.4997-0.4753 (  2420 PWs)   bands (ev):

   -45.1677 -21.8884 -21.8429 -21.8230  -6.0401  -5.8528  -5.6348  -4.3648
    -4.3383  -4.0842  -3.9931  -3.9125   3.5978   5.2860   5.4820   5.9122
     6.5695   6.9823   7.4306   9.9588  10.0348  10.1935

          k =-0.5000 0.0000 0.0000 (  2436 PWs)   bands (ev):

   -45.1695 -21.8498 -21.8464 -21.7642  -6.5320  -5.8488  -5.6838  -4.4901
    -4.4316  -4.4060  -4.2254  -4.1686   3.5050   6.0435   7.3594   7.3689
     7.8322   7.9765   8.7237   8.8936   9.3205  11.0222

          k =-0.5000 0.0000 0.2376 (  2430 PWs)   bands (ev):

   -45.1691 -21.8690 -21.8484 -21.7631  -6.4738  -5.7731  -5.5761  -4.4533
    -4.4325  -4.4261  -4.2115  -4.1045   3.2086   6.0157   7.0320   7.2721
     7.5758   7.7784   8.4501   8.8863   9.4242  10.5001

          k =-0.5000 0.0000-0.4753 (  2432 PWs)   bands (ev):

   -45.1688 -21.8914 -21.8469 -21.7621  -6.4560  -5.6921  -5.4014  -4.4461
    -4.4334  -4.4088  -4.2668  -3.9934   2.9401   5.8377   6.4508   7.3324
     7.5994   7.8001   7.8265   8.8815   9.7945  10.1619

          k =-0.5000 0.1666 0.0000 (  2420 PWs)   bands (ev):

   -45.1691 -21.8486 -21.8455 -21.7842  -6.4038  -5.8181  -5.7396  -4.4702
    -4.4081  -4.3533  -4.1896  -4.1591   3.3094   6.0623   7.0883   7.3178
     7.6140   7.9627   8.4109   9.2542   9.4065  10.6297

          k =-0.5000 0.1666 0.2376 (  2428 PWs)   bands (ev):

   -45.1688 -21.8680 -21.8473 -21.7832  -6.3346  -5.7834  -5.6540  -4.4408
    -4.4031  -4.3298  -4.1652  -4.0768   3.2460   6.0203   6.2742   6.6841
     7.3507   8.2233   8.6649   9.1907   9.5238   9.9703

          k =-0.5000 0.1666-0.4753 (  2416 PWs)   bands (ev):

   -45.1684 -21.8904 -21.8459 -21.7822  -6.3195  -5.7499  -5.4928  -4.4348
    -4.3591  -4.3072  -4.1840  -3.9670   3.1350   5.7906   6.1430   6.2941
     6.7342   8.0515   8.8746   9.1393   9.1673  10.1707

          k =-0.5000 0.3332 0.0000 (  2454 PWs)   bands (ev):

   -45.1683 -21.8463 -21.8437 -21.8239  -6.1857  -5.7812  -5.7618  -4.4385
    -4.3723  -4.2374  -4.1623  -4.0912   2.9171   6.0559   6.5540   7.1892
     7.7213   7.8380   7.9639   9.0355   9.7057  10.0929

          k =-0.5000 0.3332 0.2376 (  2430 PWs)   bands (ev):

   -45.1680 -21.8661 -21.8451 -21.8230  -6.0506  -5.8083  -5.7794  -4.3956
    -4.3604  -4.1471  -4.0789  -4.0155   3.2188   5.8503   6.0014   6.0710
     6.8343   7.6278   8.4898   9.4767   9.5053  10.0615

          k =-0.5000 0.3332-0.4753 (  2420 PWs)   bands (ev):

   -45.1677 -21.8884 -21.8440 -21.8220  -6.0406  -5.8516  -5.6347  -4.3650
    -4.3380  -4.0840  -3.9944  -3.9110   3.5984   5.2854   5.4835   5.9104
     6.5673   6.9844   7.4286   9.9570  10.0333  10.1949

          k =-0.5000-0.4997 0.0000 (  2480 PWs)   bands (ev):

   -45.1679 -21.8452 -21.8441 -21.8424  -6.1295  -5.7374  -5.7366  -4.4274
    -4.3241  -4.1840  -4.1831  -4.0399   2.7243   5.9065   6.3836   7.4031
     7.4034   7.9560   7.9593   8.8027   9.2269  10.3532

          k =-0.5000-0.4997 0.2376 (  2424 PWs)   bands (ev):

   -45.1676 -21.8649 -21.8441 -21.8430  -5.9152  -5.8235  -5.8224  -4.3832
    -4.3219  -4.0377  -4.0364  -4.0055   3.1407   5.8633   5.9746   5.9757
     6.3903   7.5691   7.8339   9.5057   9.5061  10.3357

          k =-0.5000-0.4997-0.4753 (  2400 PWs)   bands (ev):

   -45.1673 -21.8872 -21.8430 -21.8419  -5.8985  -5.8972  -5.6943  -4.3388
    -4.3198  -3.9595  -3.8998  -3.8982   3.8150   5.3147   5.3157   5.7455
     6.3969   6.4177   6.6747  10.2053  10.2067  10.3182

     highest occupied level (ev):    11.0222

!    total energy              =    -380.57404218 Ry
     estimated scf accuracy    <          7.7E-09 Ry

     The total energy is the sum of the following terms:
     one-electron contribution =     -79.71274331 Ry
     hartree contribution      =      69.93490114 Ry
     xc contribution           =    -102.67716066 Ry
     ewald contribution        =    -268.11903935 Ry

     convergence has been achieved in  14 iterations

     negative rho (up, down):  1.531E-02 0.000E+00

     Forces acting on atoms (cartesian axes, Ry/au):

     atom    1 type  1   force =     0.00000000    0.00000000    0.00017333
     atom    2 type  2   force =     0.00000000    0.00000000   -0.00072646
     atom    3 type  3   force =     0.00000000    0.00000000    0.00062300
     atom    4 type  3   force =     0.00000000    0.00000000   -0.00008920
     atom    5 type  3   force =     0.00000000    0.00000000    0.00001934

     Total force =     0.000977     Total SCF correction =     0.000107
     SCF correction compared to forces is large: reduce conv_thr to get better values


     Computing stress (Cartesian axis) and pressure


     negative rho (up, down):  1.531E-02 0.000E+00
          total   stress  (Ry/bohr**3)                   (kbar)     P=        0.02
   0.00000847   0.00000000   0.00000000            1.25        0.00        0.00
   0.00000000   0.00000182   0.00000000            0.00        0.27        0.00
   0.00000000   0.00000000  -0.00000998            0.00        0.00       -1.47


     BFGS Geometry Optimization
     Energy error            =      0.0E+00 Ry
     Gradient error          =      7.3E-04 Ry/Bohr

     bfgs converged in   1 scf cycles and   0 bfgs steps
     (criteria: energy <  1.0E-04 Ry, force <  1.0E-03 Ry/Bohr)

     End of BFGS Geometry Optimization

     Final energy             =    -380.5740421821 Ry
Begin final coordinates

ATOMIC_POSITIONS (crystal)
Pb               0.0000000000        0.0000000000        1.0051738283
Ti               0.5000000000        0.5000000000        0.5395344294
O                0.5000000000        0.5000000000        0.0995079024
O                0.5000000000        0.0000000000        0.6115340639
O                0.0000000000        0.5000000000        0.6115340639
End final coordinates



     Writing all to output data dir ./pto_T4_etam0p002.save/ :
     XML data file, charge density, pseudopotentials, collected wavefunctions
 
     init_run     :      0.45s CPU      0.55s WALL (       1 calls)
     electrons    :     18.60s CPU     19.70s WALL (       1 calls)
     forces       :      0.13s CPU      0.13s WALL (       1 calls)
     stress       :      1.36s CPU      1.38s WALL (       1 calls)

     Called by init_run:
     wfcinit      :      0.25s CPU      0.28s WALL (       1 calls)
     potinit      :      0.01s CPU      0.01s WALL (       1 calls)
     hinit0       :      0.11s CPU      0.14s WALL (       1 calls)

     Called by electrons:
     c_bands      :     16.31s CPU     17.24s WALL (      14 calls)
     sum_band     :      1.67s CPU      1.75s WALL (      14 calls)
     v_of_rho     :      0.02s CPU      0.02s WALL (      15 calls)
     newd         :      0.61s CPU      0.68s WALL (      15 calls)
     mix_rho      :      0.02s CPU      0.02s WALL (      14 calls)

     Called by c_bands:
     init_us_2    :      0.14s CPU      0.15s WALL (    1488 calls)
     init_us_2:cp :      0.14s CPU      0.15s WALL (    1488 calls)
     ccgdiagg     :     14.51s CPU     15.36s WALL (     672 calls)
     wfcrot       :      1.90s CPU      2.01s WALL (     672 calls)

     Called by *cgdiagg:
     h_psi        :      9.34s CPU      9.87s WALL (   55683 calls)
     s_psi        :      1.45s CPU      1.54s WALL (  110694 calls)

     Called by h_psi:
     h_psi:calbec :      1.45s CPU      1.53s WALL (   55683 calls)
     vloc_psi     :      6.67s CPU      7.04s WALL (   55683 calls)
     add_vuspsi   :      0.80s CPU      0.85s WALL (   55683 calls)
     hs_1psi      :      8.86s CPU      9.37s WALL (   55011 calls)
     s_1psi       :      2.15s CPU      2.27s WALL (   55011 calls)

     General routines
     calbec       :      2.58s CPU      2.74s WALL (  111606 calls)
     fft          :      0.02s CPU      0.04s WALL (      96 calls)
     ffts         :      0.00s CPU      0.00s WALL (      29 calls)
     fftw         :      5.66s CPU      5.97s WALL (  155238 calls)
     interpolate  :      0.01s CPU      0.01s WALL (      15 calls)
 
     Parallel routines
 
     PWSCF        :     20.81s CPU     22.48s WALL

 
   This run was terminated on:   0:25:40  18Nov2025            

=------------------------------------------------------------------------------=
   JOB DONE.
=------------------------------------------------------------------------------=
TACC:  Shutdown complete. Exiting. 
