TACC:  Starting up job 2409256 
TACC:  Starting parallel tasks... 

     Program PWSCF v.7.3 starts on 24Sep2025 at 14:50:58 

     This program is part of the open-source Quantum ESPRESSO suite
     for quantum simulation of materials; please cite
         "P. Giannozzi et al., J. Phys.:Condens. Matter 21 395502 (2009);
         "P. Giannozzi et al., J. Phys.:Condens. Matter 29 465901 (2017);
         "P. Giannozzi et al., J. Chem. Phys. 152 154105 (2020);
          URL http://www.quantum-espresso.org", 
     in publications or presentations arising from this work. More details at
     http://www.quantum-espresso.org/quote

     Parallel version (MPI & OpenMP), running on      10 processor cores
     Number of MPI processes:                10
     Threads/MPI process:                     1

     MPI processes distributed on     1 nodes
     189357 MiB available memory on the printing compute node when the environment starts
 
     Waiting for input...
     Reading input from standard input
Warning: card &CELL ignored
Warning: card  CELL_DYNAMICS = 'BFGS', ignored
Warning: card  PRESS=0.D0, ignored
Warning: card / ignored
     Message from routine read_cards :
     DEPRECATED: no units specified in ATOMIC_POSITIONS card
     Message from routine read_cards :
     ATOMIC_POSITIONS: units set to alat

     Current dimensions of program PWSCF are:
     Max number of different atomic species (ntypx) = 10
     Max number of k-points (npk) =  40000
     Max angular momentum in pseudopotentials (lmaxx) =  4
 
     R & G space division:  proc/nbgrp/npool/nimage =      10
     Subspace diagonalization in iterative solution of the eigenvalue problem:
     a serial algorithm will be used

 
     Parallelization info
     --------------------
     sticks:   dense  smooth     PW     G-vecs:    dense   smooth      PW
     Min         450     178     51                22752     5752     882
     Max         451     179     53                22754     5757     883
     Sum        4501    1789    517               227527    57555    8829
 
     Using Slab Decomposition
 


     bravais-lattice index     =            1
     lattice parameter (alat)  =       7.5237  a.u.
     unit-cell volume          =     425.8823 (a.u.)^3
     number of atoms/cell      =            5
     number of atomic types    =            3
     number of electrons       =        40.00
     number of Kohn-Sham states=           20
     kinetic-energy cutoff     =     100.0000  Ry
     charge density cutoff     =    1000.0000  Ry
     scf convergence threshold =      1.0E-08
     mixing beta               =       0.7000
     number of iterations used =            8  plain     mixing
     Exchange-correlation= SLA  PZ   NOGX NOGC
                           (   1   1   0   0   0   0   0)

     celldm(1)=   7.523672  celldm(2)=   0.000000  celldm(3)=   0.000000
     celldm(4)=   0.000000  celldm(5)=   0.000000  celldm(6)=   0.000000

     crystal axes: (cart. coord. in units of alat)
               a(1) = (   1.000000   0.000000   0.000000 )  
               a(2) = (   0.000000   1.000000   0.000000 )  
               a(3) = (   0.000000   0.000000   1.000000 )  

     reciprocal axes: (cart. coord. in units 2 pi/alat)
               b(1) = (  1.000000  0.000000  0.000000 )  
               b(2) = (  0.000000  1.000000  0.000000 )  
               b(3) = (  0.000000  0.000000  1.000000 )  


     PseudoPot. # 1 for Ca read from file:
     /scratch/11018/zhc/assisgnment1/CaTiO3/Ca_LDA.UPF
     MD5 check sum: d2d4e7693e10d071152e9eeb7dd009f3
     Pseudo is Ultrasoft + core correction, Zval = 10.0
     Generated by new atomic code, or converted to UPF format
     Using radial grid of  845 points,  6 beta functions with: 
                l(1) =   0
                l(2) =   0
                l(3) =   1
                l(4) =   1
                l(5) =   2
                l(6) =   2
     Q(r) pseudized with  8 coefficients,  rinner =    1.500   1.500   1.500
                                                       1.500   1.500

     PseudoPot. # 2 for Ti read from file:
     /scratch/11018/zhc/assisgnment1/CaTiO3/Ti_LDA.UPF
     MD5 check sum: 0d9f225c038fe889ca2a701dcc8d72cb
     Pseudo is Ultrasoft + core correction, Zval = 12.0
     Generated by new atomic code, or converted to UPF format
     Using radial grid of  851 points,  6 beta functions with: 
                l(1) =   0
                l(2) =   0
                l(3) =   1
                l(4) =   1
                l(5) =   2
                l(6) =   2
     Q(r) pseudized with  6 coefficients,  rinner =    1.000   1.000   1.000
                                                       1.000   1.000

     PseudoPot. # 3 for O  read from file:
     /scratch/11018/zhc/assisgnment1/CaTiO3/O_LDA.UPF
     MD5 check sum: 194b818514d2a7dbb603bb78519a4f40
     Pseudo is Ultrasoft + core correction, Zval =  6.0
     Generated by new atomic code, or converted to UPF format
     Using radial grid of  737 points,  5 beta functions with: 
                l(1) =   0
                l(2) =   0
                l(3) =   1
                l(4) =   1
                l(5) =   2
     Q(r) pseudized with  8 coefficients,  rinner =    0.900   0.900   0.900
                                                       0.900   0.900

     atomic species   valence    mass     pseudopotential
     Ca               10.00    40.07800     Ca( 1.00)
     Ti               12.00    47.88000     Ti( 1.00)
     O                 6.00    16.00000     O ( 1.00)

     48 Sym. Ops., with inversion, found



   Cartesian axes

     site n.     atom                  positions (alat units)
         1        Ca     tau(   1) = (   0.0000000   0.0000000   0.0000000  )
         2        Ti     tau(   2) = (   0.5000000   0.5000000   0.5000000  )
         3        O      tau(   3) = (   0.5000000   0.5000000   0.0000000  )
         4        O      tau(   4) = (   0.5000000   0.0000000   0.5000000  )
         5        O      tau(   5) = (   0.0000000   0.5000000   0.5000000  )

     number of k points=    20
                       cart. coord. in units 2pi/alat
        k(    1) = (   0.0000000   0.0000000   0.0000000), wk =   0.0092593
        k(    2) = (   0.0000000   0.0000000   0.1666667), wk =   0.0555556
        k(    3) = (   0.0000000   0.0000000   0.3333333), wk =   0.0555556
        k(    4) = (   0.0000000   0.0000000  -0.5000000), wk =   0.0277778
        k(    5) = (   0.0000000   0.1666667   0.1666667), wk =   0.1111111
        k(    6) = (   0.0000000   0.1666667   0.3333333), wk =   0.2222222
        k(    7) = (   0.0000000   0.1666667  -0.5000000), wk =   0.1111111
        k(    8) = (   0.0000000   0.3333333   0.3333333), wk =   0.1111111
        k(    9) = (   0.0000000   0.3333333  -0.5000000), wk =   0.1111111
        k(   10) = (   0.0000000  -0.5000000  -0.5000000), wk =   0.0277778
        k(   11) = (   0.1666667   0.1666667   0.1666667), wk =   0.0740741
        k(   12) = (   0.1666667   0.1666667   0.3333333), wk =   0.2222222
        k(   13) = (   0.1666667   0.1666667  -0.5000000), wk =   0.1111111
        k(   14) = (   0.1666667   0.3333333   0.3333333), wk =   0.2222222
        k(   15) = (   0.1666667   0.3333333  -0.5000000), wk =   0.2222222
        k(   16) = (   0.1666667  -0.5000000  -0.5000000), wk =   0.0555556
        k(   17) = (   0.3333333   0.3333333   0.3333333), wk =   0.0740741
        k(   18) = (   0.3333333   0.3333333  -0.5000000), wk =   0.1111111
        k(   19) = (   0.3333333  -0.5000000  -0.5000000), wk =   0.0555556
        k(   20) = (  -0.5000000  -0.5000000  -0.5000000), wk =   0.0092593

     Dense  grid:   227527 G-vectors     FFT dimensions: (  75,  75,  75)

     Smooth grid:    57555 G-vectors     FFT dimensions: (  48,  48,  48)

     Estimated max dynamical RAM per process >      96.63 MB

     Estimated total dynamical RAM >     966.33 MB

     Check: negative core charge=   -0.000001

     Initial potential from superposition of free atoms

     starting charge      38.9952, renormalised to      40.0000

     negative rho (up, down):  8.888E-04 0.000E+00
     Starting wfcs are   32 randomized atomic wfcs

     total cpu time spent up to now is        0.9 secs

     Self-consistent Calculation

     iteration #  1     ecut=   100.00 Ry     beta= 0.70
     CG style diagonalization
     ethr =  1.00E-02,  avg # of iterations =  2.2

     negative rho (up, down):  1.179E-03 0.000E+00

     total cpu time spent up to now is        1.7 secs

     total energy              =    -291.25280280 Ry
     estimated scf accuracy    <       0.84556025 Ry

     iteration #  2     ecut=   100.00 Ry     beta= 0.70
     CG style diagonalization
     ethr =  2.11E-03,  avg # of iterations =  5.3

     negative rho (up, down):  6.241E-04 0.000E+00

     total cpu time spent up to now is        3.1 secs

     total energy              =    -290.15023386 Ry
     estimated scf accuracy    <      10.20694793 Ry

     iteration #  3     ecut=   100.00 Ry     beta= 0.70
     CG style diagonalization
     ethr =  2.11E-03,  avg # of iterations =  4.7

     negative rho (up, down):  7.345E-04 0.000E+00

     total cpu time spent up to now is        4.3 secs

     total energy              =    -291.68826759 Ry
     estimated scf accuracy    <       0.21951288 Ry

     iteration #  4     ecut=   100.00 Ry     beta= 0.70
     CG style diagonalization
     ethr =  5.49E-04,  avg # of iterations =  3.6

     negative rho (up, down):  8.068E-04 0.000E+00

     total cpu time spent up to now is        5.3 secs

     total energy              =    -291.71132770 Ry
     estimated scf accuracy    <       0.08306232 Ry

     iteration #  5     ecut=   100.00 Ry     beta= 0.70
     CG style diagonalization
     ethr =  2.08E-04,  avg # of iterations =  3.5

     negative rho (up, down):  8.583E-04 0.000E+00

     total cpu time spent up to now is        6.3 secs

     total energy              =    -291.71892667 Ry
     estimated scf accuracy    <       0.00868790 Ry

     iteration #  6     ecut=   100.00 Ry     beta= 0.70
     CG style diagonalization
     ethr =  2.17E-05,  avg # of iterations =  3.7

     negative rho (up, down):  8.755E-04 0.000E+00

     total cpu time spent up to now is        7.3 secs

     total energy              =    -291.72166395 Ry
     estimated scf accuracy    <       0.00003126 Ry

     iteration #  7     ecut=   100.00 Ry     beta= 0.70
     CG style diagonalization
     ethr =  7.81E-08,  avg # of iterations =  5.6

     negative rho (up, down):  8.750E-04 0.000E+00

     total cpu time spent up to now is        8.7 secs

     total energy              =    -291.72196424 Ry
     estimated scf accuracy    <       0.00034961 Ry

     iteration #  8     ecut=   100.00 Ry     beta= 0.70
     CG style diagonalization
     ethr =  7.81E-08,  avg # of iterations =  4.2

     negative rho (up, down):  8.728E-04 0.000E+00

     total cpu time spent up to now is        9.8 secs

     total energy              =    -291.72197231 Ry
     estimated scf accuracy    <       0.00004949 Ry

     iteration #  9     ecut=   100.00 Ry     beta= 0.70
     CG style diagonalization
     ethr =  7.81E-08,  avg # of iterations =  3.6

     negative rho (up, down):  8.717E-04 0.000E+00

     total cpu time spent up to now is       10.8 secs

     total energy              =    -291.72197746 Ry
     estimated scf accuracy    <       0.00000217 Ry

     iteration # 10     ecut=   100.00 Ry     beta= 0.70
     CG style diagonalization
     ethr =  5.43E-09,  avg # of iterations =  3.8

     negative rho (up, down):  8.716E-04 0.000E+00

     total cpu time spent up to now is       11.8 secs

     total energy              =    -291.72197798 Ry
     estimated scf accuracy    <       0.00000014 Ry

     iteration # 11     ecut=   100.00 Ry     beta= 0.70
     CG style diagonalization
     ethr =  3.47E-10,  avg # of iterations =  4.3

     negative rho (up, down):  8.716E-04 0.000E+00

     total cpu time spent up to now is       12.9 secs

     total energy              =    -291.72197818 Ry
     estimated scf accuracy    <       0.00000004 Ry

     iteration # 12     ecut=   100.00 Ry     beta= 0.70
     CG style diagonalization
     ethr =  1.00E-10,  avg # of iterations =  3.5

     negative rho (up, down):  8.717E-04 0.000E+00

     total cpu time spent up to now is       13.9 secs

     End of self-consistent calculation

          k = 0.0000 0.0000 0.0000 (  7123 PWs)   bands (ev):

   -48.2830 -31.3067 -24.8277 -24.8277 -24.8277 -12.4884 -12.4884 -12.4884
    -9.1571  -8.1238  -8.1238   4.8135   4.8135   4.8135   6.7439   6.7439
     6.7439   7.3157   7.3157   7.3157

          k = 0.0000 0.0000 0.1667 (  7172 PWs)   bands (ev):

   -48.2828 -31.3057 -24.8408 -24.8271 -24.8271 -12.5289 -12.4863 -12.4863
    -9.0278  -8.1156  -8.0708   4.5275   4.8382   4.8382   6.4055   6.4055
     6.5439   6.5694   7.1978   7.1978

          k = 0.0000 0.0000 0.3333 (  7140 PWs)   bands (ev):

   -48.2824 -31.3036 -24.8667 -24.8259 -24.8259 -12.6067 -12.4822 -12.4822
    -8.7626  -8.0990  -7.9615   3.9205   4.9392   4.9392   5.5651   5.7828
     5.7828   6.1927   7.0941   7.0941

          k = 0.0000 0.0000-0.5000 (  7224 PWs)   bands (ev):

   -48.2822 -31.3025 -24.8796 -24.8253 -24.8253 -12.6440 -12.4802 -12.4802
    -8.6270  -8.0906  -7.9038   3.5913   5.0882   5.0882   5.2022   5.4164
     5.4164   6.0354   7.0572   7.0572

          k = 0.0000 0.1667 0.1667 (  7165 PWs)   bands (ev):

   -48.2826 -31.3046 -24.8403 -24.8401 -24.8265 -12.5335 -12.5126 -12.4842
    -8.9082  -8.0874  -8.0400   4.3805   4.6919   4.8604   5.7059   6.1972
     6.4960   6.6337   6.9201   6.9726

          k = 0.0000 0.1667 0.3333 (  7173 PWs)   bands (ev):

   -48.2822 -31.3025 -24.8663 -24.8392 -24.8254 -12.5952 -12.5103 -12.4799
    -8.6689  -8.0625  -7.9353   3.8845   4.5135   4.9537   4.9571   5.6955
     5.9023   6.5760   6.7779   6.8491

          k = 0.0000 0.1667-0.5000 (  7200 PWs)   bands (ev):

   -48.2820 -31.3014 -24.8792 -24.8386 -24.8248 -12.6283 -12.5059 -12.4777
    -8.5525  -8.0505  -7.8724   3.5840   4.3172   4.7965   5.1037   5.3534
     5.6973   6.5657   6.7234   6.7594

          k = 0.0000 0.3333 0.3333 (  7219 PWs)   bands (ev):

   -48.2818 -31.3003 -24.8655 -24.8653 -24.8242 -12.5788 -12.5591 -12.4752
    -8.5168  -7.9552  -7.8676   3.6541   4.0570   4.1247   5.0175   5.4602
     5.9659   6.1185   6.3664   7.3699

          k = 0.0000 0.3333-0.5000 (  7222 PWs)   bands (ev):

   -48.2816 -31.2992 -24.8785 -24.8650 -24.8237 -12.5970 -12.5566 -12.4728
    -8.4644  -7.8934  -7.8098   3.5331   3.5539   4.0577   5.1443   5.2320
     5.8921   6.1003   6.2272   7.4975

          k = 0.0000-0.5000-0.5000 (  7184 PWs)   bands (ev):

   -48.2814 -31.2981 -24.8781 -24.8781 -24.8231 -12.5814 -12.5814 -12.4704
    -8.4475  -7.7786  -7.7786   3.2779   3.3899   3.7711   5.1734   5.1734
     5.9858   5.9858   6.0174   7.7251

          k = 0.1667 0.1667 0.1667 (  7163 PWs)   bands (ev):

   -48.2824 -31.3035 -24.8397 -24.8397 -24.8396 -12.5357 -12.5086 -12.5086
    -8.7922  -8.0377  -8.0377   4.2472   4.6928   4.6928   5.6360   5.6360
     5.9532   6.8446   6.8446   6.9896

          k = 0.1667 0.1667 0.3333 (  7179 PWs)   bands (ev):

   -48.2820 -31.3014 -24.8658 -24.8387 -24.8385 -12.5849 -12.5113 -12.5007
    -8.5633  -8.0332  -7.9226   3.8492   4.4287   4.6686   4.8656   5.1044
     5.8458   6.6224   6.8036   6.9903

          k = 0.1667 0.1667-0.5000 (  7192 PWs)   bands (ev):

   -48.2818 -31.3003 -24.8788 -24.8382 -24.8379 -12.6144 -12.5069 -12.4967
    -8.4542  -8.0309  -7.8523   3.5795   4.2111   4.6145   4.6515   4.9582
     5.9000   6.4849   6.7851   6.9136

          k = 0.1667 0.3333 0.3333 (  7202 PWs)   bands (ev):

   -48.2816 -31.2992 -24.8649 -24.8648 -24.8374 -12.5701 -12.5519 -12.4971
    -8.3869  -7.9457  -7.8767   3.6652   4.1048   4.1254   4.5652   4.8326
     5.3734   6.7143   6.7494   7.3960

          k = 0.1667 0.3333-0.5000 (  7194 PWs)   bands (ev):

   -48.2814 -31.2981 -24.8778 -24.8643 -24.8368 -12.5867 -12.5498 -12.4932
    -8.3274  -7.9056  -7.8127   3.5351   3.6359   4.0566   4.5315   4.6865
     5.3666   6.6740   6.7402   7.5181

          k = 0.1667-0.5000-0.5000 (  7200 PWs)   bands (ev):

   -48.2812 -31.2970 -24.8774 -24.8774 -24.8362 -12.5728 -12.5728 -12.4896
    -8.3043  -7.7931  -7.7931   3.3870   3.3954   3.7750   4.5510   4.5510
     5.2995   6.7081   6.7081   7.7459

          k = 0.3333 0.3333 0.3333 (  7205 PWs)   bands (ev):

   -48.2812 -31.2971 -24.8638 -24.8635 -24.8635 -12.5558 -12.5374 -12.5374
    -8.1424  -7.8951  -7.8951   3.6218   4.0820   4.0820   4.1642   4.2820
     4.2820   7.2201   7.2201   7.5208

          k = 0.3333 0.3333-0.5000 (  7178 PWs)   bands (ev):

   -48.2810 -31.2961 -24.8766 -24.8631 -24.8628 -12.5659 -12.5400 -12.5300
    -8.0615  -7.9044  -7.8191   3.5002   3.7467   3.9510   3.9703   4.2012
     4.2912   7.3051   7.3853   7.6167

          k = 0.3333-0.5000-0.5000 (  7200 PWs)   bands (ev):

   -48.2809 -31.2950 -24.8760 -24.8760 -24.8623 -12.5555 -12.5555 -12.5278
    -7.9999  -7.8225  -7.8225   3.3633   3.6123   3.7829   3.9454   3.9454
     4.1716   7.5044   7.5044   7.7884

          k =-0.5000-0.5000-0.5000 (  7208 PWs)   bands (ev):

   -48.2807 -31.2940 -24.8753 -24.8753 -24.8753 -12.5467 -12.5467 -12.5467
    -7.8372  -7.8372  -7.8372   3.2401   3.7288   3.7288   3.7288   3.7869
     3.7869   7.8101   7.8101   7.8101

     highest occupied level (ev):     7.8101

!    total energy              =    -291.72197818 Ry
     estimated scf accuracy    <          8.2E-09 Ry

     The total energy is the sum of the following terms:
     one-electron contribution =    -100.19089454 Ry
     hartree contribution      =      67.89322467 Ry
     xc contribution           =     -50.99305026 Ry
     ewald contribution        =    -208.43125805 Ry

     convergence has been achieved in  12 iterations

     negative rho (up, down):  8.717E-04 0.000E+00

     Forces acting on atoms (cartesian axes, Ry/au):

     atom    1 type  1   force =     0.00000000    0.00000000    0.00000000
     atom    2 type  2   force =     0.00000000    0.00000000    0.00000000
     atom    3 type  3   force =     0.00000000    0.00000000    0.00000000
     atom    4 type  3   force =     0.00000000    0.00000000    0.00000000
     atom    5 type  3   force =     0.00000000    0.00000000    0.00000000

     Total force =     0.000000     Total SCF correction =     0.000000


     Computing stress (Cartesian axis) and pressure


     negative rho (up, down):  8.717E-04 0.000E+00
          total   stress  (Ry/bohr**3)                   (kbar)     P=     -206.69
  -0.00140508   0.00000000   0.00000000         -206.69        0.00        0.00
   0.00000000  -0.00140508   0.00000000            0.00     -206.69        0.00
   0.00000000   0.00000000  -0.00140508            0.00        0.00     -206.69


     Writing all to output data dir ./CTO_module_19.save/ :
     XML data file, charge density, pseudopotentials, collected wavefunctions
 
     init_run     :      0.54s CPU      0.64s WALL (       1 calls)
     electrons    :     12.43s CPU     13.05s WALL (       1 calls)
     forces       :      0.22s CPU      0.26s WALL (       1 calls)
     stress       :      1.87s CPU      1.92s WALL (       1 calls)

     Called by init_run:
     wfcinit      :      0.21s CPU      0.23s WALL (       1 calls)
     potinit      :      0.02s CPU      0.02s WALL (       1 calls)
     hinit0       :      0.14s CPU      0.18s WALL (       1 calls)

     Called by electrons:
     c_bands      :      8.61s CPU      8.93s WALL (      12 calls)
     sum_band     :      2.34s CPU      2.46s WALL (      12 calls)
     v_of_rho     :      0.04s CPU      0.05s WALL (      13 calls)
     newd         :      1.50s CPU      1.67s WALL (      13 calls)
     mix_rho      :      0.03s CPU      0.04s WALL (      12 calls)

     Called by c_bands:
     init_us_2    :      0.15s CPU      0.15s WALL (     540 calls)
     init_us_2:cp :      0.15s CPU      0.15s WALL (     540 calls)
     ccgdiagg     :      7.45s CPU      7.73s WALL (     240 calls)
     wfcrot       :      1.24s CPU      1.29s WALL (     240 calls)

     Called by *cgdiagg:
     h_psi        :      5.40s CPU      5.59s WALL (   14990 calls)
     s_psi        :      1.01s CPU      1.05s WALL (   29740 calls)

     Called by h_psi:
     h_psi:calbec :      0.93s CPU      0.96s WALL (   14990 calls)
     vloc_psi     :      3.75s CPU      3.89s WALL (   14990 calls)
     add_vuspsi   :      0.57s CPU      0.59s WALL (   14990 calls)
     hs_1psi      :      4.94s CPU      5.12s WALL (   14750 calls)
     s_1psi       :      1.21s CPU      1.25s WALL (   14750 calls)

     General routines
     calbec       :      1.61s CPU      1.67s WALL (   30080 calls)
     fft          :      0.06s CPU      0.08s WALL (      84 calls)
     ffts         :      0.00s CPU      0.01s WALL (      25 calls)
     fftw         :      2.97s CPU      3.06s WALL (   44380 calls)
     interpolate  :      0.01s CPU      0.02s WALL (      13 calls)
 
     Parallel routines
 
     PWSCF        :     15.29s CPU     16.47s WALL

 
   This run was terminated on:  14:51:15  24Sep2025            

=------------------------------------------------------------------------------=
   JOB DONE.
=------------------------------------------------------------------------------=
TACC:  Shutdown complete. Exiting. 
