TACC:  Starting up job 2387920 
TACC:  Starting parallel tasks... 

     Program PWSCF v.7.3 starts on 19Sep2025 at 16:49:12 

     This program is part of the open-source Quantum ESPRESSO suite
     for quantum simulation of materials; please cite
         "P. Giannozzi et al., J. Phys.:Condens. Matter 21 395502 (2009);
         "P. Giannozzi et al., J. Phys.:Condens. Matter 29 465901 (2017);
         "P. Giannozzi et al., J. Chem. Phys. 152 154105 (2020);
          URL http://www.quantum-espresso.org", 
     in publications or presentations arising from this work. More details at
     http://www.quantum-espresso.org/quote

     Parallel version (MPI & OpenMP), running on      10 processor cores
     Number of MPI processes:                10
     Threads/MPI process:                     1

     MPI processes distributed on     1 nodes
     186319 MiB available memory on the printing compute node when the environment starts
 
     Waiting for input...
     Reading input from standard input
Warning: card &CELL ignored
Warning: card  CELL_DYNAMICS = 'BFGS', ignored
Warning: card  PRESS=0.D0, ignored
Warning: card / ignored
     Message from routine read_cards :
     DEPRECATED: no units specified in ATOMIC_POSITIONS card
     Message from routine read_cards :
     ATOMIC_POSITIONS: units set to alat
Warning: card   2 2 2 0 0 0 ignored

     Current dimensions of program PWSCF are:
     Max number of different atomic species (ntypx) = 10
     Max number of k-points (npk) =  40000
     Max angular momentum in pseudopotentials (lmaxx) =  4
 
     R & G space division:  proc/nbgrp/npool/nimage =      10
     Subspace diagonalization in iterative solution of the eigenvalue problem:
     a serial algorithm will be used

 
     Parallelization info
     --------------------
     sticks:   dense  smooth     PW     G-vecs:    dense   smooth      PW
     Min         215      86     25                 7503     1909     318
     Max         217      87     27                 7505     1911     321
     Sum        2161     869    261                75037    19093    3191
 
     Using Slab Decomposition
 


     bravais-lattice index     =            1
     lattice parameter (alat)  =       7.3573  a.u.
     unit-cell volume          =     398.2496 (a.u.)^3
     number of atoms/cell      =            5
     number of atomic types    =            3
     number of electrons       =        40.00
     number of Kohn-Sham states=           20
     kinetic-energy cutoff     =      50.0000  Ry
     charge density cutoff     =     500.0000  Ry
     scf convergence threshold =      1.0E-08
     mixing beta               =       0.7000
     number of iterations used =            8  plain     mixing
     Exchange-correlation= SLA  PZ   NOGX NOGC
                           (   1   1   0   0   0   0   0)

     celldm(1)=   7.357300  celldm(2)=   0.000000  celldm(3)=   0.000000
     celldm(4)=   0.000000  celldm(5)=   0.000000  celldm(6)=   0.000000

     crystal axes: (cart. coord. in units of alat)
               a(1) = (   1.000000   0.000000   0.000000 )  
               a(2) = (   0.000000   1.000000   0.000000 )  
               a(3) = (   0.000000   0.000000   1.000000 )  

     reciprocal axes: (cart. coord. in units 2 pi/alat)
               b(1) = (  1.000000  0.000000  0.000000 )  
               b(2) = (  0.000000  1.000000  0.000000 )  
               b(3) = (  0.000000  0.000000  1.000000 )  


     PseudoPot. # 1 for Ca read from file:
     /scratch/11018/zhc/assisgnment1/CaTiO3/Ca_LDA.UPF
     MD5 check sum: d2d4e7693e10d071152e9eeb7dd009f3
     Pseudo is Ultrasoft + core correction, Zval = 10.0
     Generated by new atomic code, or converted to UPF format
     Using radial grid of  845 points,  6 beta functions with: 
                l(1) =   0
                l(2) =   0
                l(3) =   1
                l(4) =   1
                l(5) =   2
                l(6) =   2
     Q(r) pseudized with  8 coefficients,  rinner =    1.500   1.500   1.500
                                                       1.500   1.500

     PseudoPot. # 2 for Ti read from file:
     /scratch/11018/zhc/assisgnment1/CaTiO3/Ti_LDA.UPF
     MD5 check sum: 0d9f225c038fe889ca2a701dcc8d72cb
     Pseudo is Ultrasoft + core correction, Zval = 12.0
     Generated by new atomic code, or converted to UPF format
     Using radial grid of  851 points,  6 beta functions with: 
                l(1) =   0
                l(2) =   0
                l(3) =   1
                l(4) =   1
                l(5) =   2
                l(6) =   2
     Q(r) pseudized with  6 coefficients,  rinner =    1.000   1.000   1.000
                                                       1.000   1.000

     PseudoPot. # 3 for O  read from file:
     /scratch/11018/zhc/assisgnment1/CaTiO3/O_LDA.UPF
     MD5 check sum: 194b818514d2a7dbb603bb78519a4f40
     Pseudo is Ultrasoft + core correction, Zval =  6.0
     Generated by new atomic code, or converted to UPF format
     Using radial grid of  737 points,  5 beta functions with: 
                l(1) =   0
                l(2) =   0
                l(3) =   1
                l(4) =   1
                l(5) =   2
     Q(r) pseudized with  8 coefficients,  rinner =    0.900   0.900   0.900
                                                       0.900   0.900

     atomic species   valence    mass     pseudopotential
     Ca               10.00    40.07800     Ca( 1.00)
     Ti               12.00    47.88000     Ti( 1.00)
     O                 6.00    16.00000     O ( 1.00)

     48 Sym. Ops., with inversion, found



   Cartesian axes

     site n.     atom                  positions (alat units)
         1        Ca     tau(   1) = (   0.0000000   0.0000000   0.0000000  )
         2        Ti     tau(   2) = (   0.5000000   0.5000000   0.5000000  )
         3        O      tau(   3) = (   0.5000000   0.5000000   0.0000000  )
         4        O      tau(   4) = (   0.5000000   0.0000000   0.5000000  )
         5        O      tau(   5) = (   0.0000000   0.5000000   0.5000000  )

     number of k points=    20
                       cart. coord. in units 2pi/alat
        k(    1) = (   0.0000000   0.0000000   0.0000000), wk =   0.0092593
        k(    2) = (   0.0000000   0.0000000   0.1666667), wk =   0.0555556
        k(    3) = (   0.0000000   0.0000000   0.3333333), wk =   0.0555556
        k(    4) = (   0.0000000   0.0000000  -0.5000000), wk =   0.0277778
        k(    5) = (   0.0000000   0.1666667   0.1666667), wk =   0.1111111
        k(    6) = (   0.0000000   0.1666667   0.3333333), wk =   0.2222222
        k(    7) = (   0.0000000   0.1666667  -0.5000000), wk =   0.1111111
        k(    8) = (   0.0000000   0.3333333   0.3333333), wk =   0.1111111
        k(    9) = (   0.0000000   0.3333333  -0.5000000), wk =   0.1111111
        k(   10) = (   0.0000000  -0.5000000  -0.5000000), wk =   0.0277778
        k(   11) = (   0.1666667   0.1666667   0.1666667), wk =   0.0740741
        k(   12) = (   0.1666667   0.1666667   0.3333333), wk =   0.2222222
        k(   13) = (   0.1666667   0.1666667  -0.5000000), wk =   0.1111111
        k(   14) = (   0.1666667   0.3333333   0.3333333), wk =   0.2222222
        k(   15) = (   0.1666667   0.3333333  -0.5000000), wk =   0.2222222
        k(   16) = (   0.1666667  -0.5000000  -0.5000000), wk =   0.0555556
        k(   17) = (   0.3333333   0.3333333   0.3333333), wk =   0.0740741
        k(   18) = (   0.3333333   0.3333333  -0.5000000), wk =   0.1111111
        k(   19) = (   0.3333333  -0.5000000  -0.5000000), wk =   0.0555556
        k(   20) = (  -0.5000000  -0.5000000  -0.5000000), wk =   0.0092593

     Dense  grid:    75037 G-vectors     FFT dimensions: (  54,  54,  54)

     Smooth grid:    19093 G-vectors     FFT dimensions: (  36,  36,  36)

     Estimated max dynamical RAM per process >      34.93 MB

     Estimated total dynamical RAM >     349.29 MB

     Check: negative core charge=   -0.000005

     Initial potential from superposition of free atoms

     starting charge      38.9952, renormalised to      40.0000

     negative rho (up, down):  5.762E-04 0.000E+00
     Starting wfcs are   32 randomized atomic wfcs

     total cpu time spent up to now is        0.6 secs

     Self-consistent Calculation

     iteration #  1     ecut=    50.00 Ry     beta= 0.70
     CG style diagonalization
     ethr =  1.00E-02,  avg # of iterations =  2.2

     negative rho (up, down):  1.236E-03 0.000E+00

     total cpu time spent up to now is        1.0 secs

     total energy              =    -291.29957021 Ry
     estimated scf accuracy    <       0.82825940 Ry

     iteration #  2     ecut=    50.00 Ry     beta= 0.70
     CG style diagonalization
     ethr =  2.07E-03,  avg # of iterations =  5.2

     negative rho (up, down):  3.892E-04 0.000E+00

     total cpu time spent up to now is        1.7 secs

     total energy              =    -290.56312101 Ry
     estimated scf accuracy    <       6.87686635 Ry

     iteration #  3     ecut=    50.00 Ry     beta= 0.70
     CG style diagonalization
     ethr =  2.07E-03,  avg # of iterations =  4.5

     negative rho (up, down):  4.223E-04 0.000E+00

     total cpu time spent up to now is        2.3 secs

     total energy              =    -291.73199390 Ry
     estimated scf accuracy    <       0.19543003 Ry

     iteration #  4     ecut=    50.00 Ry     beta= 0.70
     CG style diagonalization
     ethr =  4.89E-04,  avg # of iterations =  3.4

     negative rho (up, down):  5.345E-04 0.000E+00

     total cpu time spent up to now is        2.7 secs

     total energy              =    -291.73836935 Ry
     estimated scf accuracy    <       0.05675935 Ry

     iteration #  5     ecut=    50.00 Ry     beta= 0.70
     CG style diagonalization
     ethr =  1.42E-04,  avg # of iterations =  3.6

     negative rho (up, down):  6.268E-04 0.000E+00

     total cpu time spent up to now is        3.2 secs

     total energy              =    -291.74867412 Ry
     estimated scf accuracy    <       0.00061831 Ry

     iteration #  6     ecut=    50.00 Ry     beta= 0.70
     CG style diagonalization
     ethr =  1.55E-06,  avg # of iterations =  4.7

     negative rho (up, down):  6.145E-04 0.000E+00

     total cpu time spent up to now is        3.8 secs

     total energy              =    -291.74988459 Ry
     estimated scf accuracy    <       0.00101255 Ry

     iteration #  7     ecut=    50.00 Ry     beta= 0.70
     CG style diagonalization
     ethr =  1.55E-06,  avg # of iterations =  3.6

     negative rho (up, down):  6.029E-04 0.000E+00

     total cpu time spent up to now is        4.2 secs

     total energy              =    -291.74993800 Ry
     estimated scf accuracy    <       0.00012380 Ry

     iteration #  8     ecut=    50.00 Ry     beta= 0.70
     CG style diagonalization
     ethr =  3.10E-07,  avg # of iterations =  3.7

     negative rho (up, down):  6.002E-04 0.000E+00

     total cpu time spent up to now is        4.7 secs

     total energy              =    -291.74996245 Ry
     estimated scf accuracy    <       0.00000295 Ry

     iteration #  9     ecut=    50.00 Ry     beta= 0.70
     CG style diagonalization
     ethr =  7.38E-09,  avg # of iterations =  4.5

     negative rho (up, down):  6.003E-04 0.000E+00

     total cpu time spent up to now is        5.3 secs

     total energy              =    -291.74996674 Ry
     estimated scf accuracy    <       0.00000090 Ry

     iteration # 10     ecut=    50.00 Ry     beta= 0.70
     CG style diagonalization
     ethr =  2.26E-09,  avg # of iterations =  3.5

     negative rho (up, down):  6.008E-04 0.000E+00

     total cpu time spent up to now is        5.7 secs

     total energy              =    -291.74996683 Ry
     estimated scf accuracy    <       0.00000012 Ry

     iteration # 11     ecut=    50.00 Ry     beta= 0.70
     CG style diagonalization
     ethr =  2.89E-10,  avg # of iterations =  3.9

     negative rho (up, down):  6.007E-04 0.000E+00

     total cpu time spent up to now is        6.2 secs

     End of self-consistent calculation

          k = 0.0000 0.0000 0.0000 (  2373 PWs)   bands (ev):

   -47.1544 -30.2097 -23.7460 -23.7460 -23.7460 -11.4049 -11.4049 -11.4049
    -8.5596  -7.4459  -7.4459   5.5759   5.5759   5.5759   7.5040   7.5040
     7.5040   8.2052   8.2052   8.2052

          k = 0.0000 0.0000 0.1667 (  2401 PWs)   bands (ev):

   -47.1541 -30.2083 -23.7641 -23.7452 -23.7452 -11.4666 -11.4022 -11.4022
    -8.4005  -7.4358  -7.3697   5.2697   5.5915   5.5915   7.1402   7.1402
     7.2778   7.4010   8.0766   8.0766

          k = 0.0000 0.0000 0.3333 (  2376 PWs)   bands (ev):

   -47.1536 -30.2054 -23.8000 -23.7435 -23.7435 -11.5816 -11.3967 -11.3967
    -8.0789  -7.4154  -7.2099   4.6086   5.6759   5.6759   6.3081   6.4830
     6.4830   6.8848   7.9610   7.9610

          k = 0.0000 0.0000-0.5000 (  2392 PWs)   bands (ev):

   -47.1533 -30.2039 -23.8178 -23.7426 -23.7426 -11.6355 -11.3939 -11.3939
    -7.9176  -7.4051  -7.1230   4.2418   5.8333   5.8333   5.9143   6.0861
     6.0861   6.7098   7.9205   7.9205

          k = 0.0000 0.1667 0.1667 (  2378 PWs)   bands (ev):

   -47.1538 -30.2068 -23.7636 -23.7632 -23.7444 -11.4749 -11.4392 -11.3993
    -8.2574  -7.3960  -7.3268   5.0906   5.4448   5.6033   6.4198   6.9068
     7.3031   7.4190   7.7206   7.8446

          k = 0.0000 0.1667 0.3333 (  2383 PWs)   bands (ev):

   -47.1533 -30.2038 -23.7994 -23.7619 -23.7427 -11.5630 -11.4363 -11.3934
    -7.9772  -7.3622  -7.1747   4.5607   5.1802   5.6754   5.6838   6.3770
     6.6289   7.3721   7.6259   7.6382

          k = 0.0000 0.1667-0.5000 (  2368 PWs)   bands (ev):

   -47.1530 -30.2023 -23.8173 -23.7611 -23.7418 -11.6100 -11.4297 -11.3905
    -7.8455  -7.3455  -7.0807   4.2365   4.9175   5.5453   5.8284   6.0116
     6.4064   7.3644   7.5225   7.5794

          k = 0.0000 0.3333 0.3333 (  2390 PWs)   bands (ev):

   -47.1527 -30.2006 -23.7985 -23.7981 -23.7410 -11.5361 -11.5034 -11.3870
    -7.8318  -7.2001  -7.0822   4.2543   4.7357   4.7971   5.7040   6.1086
     6.6959   6.8693   7.2351   8.1929

          k = 0.0000 0.3333-0.5000 (  2380 PWs)   bands (ev):

   -47.1524 -30.1990 -23.8164 -23.7977 -23.7402 -11.5590 -11.4995 -11.3837
    -7.7911  -7.1141  -6.9971   4.0874   4.2025   4.7364   5.8120   5.8682
     6.6232   6.8469   7.1020   8.3321

          k = 0.0000-0.5000-0.5000 (  2408 PWs)   bands (ev):

   -47.1521 -30.1974 -23.8159 -23.8159 -23.7394 -11.5336 -11.5336 -11.3803
    -7.7932  -6.9556  -6.9556   3.7876   4.0726   4.3889   5.7993   5.7993
     6.7287   6.7287   6.9191   8.5811

          k = 0.1667 0.1667 0.1667 (  2364 PWs)   bands (ev):

   -47.1536 -30.2053 -23.7627 -23.7627 -23.7624 -11.4786 -11.4334 -11.4334
    -8.1207  -7.3253  -7.3253   4.9300   5.4309   5.4309   6.3260   6.3260
     6.7923   7.6551   7.6551   7.7727

          k = 0.1667 0.1667 0.3333 (  2386 PWs)   bands (ev):

   -47.1530 -30.2022 -23.7988 -23.7612 -23.7609 -11.5465 -11.4379 -11.4219
    -7.8561  -7.3224  -7.1584   4.5129   5.0958   5.3339   5.5590   5.8238
     6.6357   7.4089   7.5998   7.7698

          k = 0.1667 0.1667-0.5000 (  2388 PWs)   bands (ev):

   -47.1527 -30.2007 -23.8167 -23.7605 -23.7600 -11.5877 -11.4315 -11.4161
    -7.7337  -7.3209  -7.0545   4.2343   4.8054   5.2210   5.3535   5.7208
     6.6996   7.2571   7.5763   7.6826

          k = 0.1667 0.3333 0.3333 (  2360 PWs)   bands (ev):

   -47.1524 -30.1991 -23.7975 -23.7973 -23.7593 -11.5226 -11.4928 -11.4168
    -7.6741  -7.1908  -7.0968   4.2779   4.7738   4.7949   5.2169   5.4606
     6.1788   7.4921   7.5311   8.2203

          k = 0.1667 0.3333-0.5000 (  2370 PWs)   bands (ev):

   -47.1521 -30.1975 -23.8154 -23.7968 -23.7585 -11.5433 -11.4898 -11.4113
    -7.6245  -7.1344  -7.0031   4.1798   4.2079   4.7314   5.1388   5.3326
     6.1806   7.4481   7.5174   8.3541

          k = 0.1667-0.5000-0.5000 (  2384 PWs)   bands (ev):

   -47.1518 -30.1960 -23.8148 -23.8148 -23.7576 -11.5211 -11.5211 -11.4062
    -7.6194  -6.9778  -6.9778   3.9116   4.0838   4.3934   5.1595   5.1595
     6.1325   7.4841   7.4841   8.6046

          k = 0.3333 0.3333 0.3333 (  2365 PWs)   bands (ev):

   -47.1518 -30.1961 -23.7959 -23.7955 -23.7955 -11.5001 -11.4714 -11.4714
    -7.3820  -7.1264  -7.1264   4.2541   4.6998   4.6998   4.8825   4.9291
     4.9291   8.0342   8.0342   8.3570

          k = 0.3333 0.3333-0.5000 (  2380 PWs)   bands (ev):

   -47.1515 -30.1946 -23.8136 -23.7950 -23.7945 -11.5116 -11.4756 -11.4606
    -7.3008  -7.1414  -7.0159   4.1949   4.3067   4.5280   4.6044   4.8776
     4.9575   8.1237   8.2157   8.4621

          k = 0.3333-0.5000-0.5000 (  2368 PWs)   bands (ev):

   -47.1512 -30.1931 -23.8127 -23.8127 -23.7938 -11.4957 -11.4957 -11.4575
    -7.2468  -7.0227  -7.0227   4.0776   4.1673   4.4022   4.5259   4.5259
     4.8635   8.3425   8.3425   8.6526

          k =-0.5000-0.5000-0.5000 (  2320 PWs)   bands (ev):

   -47.1509 -30.1916 -23.8116 -23.8116 -23.8116 -11.4828 -11.4828 -11.4828
    -7.0454  -7.0454  -7.0454   3.9696   4.2994   4.2994   4.2994   4.4067
     4.4067   8.6771   8.6771   8.6771

     highest occupied level (ev):     8.6771

!    total energy              =    -291.74996687 Ry
     estimated scf accuracy    <          2.9E-09 Ry

     The total energy is the sum of the following terms:
     one-electron contribution =     -93.22232422 Ry
     hartree contribution      =      65.82693847 Ry
     xc contribution           =     -51.21001674 Ry
     ewald contribution        =    -213.14456438 Ry

     convergence has been achieved in  11 iterations

     negative rho (up, down):  6.007E-04 0.000E+00

     Forces acting on atoms (cartesian axes, Ry/au):

     atom    1 type  1   force =     0.00000000    0.00000000    0.00000000
     atom    2 type  2   force =     0.00000000    0.00000000    0.00000000
     atom    3 type  3   force =     0.00000000    0.00000000    0.00000000
     atom    4 type  3   force =     0.00000000    0.00000000    0.00000000
     atom    5 type  3   force =     0.00000000    0.00000000    0.00000000

     Total force =     0.000000     Total SCF correction =     0.000000


     Computing stress (Cartesian axis) and pressure


     negative rho (up, down):  6.007E-04 0.000E+00
          total   stress  (Ry/bohr**3)                   (kbar)     P=     -120.90
  -0.00082185   0.00000000   0.00000000         -120.90        0.00        0.00
   0.00000000  -0.00082185   0.00000000            0.00     -120.90        0.00
   0.00000000   0.00000000  -0.00082185            0.00        0.00     -120.90


     Writing all to output data dir ./CTO.save/ :
     XML data file, charge density, pseudopotentials, collected wavefunctions
 
     init_run     :      0.32s CPU      0.39s WALL (       1 calls)
     electrons    :      5.26s CPU      5.63s WALL (       1 calls)
     forces       :      0.08s CPU      0.09s WALL (       1 calls)
     stress       :      0.65s CPU      0.67s WALL (       1 calls)

     Called by init_run:
     wfcinit      :      0.11s CPU      0.13s WALL (       1 calls)
     potinit      :      0.01s CPU      0.01s WALL (       1 calls)
     hinit0       :      0.10s CPU      0.13s WALL (       1 calls)

     Called by electrons:
     c_bands      :      3.97s CPU      4.20s WALL (      11 calls)
     sum_band     :      0.80s CPU      0.85s WALL (      11 calls)
     v_of_rho     :      0.02s CPU      0.02s WALL (      12 calls)
     newd         :      0.49s CPU      0.55s WALL (      12 calls)
     mix_rho      :      0.01s CPU      0.02s WALL (      11 calls)

     Called by c_bands:
     init_us_2    :      0.05s CPU      0.05s WALL (     500 calls)
     init_us_2:cp :      0.05s CPU      0.05s WALL (     500 calls)
     ccgdiagg     :      3.44s CPU      3.64s WALL (     220 calls)
     wfcrot       :      0.59s CPU      0.64s WALL (     220 calls)

     Called by *cgdiagg:
     h_psi        :      2.33s CPU      2.46s WALL (   13312 calls)
     s_psi        :      0.29s CPU      0.31s WALL (   26404 calls)

     Called by h_psi:
     h_psi:calbec :      0.35s CPU      0.37s WALL (   13312 calls)
     vloc_psi     :      1.71s CPU      1.80s WALL (   13312 calls)
     add_vuspsi   :      0.16s CPU      0.17s WALL (   13312 calls)
     hs_1psi      :      2.07s CPU      2.19s WALL (   13092 calls)
     s_1psi       :      0.48s CPU      0.51s WALL (   13092 calls)

     General routines
     calbec       :      0.65s CPU      0.68s WALL (   26724 calls)
     fft          :      0.02s CPU      0.04s WALL (      78 calls)
     ffts         :      0.00s CPU      0.00s WALL (      23 calls)
     fftw         :      1.47s CPU      1.56s WALL (   39864 calls)
     interpolate  :      0.00s CPU      0.01s WALL (      12 calls)
 
     Parallel routines
 
     PWSCF        :      6.53s CPU      7.39s WALL

 
   This run was terminated on:  16:49:20  19Sep2025            

=------------------------------------------------------------------------------=
   JOB DONE.
=------------------------------------------------------------------------------=
TACC:  Shutdown complete. Exiting. 
