TACC:  Starting up job 2476515 
TACC:  Starting parallel tasks... 

     Program PWSCF v.7.3 starts on 18Oct2025 at 15:14:19 

     This program is part of the open-source Quantum ESPRESSO suite
     for quantum simulation of materials; please cite
         "P. Giannozzi et al., J. Phys.:Condens. Matter 21 395502 (2009);
         "P. Giannozzi et al., J. Phys.:Condens. Matter 29 465901 (2017);
         "P. Giannozzi et al., J. Chem. Phys. 152 154105 (2020);
          URL http://www.quantum-espresso.org", 
     in publications or presentations arising from this work. More details at
     http://www.quantum-espresso.org/quote

     Parallel version (MPI & OpenMP), running on      10 processor cores
     Number of MPI processes:                10
     Threads/MPI process:                     1

     MPI processes distributed on     1 nodes
     185440 MiB available memory on the printing compute node when the environment starts
 
     Waiting for input...
     Reading input from standard input
Warning: card &CELL ignored
Warning: card  CELL_DYNAMICS = 'BFGS', ignored
Warning: card  PRESS=0.D0, ignored
Warning: card / ignored

     Current dimensions of program PWSCF are:
     Max number of different atomic species (ntypx) = 10
     Max number of k-points (npk) =  40000
     Max angular momentum in pseudopotentials (lmaxx) =  4
 
     R & G space division:  proc/nbgrp/npool/nimage =      10
     Subspace diagonalization in iterative solution of the eigenvalue problem:
     a serial algorithm will be used

 
     Parallelization info
     --------------------
     sticks:   dense  smooth     PW     G-vecs:    dense   smooth      PW
     Min         631     168     48                37897     5216     820
     Max         632     169     49                37902     5221     823
     Sum        6317    1685    489               379005    52179    8217
 
     Using Slab Decomposition
 


     bravais-lattice index     =            1
     lattice parameter (alat)  =       7.6794  a.u.
     unit-cell volume          =     452.8787 (a.u.)^3
     number of atoms/cell      =            5
     number of atomic types    =            3
     number of electrons       =        40.00
     number of Kohn-Sham states=           20
     kinetic-energy cutoff     =      90.0000  Ry
     charge density cutoff     =    1350.0000  Ry
     scf convergence threshold =      1.0E-08
     mixing beta               =       0.7000
     number of iterations used =            8  plain     mixing
     Exchange-correlation= SLA  PZ   NOGX NOGC
                           (   1   1   0   0   0   0   0)

     celldm(1)=   7.679400  celldm(2)=   0.000000  celldm(3)=   0.000000
     celldm(4)=   0.000000  celldm(5)=   0.000000  celldm(6)=   0.000000

     crystal axes: (cart. coord. in units of alat)
               a(1) = (   1.000000   0.000000   0.000000 )  
               a(2) = (   0.000000   1.000000   0.000000 )  
               a(3) = (   0.000000   0.000000   1.000000 )  

     reciprocal axes: (cart. coord. in units 2 pi/alat)
               b(1) = (  1.000000  0.000000  0.000000 )  
               b(2) = (  0.000000  1.000000  0.000000 )  
               b(3) = (  0.000000  0.000000  1.000000 )  


     PseudoPot. # 1 for Ba read from file:
     /scratch/11018/zhc/Assisgnment2/Q1/1D/energy_off/Ba_LDA.UPF
     MD5 check sum: 0ec7675c796dc0a11c6269c68e51391e
     Pseudo is Ultrasoft + core correction, Zval = 10.0
     Generated by new atomic code, or converted to UPF format
     Using radial grid of  907 points,  7 beta functions with: 
                l(1) =   0
                l(2) =   0
                l(3) =   1
                l(4) =   1
                l(5) =   2
                l(6) =   2
                l(7) =   3
     Q(r) pseudized with  6 coefficients,  rinner =    1.700   1.700   1.700
                                                       1.700   1.700   1.700
                                                       1.700

     PseudoPot. # 2 for Ti read from file:
     /scratch/11018/zhc/Assisgnment2/Q1/1D/energy_off/Ti_LDA.UPF
     MD5 check sum: 0d9f225c038fe889ca2a701dcc8d72cb
     Pseudo is Ultrasoft + core correction, Zval = 12.0
     Generated by new atomic code, or converted to UPF format
     Using radial grid of  851 points,  6 beta functions with: 
                l(1) =   0
                l(2) =   0
                l(3) =   1
                l(4) =   1
                l(5) =   2
                l(6) =   2
     Q(r) pseudized with  6 coefficients,  rinner =    1.000   1.000   1.000
                                                       1.000   1.000

     PseudoPot. # 3 for O  read from file:
     /scratch/11018/zhc/Assisgnment2/Q1/1D/energy_off/O_LDA.UPF
     MD5 check sum: 194b818514d2a7dbb603bb78519a4f40
     Pseudo is Ultrasoft + core correction, Zval =  6.0
     Generated by new atomic code, or converted to UPF format
     Using radial grid of  737 points,  5 beta functions with: 
                l(1) =   0
                l(2) =   0
                l(3) =   1
                l(4) =   1
                l(5) =   2
     Q(r) pseudized with  8 coefficients,  rinner =    0.900   0.900   0.900
                                                       0.900   0.900

     atomic species   valence    mass     pseudopotential
     Ba               10.00   137.32700     Ba( 1.00)
     Ti               12.00    47.88000     Ti( 1.00)
     O                 6.00    16.00000     O ( 1.00)

     48 Sym. Ops., with inversion, found



   Cartesian axes

     site n.     atom                  positions (alat units)
         1        Ba     tau(   1) = (   0.0000000   0.0000000   0.0000000  )
         2        Ti     tau(   2) = (   0.5000000   0.5000000   0.5000000  )
         3        O      tau(   3) = (   0.5000000   0.5000000   0.0000000  )
         4        O      tau(   4) = (   0.5000000   0.0000000   0.5000000  )
         5        O      tau(   5) = (   0.0000000   0.5000000   0.5000000  )

     number of k points=     4
                       cart. coord. in units 2pi/alat
        k(    1) = (   0.0000000   0.0000000   0.0000000), wk =   0.2500000
        k(    2) = (   0.0000000   0.0000000  -0.5000000), wk =   0.7500000
        k(    3) = (   0.0000000  -0.5000000  -0.5000000), wk =   0.7500000
        k(    4) = (  -0.5000000  -0.5000000  -0.5000000), wk =   0.2500000

     Dense  grid:   379005 G-vectors     FFT dimensions: (  90,  90,  90)

     Smooth grid:    52179 G-vectors     FFT dimensions: (  48,  48,  48)

     Estimated max dynamical RAM per process >     260.33 MB

     Estimated total dynamical RAM >       2.54 GB

     Initial potential from superposition of free atoms

     starting charge      38.9872, renormalised to      40.0000

     negative rho (up, down):  1.013E-01 0.000E+00
     Starting wfcs are   35 randomized atomic wfcs

     total cpu time spent up to now is        1.0 secs

     Self-consistent Calculation

     iteration #  1     ecut=    90.00 Ry     beta= 0.70
     CG style diagonalization
     ethr =  1.00E-02,  avg # of iterations =  2.2

     negative rho (up, down):  9.435E-02 0.000E+00

     total cpu time spent up to now is        1.9 secs

     total energy              =    -286.62051111 Ry
     estimated scf accuracy    <       0.87940399 Ry

     iteration #  2     ecut=    90.00 Ry     beta= 0.70
     CG style diagonalization
     ethr =  2.20E-03,  avg # of iterations =  4.6

     negative rho (up, down):  9.264E-02 0.000E+00

     total cpu time spent up to now is        2.9 secs

     total energy              =    -285.75905561 Ry
     estimated scf accuracy    <       8.74119718 Ry

     iteration #  3     ecut=    90.00 Ry     beta= 0.70
     CG style diagonalization
     ethr =  2.20E-03,  avg # of iterations =  4.3

     negative rho (up, down):  9.164E-02 0.000E+00

     total cpu time spent up to now is        3.8 secs

     total energy              =    -287.12020788 Ry
     estimated scf accuracy    <       0.19801741 Ry

     iteration #  4     ecut=    90.00 Ry     beta= 0.70
     CG style diagonalization
     ethr =  4.95E-04,  avg # of iterations =  3.4

     negative rho (up, down):  9.099E-02 0.000E+00

     total cpu time spent up to now is        4.7 secs

     total energy              =    -287.12325180 Ry
     estimated scf accuracy    <       0.06142220 Ry

     iteration #  5     ecut=    90.00 Ry     beta= 0.70
     CG style diagonalization
     ethr =  1.54E-04,  avg # of iterations =  3.4

     negative rho (up, down):  9.109E-02 0.000E+00

     total cpu time spent up to now is        5.6 secs

     total energy              =    -287.13742237 Ry
     estimated scf accuracy    <       0.00131642 Ry

     iteration #  6     ecut=    90.00 Ry     beta= 0.70
     CG style diagonalization
     ethr =  3.29E-06,  avg # of iterations =  3.8

     negative rho (up, down):  9.101E-02 0.000E+00

     total cpu time spent up to now is        6.5 secs

     total energy              =    -287.13766295 Ry
     estimated scf accuracy    <       0.00015968 Ry

     iteration #  7     ecut=    90.00 Ry     beta= 0.70
     CG style diagonalization
     ethr =  3.99E-07,  avg # of iterations =  3.7

     negative rho (up, down):  9.100E-02 0.000E+00

     total cpu time spent up to now is        7.4 secs

     total energy              =    -287.13771397 Ry
     estimated scf accuracy    <       0.00001143 Ry

     iteration #  8     ecut=    90.00 Ry     beta= 0.70
     CG style diagonalization
     ethr =  2.86E-08,  avg # of iterations =  4.4

     negative rho (up, down):  9.097E-02 0.000E+00

     total cpu time spent up to now is        8.4 secs

     total energy              =    -287.13772387 Ry
     estimated scf accuracy    <       0.00001469 Ry

     iteration #  9     ecut=    90.00 Ry     beta= 0.70
     CG style diagonalization
     ethr =  2.86E-08,  avg # of iterations =  3.3

     negative rho (up, down):  9.097E-02 0.000E+00

     total cpu time spent up to now is        9.3 secs

     total energy              =    -287.13772373 Ry
     estimated scf accuracy    <       0.00000391 Ry

     iteration # 10     ecut=    90.00 Ry     beta= 0.70
     CG style diagonalization
     ethr =  9.79E-09,  avg # of iterations =  3.3

     negative rho (up, down):  9.097E-02 0.000E+00

     total cpu time spent up to now is       10.2 secs

     total energy              =    -287.13772437 Ry
     estimated scf accuracy    <       0.00000007 Ry

     iteration # 11     ecut=    90.00 Ry     beta= 0.70
     CG style diagonalization
     ethr =  1.70E-10,  avg # of iterations =  4.5

     negative rho (up, down):  9.097E-02 0.000E+00

     total cpu time spent up to now is       11.1 secs

     total energy              =    -287.13772444 Ry
     estimated scf accuracy    <       0.00000005 Ry

     iteration # 12     ecut=    90.00 Ry     beta= 0.70
     CG style diagonalization
     ethr =  1.19E-10,  avg # of iterations =  3.4

     negative rho (up, down):  9.097E-02 0.000E+00

     total cpu time spent up to now is       12.0 secs

     End of self-consistent calculation

          k = 0.0000 0.0000 0.0000 (  6619 PWs)   bands (ev):

   -47.1420 -23.6410 -23.6410 -23.6410 -15.3104  -6.9646  -6.2368  -6.2368
    -0.4589  -0.4589  -0.4589   7.1353   7.1353   7.1353   8.4236   8.4236
     8.4236   9.3210   9.3210   9.3210

          k = 0.0000 0.0000-0.5000 (  6528 PWs)   bands (ev):

   -47.1415 -23.6791 -23.6394 -23.6394 -15.2153  -7.1381  -6.2007  -6.0038
    -0.3069  -0.3069  -0.0748   5.4904   6.7446   6.7446   7.5447   7.6070
     7.6070   7.6517   8.7772   8.7772

          k = 0.0000-0.5000-0.5000 (  6496 PWs)   bands (ev):

   -47.1409 -23.6766 -23.6766 -23.6378 -15.1512  -6.5593  -6.2224  -6.2224
    -0.4830  -0.4830  -0.1230   5.1860   5.4878   5.6416   6.8385   6.8385
     7.7171   8.5954   8.5954   9.4201

          k =-0.5000-0.5000-0.5000 (  6488 PWs)   bands (ev):

   -47.1404 -23.6746 -23.6746 -23.6746 -15.0948  -6.0495  -6.0495  -6.0495
    -1.1098  -1.1098  -1.1098   4.9989   5.6573   5.6573   7.0010   7.0010
     7.0010   9.4832   9.4832   9.4832

     highest occupied level (ev):     9.4832

!    total energy              =    -287.13772444 Ry
     estimated scf accuracy    <          9.3E-09 Ry

     The total energy is the sum of the following terms:
     one-electron contribution =     -76.42461445 Ry
     hartree contribution      =      60.66873314 Ry
     xc contribution           =     -67.17728243 Ry
     ewald contribution        =    -204.20456071 Ry

     convergence has been achieved in  12 iterations

     negative rho (up, down):  9.097E-02 0.000E+00

     Forces acting on atoms (cartesian axes, Ry/au):

     atom    1 type  1   force =     0.00000000    0.00000000    0.00000000
     atom    2 type  2   force =     0.00000000    0.00000000    0.00000000
     atom    3 type  3   force =     0.00000000    0.00000000    0.00000000
     atom    4 type  3   force =     0.00000000    0.00000000    0.00000000
     atom    5 type  3   force =     0.00000000    0.00000000    0.00000000

     Total force =     0.000000     Total SCF correction =     0.000000


     Computing stress (Cartesian axis) and pressure


     negative rho (up, down):  9.097E-02 0.000E+00
          total   stress  (Ry/bohr**3)                   (kbar)     P=     -121.41
  -0.00082530   0.00000000   0.00000000         -121.41        0.00        0.00
   0.00000000  -0.00082530   0.00000000            0.00     -121.41        0.00
   0.00000000   0.00000000  -0.00082530            0.00        0.00     -121.41


     Writing all to output data dir ./BTO_90.save/ :
     XML data file, charge density, pseudopotentials, collected wavefunctions
 
     init_run     :      0.63s CPU      0.78s WALL (       1 calls)
     electrons    :      9.22s CPU     11.01s WALL (       1 calls)
     forces       :      0.38s CPU      0.46s WALL (       1 calls)
     stress       :      1.95s CPU      2.16s WALL (       1 calls)

     Called by init_run:
     wfcinit      :      0.05s CPU      0.07s WALL (       1 calls)
     potinit      :      0.02s CPU      0.03s WALL (       1 calls)
     hinit0       :      0.21s CPU      0.24s WALL (       1 calls)

     Called by electrons:
     c_bands      :      1.66s CPU      1.73s WALL (      12 calls)
     sum_band     :      4.16s CPU      5.01s WALL (      12 calls)
     v_of_rho     :      0.07s CPU      0.08s WALL (      13 calls)
     newd         :      3.51s CPU      4.41s WALL (      13 calls)
     mix_rho      :      0.05s CPU      0.05s WALL (      12 calls)

     Called by c_bands:
     init_us_2    :      0.04s CPU      0.04s WALL (     108 calls)
     init_us_2:cp :      0.04s CPU      0.04s WALL (     108 calls)
     ccgdiagg     :      1.40s CPU      1.45s WALL (      48 calls)
     wfcrot       :      0.28s CPU      0.31s WALL (      48 calls)

     Called by *cgdiagg:
     h_psi        :      1.08s CPU      1.13s WALL (    2703 calls)
     s_psi        :      0.16s CPU      0.17s WALL (    5358 calls)

     Called by h_psi:
     h_psi:calbec :      0.17s CPU      0.18s WALL (    2703 calls)
     vloc_psi     :      0.78s CPU      0.82s WALL (    2703 calls)
     add_vuspsi   :      0.10s CPU      0.10s WALL (    2703 calls)
     hs_1psi      :      0.93s CPU      0.97s WALL (    2655 calls)
     s_1psi       :      0.21s CPU      0.22s WALL (    2655 calls)

     General routines
     calbec       :      0.30s CPU      0.31s WALL (    5426 calls)
     fft          :      0.14s CPU      0.16s WALL (      84 calls)
     ffts         :      0.00s CPU      0.00s WALL (      25 calls)
     fftw         :      0.55s CPU      0.58s WALL (    8310 calls)
     interpolate  :      0.02s CPU      0.02s WALL (      13 calls)
 
     Parallel routines
 
     PWSCF        :     12.38s CPU     14.80s WALL

 
   This run was terminated on:  15:14:34  18Oct2025            

=------------------------------------------------------------------------------=
   JOB DONE.
=------------------------------------------------------------------------------=
TACC:  Shutdown complete. Exiting. 
