TACC:  Starting up job 2406346 
TACC:  Starting parallel tasks... 

     Program PWSCF v.7.3 starts on 24Sep2025 at  0:34:53 

     This program is part of the open-source Quantum ESPRESSO suite
     for quantum simulation of materials; please cite
         "P. Giannozzi et al., J. Phys.:Condens. Matter 21 395502 (2009);
         "P. Giannozzi et al., J. Phys.:Condens. Matter 29 465901 (2017);
         "P. Giannozzi et al., J. Chem. Phys. 152 154105 (2020);
          URL http://www.quantum-espresso.org", 
     in publications or presentations arising from this work. More details at
     http://www.quantum-espresso.org/quote

     Parallel version (MPI & OpenMP), running on      10 processor cores
     Number of MPI processes:                10
     Threads/MPI process:                     1

     MPI processes distributed on     1 nodes
     184782 MiB available memory on the printing compute node when the environment starts
 
     Waiting for input...
     Reading input from standard input
Warning: card &CELL ignored
Warning: card  CELL_DYNAMICS = 'BFGS', ignored
Warning: card  PRESS=0.D0, ignored
Warning: card / ignored
     Message from routine read_cards :
     DEPRECATED: no units specified in ATOMIC_POSITIONS card
     Message from routine read_cards :
     ATOMIC_POSITIONS: units set to alat

     Current dimensions of program PWSCF are:
     Max number of different atomic species (ntypx) = 10
     Max number of k-points (npk) =  40000
     Max angular momentum in pseudopotentials (lmaxx) =  4
 
     R & G space division:  proc/nbgrp/npool/nimage =      10
     Subspace diagonalization in iterative solution of the eigenvalue problem:
     a serial algorithm will be used

 
     Parallelization info
     --------------------
     sticks:   dense  smooth     PW     G-vecs:    dense   smooth      PW
     Min         403     161     47                19281     4888     751
     Max         405     164     48                19282     4889     753
     Sum        4041    1617    473               192815    48885    7521
 
     Using Slab Decomposition
 


     bravais-lattice index     =            1
     lattice parameter (alat)  =       7.1232  a.u.
     unit-cell volume          =     361.4316 (a.u.)^3
     number of atoms/cell      =            5
     number of atomic types    =            3
     number of electrons       =        40.00
     number of Kohn-Sham states=           20
     kinetic-energy cutoff     =     100.0000  Ry
     charge density cutoff     =    1000.0000  Ry
     scf convergence threshold =      1.0E-08
     mixing beta               =       0.7000
     number of iterations used =            8  plain     mixing
     Exchange-correlation= SLA  PZ   NOGX NOGC
                           (   1   1   0   0   0   0   0)

     celldm(1)=   7.123204  celldm(2)=   0.000000  celldm(3)=   0.000000
     celldm(4)=   0.000000  celldm(5)=   0.000000  celldm(6)=   0.000000

     crystal axes: (cart. coord. in units of alat)
               a(1) = (   1.000000   0.000000   0.000000 )  
               a(2) = (   0.000000   1.000000   0.000000 )  
               a(3) = (   0.000000   0.000000   1.000000 )  

     reciprocal axes: (cart. coord. in units 2 pi/alat)
               b(1) = (  1.000000  0.000000  0.000000 )  
               b(2) = (  0.000000  1.000000  0.000000 )  
               b(3) = (  0.000000  0.000000  1.000000 )  


     PseudoPot. # 1 for Ca read from file:
     /scratch/11018/zhc/assisgnment1/CaTiO3/Ca_LDA.UPF
     MD5 check sum: d2d4e7693e10d071152e9eeb7dd009f3
     Pseudo is Ultrasoft + core correction, Zval = 10.0
     Generated by new atomic code, or converted to UPF format
     Using radial grid of  845 points,  6 beta functions with: 
                l(1) =   0
                l(2) =   0
                l(3) =   1
                l(4) =   1
                l(5) =   2
                l(6) =   2
     Q(r) pseudized with  8 coefficients,  rinner =    1.500   1.500   1.500
                                                       1.500   1.500

     PseudoPot. # 2 for Ti read from file:
     /scratch/11018/zhc/assisgnment1/CaTiO3/Ti_LDA.UPF
     MD5 check sum: 0d9f225c038fe889ca2a701dcc8d72cb
     Pseudo is Ultrasoft + core correction, Zval = 12.0
     Generated by new atomic code, or converted to UPF format
     Using radial grid of  851 points,  6 beta functions with: 
                l(1) =   0
                l(2) =   0
                l(3) =   1
                l(4) =   1
                l(5) =   2
                l(6) =   2
     Q(r) pseudized with  6 coefficients,  rinner =    1.000   1.000   1.000
                                                       1.000   1.000

     PseudoPot. # 3 for O  read from file:
     /scratch/11018/zhc/assisgnment1/CaTiO3/O_LDA.UPF
     MD5 check sum: 194b818514d2a7dbb603bb78519a4f40
     Pseudo is Ultrasoft + core correction, Zval =  6.0
     Generated by new atomic code, or converted to UPF format
     Using radial grid of  737 points,  5 beta functions with: 
                l(1) =   0
                l(2) =   0
                l(3) =   1
                l(4) =   1
                l(5) =   2
     Q(r) pseudized with  8 coefficients,  rinner =    0.900   0.900   0.900
                                                       0.900   0.900

     atomic species   valence    mass     pseudopotential
     Ca               10.00    40.07800     Ca( 1.00)
     Ti               12.00    47.88000     Ti( 1.00)
     O                 6.00    16.00000     O ( 1.00)

     48 Sym. Ops., with inversion, found



   Cartesian axes

     site n.     atom                  positions (alat units)
         1        Ca     tau(   1) = (   0.0000000   0.0000000   0.0000000  )
         2        Ti     tau(   2) = (   0.5000000   0.5000000   0.5000000  )
         3        O      tau(   3) = (   0.5000000   0.5000000   0.0000000  )
         4        O      tau(   4) = (   0.5000000   0.0000000   0.5000000  )
         5        O      tau(   5) = (   0.0000000   0.5000000   0.5000000  )

     number of k points=    20
                       cart. coord. in units 2pi/alat
        k(    1) = (   0.0000000   0.0000000   0.0000000), wk =   0.0092593
        k(    2) = (   0.0000000   0.0000000   0.1666667), wk =   0.0555556
        k(    3) = (   0.0000000   0.0000000   0.3333333), wk =   0.0555556
        k(    4) = (   0.0000000   0.0000000  -0.5000000), wk =   0.0277778
        k(    5) = (   0.0000000   0.1666667   0.1666667), wk =   0.1111111
        k(    6) = (   0.0000000   0.1666667   0.3333333), wk =   0.2222222
        k(    7) = (   0.0000000   0.1666667  -0.5000000), wk =   0.1111111
        k(    8) = (   0.0000000   0.3333333   0.3333333), wk =   0.1111111
        k(    9) = (   0.0000000   0.3333333  -0.5000000), wk =   0.1111111
        k(   10) = (   0.0000000  -0.5000000  -0.5000000), wk =   0.0277778
        k(   11) = (   0.1666667   0.1666667   0.1666667), wk =   0.0740741
        k(   12) = (   0.1666667   0.1666667   0.3333333), wk =   0.2222222
        k(   13) = (   0.1666667   0.1666667  -0.5000000), wk =   0.1111111
        k(   14) = (   0.1666667   0.3333333   0.3333333), wk =   0.2222222
        k(   15) = (   0.1666667   0.3333333  -0.5000000), wk =   0.2222222
        k(   16) = (   0.1666667  -0.5000000  -0.5000000), wk =   0.0555556
        k(   17) = (   0.3333333   0.3333333   0.3333333), wk =   0.0740741
        k(   18) = (   0.3333333   0.3333333  -0.5000000), wk =   0.1111111
        k(   19) = (   0.3333333  -0.5000000  -0.5000000), wk =   0.0555556
        k(   20) = (  -0.5000000  -0.5000000  -0.5000000), wk =   0.0092593

     Dense  grid:   192815 G-vectors     FFT dimensions: (  72,  72,  72)

     Smooth grid:    48885 G-vectors     FFT dimensions: (  45,  45,  45)

     Estimated max dynamical RAM per process >      83.29 MB

     Estimated total dynamical RAM >     832.87 MB

     Check: negative core charge=   -0.000001

     Initial potential from superposition of free atoms

     starting charge      38.9952, renormalised to      40.0000

     negative rho (up, down):  6.820E-04 0.000E+00
     Starting wfcs are   32 randomized atomic wfcs

     total cpu time spent up to now is        1.4 secs

     Self-consistent Calculation

     iteration #  1     ecut=   100.00 Ry     beta= 0.70
     CG style diagonalization
     ethr =  1.00E-02,  avg # of iterations =  2.2

     negative rho (up, down):  1.338E-03 0.000E+00

     total cpu time spent up to now is        2.3 secs

     total energy              =    -291.31872016 Ry
     estimated scf accuracy    <       0.82952962 Ry

     iteration #  2     ecut=   100.00 Ry     beta= 0.70
     CG style diagonalization
     ethr =  2.07E-03,  avg # of iterations =  4.9

     negative rho (up, down):  5.511E-04 0.000E+00

     total cpu time spent up to now is        3.6 secs

     total energy              =    -290.93848359 Ry
     estimated scf accuracy    <       4.21910747 Ry

     iteration #  3     ecut=   100.00 Ry     beta= 0.70
     CG style diagonalization
     ethr =  2.07E-03,  avg # of iterations =  4.4

     negative rho (up, down):  6.366E-04 0.000E+00

     total cpu time spent up to now is        4.7 secs

     total energy              =    -291.74311900 Ry
     estimated scf accuracy    <       0.12329721 Ry

     iteration #  4     ecut=   100.00 Ry     beta= 0.70
     CG style diagonalization
     ethr =  3.08E-04,  avg # of iterations =  3.7

     negative rho (up, down):  7.252E-04 0.000E+00

     total cpu time spent up to now is        5.8 secs

     total energy              =    -291.75467635 Ry
     estimated scf accuracy    <       0.02609896 Ry

     iteration #  5     ecut=   100.00 Ry     beta= 0.70
     CG style diagonalization
     ethr =  6.52E-05,  avg # of iterations =  3.6

     negative rho (up, down):  7.890E-04 0.000E+00

     total cpu time spent up to now is        6.8 secs

     total energy              =    -291.76105913 Ry
     estimated scf accuracy    <       0.00029157 Ry

     iteration #  6     ecut=   100.00 Ry     beta= 0.70
     CG style diagonalization
     ethr =  7.29E-07,  avg # of iterations =  4.8

     negative rho (up, down):  7.665E-04 0.000E+00

     total cpu time spent up to now is        8.0 secs

     total energy              =    -291.76150637 Ry
     estimated scf accuracy    <       0.00077836 Ry

     iteration #  7     ecut=   100.00 Ry     beta= 0.70
     CG style diagonalization
     ethr =  7.29E-07,  avg # of iterations =  3.7

     negative rho (up, down):  7.523E-04 0.000E+00

     total cpu time spent up to now is        9.1 secs

     total energy              =    -291.76151537 Ry
     estimated scf accuracy    <       0.00013180 Ry

     iteration #  8     ecut=   100.00 Ry     beta= 0.70
     CG style diagonalization
     ethr =  3.29E-07,  avg # of iterations =  3.6

     negative rho (up, down):  7.488E-04 0.000E+00

     total cpu time spent up to now is       10.1 secs

     total energy              =    -291.76153544 Ry
     estimated scf accuracy    <       0.00000304 Ry

     iteration #  9     ecut=   100.00 Ry     beta= 0.70
     CG style diagonalization
     ethr =  7.60E-09,  avg # of iterations =  4.3

     negative rho (up, down):  7.495E-04 0.000E+00

     total cpu time spent up to now is       11.2 secs

     total energy              =    -291.76153814 Ry
     estimated scf accuracy    <       0.00000062 Ry

     iteration # 10     ecut=   100.00 Ry     beta= 0.70
     CG style diagonalization
     ethr =  1.56E-09,  avg # of iterations =  3.8

     negative rho (up, down):  7.496E-04 0.000E+00

     total cpu time spent up to now is       12.3 secs

     total energy              =    -291.76153835 Ry
     estimated scf accuracy    <       0.00000007 Ry

     iteration # 11     ecut=   100.00 Ry     beta= 0.70
     CG style diagonalization
     ethr =  1.72E-10,  avg # of iterations =  4.0

     negative rho (up, down):  7.497E-04 0.000E+00

     total cpu time spent up to now is       13.3 secs

     End of self-consistent calculation

          k = 0.0000 0.0000 0.0000 (  6043 PWs)   bands (ev):

   -45.4057 -28.5442 -22.0846 -22.0846 -22.0846  -9.7613  -9.7613  -9.7613
    -7.6018  -6.3870  -6.3870   6.8008   6.8008   6.8008   8.6883   8.6883
     8.6883   9.6223   9.6223   9.6223

          k = 0.0000 0.0000 0.1667 (  6111 PWs)   bands (ev):

   -45.4052 -28.5418 -22.1132 -22.0831 -22.0831  -9.8766  -9.7572  -9.7572
    -7.3778  -6.3735  -6.2642   6.4629   6.7969   6.7969   8.2836   8.2836
     8.4191   8.7211   9.4796   9.4796

          k = 0.0000 0.0000 0.3333 (  6127 PWs)   bands (ev):

   -45.4041 -28.5372 -22.1696 -22.0802 -22.0802 -10.0756  -9.7490  -9.7490
    -6.9438  -6.3462  -6.0045   5.7095   6.8406   6.8406   7.4843   7.5779
     7.5779   7.9572   9.3494   9.3494

          k = 0.0000 0.0000-0.5000 (  6126 PWs)   bands (ev):

   -45.4036 -28.5348 -22.1974 -22.0788 -22.0788 -10.1641  -9.7449  -9.7449
    -6.7339  -6.3325  -5.8592   5.2741   7.0066   7.0066   7.0428   7.1346
     7.1346   7.7534   9.3051   9.3051

          k = 0.0000 0.1667 0.1667 (  6100 PWs)   bands (ev):

   -45.4046 -28.5394 -22.1125 -22.1115 -22.0817  -9.8946  -9.8177  -9.7528
    -7.1896  -6.3108  -6.1970   6.2191   6.6563   6.7863   7.5316   8.0095
     8.5970   8.6393   8.9898   9.2401

          k = 0.0000 0.1667 0.3333 (  6113 PWs)   bands (ev):

   -45.4036 -28.5345 -22.1688 -22.1095 -22.0789 -10.0388  -9.8134  -9.7439
    -6.8369  -6.2578  -5.9510   5.6307   6.2268   6.8096   6.8488   7.4382
     7.7747   8.6281   8.8479   9.0241

          k = 0.0000 0.1667-0.5000 (  6114 PWs)   bands (ev):

   -45.4031 -28.5321 -22.1968 -22.1083 -22.0774 -10.1141  -9.8016  -9.7395
    -6.6846  -6.2269  -5.7949   5.2706   5.8593   6.7363   6.9585   7.0393
     7.5201   8.6346   8.7147   8.9618

          k = 0.0000 0.3333 0.3333 (  6090 PWs)   bands (ev):

   -45.4026 -28.5292 -22.1678 -22.1668 -22.0761  -9.9840  -9.9177  -9.7337
    -6.7326  -5.9765  -5.8091   5.1662   5.8562   5.8667   6.7701   7.1148
     7.8457   8.0515   8.6454   9.4787

          k = 0.0000 0.3333-0.5000 (  6110 PWs)   bands (ev):

   -45.4020 -28.5265 -22.1958 -22.1666 -22.0747 -10.0134  -9.9103  -9.7286
    -6.7209  -5.8449  -5.6693   4.9249   5.2570   5.8299   6.8404   6.8575
     7.7753   8.0232   8.5259   9.6356

          k = 0.0000-0.5000-0.5000 (  6152 PWs)   bands (ev):

   -45.4015 -28.5238 -22.1953 -22.1953 -22.0734  -9.9625  -9.9625  -9.7232
    -6.7628  -5.6076  -5.6076   4.5873   5.1669   5.3599   6.7705   6.7705
     7.9016   7.9016   8.3770   9.9181

          k = 0.1667 0.1667 0.1667 (  6112 PWs)   bands (ev):

   -45.4041 -28.5369 -22.1109 -22.1109 -22.1102  -9.9013  -9.8080  -9.8080
    -7.0161  -6.1980  -6.1980   6.0074   6.6052   6.6052   7.4126   7.4126
     8.1476   8.9338   8.9338   8.9940

          k = 0.1667 0.1667 0.3333 (  6112 PWs)   bands (ev):

   -45.4031 -28.5319 -22.1678 -22.1084 -22.1078 -10.0067  -9.8167  -9.7883
    -6.6906  -6.2002  -5.9274   5.5532   6.1575   6.3554   6.6429   6.9949
     7.9203   8.6487   8.8546   8.9835

          k = 0.1667 0.1667-0.5000 (  6140 PWs)   bands (ev):

   -45.4026 -28.5294 -22.1960 -22.1074 -22.1063 -10.0712  -9.8053  -9.7784
    -6.5472  -6.2014  -5.7563   5.2703   5.7381   6.1733   6.4497   6.9363
     8.0009   8.4708   8.8230   8.8787

          k = 0.1667 0.3333 0.3333 (  6091 PWs)   bands (ev):

   -45.4020 -28.5267 -22.1660 -22.1656 -22.1053  -9.9589  -9.9000  -9.7802
    -6.5245  -5.9709  -5.8360   5.2088   5.8579   5.8606   6.2538   6.4456
     7.4865   8.7128   8.7556   9.5073

          k = 0.1667 0.3333-0.5000 (  6106 PWs)   bands (ev):

   -45.4015 -28.5241 -22.1942 -22.1648 -22.1039  -9.9854  -9.8945  -9.7711
    -6.5017  -5.8838  -5.6821   5.0355   5.2649   5.8112   6.0929   6.3467
     7.5039   8.6604   8.7353   9.6598

          k = 0.1667-0.5000-0.5000 (  6064 PWs)   bands (ev):

   -45.4010 -28.5214 -22.1934 -22.1934 -22.1024  -9.9422  -9.9422  -9.7628
    -6.5345  -5.6464  -5.6464   4.7383   5.1849   5.3651   6.1150   6.1150
     7.4804   8.7000   8.7000   9.9461

          k = 0.3333 0.3333 0.3333 (  6079 PWs)   bands (ev):

   -45.4010 -28.5217 -22.1634 -22.1625 -22.1625  -9.9164  -9.8639  -9.8639
    -6.1416  -5.8907  -5.8907   5.2072   5.6556   5.6556   5.9773   5.9773
     6.0962   9.3067   9.3067   9.6629

          k = 0.3333 0.3333-0.5000 (  6096 PWs)   bands (ev):

   -45.4005 -28.5191 -22.1912 -22.1619 -22.1607  -9.9290  -9.8712  -9.8455
    -6.0681  -5.9186  -5.7100   5.1916   5.2750   5.4432   5.5859   5.9512
     6.0826   9.4026   9.5145   9.7824

          k = 0.3333-0.5000-0.5000 (  6064 PWs)   bands (ev):

   -45.4000 -28.5167 -22.1896 -22.1896 -22.1595  -9.9005  -9.9005  -9.8407
    -6.0382  -5.7250  -5.7250   5.0487   5.2135   5.3754   5.4474   5.4474
     5.9845   9.6524   9.6524  10.0033

          k =-0.5000-0.5000-0.5000 (  6008 PWs)   bands (ev):

   -45.3995 -28.5143 -22.1877 -22.1877 -22.1877  -9.8790  -9.8790  -9.8790
    -5.7649  -5.7649  -5.7649   5.1548   5.2087   5.2087   5.2087   5.3806
     5.3806  10.0326  10.0326  10.0326

     highest occupied level (ev):    10.0326

!    total energy              =    -291.76153837 Ry
     estimated scf accuracy    <          1.6E-09 Ry

     The total energy is the sum of the following terms:
     one-electron contribution =     -82.96582163 Ry
     hartree contribution      =      62.91047603 Ry
     xc contribution           =     -51.55687774 Ry
     ewald contribution        =    -220.14931504 Ry

     convergence has been achieved in  11 iterations

     negative rho (up, down):  7.497E-04 0.000E+00

     Forces acting on atoms (cartesian axes, Ry/au):

     atom    1 type  1   force =     0.00000000    0.00000000    0.00000000
     atom    2 type  2   force =     0.00000000    0.00000000    0.00000000
     atom    3 type  3   force =     0.00000000    0.00000000    0.00000000
     atom    4 type  3   force =     0.00000000    0.00000000    0.00000000
     atom    5 type  3   force =     0.00000000    0.00000000    0.00000000

     Total force =     0.000000     Total SCF correction =     0.000000


     Computing stress (Cartesian axis) and pressure


     negative rho (up, down):  7.497E-04 0.000E+00
          total   stress  (Ry/bohr**3)                   (kbar)     P=       65.63
   0.00044613   0.00000000   0.00000000           65.63        0.00        0.00
   0.00000000   0.00044613   0.00000000            0.00       65.63        0.00
   0.00000000   0.00000000   0.00044613            0.00        0.00       65.63


     Writing all to output data dir ./CTO_CELLDM_3.save/ :
     XML data file, charge density, pseudopotentials, collected wavefunctions
 
     init_run     :      0.80s CPU      0.91s WALL (       1 calls)
     electrons    :     11.19s CPU     11.96s WALL (       1 calls)
     forces       :      0.19s CPU      0.22s WALL (       1 calls)
     stress       :      1.60s CPU      1.64s WALL (       1 calls)

     Called by init_run:
     wfcinit      :      0.23s CPU      0.26s WALL (       1 calls)
     potinit      :      0.02s CPU      0.03s WALL (       1 calls)
     hinit0       :      0.14s CPU      0.17s WALL (       1 calls)

     Called by electrons:
     c_bands      :      8.13s CPU      8.41s WALL (      11 calls)
     sum_band     :      2.00s CPU      2.15s WALL (      11 calls)
     v_of_rho     :      0.04s CPU      0.04s WALL (      12 calls)
     newd         :      1.07s CPU      1.38s WALL (      12 calls)
     mix_rho      :      0.02s CPU      0.03s WALL (      11 calls)

     Called by c_bands:
     init_us_2    :      0.11s CPU      0.12s WALL (     500 calls)
     init_us_2:cp :      0.11s CPU      0.12s WALL (     500 calls)
     ccgdiagg     :      6.87s CPU      7.11s WALL (     220 calls)
     wfcrot       :      1.39s CPU      1.44s WALL (     220 calls)

     Called by *cgdiagg:
     h_psi        :      5.69s CPU      5.88s WALL (   13440 calls)
     s_psi        :      0.61s CPU      0.64s WALL (   26660 calls)

     Called by h_psi:
     h_psi:calbec :      0.74s CPU      0.77s WALL (   13440 calls)
     vloc_psi     :      4.46s CPU      4.61s WALL (   13440 calls)
     add_vuspsi   :      0.36s CPU      0.38s WALL (   13440 calls)
     hs_1psi      :      4.84s CPU      5.01s WALL (   13220 calls)
     s_1psi       :      0.84s CPU      0.87s WALL (   13220 calls)

     General routines
     calbec       :      1.26s CPU      1.31s WALL (   26980 calls)
     fft          :      0.04s CPU      0.06s WALL (      78 calls)
     ffts         :      0.00s CPU      0.01s WALL (      23 calls)
     fftw         :      3.97s CPU      4.10s WALL (   40120 calls)
     interpolate  :      0.01s CPU      0.02s WALL (      12 calls)
 
     Parallel routines
 
     PWSCF        :     13.99s CPU     16.30s WALL

 
   This run was terminated on:   0:35: 9  24Sep2025            

=------------------------------------------------------------------------------=
   JOB DONE.
=------------------------------------------------------------------------------=
TACC:  Shutdown complete. Exiting. 
