TACC:  Starting up job 2406175 
TACC:  Starting parallel tasks... 

     Program PWSCF v.7.3 starts on 23Sep2025 at 23:51:23 

     This program is part of the open-source Quantum ESPRESSO suite
     for quantum simulation of materials; please cite
         "P. Giannozzi et al., J. Phys.:Condens. Matter 21 395502 (2009);
         "P. Giannozzi et al., J. Phys.:Condens. Matter 29 465901 (2017);
         "P. Giannozzi et al., J. Chem. Phys. 152 154105 (2020);
          URL http://www.quantum-espresso.org", 
     in publications or presentations arising from this work. More details at
     http://www.quantum-espresso.org/quote

     Parallel version (MPI & OpenMP), running on      10 processor cores
     Number of MPI processes:                10
     Threads/MPI process:                     1

     MPI processes distributed on     1 nodes
     187129 MiB available memory on the printing compute node when the environment starts
 
     Waiting for input...
     Reading input from standard input
Warning: card &CELL ignored
Warning: card  CELL_DYNAMICS = 'BFGS', ignored
Warning: card  PRESS=0.D0, ignored
Warning: card / ignored
     Message from routine read_cards :
     DEPRECATED: no units specified in ATOMIC_POSITIONS card
     Message from routine read_cards :
     ATOMIC_POSITIONS: units set to alat

     Current dimensions of program PWSCF are:
     Max number of different atomic species (ntypx) = 10
     Max number of k-points (npk) =  40000
     Max angular momentum in pseudopotentials (lmaxx) =  4
 
     R & G space division:  proc/nbgrp/npool/nimage =      10
     Subspace diagonalization in iterative solution of the eigenvalue problem:
     a serial algorithm will be used

 
     Parallelization info
     --------------------
     sticks:   dense  smooth     PW     G-vecs:    dense   smooth      PW
     Min         288     115     34                11624     2941     472
     Max         289     116     35                11626     2944     475
     Sum        2885    1153    341               116249    29423    4729
 
     Using Slab Decomposition
 


     bravais-lattice index     =            1
     lattice parameter (alat)  =       7.1901  a.u.
     unit-cell volume          =     371.7087 (a.u.)^3
     number of atoms/cell      =            5
     number of atomic types    =            3
     number of electrons       =        40.00
     number of Kohn-Sham states=           20
     kinetic-energy cutoff     =      70.0000  Ry
     charge density cutoff     =     700.0000  Ry
     scf convergence threshold =      1.0E-08
     mixing beta               =       0.7000
     number of iterations used =            8  plain     mixing
     Exchange-correlation= SLA  PZ   NOGX NOGC
                           (   1   1   0   0   0   0   0)

     celldm(1)=   7.190089  celldm(2)=   0.000000  celldm(3)=   0.000000
     celldm(4)=   0.000000  celldm(5)=   0.000000  celldm(6)=   0.000000

     crystal axes: (cart. coord. in units of alat)
               a(1) = (   1.000000   0.000000   0.000000 )  
               a(2) = (   0.000000   1.000000   0.000000 )  
               a(3) = (   0.000000   0.000000   1.000000 )  

     reciprocal axes: (cart. coord. in units 2 pi/alat)
               b(1) = (  1.000000  0.000000  0.000000 )  
               b(2) = (  0.000000  1.000000  0.000000 )  
               b(3) = (  0.000000  0.000000  1.000000 )  


     PseudoPot. # 1 for Ca read from file:
     /scratch/11018/zhc/assisgnment1/CaTiO3/Ca_LDA.UPF
     MD5 check sum: d2d4e7693e10d071152e9eeb7dd009f3
     Pseudo is Ultrasoft + core correction, Zval = 10.0
     Generated by new atomic code, or converted to UPF format
     Using radial grid of  845 points,  6 beta functions with: 
                l(1) =   0
                l(2) =   0
                l(3) =   1
                l(4) =   1
                l(5) =   2
                l(6) =   2
     Q(r) pseudized with  8 coefficients,  rinner =    1.500   1.500   1.500
                                                       1.500   1.500

     PseudoPot. # 2 for Ti read from file:
     /scratch/11018/zhc/assisgnment1/CaTiO3/Ti_LDA.UPF
     MD5 check sum: 0d9f225c038fe889ca2a701dcc8d72cb
     Pseudo is Ultrasoft + core correction, Zval = 12.0
     Generated by new atomic code, or converted to UPF format
     Using radial grid of  851 points,  6 beta functions with: 
                l(1) =   0
                l(2) =   0
                l(3) =   1
                l(4) =   1
                l(5) =   2
                l(6) =   2
     Q(r) pseudized with  6 coefficients,  rinner =    1.000   1.000   1.000
                                                       1.000   1.000

     PseudoPot. # 3 for O  read from file:
     /scratch/11018/zhc/assisgnment1/CaTiO3/O_LDA.UPF
     MD5 check sum: 194b818514d2a7dbb603bb78519a4f40
     Pseudo is Ultrasoft + core correction, Zval =  6.0
     Generated by new atomic code, or converted to UPF format
     Using radial grid of  737 points,  5 beta functions with: 
                l(1) =   0
                l(2) =   0
                l(3) =   1
                l(4) =   1
                l(5) =   2
     Q(r) pseudized with  8 coefficients,  rinner =    0.900   0.900   0.900
                                                       0.900   0.900

     atomic species   valence    mass     pseudopotential
     Ca               10.00    40.07800     Ca( 1.00)
     Ti               12.00    47.88000     Ti( 1.00)
     O                 6.00    16.00000     O ( 1.00)

     48 Sym. Ops., with inversion, found



   Cartesian axes

     site n.     atom                  positions (alat units)
         1        Ca     tau(   1) = (   0.0000000   0.0000000   0.0000000  )
         2        Ti     tau(   2) = (   0.5000000   0.5000000   0.5000000  )
         3        O      tau(   3) = (   0.5000000   0.5000000   0.0000000  )
         4        O      tau(   4) = (   0.5000000   0.0000000   0.5000000  )
         5        O      tau(   5) = (   0.0000000   0.5000000   0.5000000  )

     number of k points=    20
                       cart. coord. in units 2pi/alat
        k(    1) = (   0.0000000   0.0000000   0.0000000), wk =   0.0092593
        k(    2) = (   0.0000000   0.0000000   0.1666667), wk =   0.0555556
        k(    3) = (   0.0000000   0.0000000   0.3333333), wk =   0.0555556
        k(    4) = (   0.0000000   0.0000000  -0.5000000), wk =   0.0277778
        k(    5) = (   0.0000000   0.1666667   0.1666667), wk =   0.1111111
        k(    6) = (   0.0000000   0.1666667   0.3333333), wk =   0.2222222
        k(    7) = (   0.0000000   0.1666667  -0.5000000), wk =   0.1111111
        k(    8) = (   0.0000000   0.3333333   0.3333333), wk =   0.1111111
        k(    9) = (   0.0000000   0.3333333  -0.5000000), wk =   0.1111111
        k(   10) = (   0.0000000  -0.5000000  -0.5000000), wk =   0.0277778
        k(   11) = (   0.1666667   0.1666667   0.1666667), wk =   0.0740741
        k(   12) = (   0.1666667   0.1666667   0.3333333), wk =   0.2222222
        k(   13) = (   0.1666667   0.1666667  -0.5000000), wk =   0.1111111
        k(   14) = (   0.1666667   0.3333333   0.3333333), wk =   0.2222222
        k(   15) = (   0.1666667   0.3333333  -0.5000000), wk =   0.2222222
        k(   16) = (   0.1666667  -0.5000000  -0.5000000), wk =   0.0555556
        k(   17) = (   0.3333333   0.3333333   0.3333333), wk =   0.0740741
        k(   18) = (   0.3333333   0.3333333  -0.5000000), wk =   0.1111111
        k(   19) = (   0.3333333  -0.5000000  -0.5000000), wk =   0.0555556
        k(   20) = (  -0.5000000  -0.5000000  -0.5000000), wk =   0.0092593

     Dense  grid:   116249 G-vectors     FFT dimensions: (  64,  64,  64)

     Smooth grid:    29423 G-vectors     FFT dimensions: (  40,  40,  40)

     Estimated max dynamical RAM per process >      52.24 MB

     Estimated total dynamical RAM >     522.42 MB

     Check: negative core charge=   -0.000003

     Initial potential from superposition of free atoms

     starting charge      38.9952, renormalised to      40.0000

     negative rho (up, down):  7.761E-04 0.000E+00
     Starting wfcs are   32 randomized atomic wfcs

     total cpu time spent up to now is        0.9 secs

     Self-consistent Calculation

     iteration #  1     ecut=    70.00 Ry     beta= 0.70
     CG style diagonalization
     ethr =  1.00E-02,  avg # of iterations =  2.2

     negative rho (up, down):  1.134E-03 0.000E+00

     total cpu time spent up to now is        1.4 secs

     total energy              =    -291.32025743 Ry
     estimated scf accuracy    <       0.82543303 Ry

     iteration #  2     ecut=    70.00 Ry     beta= 0.70
     CG style diagonalization
     ethr =  2.06E-03,  avg # of iterations =  5.0

     negative rho (up, down):  5.623E-04 0.000E+00

     total cpu time spent up to now is        2.3 secs

     total energy              =    -290.83347311 Ry
     estimated scf accuracy    <       4.89588738 Ry

     iteration #  3     ecut=    70.00 Ry     beta= 0.70
     CG style diagonalization
     ethr =  2.06E-03,  avg # of iterations =  4.4

     negative rho (up, down):  7.035E-04 0.000E+00

     total cpu time spent up to now is        3.0 secs

     total energy              =    -291.74507220 Ry
     estimated scf accuracy    <       0.14589112 Ry

     iteration #  4     ecut=    70.00 Ry     beta= 0.70
     CG style diagonalization
     ethr =  3.65E-04,  avg # of iterations =  3.6

     negative rho (up, down):  7.913E-04 0.000E+00

     total cpu time spent up to now is        3.6 secs

     total energy              =    -291.75431756 Ry
     estimated scf accuracy    <       0.03475567 Ry

     iteration #  5     ecut=    70.00 Ry     beta= 0.70
     CG style diagonalization
     ethr =  8.69E-05,  avg # of iterations =  3.6

     negative rho (up, down):  8.311E-04 0.000E+00

     total cpu time spent up to now is        4.2 secs

     total energy              =    -291.76190368 Ry
     estimated scf accuracy    <       0.00034701 Ry

     iteration #  6     ecut=    70.00 Ry     beta= 0.70
     CG style diagonalization
     ethr =  8.68E-07,  avg # of iterations =  4.8

     negative rho (up, down):  8.203E-04 0.000E+00

     total cpu time spent up to now is        5.0 secs

     total energy              =    -291.76243559 Ry
     estimated scf accuracy    <       0.00079353 Ry

     iteration #  7     ecut=    70.00 Ry     beta= 0.70
     CG style diagonalization
     ethr =  8.68E-07,  avg # of iterations =  3.6

     negative rho (up, down):  8.128E-04 0.000E+00

     total cpu time spent up to now is        5.7 secs

     total energy              =    -291.76245223 Ry
     estimated scf accuracy    <       0.00012453 Ry

     iteration #  8     ecut=    70.00 Ry     beta= 0.70
     CG style diagonalization
     ethr =  3.11E-07,  avg # of iterations =  3.7

     negative rho (up, down):  8.114E-04 0.000E+00

     total cpu time spent up to now is        6.3 secs

     total energy              =    -291.76247352 Ry
     estimated scf accuracy    <       0.00000222 Ry

     iteration #  9     ecut=    70.00 Ry     beta= 0.70
     CG style diagonalization
     ethr =  5.55E-09,  avg # of iterations =  4.3

     negative rho (up, down):  8.110E-04 0.000E+00

     total cpu time spent up to now is        7.0 secs

     total energy              =    -291.76247577 Ry
     estimated scf accuracy    <       0.00000028 Ry

     iteration # 10     ecut=    70.00 Ry     beta= 0.70
     CG style diagonalization
     ethr =  6.90E-10,  avg # of iterations =  3.8

     negative rho (up, down):  8.111E-04 0.000E+00

     total cpu time spent up to now is        7.7 secs

     total energy              =    -291.76247585 Ry
     estimated scf accuracy    <       0.00000004 Ry

     iteration # 11     ecut=    70.00 Ry     beta= 0.70
     CG style diagonalization
     ethr =  9.09E-11,  avg # of iterations =  3.9

     negative rho (up, down):  8.112E-04 0.000E+00

     total cpu time spent up to now is        8.3 secs

     End of self-consistent calculation

          k = 0.0000 0.0000 0.0000 (  3743 PWs)   bands (ev):

   -45.9250 -29.0357 -22.5761 -22.5761 -22.5761 -10.2462 -10.2462 -10.2462
    -7.8907  -6.7026  -6.7026   6.4310   6.4310   6.4310   8.3351   8.3351
     8.3351   9.1957   9.1957   9.1957

          k = 0.0000 0.0000 0.1667 (  3699 PWs)   bands (ev):

   -45.9246 -29.0336 -22.6011 -22.5748 -22.5748 -10.3422 -10.2425 -10.2425
    -7.6889  -6.6901  -6.5951   6.1026   6.4338   6.4338   7.9429   7.9429
     8.0792   8.3243   9.0568   9.0568

          k = 0.0000 0.0000 0.3333 (  3659 PWs)   bands (ev):

   -45.9237 -29.0295 -22.6507 -22.5723 -22.5723 -10.5126 -10.2352 -10.2352
    -7.2918  -6.6650  -6.3680   5.3776   6.4916   6.4916   7.1313   7.2510
     7.2510   7.6382   8.9303   8.9303

          k = 0.0000 0.0000-0.5000 (  3668 PWs)   bands (ev):

   -45.9232 -29.0275 -22.6752 -22.5711 -22.5711 -10.5898 -10.2315 -10.2315
    -7.0974  -6.6524  -6.2418   4.9641   6.6556   6.6556   6.7040   6.8214
     6.8214   7.4431   8.8869   8.8869

          k = 0.0000 0.1667 0.1667 (  3687 PWs)   bands (ev):

   -45.9241 -29.0315 -22.6005 -22.5997 -22.5736 -10.3568 -10.2950 -10.2386
    -7.5154  -6.6349  -6.5359   5.8801   6.2902   6.4306   7.2002   7.6811
     8.2063   8.2761   8.6083   8.8191

          k = 0.0000 0.1667 0.3333 (  3672 PWs)   bands (ev):

   -45.9232 -29.0273 -22.6500 -22.5980 -22.5711 -10.4823 -10.2912 -10.2307
    -7.1851  -6.5886  -6.3205   5.3100   5.9133   6.4705   6.4979   7.1219
     7.4312   8.2519   8.4815   8.6049

          k = 0.0000 0.1667-0.5000 (  3676 PWs)   bands (ev):

   -45.9228 -29.0251 -22.6747 -22.5969 -22.5699 -10.5483 -10.2812 -10.2268
    -7.0380  -6.5632  -6.1848   4.9602   5.5777   6.3784   6.6218   6.7326
     7.1869   8.2523   8.3587   8.5431

          k = 0.0000 0.3333 0.3333 (  3682 PWs)   bands (ev):

   -45.9224 -29.0227 -22.6490 -22.6483 -22.5687 -10.4375 -10.3833 -10.2218
    -7.0640  -6.3476  -6.1947   4.8962   5.5154   5.5450   6.4527   6.8154
     7.5013   7.6974   8.2178   9.0949

          k = 0.0000 0.3333-0.5000 (  3672 PWs)   bands (ev):

   -45.9219 -29.0204 -22.6736 -22.6479 -22.5676 -10.4653 -10.3772 -10.2173
    -7.0423  -6.2303  -6.0729   4.6744   4.9416   5.4991   6.5352   6.5628
     7.4301   7.6708   8.0938   9.2465

          k = 0.0000-0.5000-0.5000 (  3676 PWs)   bands (ev):

   -45.9215 -29.0180 -22.6731 -22.6731 -22.5664 -10.4235 -10.4235 -10.2125
    -7.0710  -6.0177  -6.0177   4.3482   4.8370   5.0695   6.4815   6.4815
     7.5500   7.5500   7.9357   9.5190

          k = 0.1667 0.1667 0.1667 (  3689 PWs)   bands (ev):

   -45.9237 -29.0293 -22.5991 -22.5991 -22.5986 -10.3625 -10.2867 -10.2867
    -7.3534  -6.5360  -6.5360   5.6846   6.2525   6.2525   7.0867   7.0867
     7.7374   8.5504   8.5504   8.6298

          k = 0.1667 0.1667 0.3333 (  3673 PWs)   bands (ev):

   -45.9228 -29.0250 -22.6491 -22.5970 -22.5965 -10.4558 -10.2940 -10.2698
    -7.0466  -6.5362  -6.2993   5.2427   5.8377   6.0523   6.3198   6.6400
     7.5304   8.2770   8.4784   8.6217

          k = 0.1667 0.1667-0.5000 (  3712 PWs)   bands (ev):

   -45.9224 -29.0228 -22.6739 -22.5961 -22.5952 -10.5127 -10.2843 -10.2613
    -6.9094  -6.5364  -6.1502   4.9596   5.4593   5.8884   6.1229   6.5707
     7.6057   8.1076   8.4493   8.5224

          k = 0.1667 0.3333 0.3333 (  3678 PWs)   bands (ev):

   -45.9219 -29.0205 -22.6475 -22.6472 -22.5943 -10.4165 -10.3680 -10.2627
    -6.8718  -6.3404  -6.2174   4.9333   5.5332   5.5385   5.9407   6.1511
     7.0902   8.3475   8.3896   9.1232

          k = 0.1667 0.3333-0.5000 (  3662 PWs)   bands (ev):

   -45.9215 -29.0182 -22.6723 -22.6464 -22.5931 -10.4415 -10.3634 -10.2548
    -6.8395  -6.2629  -6.0834   4.7793   4.9491   5.4858   5.8074   6.0429
     7.1027   8.2981   8.3712   9.2701

          k = 0.1667-0.5000-0.5000 (  3652 PWs)   bands (ev):

   -45.9211 -29.0160 -22.6715 -22.6715 -22.5918 -10.4057 -10.4057 -10.2476
    -6.8598  -6.0509  -6.0509   4.4906   4.8532   5.0745   5.8292   5.8292
     7.0722   8.3365   8.3365   9.5456

          k = 0.3333 0.3333 0.3333 (  3668 PWs)   bands (ev):

   -45.9211 -29.0162 -22.6453 -22.6445 -22.6445 -10.3811 -10.3368 -10.3368
    -6.5185  -6.2636  -6.2636   4.9258   5.3706   5.3706   5.6606   5.6606
     5.7239   8.9267   8.9267   9.2731

          k = 0.3333 0.3333-0.5000 (  3672 PWs)   bands (ev):

   -45.9206 -29.0140 -22.6697 -22.6439 -22.6430 -10.3935 -10.3431 -10.3209
    -6.4415  -6.2871  -6.1061   4.9262   4.9541   5.1682   5.2939   5.6287
     5.7357   9.0209   9.1266   9.3883

          k = 0.3333-0.5000-0.5000 (  3684 PWs)   bands (ev):

   -45.9202 -29.0119 -22.6683 -22.6683 -22.6420 -10.3693 -10.3693 -10.3167
    -6.4026  -6.1182  -6.1182   4.7837   4.8728   5.0844   5.1704   5.1704
     5.6441   9.2613   9.2613   9.6000

          k =-0.5000-0.5000-0.5000 (  3648 PWs)   bands (ev):

   -45.9198 -29.0098 -22.6667 -22.6667 -22.6667 -10.3507 -10.3507 -10.3507
    -6.1523  -6.1523  -6.1523   4.7953   4.9348   4.9348   4.9348   5.0893
     5.0893   9.6278   9.6278   9.6278

     highest occupied level (ev):     9.6278

!    total energy              =    -291.76247586 Ry
     estimated scf accuracy    <          4.4E-09 Ry

     The total energy is the sum of the following terms:
     one-electron contribution =     -85.95316877 Ry
     hartree contribution      =      63.74471450 Ry
     xc contribution           =     -51.45260577 Ry
     ewald contribution        =    -218.10141581 Ry

     convergence has been achieved in  11 iterations

     negative rho (up, down):  8.112E-04 0.000E+00

     Forces acting on atoms (cartesian axes, Ry/au):

     atom    1 type  1   force =     0.00000000    0.00000000    0.00000000
     atom    2 type  2   force =     0.00000000    0.00000000    0.00000000
     atom    3 type  3   force =     0.00000000    0.00000000    0.00000000
     atom    4 type  3   force =     0.00000000    0.00000000    0.00000000
     atom    5 type  3   force =     0.00000000    0.00000000    0.00000000

     Total force =     0.000000     Total SCF correction =     0.000000


     Computing stress (Cartesian axis) and pressure


     negative rho (up, down):  8.112E-04 0.000E+00
          total   stress  (Ry/bohr**3)                   (kbar)     P=        3.97
   0.00002697   0.00000000   0.00000000            3.97        0.00        0.00
   0.00000000   0.00002697   0.00000000            0.00        3.97        0.00
   0.00000000   0.00000000   0.00002697            0.00        0.00        3.97


     Writing all to output data dir ./CTO_CELLDM_4.save/ :
     XML data file, charge density, pseudopotentials, collected wavefunctions
 
     init_run     :      0.45s CPU      0.54s WALL (       1 calls)
     electrons    :      7.08s CPU      7.43s WALL (       1 calls)
     forces       :      0.13s CPU      0.13s WALL (       1 calls)
     stress       :      1.00s CPU      1.02s WALL (       1 calls)

     Called by init_run:
     wfcinit      :      0.14s CPU      0.17s WALL (       1 calls)
     potinit      :      0.01s CPU      0.02s WALL (       1 calls)
     hinit0       :      0.12s CPU      0.15s WALL (       1 calls)

     Called by electrons:
     c_bands      :      5.09s CPU      5.34s WALL (      11 calls)
     sum_band     :      1.20s CPU      1.25s WALL (      11 calls)
     v_of_rho     :      0.03s CPU      0.03s WALL (      12 calls)
     newd         :      0.80s CPU      0.83s WALL (      12 calls)
     mix_rho      :      0.02s CPU      0.02s WALL (      11 calls)

     Called by c_bands:
     init_us_2    :      0.07s CPU      0.07s WALL (     500 calls)
     init_us_2:cp :      0.07s CPU      0.07s WALL (     500 calls)
     ccgdiagg     :      4.39s CPU      4.60s WALL (     220 calls)
     wfcrot       :      0.76s CPU      0.82s WALL (     220 calls)

     Called by *cgdiagg:
     h_psi        :      3.16s CPU      3.31s WALL (   13344 calls)
     s_psi        :      0.46s CPU      0.49s WALL (   26468 calls)

     Called by h_psi:
     h_psi:calbec :      0.48s CPU      0.50s WALL (   13344 calls)
     vloc_psi     :      2.31s CPU      2.42s WALL (   13344 calls)
     add_vuspsi   :      0.26s CPU      0.28s WALL (   13344 calls)
     hs_1psi      :      2.83s CPU      2.96s WALL (   13124 calls)
     s_1psi       :      0.64s CPU      0.67s WALL (   13124 calls)

     General routines
     calbec       :      0.86s CPU      0.90s WALL (   26788 calls)
     fft          :      0.03s CPU      0.04s WALL (      78 calls)
     ffts         :      0.00s CPU      0.00s WALL (      23 calls)
     fftw         :      1.94s CPU      2.02s WALL (   39928 calls)
     interpolate  :      0.01s CPU      0.01s WALL (      12 calls)
 
     Parallel routines
 
     PWSCF        :      8.87s CPU      9.86s WALL

 
   This run was terminated on:  23:51:33  23Sep2025            

=------------------------------------------------------------------------------=
   JOB DONE.
=------------------------------------------------------------------------------=
TACC:  Shutdown complete. Exiting. 
