TACC:  Starting up job 2476553 
TACC:  Starting parallel tasks... 

     Program PWSCF v.7.3 starts on 18Oct2025 at 15:27:19 

     This program is part of the open-source Quantum ESPRESSO suite
     for quantum simulation of materials; please cite
         "P. Giannozzi et al., J. Phys.:Condens. Matter 21 395502 (2009);
         "P. Giannozzi et al., J. Phys.:Condens. Matter 29 465901 (2017);
         "P. Giannozzi et al., J. Chem. Phys. 152 154105 (2020);
          URL http://www.quantum-espresso.org", 
     in publications or presentations arising from this work. More details at
     http://www.quantum-espresso.org/quote

     Parallel version (MPI & OpenMP), running on      10 processor cores
     Number of MPI processes:                10
     Threads/MPI process:                     1

     MPI processes distributed on     1 nodes
     186292 MiB available memory on the printing compute node when the environment starts
 
     Waiting for input...
     Reading input from standard input
Warning: card &CELL ignored
Warning: card  CELL_DYNAMICS = 'BFGS', ignored
Warning: card  PRESS=0.D0, ignored
Warning: card / ignored

     Current dimensions of program PWSCF are:
     Max number of different atomic species (ntypx) = 10
     Max number of k-points (npk) =  40000
     Max angular momentum in pseudopotentials (lmaxx) =  4
 
     R & G space division:  proc/nbgrp/npool/nimage =      10
     Subspace diagonalization in iterative solution of the eigenvalue problem:
     a serial algorithm will be used

 
     Parallelization info
     --------------------
     sticks:   dense  smooth     PW     G-vecs:    dense   smooth      PW
     Min          94      37     12                 2162      543     102
     Max          95      38     13                 2165      546     103
     Sum         949     373    121                21631     5449    1021
 
     Using Slab Decomposition
 


     bravais-lattice index     =            1
     lattice parameter (alat)  =       7.6794  a.u.
     unit-cell volume          =     452.8787 (a.u.)^3
     number of atoms/cell      =            5
     number of atomic types    =            3
     number of electrons       =        40.00
     number of Kohn-Sham states=           20
     kinetic-energy cutoff     =      20.0000  Ry
     charge density cutoff     =     200.0000  Ry
     scf convergence threshold =      1.0E-08
     mixing beta               =       0.7000
     number of iterations used =            8  plain     mixing
     Exchange-correlation= SLA  PZ   NOGX NOGC
                           (   1   1   0   0   0   0   0)

     celldm(1)=   7.679400  celldm(2)=   0.000000  celldm(3)=   0.000000
     celldm(4)=   0.000000  celldm(5)=   0.000000  celldm(6)=   0.000000

     crystal axes: (cart. coord. in units of alat)
               a(1) = (   1.000000   0.000000   0.000000 )  
               a(2) = (   0.000000   1.000000   0.000000 )  
               a(3) = (   0.000000   0.000000   1.000000 )  

     reciprocal axes: (cart. coord. in units 2 pi/alat)
               b(1) = (  1.000000  0.000000  0.000000 )  
               b(2) = (  0.000000  1.000000  0.000000 )  
               b(3) = (  0.000000  0.000000  1.000000 )  


     PseudoPot. # 1 for Ba read from file:
     /scratch/11018/zhc/Assisgnment2/Q1/1D/Kpoints/Ba_LDA.UPF
     MD5 check sum: 0ec7675c796dc0a11c6269c68e51391e
     Pseudo is Ultrasoft + core correction, Zval = 10.0
     Generated by new atomic code, or converted to UPF format
     Using radial grid of  907 points,  7 beta functions with: 
                l(1) =   0
                l(2) =   0
                l(3) =   1
                l(4) =   1
                l(5) =   2
                l(6) =   2
                l(7) =   3
     Q(r) pseudized with  6 coefficients,  rinner =    1.700   1.700   1.700
                                                       1.700   1.700   1.700
                                                       1.700

     PseudoPot. # 2 for Ti read from file:
     /scratch/11018/zhc/Assisgnment2/Q1/1D/Kpoints/Ti_LDA.UPF
     MD5 check sum: 0d9f225c038fe889ca2a701dcc8d72cb
     Pseudo is Ultrasoft + core correction, Zval = 12.0
     Generated by new atomic code, or converted to UPF format
     Using radial grid of  851 points,  6 beta functions with: 
                l(1) =   0
                l(2) =   0
                l(3) =   1
                l(4) =   1
                l(5) =   2
                l(6) =   2
     Q(r) pseudized with  6 coefficients,  rinner =    1.000   1.000   1.000
                                                       1.000   1.000

     PseudoPot. # 3 for O  read from file:
     /scratch/11018/zhc/Assisgnment2/Q1/1D/Kpoints/O_LDA.UPF
     MD5 check sum: 194b818514d2a7dbb603bb78519a4f40
     Pseudo is Ultrasoft + core correction, Zval =  6.0
     Generated by new atomic code, or converted to UPF format
     Using radial grid of  737 points,  5 beta functions with: 
                l(1) =   0
                l(2) =   0
                l(3) =   1
                l(4) =   1
                l(5) =   2
     Q(r) pseudized with  8 coefficients,  rinner =    0.900   0.900   0.900
                                                       0.900   0.900

     atomic species   valence    mass     pseudopotential
     Ba               10.00   137.32700     Ba( 1.00)
     Ti               12.00    47.88000     Ti( 1.00)
     O                 6.00    16.00000     O ( 1.00)

      8 Sym. Ops. (no inversion) found



   Cartesian axes

     site n.     atom                  positions (alat units)
         1        Ba     tau(   1) = (   0.0000000   0.0000000   0.0000000  )
         2        Ti     tau(   2) = (   0.5000000   0.5000000   0.4900000  )
         3        O      tau(   3) = (   0.5000000   0.5000000   0.0000000  )
         4        O      tau(   4) = (   0.5000000   0.0000000   0.5000000  )
         5        O      tau(   5) = (   0.0000000   0.5000000   0.5000000  )

     number of k points=    40
                       cart. coord. in units 2pi/alat
        k(    1) = (   0.0000000   0.0000000   0.0000000), wk =   0.0058309
        k(    2) = (   0.0000000   0.0000000   0.1428571), wk =   0.0116618
        k(    3) = (   0.0000000   0.0000000   0.2857143), wk =   0.0116618
        k(    4) = (   0.0000000   0.0000000   0.4285714), wk =   0.0116618
        k(    5) = (   0.0000000   0.1428571   0.1428571), wk =   0.0466472
        k(    6) = (   0.0000000   0.1428571   0.2857143), wk =   0.0466472
        k(    7) = (   0.0000000   0.1428571   0.4285714), wk =   0.0466472
        k(    8) = (   0.0000000   0.2857143   0.2857143), wk =   0.0466472
        k(    9) = (   0.0000000   0.2857143   0.4285714), wk =   0.0466472
        k(   10) = (   0.0000000   0.4285714   0.4285714), wk =   0.0466472
        k(   11) = (   0.1428571   0.1428571   0.1428571), wk =   0.0466472
        k(   12) = (   0.1428571   0.1428571   0.2857143), wk =   0.0466472
        k(   13) = (   0.1428571   0.1428571   0.4285714), wk =   0.0466472
        k(   14) = (   0.1428571   0.2857143   0.2857143), wk =   0.0932945
        k(   15) = (   0.1428571   0.2857143   0.4285714), wk =   0.0932945
        k(   16) = (   0.1428571   0.4285714   0.4285714), wk =   0.0932945
        k(   17) = (   0.2857143   0.2857143   0.2857143), wk =   0.0466472
        k(   18) = (   0.2857143   0.2857143   0.4285714), wk =   0.0466472
        k(   19) = (   0.2857143   0.4285714   0.4285714), wk =   0.0932945
        k(   20) = (   0.4285714   0.4285714   0.4285714), wk =   0.0466472
        k(   21) = (   0.1428571   0.0000000   0.0000000), wk =   0.0233236
        k(   22) = (   0.2857143   0.0000000   0.0000000), wk =   0.0233236
        k(   23) = (   0.4285714   0.0000000   0.0000000), wk =   0.0233236
        k(   24) = (   0.1428571  -0.1428571   0.0000000), wk =   0.0233236
        k(   25) = (   0.2857143  -0.1428571   0.0000000), wk =   0.0466472
        k(   26) = (   0.0000000   0.2857143   0.1428571), wk =   0.0466472
        k(   27) = (   0.4285714  -0.1428571   0.0000000), wk =   0.0466472
        k(   28) = (   0.0000000   0.4285714   0.1428571), wk =   0.0466472
        k(   29) = (   0.2857143  -0.2857143   0.0000000), wk =   0.0233236
        k(   30) = (   0.4285714  -0.2857143   0.0000000), wk =   0.0466472
        k(   31) = (   0.0000000   0.4285714   0.2857143), wk =   0.0466472
        k(   32) = (   0.4285714  -0.4285714   0.0000000), wk =   0.0233236
        k(   33) = (   0.2857143  -0.1428571   0.1428571), wk =   0.0932945
        k(   34) = (   0.4285714  -0.1428571   0.1428571), wk =   0.0932945
        k(   35) = (   0.2857143  -0.2857143   0.1428571), wk =   0.0466472
        k(   36) = (   0.4285714  -0.2857143   0.1428571), wk =   0.0932945
        k(   37) = (  -0.1428571   0.4285714   0.2857143), wk =   0.0932945
        k(   38) = (   0.4285714  -0.4285714   0.1428571), wk =   0.0466472
        k(   39) = (   0.4285714  -0.2857143   0.2857143), wk =   0.0932945
        k(   40) = (   0.4285714  -0.4285714   0.2857143), wk =   0.0466472

     Dense  grid:    21631 G-vectors     FFT dimensions: (  36,  36,  36)

     Smooth grid:     5449 G-vectors     FFT dimensions: (  24,  24,  24)

     Estimated max dynamical RAM per process >      21.19 MB

     Estimated total dynamical RAM >     211.94 MB

     Check: negative core charge=   -0.000005

     Initial potential from superposition of free atoms

     starting charge      38.9872, renormalised to      40.0000

     negative rho (up, down):  1.016E-01 0.000E+00
     Starting wfcs are   35 randomized atomic wfcs

     total cpu time spent up to now is        0.6 secs

     Self-consistent Calculation

     iteration #  1     ecut=    20.00 Ry     beta= 0.70
     CG style diagonalization
     ethr =  1.00E-02,  avg # of iterations =  2.2

     negative rho (up, down):  9.644E-02 0.000E+00

     total cpu time spent up to now is        1.0 secs

     total energy              =    -286.15542957 Ry
     estimated scf accuracy    <       0.51165455 Ry

     iteration #  2     ecut=    20.00 Ry     beta= 0.70
     CG style diagonalization
     ethr =  1.28E-03,  avg # of iterations =  5.3

     negative rho (up, down):  9.512E-02 0.000E+00

     total cpu time spent up to now is        1.8 secs

     total energy              =    -285.38956398 Ry
     estimated scf accuracy    <       6.77698222 Ry

     iteration #  3     ecut=    20.00 Ry     beta= 0.70
     CG style diagonalization
     ethr =  1.28E-03,  avg # of iterations =  4.9

     negative rho (up, down):  9.473E-02 0.000E+00

     total cpu time spent up to now is        2.5 secs

     total energy              =    -286.38645936 Ry
     estimated scf accuracy    <       0.14554204 Ry

     iteration #  4     ecut=    20.00 Ry     beta= 0.70
     CG style diagonalization
     ethr =  3.64E-04,  avg # of iterations =  3.4

     negative rho (up, down):  9.444E-02 0.000E+00

     total cpu time spent up to now is        3.0 secs

     total energy              =    -286.38778282 Ry
     estimated scf accuracy    <       0.06531310 Ry

     iteration #  5     ecut=    20.00 Ry     beta= 0.70
     CG style diagonalization
     ethr =  1.63E-04,  avg # of iterations =  3.4

     negative rho (up, down):  9.441E-02 0.000E+00

     total cpu time spent up to now is        3.5 secs

     total energy              =    -286.39218659 Ry
     estimated scf accuracy    <       0.00897763 Ry

     iteration #  6     ecut=    20.00 Ry     beta= 0.70
     CG style diagonalization
     ethr =  2.24E-05,  avg # of iterations =  3.7

     negative rho (up, down):  9.440E-02 0.000E+00

     total cpu time spent up to now is        4.1 secs

     total energy              =    -286.39425473 Ry
     estimated scf accuracy    <       0.00050386 Ry

     iteration #  7     ecut=    20.00 Ry     beta= 0.70
     CG style diagonalization
     ethr =  1.26E-06,  avg # of iterations =  4.2

     negative rho (up, down):  9.439E-02 0.000E+00

     total cpu time spent up to now is        4.7 secs

     total energy              =    -286.39460422 Ry
     estimated scf accuracy    <       0.00007010 Ry

     iteration #  8     ecut=    20.00 Ry     beta= 0.70
     CG style diagonalization
     ethr =  1.75E-07,  avg # of iterations =  3.7

     negative rho (up, down):  9.439E-02 0.000E+00

     total cpu time spent up to now is        5.2 secs

     total energy              =    -286.39461123 Ry
     estimated scf accuracy    <       0.00004463 Ry

     iteration #  9     ecut=    20.00 Ry     beta= 0.70
     CG style diagonalization
     ethr =  1.12E-07,  avg # of iterations =  3.3

     negative rho (up, down):  9.439E-02 0.000E+00

     total cpu time spent up to now is        5.7 secs

     total energy              =    -286.39461073 Ry
     estimated scf accuracy    <       0.00001813 Ry

     iteration # 10     ecut=    20.00 Ry     beta= 0.70
     CG style diagonalization
     ethr =  4.53E-08,  avg # of iterations =  3.3

     negative rho (up, down):  9.439E-02 0.000E+00

     total cpu time spent up to now is        6.2 secs

     total energy              =    -286.39461213 Ry
     estimated scf accuracy    <       0.00000217 Ry

     iteration # 11     ecut=    20.00 Ry     beta= 0.70
     CG style diagonalization
     ethr =  5.43E-09,  avg # of iterations =  3.6

     negative rho (up, down):  9.439E-02 0.000E+00

     total cpu time spent up to now is        6.7 secs

     total energy              =    -286.39461219 Ry
     estimated scf accuracy    <       0.00000064 Ry

     iteration # 12     ecut=    20.00 Ry     beta= 0.70
     CG style diagonalization
     ethr =  1.60E-09,  avg # of iterations =  4.0

     negative rho (up, down):  9.439E-02 0.000E+00

     total cpu time spent up to now is        7.3 secs

     total energy              =    -286.39461245 Ry
     estimated scf accuracy    <       0.00000037 Ry

     iteration # 13     ecut=    20.00 Ry     beta= 0.70
     CG style diagonalization
     ethr =  9.31E-10,  avg # of iterations =  3.4

     negative rho (up, down):  9.439E-02 0.000E+00

     total cpu time spent up to now is        7.8 secs

     total energy              =    -286.39461249 Ry
     estimated scf accuracy    <       0.00000002 Ry

     iteration # 14     ecut=    20.00 Ry     beta= 0.70
     CG style diagonalization
     ethr =  5.62E-11,  avg # of iterations =  4.3

     negative rho (up, down):  9.439E-02 0.000E+00

     total cpu time spent up to now is        8.5 secs

     End of self-consistent calculation

          k = 0.0000 0.0000 0.0000 (   691 PWs)   bands (ev):

   -47.2434 -23.6574 -23.6540 -23.6540 -15.2618  -7.5420  -6.8668  -6.8548
    -0.4115  -0.4115  -0.4095   7.0093   7.0094   7.0094   8.4563   8.4563
     8.4692   9.2470   9.2498   9.2498

          k = 0.0000 0.0000 0.1429 (   695 PWs)   bands (ev):

   -47.2434 -23.6661 -23.6661 -23.6627 -15.2434  -7.5413  -6.8595  -6.8536
    -0.3836  -0.3836  -0.3473   6.8180   6.9550   6.9550   8.1531   8.1531
     8.2372   8.7835   9.1235   9.1235

          k = 0.0000 0.0000 0.2857 (   683 PWs)   bands (ev):

   -47.2426 -23.6711 -23.6562 -23.6562 -15.2012  -7.5936  -6.8372  -6.7773
    -0.3176  -0.3176  -0.2080   6.1917   6.8765   6.8765   7.8592   7.8592
     7.9324   8.0987   8.9015   8.9015

          k = 0.0000 0.0000 0.4286 (   691 PWs)   bands (ev):

   -47.2429 -23.6897 -23.6612 -23.6612 -15.1668  -7.6714  -6.8259  -6.6696
    -0.2638  -0.2638  -0.1001   5.7078   6.6843   6.6843   7.5920   7.6731
     7.6731   7.7108   8.7410   8.7410

          k = 0.0000 0.1429 0.1429 (   696 PWs)   bands (ev):

   -47.2433 -23.6780 -23.6677 -23.6619 -15.2260  -7.5270  -6.8606  -6.8420
    -0.4214  -0.3545  -0.2595   6.5721   6.9219   6.9250   7.7231   7.9727
     8.3674   8.4855   8.9451   8.9825

          k = 0.0000 0.1429 0.2857 (   691 PWs)   bands (ev):

   -47.2429 -23.6855 -23.6675 -23.6553 -15.1865  -7.5389  -6.8321  -6.7953
    -0.3923  -0.2864  -0.1763   6.0401   6.7057   6.8683   7.1894   7.6780
     8.0240   8.3731   8.6806   8.8094

          k = 0.0000 0.1429 0.4286 (   676 PWs)   bands (ev):

   -47.2419 -23.6778 -23.6512 -23.6492 -15.1542  -7.5892  -6.8132  -6.6999
    -0.3199  -0.2295  -0.1590   5.6861   6.6210   6.7384   6.8216   7.5542
     7.8931   8.4759   8.5116   8.6237

          k = 0.0000 0.2857 0.2857 (   686 PWs)   bands (ev):

   -47.2423 -23.6898 -23.6706 -23.6496 -15.1529  -7.4384  -6.8467  -6.7765
    -0.4498  -0.2132  -0.2070   5.7676   6.3763   6.5252   6.8985   7.3185
     8.0515   8.3295   8.4781   9.0420

          k = 0.0000 0.2857 0.4286 (   683 PWs)   bands (ev):

   -47.2419 -23.6848 -23.6802 -23.6487 -15.1256  -7.3956  -6.8090  -6.7621
    -0.4248  -0.3034  -0.1524   5.5205   5.9973   6.2657   6.8024   7.1925
     8.0533   8.1991   8.4450   9.1252

          k = 0.0000 0.4286 0.4286 (   682 PWs)   bands (ev):

   -47.2416 -23.6914 -23.6819 -23.6530 -15.1023  -7.2244  -6.8322  -6.7981
    -0.4762  -0.4315  -0.0882   5.3153   5.6075   5.9597   6.8492   6.9407
     7.7274   8.4742   8.6221   9.3995

          k = 0.1429 0.1429 0.1429 (   688 PWs)   bands (ev):

   -47.2429 -23.6678 -23.6653 -23.6593 -15.2097  -7.4997  -6.8510  -6.8394
    -0.4223  -0.4210  -0.1523   6.4010   6.8994   6.9042   7.6733   7.6774
     8.0977   8.5518   8.8814   8.8838

          k = 0.1429 0.1429 0.2857 (   683 PWs)   bands (ev):

   -47.2424 -23.6771 -23.6594 -23.6568 -15.1724  -7.4786  -6.8185  -6.8090
    -0.4216  -0.4083  -0.0827   5.9507   6.6380   6.8066   7.2130   7.3498
     7.8695   8.5908   8.6987   8.7627

          k = 0.1429 0.1429 0.4286 (   682 PWs)   bands (ev):

   -47.2420 -23.6843 -23.6620 -23.6557 -15.1420  -7.5078  -6.8012  -6.7224
    -0.4229  -0.2951  -0.1369   5.6223   6.4809   6.6628   6.7528   7.1982
     7.9977   8.5079   8.5299   8.5661

          k = 0.1429 0.2857 0.2857 (   691 PWs)   bands (ev):

   -47.2424 -23.6882 -23.6771 -23.6655 -15.1403  -7.3677  -6.8287  -6.7842
    -0.5115  -0.4626  -0.0810   5.6956   6.3445   6.4826   6.8594   7.2163
     7.5300   8.5136   8.6729   8.9761

          k = 0.1429 0.2857 0.4286 (   682 PWs)   bands (ev):

   -47.2416 -23.6864 -23.6749 -23.6607 -15.1141  -7.3129  -6.7908  -6.7603
    -0.5444  -0.4490  -0.1764   5.4911   6.0846   6.2985   6.7393   7.0976
     7.5687   8.4911   8.6255   9.1184

          k = 0.1429 0.4286 0.4286 (   686 PWs)   bands (ev):

   -47.2416 -23.6927 -23.6875 -23.6664 -15.0915  -7.1398  -6.8095  -6.7783
    -0.5846  -0.5668  -0.2590   5.2801   5.8722   5.9777   6.8325   6.9350
     7.3011   8.6300   8.7221   9.3896

          k = 0.2857 0.2857 0.2857 (   690 PWs)   bands (ev):

   -47.2421 -23.6850 -23.6826 -23.6764 -15.1115  -7.2164  -6.7912  -6.7802
    -0.6487  -0.6471  -0.1733   5.5790   6.3313   6.3484   6.7305   7.0418
     7.0439   8.8350   8.8361   8.9769

          k = 0.2857 0.2857 0.4286 (   674 PWs)   bands (ev):

   -47.2409 -23.6798 -23.6721 -23.6670 -15.0882  -7.1159  -6.7624  -6.7422
    -0.7555  -0.6657  -0.3709   5.4064   6.2210   6.3988   6.4255   7.0415
     7.1732   8.8067   9.0317   9.2132

          k = 0.2857 0.4286 0.4286 (   673 PWs)   bands (ev):

   -47.2406 -23.6897 -23.6815 -23.6644 -15.0671  -6.9418  -6.7524  -6.7293
    -0.8365  -0.8176  -0.6139   5.2130   6.0372   6.3980   6.4659   7.0440
     7.0678   9.0589   9.0842   9.4495

          k = 0.4286 0.4286 0.4286 (   672 PWs)   bands (ev):

   -47.2401 -23.6867 -23.6843 -23.6815 -15.0474  -6.7734  -6.7050  -6.6951
    -1.0007  -0.9990  -0.9066   5.0246   6.0536   6.0709   6.8576   7.0386
     7.0432   9.4007   9.4071   9.5032

          k = 0.1429 0.0000 0.0000 (   695 PWs)   bands (ev):

   -47.2434 -23.6694 -23.6661 -23.6595 -15.2434  -7.5439  -6.8636  -6.8469
    -0.3835  -0.3816  -0.3493   6.8223   6.9547   6.9560   8.1496   8.1585
     8.2414   8.7824   9.1097   9.1247

          k = 0.2857 0.0000 0.0000 (   683 PWs)   bands (ev):

   -47.2426 -23.6679 -23.6595 -23.6562 -15.2012  -7.6002  -6.8462  -6.7622
    -0.3173  -0.3155  -0.2104   6.2050   6.8750   6.8786   7.8378   7.8711
     7.9532   8.1038   8.8769   8.8917

          k = 0.4286 0.0000 0.0000 (   691 PWs)   bands (ev):

   -47.2428 -23.6864 -23.6645 -23.6612 -15.1667  -7.6793  -6.8348  -6.6536
    -0.2633  -0.2615  -0.1027   5.7304   6.6805   6.6868   7.5666   7.6580
     7.6913   7.7538   8.7103   8.7248

          k = 0.1429-0.1429 0.0000 (   696 PWs)   bands (ev):

   -47.2433 -23.6762 -23.6710 -23.6604 -15.2260  -7.5297  -6.8501  -6.8499
    -0.4223  -0.3526  -0.2606   6.5728   6.9228   6.9295   7.7274   7.9774
     8.3655   8.4560   8.9638   8.9855

          k = 0.2857-0.1429 0.0000 (   691 PWs)   bands (ev):

   -47.2429 -23.6824 -23.6673 -23.6586 -15.1865  -7.5460  -6.8367  -6.7842
    -0.3928  -0.2844  -0.1779   6.0494   6.7131   6.8703   7.1935   7.6856
     8.0045   8.3602   8.6804   8.8174

          k = 0.0000 0.2857 0.1429 (   691 PWs)   bands (ev):

   -47.2429 -23.6826 -23.6704 -23.6553 -15.1865  -7.5439  -6.8411  -6.7817
    -0.3915  -0.2862  -0.1772   6.0507   6.7087   6.8665   7.1850   7.6860
     8.0261   8.3683   8.6672   8.8080

          k = 0.4286-0.1429 0.0000 (   676 PWs)   bands (ev):

   -47.2418 -23.6747 -23.6525 -23.6510 -15.1541  -7.5978  -6.8214  -6.6842
    -0.3197  -0.2273  -0.1615   5.7054   6.6424   6.7414   6.8069   7.5610
     7.8865   8.4137   8.5360   8.6394

          k = 0.0000 0.4286 0.1429 (   676 PWs)   bands (ev):

   -47.2418 -23.6748 -23.6542 -23.6491 -15.1541  -7.5963  -6.8227  -6.6840
    -0.3179  -0.2291  -0.1614   5.7062   6.6413   6.7338   6.7972   7.5711
     7.8948   8.4696   8.4895   8.6213

          k = 0.2857-0.2857 0.0000 (   686 PWs)   bands (ev):

   -47.2423 -23.6881 -23.6691 -23.6528 -15.1529  -7.4461  -6.8379  -6.7785
    -0.4508  -0.2113  -0.2081   5.7699   6.4064   6.5097   6.9035   7.3277
     8.0120   8.3538   8.4634   9.0515

          k = 0.4286-0.2857 0.0000 (   683 PWs)   bands (ev):

   -47.2419 -23.6830 -23.6789 -23.6520 -15.1255  -7.4065  -6.8100  -6.7515
    -0.4250  -0.3054  -0.1504   5.5318   6.0210   6.2549   6.8059   7.2076
     8.0258   8.1995   8.4306   9.1363

          k = 0.0000 0.4286 0.2857 (   683 PWs)   bands (ev):

   -47.2419 -23.6855 -23.6796 -23.6487 -15.1255  -7.4002  -6.8163  -6.7507
    -0.4233  -0.3050  -0.1522   5.5323   6.0113   6.2460   6.7935   7.2085
     8.0432   8.1991   8.4418   9.1269

          k = 0.4286-0.4286 0.0000 (   682 PWs)   bands (ev):

   -47.2416 -23.6895 -23.6806 -23.6563 -15.1022  -7.2384  -6.8228  -6.7951
    -0.4772  -0.4328  -0.0864   5.3192   5.6177   5.9704   6.8617   6.9473
     7.7204   8.4571   8.6034   9.4103

          k = 0.2857-0.1429 0.1429 (   683 PWs)   bands (ev):

   -47.2424 -23.6741 -23.6616 -23.6576 -15.1723  -7.4840  -6.8275  -6.7951
    -0.4205  -0.4092  -0.0829   5.9583   6.6470   6.8061   7.2180   7.3479
     7.8542   8.5905   8.6934   8.7687

          k = 0.4286-0.1429 0.1429 (   682 PWs)   bands (ev):

   -47.2420 -23.6814 -23.6639 -23.6569 -15.1419  -7.5156  -6.8100  -6.7067
    -0.4216  -0.2967  -0.1367   5.6397   6.5016   6.6634   6.7389   7.1970
     7.9774   8.5011   8.5316   8.5737

          k = 0.2857-0.2857 0.1429 (   691 PWs)   bands (ev):

   -47.2424 -23.6864 -23.6757 -23.6688 -15.1402  -7.3736  -6.8196  -6.7879
    -0.5125  -0.4619  -0.0808   5.6985   6.3684   6.4720   6.8618   7.2219
     7.5151   8.5137   8.6583   8.9873

          k = 0.4286-0.2857 0.1429 (   682 PWs)   bands (ev):

   -47.2416 -23.6838 -23.6745 -23.6639 -15.1141  -7.3230  -6.7917  -6.7504
    -0.5437  -0.4511  -0.1751   5.5025   6.1104   6.2876   6.7411   7.1022
     7.5562   8.4823   8.6126   9.1298

          k =-0.1429 0.4286 0.2857 (   682 PWs)   bands (ev):

   -47.2416 -23.6845 -23.6769 -23.6607 -15.1141  -7.3180  -6.7972  -6.7493
    -0.5423  -0.4516  -0.1758   5.5025   6.1024   6.2794   6.7363   7.1039
     7.5593   8.4886   8.6275   9.1192

          k = 0.4286-0.4286 0.1429 (   686 PWs)   bands (ev):

   -47.2416 -23.6906 -23.6865 -23.6696 -15.0915  -7.1532  -6.7998  -6.7758
    -0.5856  -0.5679  -0.2573   5.2847   5.8845   5.9860   6.8431   6.9375
     7.2926   8.6151   8.7055   9.4005

          k = 0.4286-0.2857 0.2857 (   674 PWs)   bands (ev):

   -47.2409 -23.6775 -23.6733 -23.6681 -15.0882  -7.1230  -6.7512  -6.7468
    -0.7542  -0.6680  -0.3700   5.4152   6.2403   6.3830   6.4269   7.0426
     7.1665   8.7962   9.0328   9.2191

          k = 0.4286-0.4286 0.2857 (   673 PWs)   bands (ev):

   -47.2406 -23.6879 -23.6803 -23.6676 -15.0671  -6.9522  -6.7423  -6.7297
    -0.8364  -0.8189  -0.6127   5.2172   6.0507   6.3903   6.4704   7.0441
     7.0655   9.0508   9.0737   9.4601

     highest occupied level (ev):     9.5032

!    total energy              =    -286.39461250 Ry
     estimated scf accuracy    <          6.4E-09 Ry

     The total energy is the sum of the following terms:
     one-electron contribution =     -74.90366296 Ry
     hartree contribution      =      59.60392677 Ry
     xc contribution           =     -66.90866228 Ry
     ewald contribution        =    -204.18621404 Ry

     convergence has been achieved in  14 iterations

     negative rho (up, down):  9.439E-02 0.000E+00

     Forces acting on atoms (cartesian axes, Ry/au):

     atom    1 type  1   force =     0.00000000    0.00000000   -0.00451598
     atom    2 type  2   force =     0.00000000    0.00000000   -0.01966689
     atom    3 type  3   force =     0.00000000    0.00000000    0.02811632
     atom    4 type  3   force =     0.00000000    0.00000000   -0.00196673
     atom    5 type  3   force =     0.00000000    0.00000000   -0.00196673

     Total force =     0.034720     Total SCF correction =     0.000009


     Computing stress (Cartesian axis) and pressure


     negative rho (up, down):  9.439E-02 0.000E+00
          total   stress  (Ry/bohr**3)                   (kbar)     P=    -1138.55
  -0.00774562   0.00000000   0.00000000        -1139.42        0.00        0.00
   0.00000000  -0.00774562   0.00000000            0.00    -1139.42        0.00
   0.00000000   0.00000000  -0.00772795            0.00        0.00    -1136.82


     Writing all to output data dir ./BTO_k7.save/ :
     XML data file, charge density, pseudopotentials, collected wavefunctions
 
     init_run     :      0.23s CPU      0.31s WALL (       1 calls)
     electrons    :      7.24s CPU      7.93s WALL (       1 calls)
     forces       :      0.05s CPU      0.06s WALL (       1 calls)
     stress       :      0.42s CPU      0.43s WALL (       1 calls)

     Called by init_run:
     wfcinit      :      0.12s CPU      0.15s WALL (       1 calls)
     potinit      :      0.00s CPU      0.01s WALL (       1 calls)
     hinit0       :      0.08s CPU      0.11s WALL (       1 calls)

     Called by electrons:
     c_bands      :      6.31s CPU      6.85s WALL (      14 calls)
     sum_band     :      0.69s CPU      0.77s WALL (      14 calls)
     v_of_rho     :      0.01s CPU      0.01s WALL (      15 calls)
     newd         :      0.24s CPU      0.30s WALL (      15 calls)
     mix_rho      :      0.01s CPU      0.01s WALL (      14 calls)

     Called by c_bands:
     init_us_2    :      0.05s CPU      0.06s WALL (    1240 calls)
     init_us_2:cp :      0.05s CPU      0.05s WALL (    1240 calls)
     ccgdiagg     :      5.58s CPU      6.06s WALL (     560 calls)
     wfcrot       :      0.79s CPU      0.87s WALL (     560 calls)

     Called by *cgdiagg:
     h_psi        :      3.19s CPU      3.47s WALL (   32394 calls)
     s_psi        :      0.47s CPU      0.52s WALL (   64228 calls)

     Called by h_psi:
     h_psi:calbec :      0.63s CPU      0.68s WALL (   32394 calls)
     vloc_psi     :      2.07s CPU      2.25s WALL (   32394 calls)
     add_vuspsi   :      0.26s CPU      0.28s WALL (   32394 calls)
     hs_1psi      :      3.02s CPU      3.28s WALL (   31834 calls)
     s_1psi       :      0.89s CPU      0.97s WALL (   31834 calls)

     General routines
     calbec       :      1.12s CPU      1.22s WALL (   64988 calls)
     fft          :      0.01s CPU      0.02s WALL (      96 calls)
     ffts         :      0.00s CPU      0.00s WALL (      29 calls)
     fftw         :      1.87s CPU      2.03s WALL (   98468 calls)
     interpolate  :      0.00s CPU      0.00s WALL (      15 calls)
 
     Parallel routines
 
     PWSCF        :      8.19s CPU      9.26s WALL

 
   This run was terminated on:  15:27:28  18Oct2025            

=------------------------------------------------------------------------------=
   JOB DONE.
=------------------------------------------------------------------------------=
TACC:  Shutdown complete. Exiting. 
