TACC:  Starting up job 2406353 
TACC:  Starting parallel tasks... 

     Program PWSCF v.7.3 starts on 24Sep2025 at  0:35:54 

     This program is part of the open-source Quantum ESPRESSO suite
     for quantum simulation of materials; please cite
         "P. Giannozzi et al., J. Phys.:Condens. Matter 21 395502 (2009);
         "P. Giannozzi et al., J. Phys.:Condens. Matter 29 465901 (2017);
         "P. Giannozzi et al., J. Chem. Phys. 152 154105 (2020);
          URL http://www.quantum-espresso.org", 
     in publications or presentations arising from this work. More details at
     http://www.quantum-espresso.org/quote

     Parallel version (MPI & OpenMP), running on      10 processor cores
     Number of MPI processes:                10
     Threads/MPI process:                     1

     MPI processes distributed on     1 nodes
     183984 MiB available memory on the printing compute node when the environment starts
 
     Waiting for input...
     Reading input from standard input
Warning: card &CELL ignored
Warning: card  CELL_DYNAMICS = 'BFGS', ignored
Warning: card  PRESS=0.D0, ignored
Warning: card / ignored
     Message from routine read_cards :
     DEPRECATED: no units specified in ATOMIC_POSITIONS card
     Message from routine read_cards :
     ATOMIC_POSITIONS: units set to alat

     Current dimensions of program PWSCF are:
     Max number of different atomic species (ntypx) = 10
     Max number of k-points (npk) =  40000
     Max angular momentum in pseudopotentials (lmaxx) =  4
 
     R & G space division:  proc/nbgrp/npool/nimage =      10
     Subspace diagonalization in iterative solution of the eigenvalue problem:
     a serial algorithm will be used

 
     Parallelization info
     --------------------
     sticks:   dense  smooth     PW     G-vecs:    dense   smooth      PW
     Min         411     164     48                19845     5016     780
     Max         412     165     49                19848     5019     783
     Sum        4117    1649    481               198461    50181    7809
 
     Using Slab Decomposition
 


     bravais-lattice index     =            1
     lattice parameter (alat)  =       7.1901  a.u.
     unit-cell volume          =     371.7087 (a.u.)^3
     number of atoms/cell      =            5
     number of atomic types    =            3
     number of electrons       =        40.00
     number of Kohn-Sham states=           20
     kinetic-energy cutoff     =     100.0000  Ry
     charge density cutoff     =    1000.0000  Ry
     scf convergence threshold =      1.0E-08
     mixing beta               =       0.7000
     number of iterations used =            8  plain     mixing
     Exchange-correlation= SLA  PZ   NOGX NOGC
                           (   1   1   0   0   0   0   0)

     celldm(1)=   7.190089  celldm(2)=   0.000000  celldm(3)=   0.000000
     celldm(4)=   0.000000  celldm(5)=   0.000000  celldm(6)=   0.000000

     crystal axes: (cart. coord. in units of alat)
               a(1) = (   1.000000   0.000000   0.000000 )  
               a(2) = (   0.000000   1.000000   0.000000 )  
               a(3) = (   0.000000   0.000000   1.000000 )  

     reciprocal axes: (cart. coord. in units 2 pi/alat)
               b(1) = (  1.000000  0.000000  0.000000 )  
               b(2) = (  0.000000  1.000000  0.000000 )  
               b(3) = (  0.000000  0.000000  1.000000 )  


     PseudoPot. # 1 for Ca read from file:
     /scratch/11018/zhc/assisgnment1/CaTiO3/Ca_LDA.UPF
     MD5 check sum: d2d4e7693e10d071152e9eeb7dd009f3
     Pseudo is Ultrasoft + core correction, Zval = 10.0
     Generated by new atomic code, or converted to UPF format
     Using radial grid of  845 points,  6 beta functions with: 
                l(1) =   0
                l(2) =   0
                l(3) =   1
                l(4) =   1
                l(5) =   2
                l(6) =   2
     Q(r) pseudized with  8 coefficients,  rinner =    1.500   1.500   1.500
                                                       1.500   1.500

     PseudoPot. # 2 for Ti read from file:
     /scratch/11018/zhc/assisgnment1/CaTiO3/Ti_LDA.UPF
     MD5 check sum: 0d9f225c038fe889ca2a701dcc8d72cb
     Pseudo is Ultrasoft + core correction, Zval = 12.0
     Generated by new atomic code, or converted to UPF format
     Using radial grid of  851 points,  6 beta functions with: 
                l(1) =   0
                l(2) =   0
                l(3) =   1
                l(4) =   1
                l(5) =   2
                l(6) =   2
     Q(r) pseudized with  6 coefficients,  rinner =    1.000   1.000   1.000
                                                       1.000   1.000

     PseudoPot. # 3 for O  read from file:
     /scratch/11018/zhc/assisgnment1/CaTiO3/O_LDA.UPF
     MD5 check sum: 194b818514d2a7dbb603bb78519a4f40
     Pseudo is Ultrasoft + core correction, Zval =  6.0
     Generated by new atomic code, or converted to UPF format
     Using radial grid of  737 points,  5 beta functions with: 
                l(1) =   0
                l(2) =   0
                l(3) =   1
                l(4) =   1
                l(5) =   2
     Q(r) pseudized with  8 coefficients,  rinner =    0.900   0.900   0.900
                                                       0.900   0.900

     atomic species   valence    mass     pseudopotential
     Ca               10.00    40.07800     Ca( 1.00)
     Ti               12.00    47.88000     Ti( 1.00)
     O                 6.00    16.00000     O ( 1.00)

     48 Sym. Ops., with inversion, found



   Cartesian axes

     site n.     atom                  positions (alat units)
         1        Ca     tau(   1) = (   0.0000000   0.0000000   0.0000000  )
         2        Ti     tau(   2) = (   0.5000000   0.5000000   0.5000000  )
         3        O      tau(   3) = (   0.5000000   0.5000000   0.0000000  )
         4        O      tau(   4) = (   0.5000000   0.0000000   0.5000000  )
         5        O      tau(   5) = (   0.0000000   0.5000000   0.5000000  )

     number of k points=    20
                       cart. coord. in units 2pi/alat
        k(    1) = (   0.0000000   0.0000000   0.0000000), wk =   0.0092593
        k(    2) = (   0.0000000   0.0000000   0.1666667), wk =   0.0555556
        k(    3) = (   0.0000000   0.0000000   0.3333333), wk =   0.0555556
        k(    4) = (   0.0000000   0.0000000  -0.5000000), wk =   0.0277778
        k(    5) = (   0.0000000   0.1666667   0.1666667), wk =   0.1111111
        k(    6) = (   0.0000000   0.1666667   0.3333333), wk =   0.2222222
        k(    7) = (   0.0000000   0.1666667  -0.5000000), wk =   0.1111111
        k(    8) = (   0.0000000   0.3333333   0.3333333), wk =   0.1111111
        k(    9) = (   0.0000000   0.3333333  -0.5000000), wk =   0.1111111
        k(   10) = (   0.0000000  -0.5000000  -0.5000000), wk =   0.0277778
        k(   11) = (   0.1666667   0.1666667   0.1666667), wk =   0.0740741
        k(   12) = (   0.1666667   0.1666667   0.3333333), wk =   0.2222222
        k(   13) = (   0.1666667   0.1666667  -0.5000000), wk =   0.1111111
        k(   14) = (   0.1666667   0.3333333   0.3333333), wk =   0.2222222
        k(   15) = (   0.1666667   0.3333333  -0.5000000), wk =   0.2222222
        k(   16) = (   0.1666667  -0.5000000  -0.5000000), wk =   0.0555556
        k(   17) = (   0.3333333   0.3333333   0.3333333), wk =   0.0740741
        k(   18) = (   0.3333333   0.3333333  -0.5000000), wk =   0.1111111
        k(   19) = (   0.3333333  -0.5000000  -0.5000000), wk =   0.0555556
        k(   20) = (  -0.5000000  -0.5000000  -0.5000000), wk =   0.0092593

     Dense  grid:   198461 G-vectors     FFT dimensions: (  75,  75,  75)

     Smooth grid:    50181 G-vectors     FFT dimensions: (  45,  45,  45)

     Estimated max dynamical RAM per process >      85.66 MB

     Estimated total dynamical RAM >     856.60 MB

     Check: negative core charge=   -0.000001

     Initial potential from superposition of free atoms

     starting charge      38.9952, renormalised to      40.0000

     negative rho (up, down):  8.096E-04 0.000E+00
     Starting wfcs are   32 randomized atomic wfcs

     total cpu time spent up to now is        1.7 secs

     Self-consistent Calculation

     iteration #  1     ecut=   100.00 Ry     beta= 0.70
     CG style diagonalization
     ethr =  1.00E-02,  avg # of iterations =  2.2

     negative rho (up, down):  1.055E-03 0.000E+00

     total cpu time spent up to now is        2.5 secs

     total energy              =    -291.31850489 Ry
     estimated scf accuracy    <       0.82866550 Ry

     iteration #  2     ecut=   100.00 Ry     beta= 0.70
     CG style diagonalization
     ethr =  2.07E-03,  avg # of iterations =  5.0

     negative rho (up, down):  6.570E-04 0.000E+00

     total cpu time spent up to now is        3.9 secs

     total energy              =    -290.85621870 Ry
     estimated scf accuracy    <       4.79357341 Ry

     iteration #  3     ecut=   100.00 Ry     beta= 0.70
     CG style diagonalization
     ethr =  2.07E-03,  avg # of iterations =  4.4

     negative rho (up, down):  7.466E-04 0.000E+00

     total cpu time spent up to now is        5.1 secs

     total energy              =    -291.74434646 Ry
     estimated scf accuracy    <       0.13594655 Ry

     iteration #  4     ecut=   100.00 Ry     beta= 0.70
     CG style diagonalization
     ethr =  3.40E-04,  avg # of iterations =  3.7

     negative rho (up, down):  8.125E-04 0.000E+00

     total cpu time spent up to now is        6.2 secs

     total energy              =    -291.75565811 Ry
     estimated scf accuracy    <       0.03430643 Ry

     iteration #  5     ecut=   100.00 Ry     beta= 0.70
     CG style diagonalization
     ethr =  8.58E-05,  avg # of iterations =  3.6

     negative rho (up, down):  8.421E-04 0.000E+00

     total cpu time spent up to now is        7.2 secs

     total energy              =    -291.76321601 Ry
     estimated scf accuracy    <       0.00046372 Ry

     iteration #  6     ecut=   100.00 Ry     beta= 0.70
     CG style diagonalization
     ethr =  1.16E-06,  avg # of iterations =  4.9

     negative rho (up, down):  8.349E-04 0.000E+00

     total cpu time spent up to now is        8.6 secs

     total energy              =    -291.76393356 Ry
     estimated scf accuracy    <       0.00094376 Ry

     iteration #  7     ecut=   100.00 Ry     beta= 0.70
     CG style diagonalization
     ethr =  1.16E-06,  avg # of iterations =  3.5

     negative rho (up, down):  8.286E-04 0.000E+00

     total cpu time spent up to now is        9.6 secs

     total energy              =    -291.76393259 Ry
     estimated scf accuracy    <       0.00018799 Ry

     iteration #  8     ecut=   100.00 Ry     beta= 0.70
     CG style diagonalization
     ethr =  4.70E-07,  avg # of iterations =  3.6

     negative rho (up, down):  8.270E-04 0.000E+00

     total cpu time spent up to now is       10.6 secs

     total energy              =    -291.76396440 Ry
     estimated scf accuracy    <       0.00000314 Ry

     iteration #  9     ecut=   100.00 Ry     beta= 0.70
     CG style diagonalization
     ethr =  7.84E-09,  avg # of iterations =  4.4

     negative rho (up, down):  8.271E-04 0.000E+00

     total cpu time spent up to now is       11.8 secs

     total energy              =    -291.76396850 Ry
     estimated scf accuracy    <       0.00000138 Ry

     iteration # 10     ecut=   100.00 Ry     beta= 0.70
     CG style diagonalization
     ethr =  3.44E-09,  avg # of iterations =  3.4

     negative rho (up, down):  8.272E-04 0.000E+00

     total cpu time spent up to now is       12.8 secs

     total energy              =    -291.76396864 Ry
     estimated scf accuracy    <       0.00000013 Ry

     iteration # 11     ecut=   100.00 Ry     beta= 0.70
     CG style diagonalization
     ethr =  3.29E-10,  avg # of iterations =  3.9

     negative rho (up, down):  8.272E-04 0.000E+00

     total cpu time spent up to now is       13.9 secs

     End of self-consistent calculation

          k = 0.0000 0.0000 0.0000 (  6235 PWs)   bands (ev):

   -45.9251 -29.0358 -22.5766 -22.5766 -22.5766 -10.2464 -10.2464 -10.2464
    -7.8900  -6.7019  -6.7019   6.4307   6.4307   6.4307   8.3348   8.3348
     8.3348   9.1953   9.1953   9.1953

          k = 0.0000 0.0000 0.1667 (  6287 PWs)   bands (ev):

   -45.9246 -29.0337 -22.6017 -22.5753 -22.5753 -10.3424 -10.2428 -10.2428
    -7.6883  -6.6895  -6.5945   6.1023   6.4335   6.4335   7.9426   7.9426
     8.0789   8.3240   9.0564   9.0564

          k = 0.0000 0.0000 0.3333 (  6311 PWs)   bands (ev):

   -45.9237 -29.0296 -22.6513 -22.5729 -22.5729 -10.5128 -10.2354 -10.2354
    -7.2912  -6.6644  -6.3674   5.3774   6.4913   6.4913   7.1311   7.2507
     7.2507   7.6379   8.9299   8.9299

          k = 0.0000 0.0000-0.5000 (  6302 PWs)   bands (ev):

   -45.9233 -29.0276 -22.6758 -22.5716 -22.5716 -10.5900 -10.2317 -10.2317
    -7.0968  -6.6517  -6.2412   4.9639   6.6553   6.6553   6.7038   6.8212
     6.8212   7.4429   8.8865   8.8865

          k = 0.0000 0.1667 0.1667 (  6280 PWs)   bands (ev):

   -45.9242 -29.0316 -22.6010 -22.6002 -22.5741 -10.3570 -10.2952 -10.2388
    -7.5148  -6.6343  -6.5353   5.8799   6.2899   6.4304   7.2000   7.6808
     8.2060   8.2757   8.6080   8.8187

          k = 0.0000 0.1667 0.3333 (  6282 PWs)   bands (ev):

   -45.9233 -29.0273 -22.6506 -22.5985 -22.5717 -10.4825 -10.2915 -10.2309
    -7.1845  -6.5879  -6.3199   5.3098   5.9131   6.4702   6.4977   7.1217
     7.4310   8.2516   8.4812   8.6044

          k = 0.0000 0.1667-0.5000 (  6298 PWs)   bands (ev):

   -45.9228 -29.0252 -22.6752 -22.5975 -22.5704 -10.5485 -10.2814 -10.2270
    -7.0375  -6.5626  -6.1842   4.9600   5.5776   6.3781   6.6215   6.7324
     7.1867   8.2520   8.3584   8.5427

          k = 0.0000 0.3333 0.3333 (  6270 PWs)   bands (ev):

   -45.9224 -29.0228 -22.6496 -22.6488 -22.5693 -10.4377 -10.3835 -10.2220
    -7.0634  -6.3470  -6.1941   4.8960   5.5152   5.5447   6.4525   6.8152
     7.5011   7.6972   8.2173   9.0945

          k = 0.0000 0.3333-0.5000 (  6268 PWs)   bands (ev):

   -45.9219 -29.0205 -22.6742 -22.6485 -22.5681 -10.4655 -10.3774 -10.2175
    -7.0416  -6.2297  -6.0723   4.6743   4.9414   5.4988   6.5350   6.5626
     7.4299   7.6705   8.0934   9.2462

          k = 0.0000-0.5000-0.5000 (  6256 PWs)   bands (ev):

   -45.9215 -29.0181 -22.6737 -22.6737 -22.5669 -10.4237 -10.4237 -10.2127
    -7.0704  -6.0172  -6.0172   4.3480   4.8368   5.0692   6.4813   6.4813
     7.5498   7.5498   7.9353   9.5187

          k = 0.1667 0.1667 0.1667 (  6298 PWs)   bands (ev):

   -45.9237 -29.0294 -22.5997 -22.5997 -22.5992 -10.3627 -10.2869 -10.2869
    -7.3528  -6.5353  -6.5353   5.6844   6.2522   6.2522   7.0864   7.0864
     7.7370   8.5500   8.5500   8.6294

          k = 0.1667 0.1667 0.3333 (  6288 PWs)   bands (ev):

   -45.9228 -29.0251 -22.6497 -22.5975 -22.5970 -10.4560 -10.2942 -10.2700
    -7.0460  -6.5356  -6.2987   5.2425   5.8375   6.0521   6.3196   6.6397
     7.5301   8.2767   8.4781   8.6214

          k = 0.1667 0.1667-0.5000 (  6252 PWs)   bands (ev):

   -45.9224 -29.0229 -22.6744 -22.5966 -22.5957 -10.5129 -10.2845 -10.2615
    -6.9088  -6.5358  -6.1496   4.9594   5.4591   5.8882   6.1227   6.5704
     7.6054   8.1073   8.4490   8.5221

          k = 0.1667 0.3333 0.3333 (  6277 PWs)   bands (ev):

   -45.9219 -29.0206 -22.6481 -22.6477 -22.5948 -10.4167 -10.3682 -10.2629
    -6.8712  -6.3398  -6.2168   4.9332   5.5330   5.5382   5.9404   6.1509
     7.0898   8.3472   8.3893   9.1228

          k = 0.1667 0.3333-0.5000 (  6272 PWs)   bands (ev):

   -45.9215 -29.0183 -22.6729 -22.6470 -22.5936 -10.4417 -10.3636 -10.2550
    -6.8389  -6.2623  -6.0828   4.7792   4.9489   5.4856   5.8072   6.0426
     7.1023   8.2978   8.3709   9.2697

          k = 0.1667-0.5000-0.5000 (  6276 PWs)   bands (ev):

   -45.9211 -29.0161 -22.6721 -22.6721 -22.5923 -10.4059 -10.4059 -10.2478
    -6.8592  -6.0504  -6.0504   4.4904   4.8531   5.0742   5.8290   5.8290
     7.0718   8.3362   8.3362   9.5452

          k = 0.3333 0.3333 0.3333 (  6262 PWs)   bands (ev):

   -45.9211 -29.0163 -22.6458 -22.6450 -22.6450 -10.3813 -10.3370 -10.3370
    -6.5179  -6.2630  -6.2630   4.9256   5.3704   5.3704   5.6603   5.6603
     5.7237   8.9264   8.9264   9.2727

          k = 0.3333 0.3333-0.5000 (  6260 PWs)   bands (ev):

   -45.9206 -29.0141 -22.6702 -22.6445 -22.6435 -10.3937 -10.3433 -10.3211
    -6.4409  -6.2865  -6.1055   4.9261   4.9539   5.1680   5.2937   5.6284
     5.7355   9.0205   9.1263   9.3880

          k = 0.3333-0.5000-0.5000 (  6260 PWs)   bands (ev):

   -45.9202 -29.0120 -22.6689 -22.6689 -22.6425 -10.3696 -10.3696 -10.3169
    -6.4020  -6.1176  -6.1176   4.7835   4.8727   5.0841   5.1702   5.1702
     5.6438   9.2609   9.2609   9.5996

          k =-0.5000-0.5000-0.5000 (  6272 PWs)   bands (ev):

   -45.9198 -29.0099 -22.6673 -22.6673 -22.6673 -10.3510 -10.3510 -10.3510
    -6.1517  -6.1517  -6.1517   4.7952   4.9347   4.9347   4.9347   5.0890
     5.0890   9.6274   9.6274   9.6274

     highest occupied level (ev):     9.6274

!    total energy              =    -291.76396901 Ry
     estimated scf accuracy    <          8.8E-10 Ry

     The total energy is the sum of the following terms:
     one-electron contribution =     -85.95594135 Ry
     hartree contribution      =      63.74618129 Ry
     xc contribution           =     -51.45279314 Ry
     ewald contribution        =    -218.10141581 Ry

     convergence has been achieved in  11 iterations

     negative rho (up, down):  8.272E-04 0.000E+00

     Forces acting on atoms (cartesian axes, Ry/au):

     atom    1 type  1   force =     0.00000000    0.00000000    0.00000000
     atom    2 type  2   force =     0.00000000    0.00000000    0.00000000
     atom    3 type  3   force =     0.00000000    0.00000000    0.00000000
     atom    4 type  3   force =     0.00000000    0.00000000    0.00000000
     atom    5 type  3   force =     0.00000000    0.00000000    0.00000000

     Total force =     0.000000     Total SCF correction =     0.000000


     Computing stress (Cartesian axis) and pressure


     negative rho (up, down):  8.272E-04 0.000E+00
          total   stress  (Ry/bohr**3)                   (kbar)     P=        4.01
   0.00002723   0.00000000   0.00000000            4.01        0.00        0.00
   0.00000000   0.00002723   0.00000000            0.00        4.01        0.00
   0.00000000   0.00000000   0.00002723            0.00        0.00        4.01


     Writing all to output data dir ./CTO_CELLDM_4.save/ :
     XML data file, charge density, pseudopotentials, collected wavefunctions
 
     init_run     :      0.83s CPU      0.95s WALL (       1 calls)
     electrons    :     11.46s CPU     12.31s WALL (       1 calls)
     forces       :      0.19s CPU      0.23s WALL (       1 calls)
     stress       :      1.64s CPU      1.71s WALL (       1 calls)

     Called by init_run:
     wfcinit      :      0.24s CPU      0.27s WALL (       1 calls)
     potinit      :      0.02s CPU      0.03s WALL (       1 calls)
     hinit0       :      0.14s CPU      0.18s WALL (       1 calls)

     Called by electrons:
     c_bands      :      8.32s CPU      8.60s WALL (      11 calls)
     sum_band     :      2.05s CPU      2.22s WALL (      11 calls)
     v_of_rho     :      0.04s CPU      0.04s WALL (      12 calls)
     newd         :      1.09s CPU      1.44s WALL (      12 calls)
     mix_rho      :      0.03s CPU      0.03s WALL (      11 calls)

     Called by c_bands:
     init_us_2    :      0.12s CPU      0.13s WALL (     500 calls)
     init_us_2:cp :      0.12s CPU      0.12s WALL (     500 calls)
     ccgdiagg     :      7.02s CPU      7.26s WALL (     220 calls)
     wfcrot       :      1.43s CPU      1.48s WALL (     220 calls)

     Called by *cgdiagg:
     h_psi        :      5.86s CPU      6.05s WALL (   13262 calls)
     s_psi        :      0.81s CPU      0.84s WALL (   26304 calls)

     Called by h_psi:
     h_psi:calbec :      0.75s CPU      0.77s WALL (   13262 calls)
     vloc_psi     :      4.54s CPU      4.68s WALL (   13262 calls)
     add_vuspsi   :      0.45s CPU      0.47s WALL (   13262 calls)
     hs_1psi      :      5.07s CPU      5.25s WALL (   13042 calls)
     s_1psi       :      0.94s CPU      0.97s WALL (   13042 calls)

     General routines
     calbec       :      1.29s CPU      1.33s WALL (   26624 calls)
     fft          :      0.05s CPU      0.07s WALL (      78 calls)
     ffts         :      0.00s CPU      0.01s WALL (      23 calls)
     fftw         :      4.03s CPU      4.15s WALL (   39764 calls)
     interpolate  :      0.01s CPU      0.02s WALL (      12 calls)
 
     Parallel routines
 
     PWSCF        :     14.34s CPU     16.95s WALL

 
   This run was terminated on:   0:36:11  24Sep2025            

=------------------------------------------------------------------------------=
   JOB DONE.
=------------------------------------------------------------------------------=
TACC:  Shutdown complete. Exiting. 
