TACC:  Starting up job 2560844 
TACC:  Starting parallel tasks... 

     Program PWSCF v.7.3 starts on 18Nov2025 at  0: 9:15 

     This program is part of the open-source Quantum ESPRESSO suite
     for quantum simulation of materials; please cite
         "P. Giannozzi et al., J. Phys.:Condens. Matter 21 395502 (2009);
         "P. Giannozzi et al., J. Phys.:Condens. Matter 29 465901 (2017);
         "P. Giannozzi et al., J. Chem. Phys. 152 154105 (2020);
          URL http://www.quantum-espresso.org", 
     in publications or presentations arising from this work. More details at
     http://www.quantum-espresso.org/quote

     Parallel version (MPI & OpenMP), running on      10 processor cores
     Number of MPI processes:                10
     Threads/MPI process:                     1

     MPI processes distributed on     1 nodes
     187612 MiB available memory on the printing compute node when the environment starts
 
     Waiting for input...
     Reading input from standard input
Warning: card &CELL ignored
Warning: card  CELL_DYNAMICS = 'BFGS', ignored
Warning: card  PRESS=0.D0, ignored
Warning: card / ignored

     Current dimensions of program PWSCF are:
     Max number of different atomic species (ntypx) = 10
     Max number of k-points (npk) =  40000
     Max angular momentum in pseudopotentials (lmaxx) =  4
     Message from routine setup:
     using ibrav=0 with symmetry is DISCOURAGED, use correct ibrav instead
 
     R & G space division:  proc/nbgrp/npool/nimage =      10
     Subspace diagonalization in iterative solution of the eigenvalue problem:
     a serial algorithm will be used

 
     Parallelization info
     --------------------
     sticks:   dense  smooth     PW     G-vecs:    dense   smooth      PW
     Min         209      84     25                 7675     1944     323
     Max         211      85     27                 7678     1947     324
     Sum        2101     849    257                76759    19451    3231
 
     Using Slab Decomposition
 


     bravais-lattice index     =            0
     lattice parameter (alat)  =       7.2745  a.u.
     unit-cell volume          =     406.4743 (a.u.)^3
     number of atoms/cell      =            5
     number of atomic types    =            3
     number of electrons       =        44.00
     number of Kohn-Sham states=           22
     kinetic-energy cutoff     =      50.0000  Ry
     charge density cutoff     =     500.0000  Ry
     scf convergence threshold =      1.0E-08
     mixing beta               =       0.7000
     number of iterations used =            8  plain     mixing
     energy convergence thresh.=      1.0E-04
     force convergence thresh. =      1.0E-03
     Exchange-correlation= SLA  PZ   NOGX NOGC
                           (   1   1   0   0   0   0   0)
     nstep                     =           50


     celldm(1)=   7.274539  celldm(2)=   0.000000  celldm(3)=   0.000000
     celldm(4)=   0.000000  celldm(5)=   0.000000  celldm(6)=   0.000000

     crystal axes: (cart. coord. in units of alat)
               a(1) = (   1.000000   0.000000   0.000000 )  
               a(2) = (   0.000000   1.003117   0.000000 )  
               a(3) = (   0.000000   0.000000   1.052604 )  

     reciprocal axes: (cart. coord. in units 2 pi/alat)
               b(1) = (  1.000000  0.000000  0.000000 )  
               b(2) = (  0.000000  0.996892  0.000000 )  
               b(3) = (  0.000000  0.000000  0.950025 )  


     PseudoPot. # 1 for Pb read from file:
     /scratch/11018/zhc/assisgnment3/input_files/Pb_LDA.UPF
     MD5 check sum: 062a37469794d955244864f8fe2e5624
     Pseudo is Ultrasoft + core correction, Zval = 14.0
     Generated by new atomic code, or converted to UPF format
     Using radial grid of  899 points,  6 beta functions with: 
                l(1) =   0
                l(2) =   0
                l(3) =   1
                l(4) =   1
                l(5) =   2
                l(6) =   2
     Q(r) pseudized with  6 coefficients,  rinner =    1.000   1.000   1.000
                                                       1.000   1.000

     PseudoPot. # 2 for Ti read from file:
     /scratch/11018/zhc/assisgnment3/input_files/Ti_LDA.UPF
     MD5 check sum: 0d9f225c038fe889ca2a701dcc8d72cb
     Pseudo is Ultrasoft + core correction, Zval = 12.0
     Generated by new atomic code, or converted to UPF format
     Using radial grid of  851 points,  6 beta functions with: 
                l(1) =   0
                l(2) =   0
                l(3) =   1
                l(4) =   1
                l(5) =   2
                l(6) =   2
     Q(r) pseudized with  6 coefficients,  rinner =    1.000   1.000   1.000
                                                       1.000   1.000

     PseudoPot. # 3 for O  read from file:
     /scratch/11018/zhc/assisgnment3/input_files/O_LDA.UPF
     MD5 check sum: 194b818514d2a7dbb603bb78519a4f40
     Pseudo is Ultrasoft + core correction, Zval =  6.0
     Generated by new atomic code, or converted to UPF format
     Using radial grid of  737 points,  5 beta functions with: 
                l(1) =   0
                l(2) =   0
                l(3) =   1
                l(4) =   1
                l(5) =   2
     Q(r) pseudized with  8 coefficients,  rinner =    0.900   0.900   0.900
                                                       0.900   0.900

     atomic species   valence    mass     pseudopotential
     Pb               14.00   207.20000     Pb( 1.00)
     Ti               12.00    47.88000     Ti( 1.00)
     O                 6.00    16.00000     O ( 1.00)

      4 Sym. Ops. (no inversion) found



   Cartesian axes

     site n.     atom                  positions (alat units)
         1        Pb     tau(   1) = (   0.0000000   0.0000000   1.0580500  )
         2        Ti     tau(   2) = (   0.5000000   0.5015586   0.5679161  )
         3        O      tau(   3) = (   0.5000000   0.5015586   0.1047424  )
         4        O      tau(   4) = (   0.5000000   0.0000000   0.6437032  )
         5        O      tau(   5) = (   0.0000000   0.5015586   0.6437032  )

     number of k points=    48
                       cart. coord. in units 2pi/alat
        k(    1) = (   0.0000000   0.0000000   0.0000000), wk =   0.0138889
        k(    2) = (   0.0000000   0.0000000   0.2375062), wk =   0.0277778
        k(    3) = (   0.0000000   0.0000000  -0.4750125), wk =   0.0138889
        k(    4) = (   0.0000000   0.1661487   0.0000000), wk =   0.0277778
        k(    5) = (   0.0000000   0.1661487   0.2375062), wk =   0.0555556
        k(    6) = (   0.0000000   0.1661487  -0.4750125), wk =   0.0277778
        k(    7) = (   0.0000000   0.3322975   0.0000000), wk =   0.0277778
        k(    8) = (   0.0000000   0.3322975   0.2375062), wk =   0.0555556
        k(    9) = (   0.0000000   0.3322975  -0.4750125), wk =   0.0277778
        k(   10) = (   0.0000000  -0.4984462   0.0000000), wk =   0.0138889
        k(   11) = (   0.0000000  -0.4984462   0.2375062), wk =   0.0277778
        k(   12) = (   0.0000000  -0.4984462  -0.4750125), wk =   0.0138889
        k(   13) = (   0.1666667   0.0000000   0.0000000), wk =   0.0277778
        k(   14) = (   0.1666667   0.0000000   0.2375062), wk =   0.0555556
        k(   15) = (   0.1666667   0.0000000  -0.4750125), wk =   0.0277778
        k(   16) = (   0.1666667   0.1661487   0.0000000), wk =   0.0555556
        k(   17) = (   0.1666667   0.1661487   0.2375062), wk =   0.1111111
        k(   18) = (   0.1666667   0.1661487  -0.4750125), wk =   0.0555556
        k(   19) = (   0.1666667   0.3322975   0.0000000), wk =   0.0555556
        k(   20) = (   0.1666667   0.3322975   0.2375062), wk =   0.1111111
        k(   21) = (   0.1666667   0.3322975  -0.4750125), wk =   0.0555556
        k(   22) = (   0.1666667  -0.4984462   0.0000000), wk =   0.0277778
        k(   23) = (   0.1666667  -0.4984462   0.2375062), wk =   0.0555556
        k(   24) = (   0.1666667  -0.4984462  -0.4750125), wk =   0.0277778
        k(   25) = (   0.3333333   0.0000000   0.0000000), wk =   0.0277778
        k(   26) = (   0.3333333   0.0000000   0.2375062), wk =   0.0555556
        k(   27) = (   0.3333333   0.0000000  -0.4750125), wk =   0.0277778
        k(   28) = (   0.3333333   0.1661487   0.0000000), wk =   0.0555556
        k(   29) = (   0.3333333   0.1661487   0.2375062), wk =   0.1111111
        k(   30) = (   0.3333333   0.1661487  -0.4750125), wk =   0.0555556
        k(   31) = (   0.3333333   0.3322975   0.0000000), wk =   0.0555556
        k(   32) = (   0.3333333   0.3322975   0.2375062), wk =   0.1111111
        k(   33) = (   0.3333333   0.3322975  -0.4750125), wk =   0.0555556
        k(   34) = (   0.3333333  -0.4984462   0.0000000), wk =   0.0277778
        k(   35) = (   0.3333333  -0.4984462   0.2375062), wk =   0.0555556
        k(   36) = (   0.3333333  -0.4984462  -0.4750125), wk =   0.0277778
        k(   37) = (  -0.5000000   0.0000000   0.0000000), wk =   0.0138889
        k(   38) = (  -0.5000000   0.0000000   0.2375062), wk =   0.0277778
        k(   39) = (  -0.5000000   0.0000000  -0.4750125), wk =   0.0138889
        k(   40) = (  -0.5000000   0.1661487   0.0000000), wk =   0.0277778
        k(   41) = (  -0.5000000   0.1661487   0.2375062), wk =   0.0555556
        k(   42) = (  -0.5000000   0.1661487  -0.4750125), wk =   0.0277778
        k(   43) = (  -0.5000000   0.3322975   0.0000000), wk =   0.0277778
        k(   44) = (  -0.5000000   0.3322975   0.2375062), wk =   0.0555556
        k(   45) = (  -0.5000000   0.3322975  -0.4750125), wk =   0.0277778
        k(   46) = (  -0.5000000  -0.4984462   0.0000000), wk =   0.0138889
        k(   47) = (  -0.5000000  -0.4984462   0.2375062), wk =   0.0277778
        k(   48) = (  -0.5000000  -0.4984462  -0.4750125), wk =   0.0138889

     Dense  grid:    76759 G-vectors     FFT dimensions: (  54,  54,  60)

     Smooth grid:    19451 G-vectors     FFT dimensions: (  36,  36,  36)

     Estimated max dynamical RAM per process >      38.00 MB

     Estimated total dynamical RAM >     379.98 MB

     Check: negative core charge=   -0.000004

     Initial potential from superposition of free atoms

     starting charge      42.9982, renormalised to      44.0000

     negative rho (up, down):  1.669E-02 0.000E+00
     Starting wfcs are   31 randomized atomic wfcs

     total cpu time spent up to now is        0.8 secs

     Self-consistent Calculation

     iteration #  1     ecut=    50.00 Ry     beta= 0.70
     CG style diagonalization
     ethr =  1.00E-02,  avg # of iterations =  2.1

     negative rho (up, down):  1.400E-02 0.000E+00

     total cpu time spent up to now is        1.6 secs

     total energy              =    -380.06354882 Ry
     estimated scf accuracy    <       1.02015405 Ry

     iteration #  2     ecut=    50.00 Ry     beta= 0.70
     CG style diagonalization
     ethr =  2.32E-03,  avg # of iterations =  4.8

     negative rho (up, down):  1.450E-02 0.000E+00

     total cpu time spent up to now is        3.0 secs

     total energy              =    -379.75038829 Ry
     estimated scf accuracy    <       3.94353610 Ry

     iteration #  3     ecut=    50.00 Ry     beta= 0.70
     CG style diagonalization
     ethr =  2.32E-03,  avg # of iterations =  4.3

     negative rho (up, down):  1.512E-02 0.000E+00

     total cpu time spent up to now is        4.3 secs

     total energy              =    -380.53667611 Ry
     estimated scf accuracy    <       0.31652223 Ry

     iteration #  4     ecut=    50.00 Ry     beta= 0.70
     CG style diagonalization
     ethr =  7.19E-04,  avg # of iterations =  3.5

     negative rho (up, down):  1.511E-02 0.000E+00

     total cpu time spent up to now is        5.4 secs

     total energy              =    -380.56006508 Ry
     estimated scf accuracy    <       0.04311545 Ry

     iteration #  5     ecut=    50.00 Ry     beta= 0.70
     CG style diagonalization
     ethr =  9.80E-05,  avg # of iterations =  3.9

     negative rho (up, down):  1.512E-02 0.000E+00

     total cpu time spent up to now is        6.5 secs

     total energy              =    -380.57140290 Ry
     estimated scf accuracy    <       0.00796000 Ry

     iteration #  6     ecut=    50.00 Ry     beta= 0.70
     CG style diagonalization
     ethr =  1.81E-05,  avg # of iterations =  3.9

     negative rho (up, down):  1.512E-02 0.000E+00

     total cpu time spent up to now is        7.7 secs

     total energy              =    -380.57362851 Ry
     estimated scf accuracy    <       0.00598738 Ry

     iteration #  7     ecut=    50.00 Ry     beta= 0.70
     CG style diagonalization
     ethr =  1.36E-05,  avg # of iterations =  3.3

     negative rho (up, down):  1.514E-02 0.000E+00

     total cpu time spent up to now is        8.6 secs

     total energy              =    -380.57361913 Ry
     estimated scf accuracy    <       0.00162721 Ry

     iteration #  8     ecut=    50.00 Ry     beta= 0.70
     CG style diagonalization
     ethr =  3.70E-06,  avg # of iterations =  3.7

     negative rho (up, down):  1.516E-02 0.000E+00

     total cpu time spent up to now is        9.7 secs

     total energy              =    -380.57397445 Ry
     estimated scf accuracy    <       0.00001034 Ry

     iteration #  9     ecut=    50.00 Ry     beta= 0.70
     CG style diagonalization
     c_bands:  1 eigenvalues not converged
     c_bands:  1 eigenvalues not converged
     c_bands:  1 eigenvalues not converged
     c_bands:  1 eigenvalues not converged
     c_bands:  1 eigenvalues not converged
     c_bands:  1 eigenvalues not converged
     ethr =  2.35E-08,  avg # of iterations =  7.6

     negative rho (up, down):  1.519E-02 0.000E+00

     total cpu time spent up to now is       12.0 secs

     total energy              =    -380.57403434 Ry
     estimated scf accuracy    <       0.00003418 Ry

     iteration # 10     ecut=    50.00 Ry     beta= 0.70
     CG style diagonalization
     ethr =  2.35E-08,  avg # of iterations =  3.5

     negative rho (up, down):  1.524E-02 0.000E+00

     total cpu time spent up to now is       13.1 secs

     total energy              =    -380.57403115 Ry
     estimated scf accuracy    <       0.00001922 Ry

     iteration # 11     ecut=    50.00 Ry     beta= 0.70
     CG style diagonalization
     ethr =  2.35E-08,  avg # of iterations =  3.6

     negative rho (up, down):  1.531E-02 0.000E+00

     total cpu time spent up to now is       14.1 secs

     total energy              =    -380.57403156 Ry
     estimated scf accuracy    <       0.00000290 Ry

     iteration # 12     ecut=    50.00 Ry     beta= 0.70
     CG style diagonalization
     ethr =  6.59E-09,  avg # of iterations =  4.6

     negative rho (up, down):  1.530E-02 0.000E+00

     total cpu time spent up to now is       15.5 secs

     total energy              =    -380.57403273 Ry
     estimated scf accuracy    <       0.00000077 Ry

     iteration # 13     ecut=    50.00 Ry     beta= 0.70
     CG style diagonalization
     ethr =  1.76E-09,  avg # of iterations =  5.8

     negative rho (up, down):  1.530E-02 0.000E+00

     total cpu time spent up to now is       17.3 secs

     total energy              =    -380.57403350 Ry
     estimated scf accuracy    <       0.00000003 Ry

     iteration # 14     ecut=    50.00 Ry     beta= 0.70
     CG style diagonalization
     ethr =  7.03E-11,  avg # of iterations =  9.9

     negative rho (up, down):  1.531E-02 0.000E+00

     total cpu time spent up to now is       20.3 secs

     End of self-consistent calculation

          k = 0.0000 0.0000 0.0000 (  2421 PWs)   bands (ev):

   -45.1710 -21.8510 -21.7692 -21.7659  -7.1665  -6.0143  -5.7568  -4.4136
    -4.4126  -4.3732  -4.2559  -4.1424   4.8409   6.7238   6.7483   7.1097
     8.7103   8.7158   8.9512   9.2900   9.4397   9.4447

          k = 0.0000 0.0000 0.2375 (  2433 PWs)   bands (ev):

   -45.1706 -21.8744 -21.7682 -21.7650  -6.9590  -5.9526  -5.6870  -4.4313
    -4.4304  -4.3717  -4.2440  -4.2191   3.9792   6.7810   6.8008   7.3062
     8.4536   8.4655   8.8680   9.3773   9.5599   9.5623

          k = 0.0000 0.0000-0.4750 (  2414 PWs)   bands (ev):

   -45.1703 -21.8976 -21.7673 -21.7640  -6.7336  -5.8849  -5.6238  -4.4489
    -4.4480  -4.3702  -4.3023  -4.2332   3.4363   6.6103   6.8179   6.8318
     8.2921   8.3124   8.7887   9.6367   9.6378  10.6535

          k = 0.0000 0.1661 0.0000 (  2419 PWs)   bands (ev):

   -45.1706 -21.8502 -21.7859 -21.7683  -7.0230  -5.9808  -5.7264  -4.4380
    -4.4111  -4.3878  -4.2589  -4.1312   4.3516   6.7951   6.8583   7.1443
     8.6649   8.7384   8.9468   9.0645   9.1723   9.5633

          k = 0.0000 0.1661 0.2375 (  2430 PWs)   bands (ev):

   -45.1703 -21.8734 -21.7849 -21.7674  -6.8322  -5.9346  -5.6507  -4.4364
    -4.4294  -4.3870  -4.2523  -4.1721   3.7446   6.5778   6.9218   7.3924
     8.1284   8.4475   8.7667   9.1571   9.2334   9.9328

          k = 0.0000 0.1661-0.4750 (  2430 PWs)   bands (ev):

   -45.1699 -21.8964 -21.7838 -21.7664  -6.6351  -5.8820  -5.5722  -4.4476
    -4.4324  -4.3861  -4.2568  -4.2082   3.2906   6.2606   6.9583   7.0388
     7.9285   8.3035   8.8362   9.2134   9.3157  10.5772

          k = 0.0000 0.3323 0.0000 (  2422 PWs)   bands (ev):

   -45.1698 -21.8485 -21.8256 -21.7667  -6.7113  -5.9081  -5.6814  -4.4752
    -4.4170  -4.4078  -4.2544  -4.1370   3.7244   6.4384   7.0969   7.1403
     8.3268   8.3622   8.8016   8.8543   9.2906  10.2126

          k = 0.0000 0.3323 0.2375 (  2421 PWs)   bands (ev):

   -45.1695 -21.8713 -21.8244 -21.7657  -6.5867  -5.8648  -5.5844  -4.4421
    -4.4275  -4.4172  -4.2458  -4.1132   3.3572   6.3046   7.0043   7.2367
     7.7649   8.1905   8.3436   8.9111   9.4226  10.2912

          k = 0.0000 0.3323-0.4750 (  2426 PWs)   bands (ev):

   -45.1692 -21.8940 -21.8231 -21.7647  -6.4942  -5.7966  -5.4567  -4.4469
    -4.4176  -4.4008  -4.2820  -4.0611   3.0357   5.9759   6.7688   7.2758
     7.6536   7.8172   8.1367   8.9437   9.8513  10.1348

          k = 0.0000-0.4984 0.0000 (  2432 PWs)   bands (ev):

   -45.1695 -21.8473 -21.8456 -21.7658  -6.5393  -5.8529  -5.6862  -4.4913
    -4.4314  -4.4062  -4.2294  -4.1687   3.5053   6.0585   7.3665   7.3855
     7.8290   7.9779   8.7241   8.8924   9.3214  11.0117

          k = 0.0000-0.4984 0.2375 (  2426 PWs)   bands (ev):

   -45.1691 -21.8701 -21.8442 -21.7648  -6.4798  -5.7764  -5.5779  -4.4544
    -4.4323  -4.4264  -4.2119  -4.1099   3.2050   6.0286   7.0311   7.2794
     7.5935   7.7764   8.4525   8.8892   9.4267  10.4957

          k = 0.0000-0.4984-0.4750 (  2444 PWs)   bands (ev):

   -45.1688 -21.8926 -21.8427 -21.7638  -6.4607  -5.6945  -5.4028  -4.4465
    -4.4332  -4.4096  -4.2679  -3.9999   2.9335   5.8395   6.4601   7.3381
     7.5953   7.8190   7.8304   8.8867   9.8072  10.1553

          k = 0.1667 0.0000 0.0000 (  2433 PWs)   bands (ev):

   -45.1706 -21.8502 -21.7899 -21.7650  -7.0200  -5.9795  -5.7258  -4.4371
    -4.4120  -4.3883  -4.2588  -4.1302   4.3529   6.8071   6.8342   7.1396
     8.6734   8.7308   8.9495   9.0665   9.1696   9.5628

          k = 0.1667 0.0000 0.2375 (  2428 PWs)   bands (ev):

   -45.1702 -21.8734 -21.7889 -21.7641  -6.8288  -5.9342  -5.6503  -4.4356
    -4.4303  -4.3874  -4.2538  -4.1684   3.7472   6.5882   6.9027   7.3893
     8.1250   8.4357   8.7658   9.1665   9.2305   9.9359

          k = 0.1667 0.0000-0.4750 (  2434 PWs)   bands (ev):

   -45.1699 -21.8964 -21.7878 -21.7631  -6.6310  -5.8831  -5.5719  -4.4484
    -4.4322  -4.3865  -4.2585  -4.2029   3.2938   6.2684   6.9458   7.0341
     7.9341   8.2831   8.8305   9.2261   9.3112  10.5723

          k = 0.1667 0.1661 0.0000 (  2424 PWs)   bands (ev):

   -45.1702 -21.8493 -21.7890 -21.7850  -6.8789  -5.9450  -5.7173  -4.4435
    -4.4277  -4.3917  -4.2348  -4.1199   4.0211   6.7217   6.9753   7.1979
     8.1941   8.3067   9.0418   9.0779   9.3824   9.7973

          k = 0.1667 0.1661 0.2375 (  2423 PWs)   bands (ev):

   -45.1699 -21.8724 -21.7880 -21.7839  -6.6990  -5.9191  -5.6422  -4.4463
    -4.4228  -4.3855  -4.2241  -4.1357   3.6221   6.4994   6.6092   7.3345
     8.0217   8.0432   8.8477   9.2239   9.4612   9.9041

          k = 0.1667 0.1661-0.4750 (  2440 PWs)   bands (ev):

   -45.1695 -21.8953 -21.7869 -21.7829  -6.5201  -5.8928  -5.5543  -4.4593
    -4.4012  -4.3626  -4.2293  -4.1576   3.2593   6.2837   6.3333   7.0262
     7.9310   7.9677   8.7503   9.2990   9.5194  10.2711

          k = 0.1667 0.3323 0.0000 (  2427 PWs)   bands (ev):

   -45.1694 -21.8477 -21.8245 -21.7872  -6.5755  -5.8742  -5.7155  -4.4680
    -4.4167  -4.3759  -4.2105  -4.1259   3.5087   6.4366   6.9757   7.2745
     7.6520   8.2407   8.5474   9.2265   9.4097  10.2915

          k = 0.1667 0.3323 0.2375 (  2429 PWs)   bands (ev):

   -45.1691 -21.8703 -21.8234 -21.7861  -6.4470  -5.8643  -5.6328  -4.4433
    -4.4176  -4.3524  -4.1880  -4.0865   3.3620   6.2530   6.3845   6.9379
     7.3892   8.0832   8.9103   9.1830   9.5140  10.0020

          k = 0.1667 0.3323-0.4750 (  2420 PWs)   bands (ev):

   -45.1688 -21.8929 -21.8221 -21.7851  -6.3568  -5.8405  -5.5103  -4.4411
    -4.3917  -4.3110  -4.2000  -4.0332   3.1711   5.8944   6.3154   6.6377
     6.8869   7.9407   9.0148   9.2332   9.5092   9.9502

          k = 0.1667-0.4984 0.0000 (  2420 PWs)   bands (ev):

   -45.1691 -21.8464 -21.8444 -21.7862  -6.4092  -5.8219  -5.7411  -4.4711
    -4.4088  -4.3542  -4.1932  -4.1585   3.3095   6.0779   7.0951   7.3127
     7.6249   7.9605   8.4101   9.2606   9.4088  10.6207

          k = 0.1667-0.4984 0.2375 (  2424 PWs)   bands (ev):

   -45.1687 -21.8691 -21.8431 -21.7852  -6.3386  -5.7868  -5.6551  -4.4416
    -4.4040  -4.3305  -4.1643  -4.0819   3.2433   6.0330   6.2804   6.6813
     7.3489   8.2242   8.6831   9.1933   9.5251   9.9665

          k = 0.1667-0.4984-0.4750 (  2408 PWs)   bands (ev):

   -45.1684 -21.8916 -21.8417 -21.7842  -6.3221  -5.7530  -5.4936  -4.4357
    -4.3600  -4.3079  -4.1827  -3.9733   3.1295   5.7902   6.1497   6.3026
     6.7335   8.0522   8.8930   9.1438   9.1719  10.1659

          k = 0.3333 0.0000 0.0000 (  2422 PWs)   bands (ev):

   -45.1698 -21.8486 -21.8309 -21.7633  -6.7021  -5.9042  -5.6794  -4.4744
    -4.4182  -4.4086  -4.2523  -4.1353   3.7242   6.4240   7.0952   7.1159
     8.3323   8.3525   8.8038   8.8548   9.2896  10.2179

          k = 0.3333 0.0000 0.2375 (  2425 PWs)   bands (ev):

   -45.1695 -21.8712 -21.8298 -21.7623  -6.5771  -5.8629  -5.5828  -4.4410
    -4.4283  -4.4184  -4.2467  -4.1063   3.3623   6.2980   6.9984   7.2179
     7.7573   8.1793   8.3362   8.9038   9.4283  10.2964

          k = 0.3333 0.0000-0.4750 (  2426 PWs)   bands (ev):

   -45.1691 -21.8939 -21.8286 -21.7613  -6.4848  -5.7963  -5.4552  -4.4476
    -4.4188  -4.3998  -4.2826  -4.0517   3.0446   5.9787   6.7570   7.2661
     7.6390   7.8094   8.1166   8.9330   9.8705  10.1136

          k = 0.3333 0.1661 0.0000 (  2422 PWs)   bands (ev):

   -45.1694 -21.8477 -21.8298 -21.7831  -6.5696  -5.8713  -5.7141  -4.4678
    -4.4167  -4.3759  -4.2095  -4.1250   3.5078   6.4209   6.9710   7.2687
     7.6558   8.2418   8.5477   9.2150   9.4092  10.2987

          k = 0.3333 0.1661 0.2375 (  2428 PWs)   bands (ev):

   -45.1691 -21.8703 -21.8288 -21.7820  -6.4410  -5.8626  -5.6318  -4.4432
    -4.4174  -4.3525  -4.1899  -4.0811   3.3651   6.2467   6.3769   6.9355
     7.3882   8.0760   8.8922   9.1763   9.5184  10.0073

          k = 0.3333 0.1661-0.4750 (  2428 PWs)   bands (ev):

   -45.1688 -21.8929 -21.8276 -21.7810  -6.3512  -5.8394  -5.5094  -4.4408
    -4.3915  -4.3113  -4.2030  -4.0250   3.1774   5.8972   6.3090   6.6351
     6.8717   7.9360   8.9992   9.2166   9.5091   9.9558

          k = 0.3333 0.3323 0.0000 (  2439 PWs)   bands (ev):

   -45.1687 -21.8459 -21.8277 -21.8223  -6.3073  -5.8057  -5.7657  -4.4477
    -4.3971  -4.3037  -4.1298  -4.1265   3.1021   6.4122   6.5094   7.3790
     7.5318   7.6779   8.3449   9.0677   9.8840  10.0274

          k = 0.3333 0.3323 0.2375 (  2428 PWs)   bands (ev):

   -45.1683 -21.8683 -21.8268 -21.8213  -6.1692  -5.8541  -5.7211  -4.4055
    -4.3900  -4.2431  -4.0805  -4.0471   3.2918   5.9584   6.0301   6.4094
     7.0528   7.5548   8.9665   9.4788   9.5222   9.9012

          k = 0.3333 0.3323-0.4750 (  2426 PWs)   bands (ev):

   -45.1680 -21.8907 -21.8257 -21.8202  -6.0989  -5.8991  -5.5963  -4.3830
    -4.3636  -4.1774  -4.0305  -3.9686   3.4577   5.5539   5.5749   6.1547
     6.8069   6.9692   8.2143   9.8552   9.8714  10.0350

          k = 0.3333-0.4984 0.0000 (  2452 PWs)   bands (ev):

   -45.1683 -21.8447 -21.8421 -21.8267  -6.1882  -5.7804  -5.7649  -4.4393
    -4.3731  -4.2403  -4.1607  -4.0936   2.9158   6.0699   6.5458   7.1909
     7.7225   7.8503   7.9573   9.0360   9.7149  10.0860

          k = 0.3333-0.4984 0.2375 (  2430 PWs)   bands (ev):

   -45.1680 -21.8671 -21.8409 -21.8258  -6.0509  -5.8119  -5.7791  -4.3960
    -4.3617  -4.1498  -4.0758  -4.0195   3.2175   5.8532   6.0057   6.0721
     6.8323   7.6251   8.4977   9.4777   9.5068  10.0631

          k = 0.3333-0.4984-0.4750 (  2420 PWs)   bands (ev):

   -45.1676 -21.8895 -21.8397 -21.8248  -6.0388  -5.8558  -5.6348  -4.3651
    -4.3396  -4.0861  -3.9899  -3.9166   3.5963   5.2877   5.4773   5.9168
     6.5740   6.9762   7.4343   9.9625  10.0370  10.1904

          k =-0.5000 0.0000 0.0000 (  2436 PWs)   bands (ev):

   -45.1694 -21.8518 -21.8471 -21.7624  -6.5268  -5.8463  -5.6847  -4.4904
    -4.4330  -4.4070  -4.2236  -4.1695   3.5044   6.0359   7.3566   7.3581
     7.8385   7.9726   8.7240   8.8924   9.3206  11.0249

          k =-0.5000 0.0000 0.2375 (  2424 PWs)   bands (ev):

   -45.1691 -21.8699 -21.8504 -21.7614  -6.4684  -5.7709  -5.5770  -4.4534
    -4.4339  -4.4272  -4.2122  -4.1012   3.2114   6.0092   7.0321   7.2659
     7.5638   7.7760   8.4473   8.8816   9.4270  10.4966

          k =-0.5000 0.0000-0.4750 (  2432 PWs)   bands (ev):

   -45.1687 -21.8925 -21.8489 -21.7604  -6.4511  -5.6902  -5.4012  -4.4471
    -4.4348  -4.4087  -4.2672  -3.9888   2.9456   5.8351   6.4431   7.3261
     7.5976   7.7884   7.8215   8.8745   9.7815  10.1665

          k =-0.5000 0.1661 0.0000 (  2424 PWs)   bands (ev):

   -45.1690 -21.8507 -21.8463 -21.7821  -6.4007  -5.8158  -5.7403  -4.4708
    -4.4088  -4.3542  -4.1885  -4.1604   3.3079   6.0541   7.0851   7.3227
     7.6105   7.9662   8.4094   9.2478   9.4054  10.6341

          k =-0.5000 0.1661 0.2375 (  2428 PWs)   bands (ev):

   -45.1687 -21.8690 -21.8493 -21.7811  -6.3311  -5.7812  -5.6549  -4.4413
    -4.4036  -4.3309  -4.1667  -4.0739   3.2475   6.0138   6.2700   6.6861
     7.3496   8.2211   8.6533   9.1871   9.5252   9.9685

          k =-0.5000 0.1661-0.4750 (  2424 PWs)   bands (ev):

   -45.1684 -21.8915 -21.8480 -21.7801  -6.3166  -5.7478  -5.4927  -4.4354
    -4.3593  -4.3084  -4.1857  -3.9626   3.1395   5.7892   6.1386   6.2886
     6.7298   8.0506   8.8583   9.1318   9.1617  10.1749

          k =-0.5000 0.3323 0.0000 (  2458 PWs)   bands (ev):

   -45.1683 -21.8484 -21.8445 -21.8211  -6.1866  -5.7820  -5.7597  -4.4393
    -4.3730  -4.2365  -4.1645  -4.0924   2.9149   6.0481   6.5633   7.1899
     7.7203   7.8335   7.9714   9.0360   9.7009  10.0967

          k =-0.5000 0.3323 0.2375 (  2432 PWs)   bands (ev):

   -45.1679 -21.8670 -21.8472 -21.8202  -6.0510  -5.8059  -5.7806  -4.3964
    -4.3609  -4.1472  -4.0817  -4.0143   3.2180   5.8487   5.9980   6.0728
     6.8375   7.6262   8.4866   9.4777   9.5053  10.0578

          k =-0.5000 0.3323-0.4750 (  2420 PWs)   bands (ev):

   -45.1676 -21.8895 -21.8460 -21.8192  -6.0418  -5.8491  -5.6346  -4.3661
    -4.3380  -4.0850  -3.9978  -3.9074   3.6001   5.2838   5.4862   5.9056
     6.5610   6.9891   7.4224   9.9515  10.0279  10.1987

          k =-0.5000-0.4984 0.0000 (  2472 PWs)   bands (ev):

   -45.1679 -21.8472 -21.8432 -21.8409  -6.1314  -5.7394  -5.7345  -4.4283
    -4.3250  -4.1867  -4.1816  -4.0422   2.7222   5.9073   6.3866   7.4026
     7.4041   7.9500   7.9696   8.8032   9.2314  10.3517

          k =-0.5000-0.4984 0.2375 (  2424 PWs)   bands (ev):

   -45.1676 -21.8659 -21.8461 -21.8398  -5.9160  -5.8262  -5.8199  -4.3839
    -4.3228  -4.0412  -4.0335  -4.0076   3.1394   5.8641   5.9712   5.9780
     6.3932   7.5668   7.8365   9.5061   9.5088  10.3338

          k =-0.5000-0.4984-0.4750 (  2400 PWs)   bands (ev):

   -45.1672 -21.8883 -21.8450 -21.8387  -5.9019  -5.8945  -5.6940  -4.3394
    -4.3206  -3.9615  -3.9040  -3.8941   3.8153   5.3110   5.3170   5.7456
     6.3995   6.4178   6.6712  10.2021  10.2104  10.3163

     highest occupied level (ev):    11.0249

!    total energy              =    -380.57403376 Ry
     estimated scf accuracy    <          7.6E-09 Ry

     The total energy is the sum of the following terms:
     one-electron contribution =     -79.71059094 Ry
     hartree contribution      =      69.93330044 Ry
     xc contribution           =    -102.67708446 Ry
     ewald contribution        =    -268.11965881 Ry

     convergence has been achieved in  14 iterations

     negative rho (up, down):  1.531E-02 0.000E+00

     Forces acting on atoms (cartesian axes, Ry/au):

     atom    1 type  1   force =     0.00000000    0.00000000    0.00015204
     atom    2 type  2   force =     0.00000000    0.00000000   -0.00013572
     atom    3 type  3   force =     0.00000000    0.00000000    0.00011762
     atom    4 type  3   force =     0.00000000    0.00000000   -0.00039436
     atom    5 type  3   force =     0.00000000    0.00000000    0.00026043

     Total force =     0.000528     Total SCF correction =     0.000067
     SCF correction compared to forces is large: reduce conv_thr to get better values


     Computing stress (Cartesian axis) and pressure


     negative rho (up, down):  1.531E-02 0.000E+00
          total   stress  (Ry/bohr**3)                   (kbar)     P=       -0.00
   0.00002179   0.00000000   0.00000000            3.21        0.00        0.00
   0.00000000  -0.00001812   0.00000000            0.00       -2.67        0.00
   0.00000000   0.00000000  -0.00000372            0.00        0.00       -0.55


     BFGS Geometry Optimization
     Energy error            =      0.0E+00 Ry
     Gradient error          =      3.9E-04 Ry/Bohr

     bfgs converged in   1 scf cycles and   0 bfgs steps
     (criteria: energy <  1.0E-04 Ry, force <  1.0E-03 Ry/Bohr)

     End of BFGS Geometry Optimization

     Final energy             =    -380.5740337634 Ry
Begin final coordinates

ATOMIC_POSITIONS (crystal)
Pb               0.0000000000        0.0000000000        1.0051738283
Ti               0.5000000000        0.5000000000        0.5395344294
O                0.5000000000        0.5000000000        0.0995079024
O                0.5000000000        0.0000000000        0.6115340639
O                0.0000000000        0.5000000000        0.6115340639
End final coordinates



     Writing all to output data dir ./pto_T2_etam0p006.save/ :
     XML data file, charge density, pseudopotentials, collected wavefunctions
 
     init_run     :      0.45s CPU      0.54s WALL (       1 calls)
     electrons    :     18.36s CPU     19.53s WALL (       1 calls)
     forces       :      0.13s CPU      0.13s WALL (       1 calls)
     stress       :      1.37s CPU      1.39s WALL (       1 calls)

     Called by init_run:
     wfcinit      :      0.25s CPU      0.28s WALL (       1 calls)
     potinit      :      0.01s CPU      0.01s WALL (       1 calls)
     hinit0       :      0.11s CPU      0.14s WALL (       1 calls)

     Called by electrons:
     c_bands      :     16.10s CPU     17.08s WALL (      14 calls)
     sum_band     :      1.67s CPU      1.76s WALL (      14 calls)
     v_of_rho     :      0.02s CPU      0.02s WALL (      15 calls)
     newd         :      0.58s CPU      0.68s WALL (      15 calls)
     mix_rho      :      0.02s CPU      0.02s WALL (      14 calls)

     Called by c_bands:
     init_us_2    :      0.14s CPU      0.15s WALL (    1488 calls)
     init_us_2:cp :      0.14s CPU      0.15s WALL (    1488 calls)
     ccgdiagg     :     14.29s CPU     15.18s WALL (     672 calls)
     wfcrot       :      1.91s CPU      2.02s WALL (     672 calls)

     Called by *cgdiagg:
     h_psi        :      9.18s CPU      9.73s WALL (   54943 calls)
     s_psi        :      1.22s CPU      1.30s WALL (  109214 calls)

     Called by h_psi:
     h_psi:calbec :      1.42s CPU      1.51s WALL (   54943 calls)
     vloc_psi     :      6.64s CPU      7.03s WALL (   54943 calls)
     add_vuspsi   :      0.68s CPU      0.73s WALL (   54943 calls)
     hs_1psi      :      8.56s CPU      9.09s WALL (   54271 calls)
     s_1psi       :      2.00s CPU      2.12s WALL (   54271 calls)

     General routines
     calbec       :      2.54s CPU      2.70s WALL (  110126 calls)
     fft          :      0.03s CPU      0.04s WALL (      96 calls)
     ffts         :      0.00s CPU      0.00s WALL (      29 calls)
     fftw         :      5.65s CPU      5.98s WALL (  153758 calls)
     interpolate  :      0.01s CPU      0.01s WALL (      15 calls)
 
     Parallel routines
 
     PWSCF        :     20.57s CPU     22.30s WALL

 
   This run was terminated on:   0: 9:38  18Nov2025            

=------------------------------------------------------------------------------=
   JOB DONE.
=------------------------------------------------------------------------------=
TACC:  Shutdown complete. Exiting. 
