TACC:  Starting up job 2476734 
TACC:  Starting parallel tasks... 

     Program PWSCF v.7.3 starts on 18Oct2025 at 16:51:47 

     This program is part of the open-source Quantum ESPRESSO suite
     for quantum simulation of materials; please cite
         "P. Giannozzi et al., J. Phys.:Condens. Matter 21 395502 (2009);
         "P. Giannozzi et al., J. Phys.:Condens. Matter 29 465901 (2017);
         "P. Giannozzi et al., J. Chem. Phys. 152 154105 (2020);
          URL http://www.quantum-espresso.org", 
     in publications or presentations arising from this work. More details at
     http://www.quantum-espresso.org/quote

     Parallel version (MPI & OpenMP), running on      10 processor cores
     Number of MPI processes:                10
     Threads/MPI process:                     1

     MPI processes distributed on     1 nodes
     188343 MiB available memory on the printing compute node when the environment starts
 
     Waiting for input...
     Reading input from standard input
Warning: card &CELL ignored
Warning: card  CELL_DYNAMICS = 'BFGS', ignored
Warning: card  PRESS=0.D0, ignored
Warning: card / ignored
     Message from routine read_cards :
     DEPRECATED: no units specified in ATOMIC_POSITIONS card
     Message from routine read_cards :
     ATOMIC_POSITIONS: units set to alat

     Current dimensions of program PWSCF are:
     Max number of different atomic species (ntypx) = 10
     Max number of k-points (npk) =  40000
     Max angular momentum in pseudopotentials (lmaxx) =  4
     Message from routine setup:
     using ibrav=0 with symmetry is DISCOURAGED, use correct ibrav instead
 
     R & G space division:  proc/nbgrp/npool/nimage =      10
     Subspace diagonalization in iterative solution of the eigenvalue problem:
     a serial algorithm will be used

 
     Parallelization info
     --------------------
     sticks:   dense  smooth     PW     G-vecs:    dense   smooth      PW
     Min         126      51     18                 2835      713     165
     Max         127      52     19                 2838      714     166
     Sum        1269     515    189                28373     7139    1657
 
     Using Slab Decomposition
 


     bravais-lattice index     =            0
     lattice parameter (alat)  =       6.7000  a.u.
     unit-cell volume          =     150.3653 (a.u.)^3
     number of atoms/cell      =            2
     number of atomic types    =            1
     number of electrons       =         8.00
     number of Kohn-Sham states=            4
     kinetic-energy cutoff     =      50.0000  Ry
     charge density cutoff     =     500.0000  Ry
     scf convergence threshold =      1.0E-08
     mixing beta               =       0.7000
     number of iterations used =            8  plain     mixing
     Exchange-correlation= SLA  PZ   NOGX NOGC
                           (   1   1   0   0   0   0   0)

     celldm(1)=   6.700000  celldm(2)=   0.000000  celldm(3)=   0.000000
     celldm(4)=   0.000000  celldm(5)=   0.000000  celldm(6)=   0.000000

     crystal axes: (cart. coord. in units of alat)
               a(1) = (  -0.497000   0.497000   0.506000 )  
               a(2) = (   0.497000  -0.497000   0.506000 )  
               a(3) = (   0.497000   0.497000  -0.506000 )  

     reciprocal axes: (cart. coord. in units 2 pi/alat)
               b(1) = (  0.000000  1.006036  0.988142 )  
               b(2) = (  1.006036  0.000000  0.988142 )  
               b(3) = (  1.006036  1.006036  0.000000 )  


     PseudoPot. # 1 for C  read from file:
     /scratch/11018/zhc/Assisgnment2/Q2/Diamond/Diamond/C_LDA.UPF
     MD5 check sum: 407c1fe918d93b14b177d5600f28733c
     Pseudo is Ultrasoft + core correction, Zval =  4.0
     Generated by new atomic code, or converted to UPF format
     Using radial grid of  721 points,  4 beta functions with: 
                l(1) =   0
                l(2) =   0
                l(3) =   1
                l(4) =   1
     Q(r) pseudized with  8 coefficients,  rinner =    1.100   1.100   1.100


     atomic species   valence    mass     pseudopotential
     C                 4.00    12.01100     C ( 1.00)

      2 Sym. Ops. (no inversion) found



   Cartesian axes

     site n.     atom                  positions (alat units)
         1        C      tau(   1) = (   0.0000000   0.0000000   0.0000000  )
         2        C      tau(   2) = (   0.2500000   0.2500000   0.2500000  )

     number of k points=    24
                       cart. coord. in units 2pi/alat
        k(    1) = (   0.0000000   0.0000000   0.0000000), wk =   0.0312500
        k(    2) = (   0.2515091   0.2515091   0.0000000), wk =   0.0625000
        k(    3) = (  -0.5030181  -0.5030181   0.0000000), wk =   0.0312500
        k(    4) = (   0.2515091   0.0000000   0.2470356), wk =   0.1250000
        k(    5) = (   0.5030181   0.2515091   0.2470356), wk =   0.1250000
        k(    6) = (  -0.5030181   0.0000000  -0.4940711), wk =   0.0625000
        k(    7) = (  -0.2515091   0.2515091  -0.4940711), wk =   0.1250000
        k(    8) = (   0.5030181   0.5030181   0.4940711), wk =   0.0625000
        k(    9) = (   0.0000000   0.0000000   0.4940711), wk =   0.0625000
        k(   10) = (  -1.0060362  -0.2515091  -0.2470356), wk =   0.1250000
        k(   11) = (   0.0000000   0.5030181   0.0000000), wk =   0.1250000
        k(   12) = (  -0.7545272  -0.2515091   0.0000000), wk =   0.0625000
        k(   13) = (  -1.0060362  -1.0060362  -0.9881423), wk =   0.0312500
        k(   14) = (  -0.2515091   0.2515091   0.0000000), wk =   0.0625000
        k(   15) = (   0.5030181  -0.5030181   0.0000000), wk =   0.0312500
        k(   16) = (   0.2515091   0.0000000  -0.2470356), wk =   0.1250000
        k(   17) = (  -0.5030181   0.2515091  -0.2470356), wk =   0.1250000
        k(   18) = (   0.5030181  -0.2515091  -0.2470356), wk =   0.1250000
        k(   19) = (   0.2515091   0.5030181  -0.2470356), wk =   0.1250000
        k(   20) = (  -0.5030181   0.0000000   0.4940711), wk =   0.0625000
        k(   21) = (   0.2515091   0.2515091   0.4940711), wk =   0.0625000
        k(   22) = (  -0.2515091  -0.2515091   0.4940711), wk =   0.0625000
        k(   23) = (   1.0060362  -0.2515091   0.2470356), wk =   0.1250000
        k(   24) = (   0.7545272  -0.2515091   0.0000000), wk =   0.0625000

     Dense  grid:    28373 G-vectors     FFT dimensions: (  45,  45,  45)

     Smooth grid:     7139 G-vectors     FFT dimensions: (  27,  27,  27)

     Estimated max dynamical RAM per process >       4.69 MB

     Estimated total dynamical RAM >      46.95 MB

     Initial potential from superposition of free atoms

     starting charge       7.9999, renormalised to       8.0000
     Starting wfcs are    8 randomized atomic wfcs

     total cpu time spent up to now is        0.2 secs

     Self-consistent Calculation

     iteration #  1     ecut=    50.00 Ry     beta= 0.70
     CG style diagonalization
     ethr =  1.00E-02,  avg # of iterations =  2.8

     Threshold (ethr) on eigenvalues was too large:
     Diagonalizing with lowered threshold

     CG style diagonalization
     ethr =  4.89E-04,  avg # of iterations =  2.0

     total cpu time spent up to now is        0.4 secs

     total energy              =     -22.63254695 Ry
     estimated scf accuracy    <       0.03793675 Ry

     iteration #  2     ecut=    50.00 Ry     beta= 0.70
     CG style diagonalization
     ethr =  4.74E-04,  avg # of iterations =  3.6

     total cpu time spent up to now is        0.4 secs

     total energy              =     -22.63628745 Ry
     estimated scf accuracy    <       0.00101687 Ry

     iteration #  3     ecut=    50.00 Ry     beta= 0.70
     CG style diagonalization
     ethr =  1.27E-05,  avg # of iterations =  3.4

     total cpu time spent up to now is        0.5 secs

     total energy              =     -22.63641364 Ry
     estimated scf accuracy    <       0.00003845 Ry

     iteration #  4     ecut=    50.00 Ry     beta= 0.70
     CG style diagonalization
     ethr =  4.81E-07,  avg # of iterations =  4.1

     total cpu time spent up to now is        0.6 secs

     total energy              =     -22.63642870 Ry
     estimated scf accuracy    <       0.00000127 Ry

     iteration #  5     ecut=    50.00 Ry     beta= 0.70
     CG style diagonalization
     c_bands:  1 eigenvalues not converged
     ethr =  1.58E-08,  avg # of iterations =  5.2

     total cpu time spent up to now is        0.7 secs

     total energy              =     -22.63643025 Ry
     estimated scf accuracy    <       0.00000084 Ry

     iteration #  6     ecut=    50.00 Ry     beta= 0.70
     CG style diagonalization
     ethr =  1.05E-08,  avg # of iterations =  3.8

     total cpu time spent up to now is        0.8 secs

     total energy              =     -22.63643038 Ry
     estimated scf accuracy    <       0.00000011 Ry

     iteration #  7     ecut=    50.00 Ry     beta= 0.70
     CG style diagonalization
     c_bands:  1 eigenvalues not converged
     ethr =  1.41E-09,  avg # of iterations =  4.2

     total cpu time spent up to now is        0.9 secs

     End of self-consistent calculation

          k = 0.0000 0.0000 0.0000 (   935 PWs)   bands (ev):

   -11.4463  -2.9569   3.0719   3.1178

          k = 0.2515 0.2515 0.0000 (   899 PWs)   bands (ev):

   -10.4702  -4.6814   2.7603   3.6435

          k =-0.5030-0.5030 0.0000 (   890 PWs)   bands (ev):

    -7.8576  -7.8507   3.2478   3.3347

          k = 0.2515 0.0000 0.2470 (   904 PWs)   bands (ev):

   -10.4817  -4.6959   2.8251   3.6511

          k = 0.5030 0.2515 0.2470 (   892 PWs)   bands (ev):

    -8.4713  -7.1201   1.8380   4.2324

          k =-0.5030 0.0000-0.4941 (   888 PWs)   bands (ev):

    -7.8849  -7.8799   3.3260   3.3683

          k =-0.2515 0.2515-0.4941 (   898 PWs)   bands (ev):

    -9.2869  -5.2301  -0.4217   2.7304

          k = 0.5030 0.5030 0.4941 (   896 PWs)   bands (ev):

    -8.7022  -5.7143   0.0482   0.1459

          k = 0.0000 0.0000 0.4941 (   904 PWs)   bands (ev):

    -9.8086  -4.6634   0.9501   2.8035

          k =-1.0060-0.2515-0.2470 (   895 PWs)   bands (ev):

    -8.8660  -4.6872  -0.8579   1.7872

          k = 0.0000 0.5030 0.0000 (   897 PWs)   bands (ev):

    -9.7552  -4.6983   0.8280   2.7916

          k =-0.7545-0.2515 0.0000 (   902 PWs)   bands (ev):

    -7.4405  -7.4374   2.0682   2.1178

          k =-1.0060-1.0060-0.9881 (   872 PWs)   bands (ev):

    -6.9963  -6.9945   2.6828   2.7267

          k =-0.2515 0.2515 0.0000 (   899 PWs)   bands (ev):

   -10.6474  -3.1185   0.3681   2.4582

          k = 0.5030-0.5030 0.0000 (   890 PWs)   bands (ev):

    -9.5367  -3.2796  -2.1166   1.9256

          k = 0.2515 0.0000-0.2470 (   904 PWs)   bands (ev):

   -10.6692  -3.0951   0.3452   2.5334

          k =-0.5030 0.2515-0.2470 (   892 PWs)   bands (ev):

    -9.2437  -5.2740  -0.4436   2.6673

          k = 0.5030-0.2515-0.2470 (   892 PWs)   bands (ev):

    -9.6076  -3.2630  -1.2184   0.5887

          k = 0.2515 0.5030-0.2470 (   892 PWs)   bands (ev):

    -9.2701  -5.2165  -0.4484   2.6875

          k =-0.5030 0.0000 0.4941 (   888 PWs)   bands (ev):

    -9.5963  -3.2342  -2.1080   2.0326

          k = 0.2515 0.2515 0.4941 (   898 PWs)   bands (ev):

    -8.5105  -7.0965   1.7769   4.2984

          k =-0.2515-0.2515 0.4941 (   898 PWs)   bands (ev):

    -9.6404  -3.2404  -1.1388   0.5464

          k = 1.0060-0.2515 0.2470 (   895 PWs)   bands (ev):

    -7.4943  -7.4212   2.1634   2.2319

          k = 0.7545-0.2515 0.0000 (   902 PWs)   bands (ev):

    -8.8174  -4.7383  -0.8500   1.6690

     highest occupied level (ev):     4.2984

!    total energy              =     -22.63643044 Ry
     estimated scf accuracy    <          6.5E-09 Ry

     The total energy is the sum of the following terms:
     one-electron contribution =      -0.20107166 Ry
     hartree contribution      =       3.41865165 Ry
     xc contribution           =      -6.55581446 Ry
     ewald contribution        =     -19.29819597 Ry

     convergence has been achieved in   7 iterations

     Forces acting on atoms (cartesian axes, Ry/au):

     atom    1 type  1   force =     0.00069032    0.00069032   -0.00090660
     atom    2 type  1   force =    -0.00069032   -0.00069032    0.00090660

     Total force =     0.001884     Total SCF correction =     0.000023


     Computing stress (Cartesian axis) and pressure

          total   stress  (Ry/bohr**3)                   (kbar)     P=     -660.12
  -0.00443337  -0.00520895  -0.00519347         -652.17     -766.26     -763.99
  -0.00520895  -0.00443337  -0.00519347         -766.26     -652.17     -763.99
  -0.00519347  -0.00519347  -0.00459548         -763.99     -763.99     -676.02


     Writing all to output data dir ./diamond_tetragonal_etam0p006.save/ :
     XML data file, charge density, pseudopotentials, collected wavefunctions
 
     init_run     :      0.06s CPU      0.12s WALL (       1 calls)
     electrons    :      0.55s CPU      0.62s WALL (       1 calls)
     forces       :      0.01s CPU      0.01s WALL (       1 calls)
     stress       :      0.03s CPU      0.03s WALL (       1 calls)

     Called by init_run:
     wfcinit      :      0.02s CPU      0.05s WALL (       1 calls)
     potinit      :      0.00s CPU      0.01s WALL (       1 calls)
     hinit0       :      0.02s CPU      0.04s WALL (       1 calls)

     Called by electrons:
     c_bands      :      0.47s CPU      0.51s WALL (       8 calls)
     sum_band     :      0.06s CPU      0.07s WALL (       8 calls)
     v_of_rho     :      0.01s CPU      0.01s WALL (       8 calls)
     newd         :      0.01s CPU      0.02s WALL (       8 calls)
     mix_rho      :      0.00s CPU      0.01s WALL (       8 calls)

     Called by c_bands:
     init_us_2    :      0.01s CPU      0.01s WALL (     456 calls)
     init_us_2:cp :      0.01s CPU      0.01s WALL (     456 calls)
     ccgdiagg     :      0.40s CPU      0.43s WALL (     192 calls)
     wfcrot       :      0.08s CPU      0.11s WALL (     168 calls)

     Called by *cgdiagg:
     h_psi        :      0.28s CPU      0.31s WALL (    2395 calls)
     s_psi        :      0.01s CPU      0.01s WALL (    4622 calls)

     Called by h_psi:
     h_psi:calbec :      0.04s CPU      0.04s WALL (    2395 calls)
     vloc_psi     :      0.22s CPU      0.24s WALL (    2395 calls)
     add_vuspsi   :      0.01s CPU      0.01s WALL (    2395 calls)
     hs_1psi      :      0.24s CPU      0.26s WALL (    2227 calls)
     s_1psi       :      0.04s CPU      0.05s WALL (    2227 calls)

     General routines
     calbec       :      0.07s CPU      0.07s WALL (    4934 calls)
     fft          :      0.01s CPU      0.03s WALL (      55 calls)
     ffts         :      0.00s CPU      0.00s WALL (      16 calls)
     fftw         :      0.20s CPU      0.22s WALL (    6758 calls)
     interpolate  :      0.00s CPU      0.00s WALL (       8 calls)
 
     Parallel routines
 
     PWSCF        :      0.70s CPU      1.07s WALL

 
   This run was terminated on:  16:51:48  18Oct2025            

=------------------------------------------------------------------------------=
   JOB DONE.
=------------------------------------------------------------------------------=
TACC:  Shutdown complete. Exiting. 
