TACC:  Starting up job 2553084 
TACC:  Starting parallel tasks... 

     Program PWSCF v.7.3 starts on 15Nov2025 at  2:27:45 

     This program is part of the open-source Quantum ESPRESSO suite
     for quantum simulation of materials; please cite
         "P. Giannozzi et al., J. Phys.:Condens. Matter 21 395502 (2009);
         "P. Giannozzi et al., J. Phys.:Condens. Matter 29 465901 (2017);
         "P. Giannozzi et al., J. Chem. Phys. 152 154105 (2020);
          URL http://www.quantum-espresso.org", 
     in publications or presentations arising from this work. More details at
     http://www.quantum-espresso.org/quote

     Parallel version (MPI & OpenMP), running on      10 processor cores
     Number of MPI processes:                10
     Threads/MPI process:                     1

     MPI processes distributed on     1 nodes
     179970 MiB available memory on the printing compute node when the environment starts
 
     Waiting for input...
     Reading input from standard input
Warning: card &CELL ignored
Warning: card  CELL_DYNAMICS = 'BFGS', ignored
Warning: card  PRESS=0.D0, ignored
Warning: card / ignored

     Current dimensions of program PWSCF are:
     Max number of different atomic species (ntypx) = 10
     Max number of k-points (npk) =  40000
     Max angular momentum in pseudopotentials (lmaxx) =  4
     Message from routine setup:
     using ibrav=0 with symmetry is DISCOURAGED, use correct ibrav instead
 
     R & G space division:  proc/nbgrp/npool/nimage =      10
     Subspace diagonalization in iterative solution of the eigenvalue problem:
     a serial algorithm will be used

 
     Parallelization info
     --------------------
     sticks:   dense  smooth     PW     G-vecs:    dense   smooth      PW
     Min         216      86     24                 7944     2004     308
     Max         217      87     25                 7947     2007     311
     Sum        2161     869    241                79447    20063    3083
 
     Using Slab Decomposition
 


     bravais-lattice index     =            0
     lattice parameter (alat)  =       7.3699  a.u.
     unit-cell volume          =     420.8329 (a.u.)^3
     number of atoms/cell      =            5
     number of atomic types    =            3
     number of electrons       =        44.00
     number of Kohn-Sham states=           22
     kinetic-energy cutoff     =      50.0000  Ry
     charge density cutoff     =     500.0000  Ry
     scf convergence threshold =      1.0E-08
     mixing beta               =       0.7000
     number of iterations used =            8  plain     mixing
     energy convergence thresh.=      1.0E-04
     force convergence thresh. =      1.0E-03
     Exchange-correlation= SLA  PZ   NOGX NOGC
                           (   1   1   0   0   0   0   0)
     nstep                     =           50


     celldm(1)=   7.369932  celldm(2)=   0.000000  celldm(3)=   0.000000
     celldm(4)=   0.000000  celldm(5)=   0.000000  celldm(6)=   0.000000

     crystal axes: (cart. coord. in units of alat)
               a(1) = (   1.000000   0.000000   0.000000 )  
               a(2) = (   0.000000   1.000000   0.000000 )  
               a(3) = (   0.000000   0.000000   1.051282 )  

     reciprocal axes: (cart. coord. in units 2 pi/alat)
               b(1) = (  1.000000  0.000000  0.000000 )  
               b(2) = (  0.000000  1.000000  0.000000 )  
               b(3) = (  0.000000  0.000000  0.951220 )  


     PseudoPot. # 1 for Pb read from file:
     /scratch/11018/zhc/assisgnment3/input_files/Pb_LDA.UPF
     MD5 check sum: 062a37469794d955244864f8fe2e5624
     Pseudo is Ultrasoft + core correction, Zval = 14.0
     Generated by new atomic code, or converted to UPF format
     Using radial grid of  899 points,  6 beta functions with: 
                l(1) =   0
                l(2) =   0
                l(3) =   1
                l(4) =   1
                l(5) =   2
                l(6) =   2
     Q(r) pseudized with  6 coefficients,  rinner =    1.000   1.000   1.000
                                                       1.000   1.000

     PseudoPot. # 2 for Ti read from file:
     /scratch/11018/zhc/assisgnment3/input_files/Ti_LDA.UPF
     MD5 check sum: 0d9f225c038fe889ca2a701dcc8d72cb
     Pseudo is Ultrasoft + core correction, Zval = 12.0
     Generated by new atomic code, or converted to UPF format
     Using radial grid of  851 points,  6 beta functions with: 
                l(1) =   0
                l(2) =   0
                l(3) =   1
                l(4) =   1
                l(5) =   2
                l(6) =   2
     Q(r) pseudized with  6 coefficients,  rinner =    1.000   1.000   1.000
                                                       1.000   1.000

     PseudoPot. # 3 for O  read from file:
     /scratch/11018/zhc/assisgnment3/input_files/O_LDA.UPF
     MD5 check sum: 194b818514d2a7dbb603bb78519a4f40
     Pseudo is Ultrasoft + core correction, Zval =  6.0
     Generated by new atomic code, or converted to UPF format
     Using radial grid of  737 points,  5 beta functions with: 
                l(1) =   0
                l(2) =   0
                l(3) =   1
                l(4) =   1
                l(5) =   2
     Q(r) pseudized with  8 coefficients,  rinner =    0.900   0.900   0.900
                                                       0.900   0.900

     atomic species   valence    mass     pseudopotential
     Pb               14.00   207.20000     Pb( 1.00)
     Ti               12.00    47.88000     Ti( 1.00)
     O                 6.00    16.00000     O ( 1.00)

      8 Sym. Ops. (no inversion) found



   Cartesian axes

     site n.     atom                  positions (alat units)
         1        Pb     tau(   1) = (   0.0000000   0.0000000   1.0580339  )
         2        Ti     tau(   2) = (   0.5000000   0.5000000   0.5681377  )
         3        O      tau(   3) = (   0.5000000   0.5000000   0.1036357  )
         4        O      tau(   4) = (   0.5000000   0.0000000   0.6422586  )
         5        O      tau(   5) = (   0.0000000   0.5000000   0.6422586  )

     number of k points=     6
                       cart. coord. in units 2pi/alat
        k(    1) = (   0.0000000   0.0000000   0.0000000), wk =   0.0740741
        k(    2) = (   0.0000000   0.0000000   0.3170732), wk =   0.1481481
        k(    3) = (   0.0000000   0.3333333   0.0000000), wk =   0.2962963
        k(    4) = (   0.0000000   0.3333333   0.3170732), wk =   0.5925926
        k(    5) = (   0.3333333   0.3333333   0.0000000), wk =   0.2962963
        k(    6) = (   0.3333333   0.3333333   0.3170732), wk =   0.5925926

     Dense  grid:    79447 G-vectors     FFT dimensions: (  54,  54,  60)

     Smooth grid:    20063 G-vectors     FFT dimensions: (  36,  36,  36)

     Estimated max dynamical RAM per process >      35.58 MB

     Estimated total dynamical RAM >     355.76 MB

     Check: negative core charge=   -0.000004

     Initial potential from superposition of free atoms

     starting charge      42.9982, renormalised to      44.0000

     negative rho (up, down):  1.690E-02 0.000E+00
     Starting wfcs are   31 randomized atomic wfcs

     total cpu time spent up to now is        0.6 secs

     Self-consistent Calculation

     iteration #  1     ecut=    50.00 Ry     beta= 0.70
     CG style diagonalization
     ethr =  1.00E-02,  avg # of iterations =  2.2

     negative rho (up, down):  1.407E-02 0.000E+00

     total cpu time spent up to now is        0.8 secs

     total energy              =    -380.04714690 Ry
     estimated scf accuracy    <       1.03355099 Ry

     iteration #  2     ecut=    50.00 Ry     beta= 0.70
     CG style diagonalization
     ethr =  2.35E-03,  avg # of iterations =  5.0

     negative rho (up, down):  1.457E-02 0.000E+00

     total cpu time spent up to now is        1.1 secs

     total energy              =    -379.59597639 Ry
     estimated scf accuracy    <       4.86948393 Ry

     iteration #  3     ecut=    50.00 Ry     beta= 0.70
     CG style diagonalization
     ethr =  2.35E-03,  avg # of iterations =  4.5

     negative rho (up, down):  1.523E-02 0.000E+00

     total cpu time spent up to now is        1.3 secs

     total energy              =    -380.53445468 Ry
     estimated scf accuracy    <       0.33838625 Ry

     iteration #  4     ecut=    50.00 Ry     beta= 0.70
     CG style diagonalization
     ethr =  7.69E-04,  avg # of iterations =  3.4

     negative rho (up, down):  1.523E-02 0.000E+00

     total cpu time spent up to now is        1.5 secs

     total energy              =    -380.55382329 Ry
     estimated scf accuracy    <       0.06120323 Ry

     iteration #  5     ecut=    50.00 Ry     beta= 0.70
     CG style diagonalization
     ethr =  1.39E-04,  avg # of iterations =  3.7

     negative rho (up, down):  1.523E-02 0.000E+00

     total cpu time spent up to now is        1.8 secs

     total energy              =    -380.56728300 Ry
     estimated scf accuracy    <       0.00552891 Ry

     iteration #  6     ecut=    50.00 Ry     beta= 0.70
     CG style diagonalization
     ethr =  1.26E-05,  avg # of iterations =  4.2

     negative rho (up, down):  1.523E-02 0.000E+00

     total cpu time spent up to now is        2.0 secs

     total energy              =    -380.57040290 Ry
     estimated scf accuracy    <       0.00684845 Ry

     iteration #  7     ecut=    50.00 Ry     beta= 0.70
     CG style diagonalization
     ethr =  1.26E-05,  avg # of iterations =  3.2

     negative rho (up, down):  1.524E-02 0.000E+00

     total cpu time spent up to now is        2.2 secs

     total energy              =    -380.57009489 Ry
     estimated scf accuracy    <       0.00218902 Ry

     iteration #  8     ecut=    50.00 Ry     beta= 0.70
     CG style diagonalization
     ethr =  4.98E-06,  avg # of iterations =  3.6

     negative rho (up, down):  1.526E-02 0.000E+00

     total cpu time spent up to now is        2.4 secs

     total energy              =    -380.57060226 Ry
     estimated scf accuracy    <       0.00005196 Ry

     iteration #  9     ecut=    50.00 Ry     beta= 0.70
     CG style diagonalization
     ethr =  1.18E-07,  avg # of iterations =  5.2

     negative rho (up, down):  1.529E-02 0.000E+00

     total cpu time spent up to now is        2.7 secs

     total energy              =    -380.57064989 Ry
     estimated scf accuracy    <       0.00003559 Ry

     iteration # 10     ecut=    50.00 Ry     beta= 0.70
     CG style diagonalization
     ethr =  8.09E-08,  avg # of iterations =  3.5

     negative rho (up, down):  1.535E-02 0.000E+00

     total cpu time spent up to now is        2.9 secs

     total energy              =    -380.57065179 Ry
     estimated scf accuracy    <       0.00001034 Ry

     iteration # 11     ecut=    50.00 Ry     beta= 0.70
     CG style diagonalization
     ethr =  2.35E-08,  avg # of iterations =  4.5

     negative rho (up, down):  1.537E-02 0.000E+00

     total cpu time spent up to now is        3.2 secs

     total energy              =    -380.57065645 Ry
     estimated scf accuracy    <       0.00000032 Ry

     iteration # 12     ecut=    50.00 Ry     beta= 0.70
     CG style diagonalization
     ethr =  7.21E-10,  avg # of iterations =  9.9

     negative rho (up, down):  1.538E-02 0.000E+00

     total cpu time spent up to now is        3.7 secs

     total energy              =    -380.57065896 Ry
     estimated scf accuracy    <       0.00000031 Ry

     iteration # 13     ecut=    50.00 Ry     beta= 0.70
     CG style diagonalization
     ethr =  7.02E-10,  avg # of iterations =  3.4

     negative rho (up, down):  1.541E-02 0.000E+00

     total cpu time spent up to now is        3.9 secs

     total energy              =    -380.57065892 Ry
     estimated scf accuracy    <       0.00000014 Ry

     iteration # 14     ecut=    50.00 Ry     beta= 0.70
     CG style diagonalization
     ethr =  3.15E-10,  avg # of iterations =  4.4

     negative rho (up, down):  1.541E-02 0.000E+00

     total cpu time spent up to now is        4.2 secs

     total energy              =    -380.57065897 Ry
     estimated scf accuracy    <       0.00000009 Ry

     iteration # 15     ecut=    50.00 Ry     beta= 0.70
     CG style diagonalization
     ethr =  2.04E-10,  avg # of iterations =  3.8

     negative rho (up, down):  1.541E-02 0.000E+00

     total cpu time spent up to now is        4.4 secs

     total energy              =    -380.57065899 Ry
     estimated scf accuracy    <       0.00000001 Ry

     iteration # 16     ecut=    50.00 Ry     beta= 0.70
     CG style diagonalization
     ethr =  2.59E-11,  avg # of iterations =  6.5

     negative rho (up, down):  1.541E-02 0.000E+00

     total cpu time spent up to now is        4.7 secs

     End of self-consistent calculation

          k = 0.0000 0.0000 0.0000 (  2525 PWs)   bands (ev):

   -45.8718 -22.4985 -22.4474 -22.4474  -7.5156  -6.4413  -6.1912  -5.0287
    -5.0287  -4.9926  -4.8704  -4.7687   4.2241   6.3062   6.3062   6.6270
     8.2843   8.2843   8.4836   8.7913   8.9339   8.9339

          k = 0.0000 0.0000 0.3171 (  2510 PWs)   bands (ev):

   -45.8714 -22.5276 -22.4462 -22.4462  -7.2238  -6.3512  -6.1039  -5.0514
    -5.0514  -4.9907  -4.8773  -4.8593   3.1941   6.4077   6.4077   6.5087
     7.9138   7.9138   8.3591   9.0771   9.0771   9.2970

          k = 0.0000 0.3333 0.0000 (  2514 PWs)   bands (ev):

   -45.8708 -22.5001 -22.4949 -22.4452  -7.0865  -6.3486  -6.1181  -5.0822
    -5.0308  -5.0245  -4.8746  -4.7675   3.2195   5.9723   6.6721   6.6987
     7.8540   7.8727   8.3463   8.4166   8.7844   9.6191

          k = 0.0000 0.3333 0.3171 (  2508 PWs)   bands (ev):

   -45.8704 -22.5249 -22.4970 -22.4440  -6.9304  -6.2814  -5.9797  -5.0494
    -5.0346  -5.0309  -4.8859  -4.7178   2.7479   5.7575   6.4298   6.8325
     7.2317   7.5664   7.7088   8.4075   9.1565   9.6108

          k = 0.3333 0.3333 0.0000 (  2522 PWs)   bands (ev):

   -45.8699 -22.4984 -22.4959 -22.4916  -6.7134  -6.2626  -6.2138  -5.0597
    -5.0134  -4.9236  -4.7617  -4.7516   2.6706   5.9415   6.0767   6.9539
     7.0863   7.2748   7.8723   8.5307   9.3810   9.4107

          k = 0.3333 0.3333 0.3171 (  2506 PWs)   bands (ev):

   -45.8695 -22.5224 -22.4946 -22.4945  -6.5612  -6.3337  -6.1271  -5.0051
    -5.0034  -4.8317  -4.6851  -4.6477   2.9414   5.3689   5.4323   5.8505
     6.5360   6.6775   8.0494   9.2026   9.2552   9.4240

     highest occupied level (ev):     9.6191

!    total energy              =    -380.57065900 Ry
     estimated scf accuracy    <          3.1E-09 Ry

     The total energy is the sum of the following terms:
     one-electron contribution =     -84.07486635 Ry
     hartree contribution      =      71.15935195 Ry
     xc contribution           =    -102.54098515 Ry
     ewald contribution        =    -265.11415945 Ry

     convergence has been achieved in  16 iterations

     negative rho (up, down):  1.541E-02 0.000E+00

     Forces acting on atoms (cartesian axes, Ry/au):

     atom    1 type  1   force =     0.00000000    0.00000000   -0.00688134
     atom    2 type  2   force =     0.00000000    0.00000000   -0.01836198
     atom    3 type  3   force =     0.00000000    0.00000000    0.02102299
     atom    4 type  3   force =     0.00000000    0.00000000    0.00211016
     atom    5 type  3   force =     0.00000000    0.00000000    0.00211016

     Total force =     0.028903     Total SCF correction =     0.000133


     Computing stress (Cartesian axis) and pressure


     negative rho (up, down):  1.541E-02 0.000E+00
          total   stress  (Ry/bohr**3)                   (kbar)     P=      -66.28
  -0.00045607   0.00000000   0.00000000          -67.09        0.00        0.00
   0.00000000  -0.00045607   0.00000000            0.00      -67.09        0.00
   0.00000000   0.00000000  -0.00043963            0.00        0.00      -64.67


     BFGS Geometry Optimization
     Energy error            =      0.0E+00 Ry
     Gradient error          =      2.1E-02 Ry/Bohr

     number of scf cycles    =   1
     number of bfgs steps    =   0

     energy             new  =    -380.5706590043 Ry

     new trust radius        =       0.0210229943 bohr
     new conv_thr            =       0.0000000100 Ry


ATOMIC_POSITIONS (crystal)
Pb               0.0000000000        0.0000000000        1.0055343497
Ti               0.5000000000        0.5000000000        0.5380537601
O                0.5000000000        0.5000000000        0.1012936887
O                0.5000000000        0.0000000000        0.6112012448
O                0.0000000000        0.5000000000        0.6112012448



     Writing config-only to output data dir ./pto_k3.save/ :
     XML data file
     NEW-OLD atomic charge density approx. for the potential

     Check: negative core charge=   -0.000004

     negative rho (up, down):  1.528E-02 0.000E+00

     total cpu time spent up to now is        5.3 secs

     Self-consistent Calculation

     iteration #  1     ecut=    50.00 Ry     beta= 0.70
     CG style diagonalization
     c_bands:  1 eigenvalues not converged
     c_bands:  1 eigenvalues not converged
     c_bands:  2 eigenvalues not converged
     ethr =  1.00E-06,  avg # of iterations =  7.7

     negative rho (up, down):  1.526E-02 0.000E+00

     total cpu time spent up to now is        5.7 secs

     total energy              =    -380.57110760 Ry
     estimated scf accuracy    <       0.00033548 Ry

     iteration #  2     ecut=    50.00 Ry     beta= 0.70
     CG style diagonalization
     ethr =  7.62E-07,  avg # of iterations =  4.7

     negative rho (up, down):  1.526E-02 0.000E+00

     total cpu time spent up to now is        6.0 secs

     total energy              =    -380.57108279 Ry
     estimated scf accuracy    <       0.00098263 Ry

     iteration #  3     ecut=    50.00 Ry     beta= 0.70
     CG style diagonalization
     ethr =  7.62E-07,  avg # of iterations =  4.2

     negative rho (up, down):  1.526E-02 0.000E+00

     total cpu time spent up to now is        6.2 secs

     total energy              =    -380.57127121 Ry
     estimated scf accuracy    <       0.00007763 Ry

     iteration #  4     ecut=    50.00 Ry     beta= 0.70
     CG style diagonalization
     ethr =  1.76E-07,  avg # of iterations =  3.7

     negative rho (up, down):  1.526E-02 0.000E+00

     total cpu time spent up to now is        6.4 secs

     total energy              =    -380.57129179 Ry
     estimated scf accuracy    <       0.00000874 Ry

     iteration #  5     ecut=    50.00 Ry     beta= 0.70
     CG style diagonalization
     ethr =  1.99E-08,  avg # of iterations =  4.3

     negative rho (up, down):  1.526E-02 0.000E+00

     total cpu time spent up to now is        6.7 secs

     total energy              =    -380.57129623 Ry
     estimated scf accuracy    <       0.00000059 Ry

     iteration #  6     ecut=    50.00 Ry     beta= 0.70
     CG style diagonalization
     ethr =  1.33E-09,  avg # of iterations =  4.9

     negative rho (up, down):  1.526E-02 0.000E+00

     total cpu time spent up to now is        7.0 secs

     total energy              =    -380.57129685 Ry
     estimated scf accuracy    <       0.00000038 Ry

     iteration #  7     ecut=    50.00 Ry     beta= 0.70
     CG style diagonalization
     ethr =  8.63E-10,  avg # of iterations =  3.8

     negative rho (up, down):  1.526E-02 0.000E+00

     total cpu time spent up to now is        7.2 secs

     total energy              =    -380.57129690 Ry
     estimated scf accuracy    <       0.00000012 Ry

     iteration #  8     ecut=    50.00 Ry     beta= 0.70
     CG style diagonalization
     ethr =  2.76E-10,  avg # of iterations =  4.2

     negative rho (up, down):  1.526E-02 0.000E+00

     total cpu time spent up to now is        7.4 secs

     End of self-consistent calculation

          k = 0.0000 0.0000 0.0000 (  2525 PWs)   bands (ev):

   -45.8283 -22.4826 -22.4026 -22.4026  -7.5112  -6.4304  -6.2046  -5.0313
    -5.0313  -4.9974  -4.8784  -4.7653   4.2150   6.3097   6.3097   6.6584
     8.1966   8.1966   8.4833   8.7208   8.9455   8.9455

          k = 0.0000 0.0000 0.3171 (  2510 PWs)   bands (ev):

   -45.8279 -22.5118 -22.4015 -22.4015  -7.2127  -6.3398  -6.1229  -5.0540
    -5.0540  -4.9955  -4.8743  -4.8674   3.1734   6.3883   6.3883   6.5206
     7.8774   7.8774   8.3580   9.0856   9.0856   9.2913

          k = 0.0000 0.3333 0.0000 (  2514 PWs)   bands (ev):

   -45.8273 -22.4804 -22.4539 -22.4005  -7.0835  -6.3417  -6.1355  -5.0851
    -5.0355  -5.0270  -4.8759  -4.7652   3.2169   5.9856   6.6722   6.7078
     7.8551   7.8830   8.3244   8.3459   8.7394   9.6016

          k = 0.0000 0.3333 0.3171 (  2508 PWs)   bands (ev):

   -45.8269 -22.5090 -22.4524 -22.3993  -6.9200  -6.2761  -6.0031  -5.0519
    -5.0372  -5.0356  -4.8886  -4.7143   2.7422   5.7461   6.4403   6.8193
     7.2290   7.5760   7.6934   8.3890   9.1317   9.6093

          k = 0.3333 0.3333 0.0000 (  2522 PWs)   bands (ev):

   -45.8264 -22.4782 -22.4513 -22.4512  -6.7209  -6.2571  -6.2223  -5.0614
    -5.0169  -4.9259  -4.7586  -4.7584   2.6701   5.9510   6.1067   6.9333
     7.0909   7.2134   7.9066   8.5174   9.3868   9.3973

          k = 0.3333 0.3333 0.3171 (  2506 PWs)   bands (ev):

   -45.8260 -22.5064 -22.4500 -22.4499  -6.5567  -6.3282  -6.1463  -5.0077
    -5.0070  -4.8385  -4.6900  -4.6439   2.9376   5.3656   5.4232   5.8568
     6.5657   6.6822   8.0486   9.1687   9.2457   9.4190

     highest occupied level (ev):     9.6093

!    total energy              =    -380.57129694 Ry
     estimated scf accuracy    <          6.0E-09 Ry

     The total energy is the sum of the following terms:
     one-electron contribution =     -84.29597821 Ry
     hartree contribution      =      71.28203345 Ry
     xc contribution           =    -102.55219780 Ry
     ewald contribution        =    -265.00515438 Ry

     convergence has been achieved in   8 iterations

     negative rho (up, down):  1.526E-02 0.000E+00

     Forces acting on atoms (cartesian axes, Ry/au):

     atom    1 type  1   force =     0.00000000    0.00000000   -0.00840634
     atom    2 type  2   force =     0.00000000    0.00000000   -0.00752974
     atom    3 type  3   force =     0.00000000    0.00000000    0.01059041
     atom    4 type  3   force =     0.00000000    0.00000000    0.00267283
     atom    5 type  3   force =     0.00000000    0.00000000    0.00267283

     Total force =     0.015931     Total SCF correction =     0.000061


     Computing stress (Cartesian axis) and pressure


     negative rho (up, down):  1.526E-02 0.000E+00
          total   stress  (Ry/bohr**3)                   (kbar)     P=      -60.29
  -0.00044522   0.00000000   0.00000000          -65.49        0.00        0.00
   0.00000000  -0.00044522   0.00000000            0.00      -65.49        0.00
   0.00000000   0.00000000  -0.00033906            0.00        0.00      -49.88

     Energy error            =      6.4E-04 Ry
     Gradient error          =      1.1E-02 Ry/Bohr

     number of scf cycles    =   2
     number of bfgs steps    =   1

     energy             old  =    -380.5706590043 Ry
     energy             new  =    -380.5712969406 Ry

     CASE: energy            _new < energy            _old

     new trust radius        =       0.0231252937 bohr
     new conv_thr            =       0.0000000006 Ry


ATOMIC_POSITIONS (crystal)
Pb               0.0000000000        0.0000000000        1.0033560329
Ti               0.5000000000        0.5000000000        0.5358651672
O                0.5000000000        0.5000000000        0.1042784151
O                0.5000000000        0.0000000000        0.6118923364
O                0.0000000000        0.5000000000        0.6118923364



     Writing config-only to output data dir ./pto_k3.save/ :
     XML data file
     NEW-OLD atomic charge density approx. for the potential

     Check: negative core charge=   -0.000004

     negative rho (up, down):  1.511E-02 0.000E+00

     total cpu time spent up to now is        8.0 secs

     Self-consistent Calculation

     iteration #  1     ecut=    50.00 Ry     beta= 0.70
     CG style diagonalization
     c_bands:  1 eigenvalues not converged
     ethr =  1.00E-06,  avg # of iterations =  7.8

     negative rho (up, down):  1.507E-02 0.000E+00

     total cpu time spent up to now is        8.4 secs

     total energy              =    -380.57144729 Ry
     estimated scf accuracy    <       0.00033481 Ry

     iteration #  2     ecut=    50.00 Ry     beta= 0.70
     CG style diagonalization
     ethr =  7.61E-07,  avg # of iterations =  4.6

     negative rho (up, down):  1.508E-02 0.000E+00

     total cpu time spent up to now is        8.7 secs

     total energy              =    -380.57140543 Ry
     estimated scf accuracy    <       0.00089464 Ry

     iteration #  3     ecut=    50.00 Ry     beta= 0.70
     CG style diagonalization
     ethr =  7.61E-07,  avg # of iterations =  4.2

     negative rho (up, down):  1.508E-02 0.000E+00

     total cpu time spent up to now is        8.9 secs

     total energy              =    -380.57158296 Ry
     estimated scf accuracy    <       0.00007910 Ry

     iteration #  4     ecut=    50.00 Ry     beta= 0.70
     CG style diagonalization
     ethr =  1.80E-07,  avg # of iterations =  3.7

     negative rho (up, down):  1.507E-02 0.000E+00

     total cpu time spent up to now is        9.2 secs

     total energy              =    -380.57160323 Ry
     estimated scf accuracy    <       0.00000971 Ry

     iteration #  5     ecut=    50.00 Ry     beta= 0.70
     CG style diagonalization
     ethr =  2.21E-08,  avg # of iterations =  4.0

     negative rho (up, down):  1.507E-02 0.000E+00

     total cpu time spent up to now is        9.4 secs

     total energy              =    -380.57160829 Ry
     estimated scf accuracy    <       0.00000069 Ry

     iteration #  6     ecut=    50.00 Ry     beta= 0.70
     CG style diagonalization
     ethr =  1.58E-09,  avg # of iterations =  4.9

     negative rho (up, down):  1.507E-02 0.000E+00

     total cpu time spent up to now is        9.7 secs

     total energy              =    -380.57160901 Ry
     estimated scf accuracy    <       0.00000058 Ry

     iteration #  7     ecut=    50.00 Ry     beta= 0.70
     CG style diagonalization
     ethr =  1.31E-09,  avg # of iterations =  3.8

     negative rho (up, down):  1.507E-02 0.000E+00

     total cpu time spent up to now is        9.9 secs

     total energy              =    -380.57160910 Ry
     estimated scf accuracy    <       0.00000014 Ry

     iteration #  8     ecut=    50.00 Ry     beta= 0.70
     CG style diagonalization
     ethr =  3.13E-10,  avg # of iterations =  4.4

     negative rho (up, down):  1.507E-02 0.000E+00

     total cpu time spent up to now is       10.2 secs

     total energy              =    -380.57160916 Ry
     estimated scf accuracy    <          9.4E-09 Ry

     iteration #  9     ecut=    50.00 Ry     beta= 0.70
     CG style diagonalization
     ethr =  2.14E-11,  avg # of iterations =  6.3

     negative rho (up, down):  1.507E-02 0.000E+00

     total cpu time spent up to now is       10.5 secs

     total energy              =    -380.57160919 Ry
     estimated scf accuracy    <          7.6E-10 Ry

     iteration # 10     ecut=    50.00 Ry     beta= 0.70
     CG style diagonalization
     ethr =  1.73E-12,  avg # of iterations =  6.6

     negative rho (up, down):  1.507E-02 0.000E+00

     total cpu time spent up to now is       10.8 secs

     End of self-consistent calculation

          k = 0.0000 0.0000 0.0000 (  2525 PWs)   bands (ev):

   -45.7846 -22.4699 -22.3578 -22.3578  -7.5143  -6.4299  -6.2148  -5.0291
    -5.0291  -4.9962  -4.8837  -4.7524   4.2072   6.3058   6.3058   6.7030
     8.1060   8.1060   8.4779   8.6464   8.9479   8.9479

          k = 0.0000 0.0000 0.3171 (  2510 PWs)   bands (ev):

   -45.7842 -22.4993 -22.3566 -22.3566  -7.2114  -6.3402  -6.1376  -5.0516
    -5.0516  -4.9943  -4.8717  -4.8604   3.1564   6.3581   6.3581   6.5372
     7.8408   7.8408   8.3518   9.0844   9.0844   9.2853

          k = 0.0000 0.3333 0.0000 (  2514 PWs)   bands (ev):

   -45.7836 -22.4676 -22.4092 -22.3556  -7.0881  -6.3457  -6.1528  -5.0825
    -5.0341  -5.0247  -4.8707  -4.7536   3.2156   5.9936   6.6707   6.7088
     7.8499   7.8861   8.2283   8.3401   8.6883   9.5902

          k = 0.0000 0.3333 0.3171 (  2508 PWs)   bands (ev):

   -45.7832 -22.4964 -22.4076 -22.3544  -6.9193  -6.2823  -6.0242  -5.0495
    -5.0343  -5.0337  -4.8850  -4.7018   2.7401   5.7274   6.4504   6.7944
     7.2157   7.5843   7.6708   8.3687   9.0997   9.6149

          k = 0.3333 0.3333 0.0000 (  2522 PWs)   bands (ev):

   -45.7827 -22.4652 -22.4067 -22.4064  -6.7326  -6.2640  -6.2348  -5.0574
    -5.0145  -4.9216  -4.7590  -4.7450   2.6638   5.9543   6.1326   6.9024
     7.1000   7.1540   7.9351   8.5031   9.3822   9.3884

          k = 0.3333 0.3333 0.3171 (  2506 PWs)   bands (ev):

   -45.7823 -22.4937 -22.4052 -22.4051  -6.5615  -6.3334  -6.1624  -5.0063
    -5.0031  -4.8410  -4.6882  -4.6319   2.9287   5.3558   5.4116   5.8581
     6.5948   6.6874   8.0551   9.1320   9.2268   9.4081

     highest occupied level (ev):     9.6149

!    total energy              =    -380.57160919 Ry
     estimated scf accuracy    <          1.4E-10 Ry

     The total energy is the sum of the following terms:
     one-electron contribution =     -84.67169570 Ry
     hartree contribution      =      71.48219977 Ry
     xc contribution           =    -102.56667201 Ry
     ewald contribution        =    -264.81544126 Ry

     convergence has been achieved in  10 iterations

     negative rho (up, down):  1.507E-02 0.000E+00

     Forces acting on atoms (cartesian axes, Ry/au):

     atom    1 type  1   force =     0.00000000    0.00000000   -0.00893150
     atom    2 type  2   force =     0.00000000    0.00000000    0.00457172
     atom    3 type  3   force =     0.00000000    0.00000000   -0.00155187
     atom    4 type  3   force =     0.00000000    0.00000000    0.00295583
     atom    5 type  3   force =     0.00000000    0.00000000    0.00295583

     Total force =     0.010980     Total SCF correction =     0.000013


     Computing stress (Cartesian axis) and pressure


     negative rho (up, down):  1.507E-02 0.000E+00
          total   stress  (Ry/bohr**3)                   (kbar)     P=      -52.78
  -0.00042843   0.00000000   0.00000000          -63.02        0.00        0.00
   0.00000000  -0.00042843   0.00000000            0.00      -63.02        0.00
   0.00000000   0.00000000  -0.00021950            0.00        0.00      -32.29

     Energy error            =      3.1E-04 Ry
     Gradient error          =      8.9E-03 Ry/Bohr

     number of scf cycles    =   3
     number of bfgs steps    =   2

     energy             old  =    -380.5712969406 Ry
     energy             new  =    -380.5716091882 Ry

     CASE: energy            _new < energy            _old

     new trust radius        =       0.0142291368 bohr
     new conv_thr            =       0.0000000003 Ry


ATOMIC_POSITIONS (crystal)
Pb               0.0000000000        0.0000000000        1.0015195122
Ti               0.5000000000        0.5000000000        0.5357638688
O                0.5000000000        0.5000000000        0.1050180868
O                0.5000000000        0.0000000000        0.6124914101
O                0.0000000000        0.5000000000        0.6124914101



     Writing config-only to output data dir ./pto_k3.save/ :
     XML data file
     NEW-OLD atomic charge density approx. for the potential

     Check: negative core charge=   -0.000004

     negative rho (up, down):  1.495E-02 0.000E+00

     total cpu time spent up to now is       11.4 secs

     Self-consistent Calculation

     iteration #  1     ecut=    50.00 Ry     beta= 0.70
     CG style diagonalization
     ethr =  1.00E-06,  avg # of iterations =  4.5

     Threshold (ethr) on eigenvalues was too large:
     Diagonalizing with lowered threshold

     CG style diagonalization
     c_bands:  1 eigenvalues not converged
     c_bands:  1 eigenvalues not converged
     ethr =  3.14E-08,  avg # of iterations =  6.3

     negative rho (up, down):  1.494E-02 0.000E+00

     total cpu time spent up to now is       12.0 secs

     total energy              =    -380.57173030 Ry
     estimated scf accuracy    <       0.00001373 Ry

     iteration #  2     ecut=    50.00 Ry     beta= 0.70
     CG style diagonalization
     ethr =  3.12E-08,  avg # of iterations =  4.5

     negative rho (up, down):  1.493E-02 0.000E+00

     total cpu time spent up to now is       12.2 secs

     total energy              =    -380.57172898 Ry
     estimated scf accuracy    <       0.00001647 Ry

     iteration #  3     ecut=    50.00 Ry     beta= 0.70
     CG style diagonalization
     ethr =  3.12E-08,  avg # of iterations =  4.1

     negative rho (up, down):  1.493E-02 0.000E+00

     total cpu time spent up to now is       12.5 secs

     total energy              =    -380.57173329 Ry
     estimated scf accuracy    <       0.00000667 Ry

     iteration #  4     ecut=    50.00 Ry     beta= 0.70
     CG style diagonalization
     ethr =  1.52E-08,  avg # of iterations =  3.5

     negative rho (up, down):  1.493E-02 0.000E+00

     total cpu time spent up to now is       12.7 secs

     total energy              =    -380.57173429 Ry
     estimated scf accuracy    <       0.00000025 Ry

     iteration #  5     ecut=    50.00 Ry     beta= 0.70
     CG style diagonalization
     ethr =  5.70E-10,  avg # of iterations =  4.5

     negative rho (up, down):  1.493E-02 0.000E+00

     total cpu time spent up to now is       13.0 secs

     total energy              =    -380.57173451 Ry
     estimated scf accuracy    <       0.00000003 Ry

     iteration #  6     ecut=    50.00 Ry     beta= 0.70
     CG style diagonalization
     ethr =  7.05E-11,  avg # of iterations =  4.9

     negative rho (up, down):  1.493E-02 0.000E+00

     total cpu time spent up to now is       13.2 secs

     total energy              =    -380.57173454 Ry
     estimated scf accuracy    <       0.00000001 Ry

     iteration #  7     ecut=    50.00 Ry     beta= 0.70
     CG style diagonalization
     ethr =  2.58E-11,  avg # of iterations =  4.4

     negative rho (up, down):  1.493E-02 0.000E+00

     total cpu time spent up to now is       13.5 secs

     total energy              =    -380.57173454 Ry
     estimated scf accuracy    <          4.7E-09 Ry

     iteration #  8     ecut=    50.00 Ry     beta= 0.70
     CG style diagonalization
     ethr =  1.08E-11,  avg # of iterations =  4.2

     negative rho (up, down):  1.493E-02 0.000E+00

     total cpu time spent up to now is       13.7 secs

     total energy              =    -380.57173455 Ry
     estimated scf accuracy    <          3.6E-10 Ry

     iteration #  9     ecut=    50.00 Ry     beta= 0.70
     CG style diagonalization
     ethr =  8.13E-13,  avg # of iterations =  6.5

     negative rho (up, down):  1.493E-02 0.000E+00

     total cpu time spent up to now is       14.1 secs

     End of self-consistent calculation

          k = 0.0000 0.0000 0.0000 (  2525 PWs)   bands (ev):

   -45.7813 -22.4707 -22.3548 -22.3548  -7.5241  -6.4427  -6.2132  -5.0226
    -5.0226  -4.9883  -4.8811  -4.7393   4.2078   6.2961   6.2961   6.7242
     8.0932   8.0932   8.4707   8.6332   8.9361   8.9361

          k = 0.0000 0.0000 0.3171 (  2510 PWs)   bands (ev):

   -45.7809 -22.5001 -22.3536 -22.3536  -7.2237  -6.3548  -6.1347  -5.0452
    -5.0452  -4.9864  -4.8676  -4.8454   3.1596   6.3433   6.3433   6.5454
     7.8368   7.8368   8.3446   9.0717   9.0717   9.2842

          k = 0.0000 0.3333 0.0000 (  2514 PWs)   bands (ev):

   -45.7803 -22.4684 -22.4062 -22.3526  -7.0979  -6.3600  -6.1561  -5.0753
    -5.0262  -5.0182  -4.8619  -4.7407   3.2175   5.9873   6.6706   6.6986
     7.8437   7.8792   8.2111   8.3310   8.6764   9.5959

          k = 0.0000 0.3333 0.3171 (  2508 PWs)   bands (ev):

   -45.7799 -22.4972 -22.4046 -22.3514  -6.9314  -6.2972  -6.0249  -5.0431
    -5.0264  -5.0256  -4.8767  -4.6893   2.7451   5.7174   6.4504   6.7804
     7.2020   7.5835   7.6611   8.3610   9.0913   9.6213

          k = 0.3333 0.3333 0.0000 (  2522 PWs)   bands (ev):

   -45.7794 -22.4660 -22.4037 -22.4034  -6.7386  -6.2804  -6.2424  -5.0499
    -5.0070  -4.9126  -4.7512  -4.7311   2.6559   5.9471   6.1299   6.8976
     7.0977   7.1522   7.9315   8.5016   9.3683   9.3939

          k = 0.3333 0.3333 0.3171 (  2506 PWs)   bands (ev):

   -45.7790 -22.4946 -22.4023 -22.4021  -6.5738  -6.3475  -6.1611  -4.9991
    -4.9955  -4.8353  -4.6805  -4.6203   2.9215   5.3478   5.4092   5.8516
     6.5969   6.6885   8.0678   9.1237   9.2177   9.3953

     highest occupied level (ev):     9.6213

!    total energy              =    -380.57173455 Ry
     estimated scf accuracy    <          5.2E-11 Ry

     The total energy is the sum of the following terms:
     one-electron contribution =     -84.87837078 Ry
     hartree contribution      =      71.58676019 Ry
     xc contribution           =    -102.57140912 Ry
     ewald contribution        =    -264.70871484 Ry

     convergence has been achieved in   9 iterations

     negative rho (up, down):  1.493E-02 0.000E+00

     Forces acting on atoms (cartesian axes, Ry/au):

     atom    1 type  1   force =     0.00000000    0.00000000   -0.00767683
     atom    2 type  2   force =     0.00000000    0.00000000    0.00548825
     atom    3 type  3   force =     0.00000000    0.00000000   -0.00314637
     atom    4 type  3   force =     0.00000000    0.00000000    0.00266747
     atom    5 type  3   force =     0.00000000    0.00000000    0.00266747

     Total force =     0.010639     Total SCF correction =     0.000015


     Computing stress (Cartesian axis) and pressure


     negative rho (up, down):  1.493E-02 0.000E+00
          total   stress  (Ry/bohr**3)                   (kbar)     P=      -50.42
  -0.00041795   0.00000000   0.00000000          -61.48        0.00        0.00
   0.00000000  -0.00041795   0.00000000            0.00      -61.48        0.00
   0.00000000   0.00000000  -0.00019245            0.00        0.00      -28.31

     Energy error            =      1.3E-04 Ry
     Gradient error          =      7.7E-03 Ry/Bohr

     number of scf cycles    =   4
     number of bfgs steps    =   3

     energy             old  =    -380.5716091882 Ry
     energy             new  =    -380.5717345462 Ry

     CASE: energy            _new < energy            _old

     new trust radius        =       0.0156520505 bohr
     new conv_thr            =       0.0000000001 Ry


ATOMIC_POSITIONS (crystal)
Pb               0.0000000000        0.0000000000        0.9994993394
Ti               0.5000000000        0.5000000000        0.5359633956
O                0.5000000000        0.5000000000        0.1054821012
O                0.5000000000        0.0000000000        0.6131697259
O                0.0000000000        0.5000000000        0.6131697259



     Writing config-only to output data dir ./pto_k3.save/ :
     XML data file
     NEW-OLD atomic charge density approx. for the potential

     Check: negative core charge=   -0.000004

     negative rho (up, down):  1.497E-02 0.000E+00

     total cpu time spent up to now is       14.6 secs

     Self-consistent Calculation

     iteration #  1     ecut=    50.00 Ry     beta= 0.70
     CG style diagonalization
     ethr =  1.00E-06,  avg # of iterations =  4.6

     Threshold (ethr) on eigenvalues was too large:
     Diagonalizing with lowered threshold

     CG style diagonalization
     c_bands:  1 eigenvalues not converged
     c_bands:  1 eigenvalues not converged
     c_bands:  1 eigenvalues not converged
     ethr =  3.19E-08,  avg # of iterations =  6.5

     negative rho (up, down):  1.496E-02 0.000E+00

     total cpu time spent up to now is       15.2 secs

     total energy              =    -380.57186042 Ry
     estimated scf accuracy    <       0.00001071 Ry

     iteration #  2     ecut=    50.00 Ry     beta= 0.70
     CG style diagonalization
     ethr =  2.43E-08,  avg # of iterations =  3.9

     negative rho (up, down):  1.494E-02 0.000E+00

     total cpu time spent up to now is       15.5 secs

     total energy              =    -380.57186296 Ry
     estimated scf accuracy    <       0.00000180 Ry

     iteration #  3     ecut=    50.00 Ry     beta= 0.70
     CG style diagonalization
     ethr =  4.08E-09,  avg # of iterations =  4.3

     negative rho (up, down):  1.494E-02 0.000E+00

     total cpu time spent up to now is       15.7 secs

     total energy              =    -380.57186361 Ry
     estimated scf accuracy    <       0.00000107 Ry

     iteration #  4     ecut=    50.00 Ry     beta= 0.70
     CG style diagonalization
     ethr =  2.42E-09,  avg # of iterations =  3.9

     negative rho (up, down):  1.494E-02 0.000E+00

     total cpu time spent up to now is       16.0 secs

     total energy              =    -380.57186388 Ry
     estimated scf accuracy    <       0.00000023 Ry

     iteration #  5     ecut=    50.00 Ry     beta= 0.70
     CG style diagonalization
     ethr =  5.28E-10,  avg # of iterations =  3.8

     negative rho (up, down):  1.494E-02 0.000E+00

     total cpu time spent up to now is       16.2 secs

     total energy              =    -380.57186395 Ry
     estimated scf accuracy    <          9.5E-09 Ry

     iteration #  6     ecut=    50.00 Ry     beta= 0.70
     CG style diagonalization
     ethr =  2.15E-11,  avg # of iterations =  6.3

     negative rho (up, down):  1.494E-02 0.000E+00

     total cpu time spent up to now is       16.5 secs

     total energy              =    -380.57186398 Ry
     estimated scf accuracy    <          4.3E-09 Ry

     iteration #  7     ecut=    50.00 Ry     beta= 0.70
     CG style diagonalization
     ethr =  9.81E-12,  avg # of iterations =  4.3

     negative rho (up, down):  1.494E-02 0.000E+00

     total cpu time spent up to now is       16.8 secs

     total energy              =    -380.57186398 Ry
     estimated scf accuracy    <          6.9E-10 Ry

     iteration #  8     ecut=    50.00 Ry     beta= 0.70
     CG style diagonalization
     ethr =  1.57E-12,  avg # of iterations =  5.3

     negative rho (up, down):  1.494E-02 0.000E+00

     total cpu time spent up to now is       17.1 secs

     End of self-consistent calculation

          k = 0.0000 0.0000 0.0000 (  2525 PWs)   bands (ev):

   -45.7841 -22.4736 -22.3582 -22.3582  -7.5365  -6.4597  -6.2094  -5.0146
    -5.0146  -4.9783  -4.8769  -4.7241   4.2099   6.2837   6.2837   6.7446
     8.0914   8.0914   8.4619   8.6283   8.9202   8.9202

          k = 0.0000 0.0000 0.3171 (  2510 PWs)   bands (ev):

   -45.7837 -22.5029 -22.3571 -22.3571  -7.2402  -6.3741  -6.1285  -5.0372
    -5.0372  -4.9764  -4.8615  -4.8280   3.1665   6.3286   6.3286   6.5532
     7.8378   7.8378   8.3359   9.0551   9.0551   9.2836

          k = 0.0000 0.3333 0.0000 (  2514 PWs)   bands (ev):

   -45.7831 -22.4713 -22.4097 -22.3561  -7.1103  -6.3782  -6.1574  -5.0664
    -5.0162  -5.0102  -4.8513  -4.7256   3.2200   5.9779   6.6710   6.6848
     7.8365   7.8696   8.2044   8.3196   8.6694   9.6051

          k = 0.0000 0.3333 0.3171 (  2508 PWs)   bands (ev):

   -45.7827 -22.5000 -22.4081 -22.3549  -6.9474  -6.3160  -6.0223  -5.0350
    -5.0164  -5.0158  -4.8664  -4.6749   2.7519   5.7072   6.4489   6.7660
     7.1865   7.5813   7.6519   8.3543   9.0858   9.6287

          k = 0.3333 0.3333 0.0000 (  2522 PWs)   bands (ev):

   -45.7822 -22.4689 -22.4072 -22.4069  -6.7453  -6.3008  -6.2498  -5.0407
    -4.9975  -4.9016  -4.7410  -4.7152   2.6462   5.9371   6.1222   6.8967
     7.0932   7.1596   7.9222   8.5021   9.3509   9.4027

          k = 0.3333 0.3333 0.3171 (  2506 PWs)   bands (ev):

   -45.7818 -22.4974 -22.4057 -22.4056  -6.5894  -6.3653  -6.1567  -4.9900
    -4.9861  -4.8275  -4.6707  -4.6070   2.9133   5.3394   5.4081   5.8428
     6.5951   6.6895   8.0837   9.1187   9.2087   9.3805

     highest occupied level (ev):     9.6287

!    total energy              =    -380.57186398 Ry
     estimated scf accuracy    <          4.1E-11 Ry

     The total energy is the sum of the following terms:
     one-electron contribution =     -85.08687428 Ry
     hartree contribution      =      71.69051528 Ry
     xc contribution           =    -102.57519315 Ry
     ewald contribution        =    -264.60031182 Ry

     convergence has been achieved in   8 iterations

     negative rho (up, down):  1.494E-02 0.000E+00

     Forces acting on atoms (cartesian axes, Ry/au):

     atom    1 type  1   force =     0.00000000    0.00000000   -0.00589435
     atom    2 type  2   force =     0.00000000    0.00000000    0.00457753
     atom    3 type  3   force =     0.00000000    0.00000000   -0.00305722
     atom    4 type  3   force =     0.00000000    0.00000000    0.00218702
     atom    5 type  3   force =     0.00000000    0.00000000    0.00218702

     Total force =     0.008638     Total SCF correction =     0.000012


     Computing stress (Cartesian axis) and pressure


     negative rho (up, down):  1.494E-02 0.000E+00
          total   stress  (Ry/bohr**3)                   (kbar)     P=      -48.65
  -0.00040716   0.00000000   0.00000000          -59.90        0.00        0.00
   0.00000000  -0.00040716   0.00000000            0.00      -59.90        0.00
   0.00000000   0.00000000  -0.00017785            0.00        0.00      -26.16

     Energy error            =      1.3E-04 Ry
     Gradient error          =      5.9E-03 Ry/Bohr

     number of scf cycles    =   5
     number of bfgs steps    =   4

     energy             old  =    -380.5717345462 Ry
     energy             new  =    -380.5718639792 Ry

     CASE: energy            _new < energy            _old

     new trust radius        =       0.0234780757 bohr
     new conv_thr            =       0.0000000001 Ry


ATOMIC_POSITIONS (crystal)
Pb               0.0000000000        0.0000000000        0.9964690802
Ti               0.5000000000        0.5000000000        0.5363763095
O                0.5000000000        0.5000000000        0.1059943647
O                0.5000000000        0.0000000000        0.6142222668
O                0.0000000000        0.5000000000        0.6142222668



     Writing config-only to output data dir ./pto_k3.save/ :
     XML data file
     NEW-OLD atomic charge density approx. for the potential

     Check: negative core charge=   -0.000004

     negative rho (up, down):  1.524E-02 0.000E+00

     total cpu time spent up to now is       17.6 secs

     Self-consistent Calculation

     iteration #  1     ecut=    50.00 Ry     beta= 0.70
     CG style diagonalization
     ethr =  1.00E-06,  avg # of iterations =  5.8

     Threshold (ethr) on eigenvalues was too large:
     Diagonalizing with lowered threshold

     CG style diagonalization
     ethr =  6.51E-08,  avg # of iterations =  5.3

     negative rho (up, down):  1.521E-02 0.000E+00

     total cpu time spent up to now is       18.2 secs

     total energy              =    -380.57198926 Ry
     estimated scf accuracy    <       0.00002739 Ry

     iteration #  2     ecut=    50.00 Ry     beta= 0.70
     CG style diagonalization
     ethr =  6.23E-08,  avg # of iterations =  4.1

     negative rho (up, down):  1.520E-02 0.000E+00

     total cpu time spent up to now is       18.5 secs

     total energy              =    -380.57199300 Ry
     estimated scf accuracy    <       0.00001180 Ry

     iteration #  3     ecut=    50.00 Ry     beta= 0.70
     CG style diagonalization
     ethr =  2.68E-08,  avg # of iterations =  4.3

     negative rho (up, down):  1.519E-02 0.000E+00

     total cpu time spent up to now is       18.7 secs

     total energy              =    -380.57199620 Ry
     estimated scf accuracy    <       0.00000709 Ry

     iteration #  4     ecut=    50.00 Ry     beta= 0.70
     CG style diagonalization
     ethr =  1.61E-08,  avg # of iterations =  3.7

     negative rho (up, down):  1.519E-02 0.000E+00

     total cpu time spent up to now is       18.9 secs

     total energy              =    -380.57199760 Ry
     estimated scf accuracy    <       0.00000112 Ry

     iteration #  5     ecut=    50.00 Ry     beta= 0.70
     CG style diagonalization
     ethr =  2.54E-09,  avg # of iterations =  3.6

     negative rho (up, down):  1.519E-02 0.000E+00

     total cpu time spent up to now is       19.2 secs

     total energy              =    -380.57199790 Ry
     estimated scf accuracy    <       0.00000006 Ry

     iteration #  6     ecut=    50.00 Ry     beta= 0.70
     CG style diagonalization
     ethr =  1.25E-10,  avg # of iterations =  5.8

     negative rho (up, down):  1.519E-02 0.000E+00

     total cpu time spent up to now is       19.5 secs

     total energy              =    -380.57199801 Ry
     estimated scf accuracy    <       0.00000004 Ry

     iteration #  7     ecut=    50.00 Ry     beta= 0.70
     CG style diagonalization
     ethr =  8.85E-11,  avg # of iterations =  4.2

     negative rho (up, down):  1.519E-02 0.000E+00

     total cpu time spent up to now is       19.7 secs

     total energy              =    -380.57199802 Ry
     estimated scf accuracy    <          2.8E-09 Ry

     iteration #  8     ecut=    50.00 Ry     beta= 0.70
     CG style diagonalization
     ethr =  6.31E-12,  avg # of iterations =  5.9

     negative rho (up, down):  1.519E-02 0.000E+00

     total cpu time spent up to now is       20.0 secs

     total energy              =    -380.57199802 Ry
     estimated scf accuracy    <          2.6E-10 Ry

     iteration #  9     ecut=    50.00 Ry     beta= 0.70
     CG style diagonalization
     ethr =  5.93E-13,  avg # of iterations =  6.6

     negative rho (up, down):  1.519E-02 0.000E+00

     total cpu time spent up to now is       20.4 secs

     End of self-consistent calculation

          k = 0.0000 0.0000 0.0000 (  2525 PWs)   bands (ev):

   -45.7915 -22.4789 -22.3667 -22.3667  -7.5567  -6.4872  -6.2026  -5.0021
    -5.0021  -4.9623  -4.8698  -4.7004   4.2141   6.2636   6.2636   6.7743
     8.0940   8.0940   8.4481   8.6250   8.8944   8.8944

          k = 0.0000 0.0000 0.3171 (  2510 PWs)   bands (ev):

   -45.7911 -22.5082 -22.3656 -22.3656  -7.2670  -6.4049  -6.1177  -5.0246
    -5.0246  -4.9604  -4.8515  -4.8008   3.1790   6.3063   6.3063   6.5645
     7.8418   7.8418   8.3223   9.0285   9.0285   9.2834

          k = 0.0000 0.3333 0.0000 (  2514 PWs)   bands (ev):

   -45.7905 -22.4766 -22.4182 -22.3646  -7.1305  -6.4072  -6.1582  -5.0522
    -5.0003  -4.9975  -4.8350  -4.7020   3.2238   5.9623   6.6625   6.6724
     7.8254   7.8532   8.2004   8.3015   8.6616   9.6207

          k = 0.0000 0.3333 0.3171 (  2508 PWs)   bands (ev):

   -45.7901 -22.5053 -22.4166 -22.3634  -6.9735  -6.3461  -6.0165  -5.0224
    -5.0005  -5.0002  -4.8502  -4.6525   2.7628   5.6921   6.4461   6.7439
     7.1625   7.5770   7.6383   8.3456   9.0790   9.6405

          k = 0.3333 0.3333 0.0000 (  2522 PWs)   bands (ev):

   -45.7895 -22.4742 -22.4157 -22.4154  -6.7570  -6.3330  -6.2595  -5.0261
    -4.9826  -4.8845  -4.7246  -4.6905   2.6306   5.9210   6.1083   6.8963
     7.0869   7.1749   7.9061   8.5041   9.3233   9.4174

          k = 0.3333 0.3333 0.3171 (  2506 PWs)   bands (ev):

   -45.7892 -22.5027 -22.4143 -22.4141  -6.6147  -6.3937  -6.1483  -4.9757
    -4.9714  -4.8149  -4.6551  -4.5864   2.9000   5.3269   5.4067   5.8284
     6.5909   6.6910   8.1091   9.1132   9.1942   9.3586

     highest occupied level (ev):     9.6405

!    total energy              =    -380.57199803 Ry
     estimated scf accuracy    <          4.0E-11 Ry

     The total energy is the sum of the following terms:
     one-electron contribution =     -85.39944959 Ry
     hartree contribution      =      71.84521497 Ry
     xc contribution           =    -102.58033793 Ry
     ewald contribution        =    -264.43742547 Ry

     convergence has been achieved in   9 iterations

     negative rho (up, down):  1.519E-02 0.000E+00

     Forces acting on atoms (cartesian axes, Ry/au):

     atom    1 type  1   force =     0.00000000    0.00000000   -0.00292194
     atom    2 type  2   force =     0.00000000    0.00000000    0.00236576
     atom    3 type  3   force =     0.00000000    0.00000000   -0.00201080
     atom    4 type  3   force =     0.00000000    0.00000000    0.00128349
     atom    5 type  3   force =     0.00000000    0.00000000    0.00128349

     Total force =     0.004634     Total SCF correction =     0.000037


     Computing stress (Cartesian axis) and pressure


     negative rho (up, down):  1.519E-02 0.000E+00
          total   stress  (Ry/bohr**3)                   (kbar)     P=      -46.28
  -0.00039059   0.00000000   0.00000000          -57.46        0.00        0.00
   0.00000000  -0.00039059   0.00000000            0.00      -57.46        0.00
   0.00000000   0.00000000  -0.00016259            0.00        0.00      -23.92

     Energy error            =      1.3E-04 Ry
     Gradient error          =      2.9E-03 Ry/Bohr

     number of scf cycles    =   6
     number of bfgs steps    =   5

     energy             old  =    -380.5718639792 Ry
     energy             new  =    -380.5719980254 Ry

     CASE: energy            _new < energy            _old

     new trust radius        =       0.0232959486 bohr
     new conv_thr            =       0.0000000001 Ry


ATOMIC_POSITIONS (crystal)
Pb               0.0000000000        0.0000000000        0.9934623278
Ti               0.5000000000        0.5000000000        0.5368175269
O                0.5000000000        0.5000000000        0.1063678868
O                0.5000000000        0.0000000000        0.6153182732
O                0.0000000000        0.5000000000        0.6153182732



     Writing config-only to output data dir ./pto_k3.save/ :
     XML data file
     NEW-OLD atomic charge density approx. for the potential

     Check: negative core charge=   -0.000004

     negative rho (up, down):  1.557E-02 0.000E+00

     total cpu time spent up to now is       20.9 secs

     Self-consistent Calculation

     iteration #  1     ecut=    50.00 Ry     beta= 0.70
     CG style diagonalization
     ethr =  1.00E-06,  avg # of iterations =  5.9

     Threshold (ethr) on eigenvalues was too large:
     Diagonalizing with lowered threshold

     CG style diagonalization
     c_bands:  1 eigenvalues not converged
     ethr =  7.45E-08,  avg # of iterations =  5.4

     negative rho (up, down):  1.554E-02 0.000E+00

     total cpu time spent up to now is       21.6 secs

     total energy              =    -380.57203038 Ry
     estimated scf accuracy    <       0.00003098 Ry

     iteration #  2     ecut=    50.00 Ry     beta= 0.70
     CG style diagonalization
     ethr =  7.04E-08,  avg # of iterations =  4.1

     negative rho (up, down):  1.553E-02 0.000E+00

     total cpu time spent up to now is       21.8 secs

     total energy              =    -380.57203312 Ry
     estimated scf accuracy    <       0.00001976 Ry

     iteration #  3     ecut=    50.00 Ry     beta= 0.70
     CG style diagonalization
     ethr =  4.49E-08,  avg # of iterations =  4.1

     negative rho (up, down):  1.552E-02 0.000E+00

     total cpu time spent up to now is       22.0 secs

     total energy              =    -380.57203877 Ry
     estimated scf accuracy    <       0.00000861 Ry

     iteration #  4     ecut=    50.00 Ry     beta= 0.70
     CG style diagonalization
     ethr =  1.96E-08,  avg # of iterations =  3.6

     negative rho (up, down):  1.552E-02 0.000E+00

     total cpu time spent up to now is       22.3 secs

     total energy              =    -380.57204038 Ry
     estimated scf accuracy    <       0.00000097 Ry

     iteration #  5     ecut=    50.00 Ry     beta= 0.70
     CG style diagonalization
     ethr =  2.20E-09,  avg # of iterations =  3.9

     negative rho (up, down):  1.552E-02 0.000E+00

     total cpu time spent up to now is       22.5 secs

     total energy              =    -380.57204076 Ry
     estimated scf accuracy    <       0.00000010 Ry

     iteration #  6     ecut=    50.00 Ry     beta= 0.70
     CG style diagonalization
     ethr =  2.20E-10,  avg # of iterations =  5.0

     negative rho (up, down):  1.552E-02 0.000E+00

     total cpu time spent up to now is       22.8 secs

     total energy              =    -380.57204086 Ry
     estimated scf accuracy    <       0.00000003 Ry

     iteration #  7     ecut=    50.00 Ry     beta= 0.70
     CG style diagonalization
     ethr =  6.25E-11,  avg # of iterations =  4.6

     negative rho (up, down):  1.552E-02 0.000E+00

     total cpu time spent up to now is       23.0 secs

     total energy              =    -380.57204088 Ry
     estimated scf accuracy    <          1.5E-09 Ry

     iteration #  8     ecut=    50.00 Ry     beta= 0.70
     CG style diagonalization
     ethr =  3.31E-12,  avg # of iterations =  6.7

     negative rho (up, down):  1.552E-02 0.000E+00

     total cpu time spent up to now is       23.4 secs

     total energy              =    -380.57204089 Ry
     estimated scf accuracy    <          1.7E-10 Ry

     iteration #  9     ecut=    50.00 Ry     beta= 0.70
     CG style diagonalization
     ethr =  3.88E-13,  avg # of iterations =  6.1

     negative rho (up, down):  1.552E-02 0.000E+00

     total cpu time spent up to now is       23.7 secs

     End of self-consistent calculation

          k = 0.0000 0.0000 0.0000 (  2525 PWs)   bands (ev):

   -45.8007 -22.4849 -22.3771 -22.3771  -7.5781  -6.5161  -6.1952  -4.9893
    -4.9893  -4.9458  -4.8621  -4.6758   4.2191   6.2422   6.2422   6.8033
     8.0995   8.0995   8.4338   8.6242   8.8673   8.8673

          k = 0.0000 0.0000 0.3171 (  2510 PWs)   bands (ev):

   -45.8003 -22.5141 -22.3760 -22.3760  -7.2952  -6.4370  -6.1061  -5.0117
    -5.0117  -4.9439  -4.8410  -4.7729   3.1928   6.2830   6.2830   6.5753
     7.8476   7.8476   8.3082   9.0010   9.0010   9.2836

          k = 0.0000 0.3333 0.0000 (  2514 PWs)   bands (ev):

   -45.7997 -22.4826 -22.4286 -22.3750  -7.1521  -6.4376  -6.1578  -5.0376
    -4.9851  -4.9835  -4.8184  -4.6774   3.2274   5.9461   6.6387   6.6746
     7.8141   7.8349   8.2001   8.2823   8.6553   9.6375

          k = 0.0000 0.3333 0.3171 (  2508 PWs)   bands (ev):

   -45.7993 -22.5112 -22.4270 -22.3738  -7.0009  -6.3779  -6.0096  -5.0095
    -4.9843  -4.9840  -4.8335  -4.6295   2.7740   5.6768   6.4432   6.7207
     7.1383   7.5724   7.6244   8.3383   9.0731   9.6531

          k = 0.3333 0.3333 0.0000 (  2522 PWs)   bands (ev):

   -45.7988 -22.4802 -22.4261 -22.4258  -6.7709  -6.3663  -6.2674  -5.0112
    -4.9673  -4.8671  -4.7075  -4.6654   2.6139   5.9042   6.0931   6.8952
     7.0823   7.1924   7.8892   8.5070   9.2948   9.4332

          k = 0.3333 0.3333 0.3171 (  2506 PWs)   bands (ev):

   -45.7984 -22.5086 -22.4246 -22.4245  -6.6418  -6.4233  -6.1389  -4.9609
    -4.9563  -4.8016  -4.6390  -4.5651   2.8855   5.3150   5.4053   5.8131
     6.5865   6.6931   8.1358   9.1086   9.1779   9.3381

     highest occupied level (ev):     9.6531

!    total energy              =    -380.57204089 Ry
     estimated scf accuracy    <          4.8E-11 Ry

     The total energy is the sum of the following terms:
     one-electron contribution =     -85.71626404 Ry
     hartree contribution      =      72.00150314 Ry
     xc contribution           =    -102.58522895 Ry
     ewald contribution        =    -264.27205104 Ry

     convergence has been achieved in   9 iterations

     negative rho (up, down):  1.552E-02 0.000E+00

     Forces acting on atoms (cartesian axes, Ry/au):

     atom    1 type  1   force =     0.00000000    0.00000000    0.00029117
     atom    2 type  2   force =     0.00000000    0.00000000   -0.00025382
     atom    3 type  3   force =     0.00000000    0.00000000   -0.00038056
     atom    4 type  3   force =     0.00000000    0.00000000    0.00017160
     atom    5 type  3   force =     0.00000000    0.00000000    0.00017160

     Total force =     0.000594     Total SCF correction =     0.000033


     Computing stress (Cartesian axis) and pressure


     negative rho (up, down):  1.552E-02 0.000E+00
          total   stress  (Ry/bohr**3)                   (kbar)     P=      -44.04
  -0.00037352   0.00000000   0.00000000          -54.95        0.00        0.00
   0.00000000  -0.00037352   0.00000000            0.00      -54.95        0.00
   0.00000000   0.00000000  -0.00015111            0.00        0.00      -22.23

     Energy error            =      4.3E-05 Ry
     Gradient error          =      3.8E-04 Ry/Bohr

     bfgs converged in   7 scf cycles and   6 bfgs steps
     (criteria: energy <  1.0E-04 Ry, force <  1.0E-03 Ry/Bohr)

     End of BFGS Geometry Optimization

     Final energy             =    -380.5720408868 Ry

     File ./pto_k3.bfgs deleted, as requested
Begin final coordinates

ATOMIC_POSITIONS (crystal)
Pb               0.0000000000        0.0000000000        0.9934623278
Ti               0.5000000000        0.5000000000        0.5368175269
O                0.5000000000        0.5000000000        0.1063678868
O                0.5000000000        0.0000000000        0.6153182732
O                0.0000000000        0.5000000000        0.6153182732
End final coordinates



     Writing all to output data dir ./pto_k3.save/ :
     XML data file, charge density, pseudopotentials, collected wavefunctions
 
     init_run     :      0.25s CPU      0.33s WALL (       1 calls)
     electrons    :     18.43s CPU     19.90s WALL (       7 calls)
     update_pot   :      0.02s CPU      0.02s WALL (       6 calls)
     forces       :      0.44s CPU      0.52s WALL (       7 calls)
     stress       :      2.63s CPU      2.76s WALL (       7 calls)

     Called by init_run:
     wfcinit      :      0.03s CPU      0.05s WALL (       1 calls)
     potinit      :      0.01s CPU      0.01s WALL (       1 calls)
     hinit0       :      0.11s CPU      0.14s WALL (       1 calls)

     Called by electrons:
     c_bands      :     11.28s CPU     12.01s WALL (      73 calls)
     sum_band     :      4.04s CPU      4.28s WALL (      73 calls)
     v_of_rho     :      0.11s CPU      0.12s WALL (      76 calls)
     newd         :      3.16s CPU      3.55s WALL (      76 calls)
     mix_rho      :      0.08s CPU      0.08s WALL (      73 calls)

     Called by c_bands:
     init_us_2    :      0.10s CPU      0.11s WALL (     966 calls)
     init_us_2:cp :      0.10s CPU      0.11s WALL (     966 calls)
     ccgdiagg     :     10.18s CPU     10.85s WALL (     438 calls)
     wfcrot       :      1.05s CPU      1.13s WALL (     378 calls)

     Called by *cgdiagg:
     h_psi        :      6.26s CPU      6.67s WALL (   38128 calls)
     s_psi        :      1.13s CPU      1.20s WALL (   75878 calls)

     Called by h_psi:
     h_psi:calbec :      1.01s CPU      1.08s WALL (   38128 calls)
     vloc_psi     :      4.34s CPU      4.62s WALL (   38128 calls)
     add_vuspsi   :      0.61s CPU      0.65s WALL (   38128 calls)
     hs_1psi      :      6.22s CPU      6.62s WALL (   37750 calls)
     s_1psi       :      1.56s CPU      1.66s WALL (   37750 calls)

     General routines
     calbec       :      1.81s CPU      1.93s WALL (   76526 calls)
     fft          :      0.13s CPU      0.15s WALL (     508 calls)
     ffts         :      0.01s CPU      0.01s WALL (     149 calls)
     fftw         :      3.67s CPU      3.89s WALL (  101876 calls)
     interpolate  :      0.03s CPU      0.03s WALL (      76 calls)
 
     Parallel routines
 
     PWSCF        :     22.24s CPU     24.35s WALL

 
   This run was terminated on:   2:28: 9  15Nov2025            

=------------------------------------------------------------------------------=
   JOB DONE.
=------------------------------------------------------------------------------=
TACC:  Shutdown complete. Exiting. 
