TACC:  Starting up job 2410744 
TACC:  Starting parallel tasks... 

     Program PWSCF v.7.3 starts on 24Sep2025 at 20:17:48 

     This program is part of the open-source Quantum ESPRESSO suite
     for quantum simulation of materials; please cite
         "P. Giannozzi et al., J. Phys.:Condens. Matter 21 395502 (2009);
         "P. Giannozzi et al., J. Phys.:Condens. Matter 29 465901 (2017);
         "P. Giannozzi et al., J. Chem. Phys. 152 154105 (2020);
          URL http://www.quantum-espresso.org", 
     in publications or presentations arising from this work. More details at
     http://www.quantum-espresso.org/quote

     Parallel version (MPI & OpenMP), running on      10 processor cores
     Number of MPI processes:                10
     Threads/MPI process:                     1

     MPI processes distributed on     1 nodes
     187523 MiB available memory on the printing compute node when the environment starts
 
     Waiting for input...
     Reading input from standard input
Warning: card &CELL ignored
Warning: card  CELL_DYNAMICS = 'BFGS', ignored
Warning: card  PRESS=0.D0, ignored
Warning: card / ignored
     Message from routine read_cards :
     DEPRECATED: no units specified in ATOMIC_POSITIONS card
     Message from routine read_cards :
     ATOMIC_POSITIONS: units set to alat

     Current dimensions of program PWSCF are:
     Max number of different atomic species (ntypx) = 10
     Max number of k-points (npk) =  40000
     Max angular momentum in pseudopotentials (lmaxx) =  4
 
     R & G space division:  proc/nbgrp/npool/nimage =      10
     Subspace diagonalization in iterative solution of the eigenvalue problem:
     a serial algorithm will be used

 
     Parallelization info
     --------------------
     sticks:   dense  smooth     PW     G-vecs:    dense   smooth      PW
     Min         441     176     50                22059     5579     858
     Max         443     178     51                22060     5582     861
     Sum        4421    1765    505               220591    55803    8601
 
     Using Slab Decomposition
 


     bravais-lattice index     =            1
     lattice parameter (alat)  =       7.4479  a.u.
     unit-cell volume          =     413.1386 (a.u.)^3
     number of atoms/cell      =            5
     number of atomic types    =            3
     number of electrons       =        40.00
     number of Kohn-Sham states=           20
     kinetic-energy cutoff     =     100.0000  Ry
     charge density cutoff     =    1000.0000  Ry
     scf convergence threshold =      1.0E-08
     mixing beta               =       0.7000
     number of iterations used =            8  plain     mixing
     Exchange-correlation= SLA  PZ   NOGX NOGC
                           (   1   1   0   0   0   0   0)

     celldm(1)=   7.447867  celldm(2)=   0.000000  celldm(3)=   0.000000
     celldm(4)=   0.000000  celldm(5)=   0.000000  celldm(6)=   0.000000

     crystal axes: (cart. coord. in units of alat)
               a(1) = (   1.000000   0.000000   0.000000 )  
               a(2) = (   0.000000   1.000000   0.000000 )  
               a(3) = (   0.000000   0.000000   1.000000 )  

     reciprocal axes: (cart. coord. in units 2 pi/alat)
               b(1) = (  1.000000  0.000000  0.000000 )  
               b(2) = (  0.000000  1.000000  0.000000 )  
               b(3) = (  0.000000  0.000000  1.000000 )  


     PseudoPot. # 1 for Ca read from file:
     /scratch/11018/zhc/assisgnment1/CaTiO3/Ca_LDA.UPF
     MD5 check sum: d2d4e7693e10d071152e9eeb7dd009f3
     Pseudo is Ultrasoft + core correction, Zval = 10.0
     Generated by new atomic code, or converted to UPF format
     Using radial grid of  845 points,  6 beta functions with: 
                l(1) =   0
                l(2) =   0
                l(3) =   1
                l(4) =   1
                l(5) =   2
                l(6) =   2
     Q(r) pseudized with  8 coefficients,  rinner =    1.500   1.500   1.500
                                                       1.500   1.500

     PseudoPot. # 2 for Ti read from file:
     /scratch/11018/zhc/assisgnment1/CaTiO3/Ti_LDA.UPF
     MD5 check sum: 0d9f225c038fe889ca2a701dcc8d72cb
     Pseudo is Ultrasoft + core correction, Zval = 12.0
     Generated by new atomic code, or converted to UPF format
     Using radial grid of  851 points,  6 beta functions with: 
                l(1) =   0
                l(2) =   0
                l(3) =   1
                l(4) =   1
                l(5) =   2
                l(6) =   2
     Q(r) pseudized with  6 coefficients,  rinner =    1.000   1.000   1.000
                                                       1.000   1.000

     PseudoPot. # 3 for O  read from file:
     /scratch/11018/zhc/assisgnment1/CaTiO3/O_LDA.UPF
     MD5 check sum: 194b818514d2a7dbb603bb78519a4f40
     Pseudo is Ultrasoft + core correction, Zval =  6.0
     Generated by new atomic code, or converted to UPF format
     Using radial grid of  737 points,  5 beta functions with: 
                l(1) =   0
                l(2) =   0
                l(3) =   1
                l(4) =   1
                l(5) =   2
     Q(r) pseudized with  8 coefficients,  rinner =    0.900   0.900   0.900
                                                       0.900   0.900

     atomic species   valence    mass     pseudopotential
     Ca               10.00    40.07800     Ca( 1.00)
     Ti               12.00    47.88000     Ti( 1.00)
     O                 6.00    16.00000     O ( 1.00)

     48 Sym. Ops., with inversion, found



   Cartesian axes

     site n.     atom                  positions (alat units)
         1        Ca     tau(   1) = (   0.0000000   0.0000000   0.0000000  )
         2        Ti     tau(   2) = (   0.5000000   0.5000000   0.5000000  )
         3        O      tau(   3) = (   0.5000000   0.5000000   0.0000000  )
         4        O      tau(   4) = (   0.5000000   0.0000000   0.5000000  )
         5        O      tau(   5) = (   0.0000000   0.5000000   0.5000000  )

     number of k points=    20
                       cart. coord. in units 2pi/alat
        k(    1) = (   0.0000000   0.0000000   0.0000000), wk =   0.0092593
        k(    2) = (   0.0000000   0.0000000   0.1666667), wk =   0.0555556
        k(    3) = (   0.0000000   0.0000000   0.3333333), wk =   0.0555556
        k(    4) = (   0.0000000   0.0000000  -0.5000000), wk =   0.0277778
        k(    5) = (   0.0000000   0.1666667   0.1666667), wk =   0.1111111
        k(    6) = (   0.0000000   0.1666667   0.3333333), wk =   0.2222222
        k(    7) = (   0.0000000   0.1666667  -0.5000000), wk =   0.1111111
        k(    8) = (   0.0000000   0.3333333   0.3333333), wk =   0.1111111
        k(    9) = (   0.0000000   0.3333333  -0.5000000), wk =   0.1111111
        k(   10) = (   0.0000000  -0.5000000  -0.5000000), wk =   0.0277778
        k(   11) = (   0.1666667   0.1666667   0.1666667), wk =   0.0740741
        k(   12) = (   0.1666667   0.1666667   0.3333333), wk =   0.2222222
        k(   13) = (   0.1666667   0.1666667  -0.5000000), wk =   0.1111111
        k(   14) = (   0.1666667   0.3333333   0.3333333), wk =   0.2222222
        k(   15) = (   0.1666667   0.3333333  -0.5000000), wk =   0.2222222
        k(   16) = (   0.1666667  -0.5000000  -0.5000000), wk =   0.0555556
        k(   17) = (   0.3333333   0.3333333   0.3333333), wk =   0.0740741
        k(   18) = (   0.3333333   0.3333333  -0.5000000), wk =   0.1111111
        k(   19) = (   0.3333333  -0.5000000  -0.5000000), wk =   0.0555556
        k(   20) = (  -0.5000000  -0.5000000  -0.5000000), wk =   0.0092593

     Dense  grid:   220591 G-vectors     FFT dimensions: (  75,  75,  75)

     Smooth grid:    55803 G-vectors     FFT dimensions: (  48,  48,  48)

     Estimated max dynamical RAM per process >      94.01 MB

     Estimated total dynamical RAM >     940.15 MB

     Check: negative core charge=   -0.000001

     Initial potential from superposition of free atoms

     starting charge      38.9952, renormalised to      40.0000

     negative rho (up, down):  8.720E-04 0.000E+00
     Starting wfcs are   32 randomized atomic wfcs

     total cpu time spent up to now is        0.9 secs

     Self-consistent Calculation

     iteration #  1     ecut=   100.00 Ry     beta= 0.70
     CG style diagonalization
     ethr =  1.00E-02,  avg # of iterations =  2.2

     negative rho (up, down):  1.151E-03 0.000E+00

     total cpu time spent up to now is        1.7 secs

     total energy              =    -291.28119027 Ry
     estimated scf accuracy    <       0.83302861 Ry

     iteration #  2     ecut=   100.00 Ry     beta= 0.70
     CG style diagonalization
     ethr =  2.08E-03,  avg # of iterations =  5.3

     negative rho (up, down):  6.347E-04 0.000E+00

     total cpu time spent up to now is        3.0 secs

     total energy              =    -290.34976332 Ry
     estimated scf accuracy    <       8.51287444 Ry

     iteration #  3     ecut=   100.00 Ry     beta= 0.70
     CG style diagonalization
     ethr =  2.08E-03,  avg # of iterations =  4.6

     negative rho (up, down):  7.385E-04 0.000E+00

     total cpu time spent up to now is        4.2 secs

     total energy              =    -291.70860545 Ry
     estimated scf accuracy    <       0.19785385 Ry

     iteration #  4     ecut=   100.00 Ry     beta= 0.70
     CG style diagonalization
     ethr =  4.95E-04,  avg # of iterations =  3.6

     negative rho (up, down):  8.114E-04 0.000E+00

     total cpu time spent up to now is        5.2 secs

     total energy              =    -291.72805626 Ry
     estimated scf accuracy    <       0.07118937 Ry

     iteration #  5     ecut=   100.00 Ry     beta= 0.70
     CG style diagonalization
     ethr =  1.78E-04,  avg # of iterations =  3.5

     negative rho (up, down):  8.609E-04 0.000E+00

     total cpu time spent up to now is        6.1 secs

     total energy              =    -291.73600480 Ry
     estimated scf accuracy    <       0.00473054 Ry

     iteration #  6     ecut=   100.00 Ry     beta= 0.70
     CG style diagonalization
     ethr =  1.18E-05,  avg # of iterations =  3.9

     negative rho (up, down):  8.699E-04 0.000E+00

     total cpu time spent up to now is        7.1 secs

     total energy              =    -291.73815555 Ry
     estimated scf accuracy    <       0.00019736 Ry

     iteration #  7     ecut=   100.00 Ry     beta= 0.70
     CG style diagonalization
     ethr =  4.93E-07,  avg # of iterations =  4.1

     negative rho (up, down):  8.660E-04 0.000E+00

     total cpu time spent up to now is        8.2 secs

     total energy              =    -291.73827849 Ry
     estimated scf accuracy    <       0.00036288 Ry

     iteration #  8     ecut=   100.00 Ry     beta= 0.70
     CG style diagonalization
     ethr =  4.93E-07,  avg # of iterations =  3.5

     negative rho (up, down):  8.639E-04 0.000E+00

     total cpu time spent up to now is        9.1 secs

     total energy              =    -291.73829851 Ry
     estimated scf accuracy    <       0.00003881 Ry

     iteration #  9     ecut=   100.00 Ry     beta= 0.70
     CG style diagonalization
     ethr =  9.70E-08,  avg # of iterations =  3.6

     negative rho (up, down):  8.633E-04 0.000E+00

     total cpu time spent up to now is       10.1 secs

     total energy              =    -291.73830542 Ry
     estimated scf accuracy    <       0.00000168 Ry

     iteration # 10     ecut=   100.00 Ry     beta= 0.70
     CG style diagonalization
     ethr =  4.20E-09,  avg # of iterations =  4.2

     negative rho (up, down):  8.631E-04 0.000E+00

     total cpu time spent up to now is       11.2 secs

     total energy              =    -291.73830692 Ry
     estimated scf accuracy    <       0.00000020 Ry

     iteration # 11     ecut=   100.00 Ry     beta= 0.70
     CG style diagonalization
     ethr =  5.00E-10,  avg # of iterations =  3.9

     negative rho (up, down):  8.632E-04 0.000E+00

     total cpu time spent up to now is       12.2 secs

     total energy              =    -291.73830701 Ry
     estimated scf accuracy    <       0.00000011 Ry

     iteration # 12     ecut=   100.00 Ry     beta= 0.70
     CG style diagonalization
     ethr =  2.84E-10,  avg # of iterations =  3.3

     negative rho (up, down):  8.633E-04 0.000E+00

     total cpu time spent up to now is       13.1 secs

     total energy              =    -291.73830702 Ry
     estimated scf accuracy    <       0.00000002 Ry

     iteration # 13     ecut=   100.00 Ry     beta= 0.70
     CG style diagonalization
     ethr =  5.96E-11,  avg # of iterations =  3.9

     negative rho (up, down):  8.632E-04 0.000E+00

     total cpu time spent up to now is       14.1 secs

     End of self-consistent calculation

          k = 0.0000 0.0000 0.0000 (  6979 PWs)   bands (ev):

   -47.7804 -30.8156 -24.3455 -24.3455 -24.3455 -12.0033 -12.0033 -12.0033
    -8.8917  -7.8212  -7.8212   5.1502   5.1502   5.1502   7.0818   7.0818
     7.0818   7.7094   7.7094   7.7094

          k = 0.0000 0.0000 0.1667 (  6988 PWs)   bands (ev):

   -47.7802 -30.8144 -24.3607 -24.3448 -24.3448 -12.0523 -12.0010 -12.0010
    -8.7500  -7.8121  -7.7584   4.8553   5.1713   5.1713   6.7323   6.7323
     6.8705   6.9377   7.5865   7.5865

          k = 0.0000 0.0000 0.3333 (  6972 PWs)   bands (ev):

   -47.7797 -30.8120 -24.3908 -24.3434 -24.3434 -12.1451 -11.9963 -11.9963
    -8.4611  -7.7939  -7.6279   4.2247   5.2657   5.2657   5.8944   6.0940
     6.0940   6.5008   7.4773   7.4773

          k = 0.0000 0.0000-0.5000 (  6984 PWs)   bands (ev):

   -47.7795 -30.8107 -24.4057 -24.3427 -24.3427 -12.1893 -11.9939 -11.9939
    -8.3145  -7.7847  -7.5580   3.8794   5.4187   5.4187   5.5179   5.7140
     5.7140   6.3357   7.4387   7.4387

          k = 0.0000 0.1667 0.1667 (  6953 PWs)   bands (ev):

   -47.7800 -30.8131 -24.3602 -24.3599 -24.3441 -12.0583 -12.0317 -11.9985
    -8.6204  -7.7790  -7.7226   4.6949   5.0243   5.1892   6.0234   6.5129
     6.8527   6.9830   7.2748   7.3581

          k = 0.0000 0.1667 0.3333 (  6981 PWs)   bands (ev):

   -47.7795 -30.8107 -24.3903 -24.3588 -24.3428 -12.1309 -12.0291 -11.9936
    -8.3635  -7.7504  -7.5979   4.1841   4.8098   5.2740   5.2781   5.9986
     6.2246   6.9290   7.1577   7.1940

          k = 0.0000 0.1667-0.5000 (  6970 PWs)   bands (ev):

   -47.7792 -30.8094 -24.4053 -24.3582 -24.3421 -12.1697 -12.0238 -11.9911
    -8.2403  -7.7366  -7.5220   3.8731   4.5838   5.1279   5.4258   5.6460
     6.0121   6.9194   7.0985   7.1010

          k = 0.0000 0.3333 0.3333 (  6975 PWs)   bands (ev):

   -47.7790 -30.8081 -24.3894 -24.3892 -24.3414 -12.1103 -12.0855 -11.9881
    -8.2128  -7.6206  -7.5199   3.9232   4.3543   4.4222   5.3230   5.7488
     6.2899   6.4517   6.7492   7.7356

          k = 0.0000 0.3333-0.5000 (  6986 PWs)   bands (ev):

   -47.7788 -30.8068 -24.4044 -24.3888 -24.3407 -12.1307 -12.0824 -11.9854
    -8.1649  -7.5486  -7.4506   3.7909   3.8299   4.3574   5.4421   5.5151
     6.2165   6.4315   6.6123   7.8683

          k = 0.0000-0.5000-0.5000 (  7000 PWs)   bands (ev):

   -47.7785 -30.8054 -24.4040 -24.4040 -24.3401 -12.1112 -12.1112 -11.9826
    -8.1558  -7.4151  -7.4151   3.5043   3.6917   4.0452   5.4520   5.4520
     6.3153   6.3153   6.4151   8.1055

          k = 0.1667 0.1667 0.1667 (  6959 PWs)   bands (ev):

   -47.7797 -30.8119 -24.3595 -24.3595 -24.3593 -12.0611 -12.0270 -12.0270
    -8.4955  -7.7206  -7.7206   4.5500   5.0193   5.0193   5.9423   5.9423
     6.3235   7.2040   7.2040   7.3378

          k = 0.1667 0.1667 0.3333 (  6981 PWs)   bands (ev):

   -47.7792 -30.8094 -24.3897 -24.3582 -24.3580 -12.1181 -12.0304 -12.0176
    -8.2510  -7.7166  -7.5837   4.1439   4.7242   4.9656   5.1736   5.4210
     6.1939   6.9714   7.1568   7.3370

          k = 0.1667 0.1667-0.5000 (  6968 PWs)   bands (ev):

   -47.7790 -30.8081 -24.4047 -24.3577 -24.3573 -12.1525 -12.0252 -12.0129
    -8.1361  -7.7146  -7.4994   3.8697   4.4751   4.8838   4.9635   5.2956
     6.2524   6.8277   7.1361   7.2557

          k = 0.1667 0.3333 0.3333 (  6976 PWs)   bands (ev):

   -47.7788 -30.8068 -24.3886 -24.3885 -24.3567 -12.0997 -12.0769 -12.0133
    -8.0709  -7.6110  -7.5312   3.9397   4.3987   4.4218   4.8543   5.1115
     5.7282   7.0597   7.0966   7.7623

          k = 0.1667 0.3333-0.5000 (  6986 PWs)   bands (ev):

   -47.7785 -30.8055 -24.4037 -24.3880 -24.3560 -12.1181 -12.0745 -12.0088
    -8.0151  -7.5640  -7.4548   3.8336   3.8774   4.3548   4.8011   4.9737
     5.7250   7.0178   7.0854   7.8896

          k = 0.1667-0.5000-0.5000 (  6976 PWs)   bands (ev):

   -47.7783 -30.8042 -24.4032 -24.4032 -24.3553 -12.1010 -12.1010 -12.0046
    -7.9994  -7.4328  -7.4328   3.6198   3.6998   4.0493   4.8212   4.8212
     5.6668   7.0528   7.0528   8.1275

          k = 0.3333 0.3333 0.3333 (  6959 PWs)   bands (ev):

   -47.7783 -30.8043 -24.3873 -24.3870 -24.3870 -12.0822 -12.0596 -12.0596
    -7.8061  -7.5541  -7.5541   3.9057   4.3576   4.3576   4.4773   4.5668
     4.5668   7.5818   7.5818   7.8924

          k = 0.3333 0.3333-0.5000 (  6998 PWs)   bands (ev):

   -47.7780 -30.8031 -24.4022 -24.3866 -24.3862 -12.0930 -12.0629 -12.0508
    -7.7246  -7.5657  -7.4637   3.8089   3.9951   4.2067   4.2526   4.5006
     4.5827   7.6689   7.7542   7.9924

          k = 0.3333-0.5000-0.5000 (  6968 PWs)   bands (ev):

   -47.7778 -30.8019 -24.4015 -24.4015 -24.3856 -12.0803 -12.0803 -12.0482
    -7.6657  -7.4685  -7.4685   3.6793   3.8582   4.0576   4.2026   4.2026
     4.4769   7.8767   7.8767   8.1723

          k =-0.5000-0.5000-0.5000 (  6872 PWs)   bands (ev):

   -47.7776 -30.8007 -24.4006 -24.4006 -24.4006 -12.0698 -12.0698 -12.0698
    -7.4865  -7.4865  -7.4865   3.5616   3.9814   3.9814   3.9814   4.0618
     4.0618   8.1952   8.1952   8.1952

     highest occupied level (ev):     8.1952

!    total energy              =    -291.73830702 Ry
     estimated scf accuracy    <          2.4E-09 Ry

     The total energy is the sum of the following terms:
     one-electron contribution =     -97.05086383 Ry
     hartree contribution      =      66.95463148 Ry
     xc contribution           =     -51.08937785 Ry
     ewald contribution        =    -210.55269682 Ry

     convergence has been achieved in  13 iterations

     negative rho (up, down):  8.632E-04 0.000E+00

     Forces acting on atoms (cartesian axes, Ry/au):

     atom    1 type  1   force =     0.00000000    0.00000000    0.00000000
     atom    2 type  2   force =     0.00000000    0.00000000    0.00000000
     atom    3 type  3   force =     0.00000000    0.00000000    0.00000000
     atom    4 type  3   force =     0.00000000    0.00000000    0.00000000
     atom    5 type  3   force =     0.00000000    0.00000000    0.00000000

     Total force =     0.000000     Total SCF correction =     0.000000


     Computing stress (Cartesian axis) and pressure


     negative rho (up, down):  8.632E-04 0.000E+00
          total   stress  (Ry/bohr**3)                   (kbar)     P=     -170.54
  -0.00115930   0.00000000   0.00000000         -170.54        0.00        0.00
   0.00000000  -0.00115930   0.00000000            0.00     -170.54        0.00
   0.00000000   0.00000000  -0.00115930            0.00        0.00     -170.54


     Writing all to output data dir ./CTO_module_17.save/ :
     XML data file, charge density, pseudopotentials, collected wavefunctions
 
     init_run     :      0.50s CPU      0.63s WALL (       1 calls)
     electrons    :     12.36s CPU     13.26s WALL (       1 calls)
     forces       :      0.22s CPU      0.25s WALL (       1 calls)
     stress       :      1.84s CPU      1.89s WALL (       1 calls)

     Called by init_run:
     wfcinit      :      0.20s CPU      0.23s WALL (       1 calls)
     potinit      :      0.02s CPU      0.02s WALL (       1 calls)
     hinit0       :      0.14s CPU      0.18s WALL (       1 calls)

     Called by electrons:
     c_bands      :      8.46s CPU      8.79s WALL (      13 calls)
     sum_band     :      2.46s CPU      2.62s WALL (      13 calls)
     v_of_rho     :      0.05s CPU      0.05s WALL (      14 calls)
     newd         :      1.42s CPU      1.84s WALL (      14 calls)
     mix_rho      :      0.04s CPU      0.04s WALL (      13 calls)

     Called by c_bands:
     init_us_2    :      0.15s CPU      0.16s WALL (     580 calls)
     init_us_2:cp :      0.15s CPU      0.16s WALL (     580 calls)
     ccgdiagg     :      7.24s CPU      7.53s WALL (     260 calls)
     wfcrot       :      1.28s CPU      1.35s WALL (     260 calls)

     Called by *cgdiagg:
     h_psi        :      5.37s CPU      5.58s WALL (   15267 calls)
     s_psi        :      0.99s CPU      1.03s WALL (   30274 calls)

     Called by h_psi:
     h_psi:calbec :      0.92s CPU      0.96s WALL (   15267 calls)
     vloc_psi     :      3.75s CPU      3.90s WALL (   15267 calls)
     add_vuspsi   :      0.56s CPU      0.58s WALL (   15267 calls)
     hs_1psi      :      4.87s CPU      5.05s WALL (   15007 calls)
     s_1psi       :      1.17s CPU      1.22s WALL (   15007 calls)

     General routines
     calbec       :      1.58s CPU      1.65s WALL (   30634 calls)
     fft          :      0.06s CPU      0.08s WALL (      90 calls)
     ffts         :      0.00s CPU      0.01s WALL (      27 calls)
     fftw         :      2.97s CPU      3.07s WALL (   46094 calls)
     interpolate  :      0.01s CPU      0.02s WALL (      14 calls)
 
     Parallel routines
 
     PWSCF        :     15.14s CPU     16.67s WALL

 
   This run was terminated on:  20:18: 5  24Sep2025            

=------------------------------------------------------------------------------=
   JOB DONE.
=------------------------------------------------------------------------------=
TACC:  Shutdown complete. Exiting. 
