TACC:  Starting up job 2410683 
TACC:  Starting parallel tasks... 

     Program PWSCF v.7.3 starts on 24Sep2025 at 20: 9:45 

     This program is part of the open-source Quantum ESPRESSO suite
     for quantum simulation of materials; please cite
         "P. Giannozzi et al., J. Phys.:Condens. Matter 21 395502 (2009);
         "P. Giannozzi et al., J. Phys.:Condens. Matter 29 465901 (2017);
         "P. Giannozzi et al., J. Chem. Phys. 152 154105 (2020);
          URL http://www.quantum-espresso.org", 
     in publications or presentations arising from this work. More details at
     http://www.quantum-espresso.org/quote

     Parallel version (MPI & OpenMP), running on      10 processor cores
     Number of MPI processes:                10
     Threads/MPI process:                     1

     MPI processes distributed on     1 nodes
     187512 MiB available memory on the printing compute node when the environment starts
 
     Waiting for input...
     Reading input from standard input
Warning: card &CELL ignored
Warning: card  CELL_DYNAMICS = 'BFGS', ignored
Warning: card  PRESS=0.D0, ignored
Warning: card / ignored
     Message from routine read_cards :
     DEPRECATED: no units specified in ATOMIC_POSITIONS card
     Message from routine read_cards :
     ATOMIC_POSITIONS: units set to alat

     Current dimensions of program PWSCF are:
     Max number of different atomic species (ntypx) = 10
     Max number of k-points (npk) =  40000
     Max angular momentum in pseudopotentials (lmaxx) =  4
 
     R & G space division:  proc/nbgrp/npool/nimage =      10
     Subspace diagonalization in iterative solution of the eigenvalue problem:
     a serial algorithm will be used

 
     Parallelization info
     --------------------
     sticks:   dense  smooth     PW     G-vecs:    dense   smooth      PW
     Min         404     161     47                19480     4931     768
     Max         405     162     49                19485     4932     770
     Sum        4049    1617    481               194831    49317    7689
 
     Using Slab Decomposition
 


     bravais-lattice index     =            1
     lattice parameter (alat)  =       7.1446  a.u.
     unit-cell volume          =     364.7054 (a.u.)^3
     number of atoms/cell      =            5
     number of atomic types    =            3
     number of electrons       =        40.00
     number of Kohn-Sham states=           20
     kinetic-energy cutoff     =     100.0000  Ry
     charge density cutoff     =    1000.0000  Ry
     scf convergence threshold =      1.0E-08
     mixing beta               =       0.7000
     number of iterations used =            8  plain     mixing
     Exchange-correlation= SLA  PZ   NOGX NOGC
                           (   1   1   0   0   0   0   0)

     celldm(1)=   7.144646  celldm(2)=   0.000000  celldm(3)=   0.000000
     celldm(4)=   0.000000  celldm(5)=   0.000000  celldm(6)=   0.000000

     crystal axes: (cart. coord. in units of alat)
               a(1) = (   1.000000   0.000000   0.000000 )  
               a(2) = (   0.000000   1.000000   0.000000 )  
               a(3) = (   0.000000   0.000000   1.000000 )  

     reciprocal axes: (cart. coord. in units 2 pi/alat)
               b(1) = (  1.000000  0.000000  0.000000 )  
               b(2) = (  0.000000  1.000000  0.000000 )  
               b(3) = (  0.000000  0.000000  1.000000 )  


     PseudoPot. # 1 for Ca read from file:
     /scratch/11018/zhc/assisgnment1/CaTiO3/Ca_LDA.UPF
     MD5 check sum: d2d4e7693e10d071152e9eeb7dd009f3
     Pseudo is Ultrasoft + core correction, Zval = 10.0
     Generated by new atomic code, or converted to UPF format
     Using radial grid of  845 points,  6 beta functions with: 
                l(1) =   0
                l(2) =   0
                l(3) =   1
                l(4) =   1
                l(5) =   2
                l(6) =   2
     Q(r) pseudized with  8 coefficients,  rinner =    1.500   1.500   1.500
                                                       1.500   1.500

     PseudoPot. # 2 for Ti read from file:
     /scratch/11018/zhc/assisgnment1/CaTiO3/Ti_LDA.UPF
     MD5 check sum: 0d9f225c038fe889ca2a701dcc8d72cb
     Pseudo is Ultrasoft + core correction, Zval = 12.0
     Generated by new atomic code, or converted to UPF format
     Using radial grid of  851 points,  6 beta functions with: 
                l(1) =   0
                l(2) =   0
                l(3) =   1
                l(4) =   1
                l(5) =   2
                l(6) =   2
     Q(r) pseudized with  6 coefficients,  rinner =    1.000   1.000   1.000
                                                       1.000   1.000

     PseudoPot. # 3 for O  read from file:
     /scratch/11018/zhc/assisgnment1/CaTiO3/O_LDA.UPF
     MD5 check sum: 194b818514d2a7dbb603bb78519a4f40
     Pseudo is Ultrasoft + core correction, Zval =  6.0
     Generated by new atomic code, or converted to UPF format
     Using radial grid of  737 points,  5 beta functions with: 
                l(1) =   0
                l(2) =   0
                l(3) =   1
                l(4) =   1
                l(5) =   2
     Q(r) pseudized with  8 coefficients,  rinner =    0.900   0.900   0.900
                                                       0.900   0.900

     atomic species   valence    mass     pseudopotential
     Ca               10.00    40.07800     Ca( 1.00)
     Ti               12.00    47.88000     Ti( 1.00)
     O                 6.00    16.00000     O ( 1.00)

     48 Sym. Ops., with inversion, found



   Cartesian axes

     site n.     atom                  positions (alat units)
         1        Ca     tau(   1) = (   0.0000000   0.0000000   0.0000000  )
         2        Ti     tau(   2) = (   0.5000000   0.5000000   0.5000000  )
         3        O      tau(   3) = (   0.5000000   0.5000000   0.0000000  )
         4        O      tau(   4) = (   0.5000000   0.0000000   0.5000000  )
         5        O      tau(   5) = (   0.0000000   0.5000000   0.5000000  )

     number of k points=    20
                       cart. coord. in units 2pi/alat
        k(    1) = (   0.0000000   0.0000000   0.0000000), wk =   0.0092593
        k(    2) = (   0.0000000   0.0000000   0.1666667), wk =   0.0555556
        k(    3) = (   0.0000000   0.0000000   0.3333333), wk =   0.0555556
        k(    4) = (   0.0000000   0.0000000  -0.5000000), wk =   0.0277778
        k(    5) = (   0.0000000   0.1666667   0.1666667), wk =   0.1111111
        k(    6) = (   0.0000000   0.1666667   0.3333333), wk =   0.2222222
        k(    7) = (   0.0000000   0.1666667  -0.5000000), wk =   0.1111111
        k(    8) = (   0.0000000   0.3333333   0.3333333), wk =   0.1111111
        k(    9) = (   0.0000000   0.3333333  -0.5000000), wk =   0.1111111
        k(   10) = (   0.0000000  -0.5000000  -0.5000000), wk =   0.0277778
        k(   11) = (   0.1666667   0.1666667   0.1666667), wk =   0.0740741
        k(   12) = (   0.1666667   0.1666667   0.3333333), wk =   0.2222222
        k(   13) = (   0.1666667   0.1666667  -0.5000000), wk =   0.1111111
        k(   14) = (   0.1666667   0.3333333   0.3333333), wk =   0.2222222
        k(   15) = (   0.1666667   0.3333333  -0.5000000), wk =   0.2222222
        k(   16) = (   0.1666667  -0.5000000  -0.5000000), wk =   0.0555556
        k(   17) = (   0.3333333   0.3333333   0.3333333), wk =   0.0740741
        k(   18) = (   0.3333333   0.3333333  -0.5000000), wk =   0.1111111
        k(   19) = (   0.3333333  -0.5000000  -0.5000000), wk =   0.0555556
        k(   20) = (  -0.5000000  -0.5000000  -0.5000000), wk =   0.0092593

     Dense  grid:   194831 G-vectors     FFT dimensions: (  72,  72,  72)

     Smooth grid:    49317 G-vectors     FFT dimensions: (  45,  45,  45)

     Estimated max dynamical RAM per process >      84.04 MB

     Estimated total dynamical RAM >     840.42 MB

     Check: negative core charge=   -0.000001

     Initial potential from superposition of free atoms

     starting charge      38.9952, renormalised to      40.0000

     negative rho (up, down):  6.857E-04 0.000E+00
     Starting wfcs are   32 randomized atomic wfcs

     total cpu time spent up to now is        1.2 secs

     Self-consistent Calculation

     iteration #  1     ecut=   100.00 Ry     beta= 0.70
     CG style diagonalization
     ethr =  1.00E-02,  avg # of iterations =  2.2

     negative rho (up, down):  1.339E-03 0.000E+00

     total cpu time spent up to now is        2.0 secs

     total energy              =    -291.31944343 Ry
     estimated scf accuracy    <       0.82875112 Ry

     iteration #  2     ecut=   100.00 Ry     beta= 0.70
     CG style diagonalization
     ethr =  2.07E-03,  avg # of iterations =  4.9

     negative rho (up, down):  5.496E-04 0.000E+00

     total cpu time spent up to now is        3.3 secs

     total energy              =    -290.91564715 Ry
     estimated scf accuracy    <       4.38099399 Ry

     iteration #  3     ecut=   100.00 Ry     beta= 0.70
     CG style diagonalization
     ethr =  2.07E-03,  avg # of iterations =  4.4

     negative rho (up, down):  6.364E-04 0.000E+00

     total cpu time spent up to now is        4.6 secs

     total energy              =    -291.74392144 Ry
     estimated scf accuracy    <       0.12653364 Ry

     iteration #  4     ecut=   100.00 Ry     beta= 0.70
     CG style diagonalization
     ethr =  3.16E-04,  avg # of iterations =  3.7

     negative rho (up, down):  7.084E-04 0.000E+00

     total cpu time spent up to now is        5.6 secs

     total energy              =    -291.75554663 Ry
     estimated scf accuracy    <       0.02858797 Ry

     iteration #  5     ecut=   100.00 Ry     beta= 0.70
     CG style diagonalization
     ethr =  7.15E-05,  avg # of iterations =  3.6

     negative rho (up, down):  7.796E-04 0.000E+00

     total cpu time spent up to now is        6.7 secs

     total energy              =    -291.76217190 Ry
     estimated scf accuracy    <       0.00036960 Ry

     iteration #  6     ecut=   100.00 Ry     beta= 0.70
     CG style diagonalization
     ethr =  9.24E-07,  avg # of iterations =  4.9

     negative rho (up, down):  7.578E-04 0.000E+00

     total cpu time spent up to now is        8.0 secs

     total energy              =    -291.76275531 Ry
     estimated scf accuracy    <       0.00089624 Ry

     iteration #  7     ecut=   100.00 Ry     beta= 0.70
     CG style diagonalization
     ethr =  9.24E-07,  avg # of iterations =  3.6

     negative rho (up, down):  7.419E-04 0.000E+00

     total cpu time spent up to now is        9.0 secs

     total energy              =    -291.76275776 Ry
     estimated scf accuracy    <       0.00016574 Ry

     iteration #  8     ecut=   100.00 Ry     beta= 0.70
     CG style diagonalization
     ethr =  4.14E-07,  avg # of iterations =  3.6

     negative rho (up, down):  7.383E-04 0.000E+00

     total cpu time spent up to now is       10.0 secs

     total energy              =    -291.76278414 Ry
     estimated scf accuracy    <       0.00000296 Ry

     iteration #  9     ecut=   100.00 Ry     beta= 0.70
     CG style diagonalization
     ethr =  7.39E-09,  avg # of iterations =  4.3

     negative rho (up, down):  7.385E-04 0.000E+00

     total cpu time spent up to now is       11.2 secs

     total energy              =    -291.76278686 Ry
     estimated scf accuracy    <       0.00000045 Ry

     iteration # 10     ecut=   100.00 Ry     beta= 0.70
     CG style diagonalization
     ethr =  1.12E-09,  avg # of iterations =  3.8

     negative rho (up, down):  7.386E-04 0.000E+00

     total cpu time spent up to now is       12.3 secs

     total energy              =    -291.76278699 Ry
     estimated scf accuracy    <       0.00000005 Ry

     iteration # 11     ecut=   100.00 Ry     beta= 0.70
     CG style diagonalization
     ethr =  1.26E-10,  avg # of iterations =  4.0

     negative rho (up, down):  7.386E-04 0.000E+00

     total cpu time spent up to now is       13.4 secs

     End of self-consistent calculation

          k = 0.0000 0.0000 0.0000 (  6187 PWs)   bands (ev):

   -45.5740 -28.7032 -22.2438 -22.2438 -22.2438  -9.9182  -9.9182  -9.9182
    -7.6956  -6.4891  -6.4891   6.6803   6.6803   6.6803   8.5736   8.5736
     8.5736   9.4833   9.4833   9.4833

          k = 0.0000 0.0000 0.1667 (  6143 PWs)   bands (ev):

   -45.5735 -28.7010 -22.2713 -22.2425 -22.2425 -10.0269  -9.9143  -9.9143
    -7.4792  -6.4760  -6.3715   6.3455   6.6787   6.6787   8.1730   8.1730
     8.3088   8.5920   9.3418   9.3418

          k = 0.0000 0.0000 0.3333 (  6151 PWs)   bands (ev):

   -45.5725 -28.6965 -22.3254 -22.2397 -22.2397 -10.2163  -9.9064  -9.9064
    -7.0574  -6.4494  -6.1226   5.6014   6.7271   6.7271   7.3695   7.4717
     7.4717   7.8537   9.2128   9.2128

          k = 0.0000 0.0000-0.5000 (  6174 PWs)   bands (ev):

   -45.5720 -28.6942 -22.3521 -22.2383 -22.2383 -10.3010  -9.9024  -9.9024
    -6.8527  -6.4360  -5.9836   5.1733   6.8925   6.8925   6.9326   7.0328
     7.0328   7.6528   9.1688   9.1688

          k = 0.0000 0.1667 0.1667 (  6156 PWs)   bands (ev):

   -45.5730 -28.6986 -22.2706 -22.2697 -22.2411 -10.0438  -9.9721  -9.9100
    -7.2958  -6.4158  -6.3069   6.1088   6.5370   6.6705   7.4240   7.9029
     8.4697   8.5214   8.8656   9.1029

          k = 0.0000 0.1667 0.3333 (  6167 PWs)   bands (ev):

   -45.5720 -28.6940 -22.3247 -22.2678 -22.2384 -10.1817  -9.9680  -9.9015
    -6.9505  -6.3651  -6.0711   5.5265   6.1248   6.6994   6.7346   7.3355
     7.6630   8.5058   8.7287   8.8873

          k = 0.0000 0.1667-0.5000 (  6186 PWs)   bands (ev):

   -45.5715 -28.6916 -22.3516 -22.2666 -22.2371 -10.2539  -9.9567  -9.8972
    -6.7997  -6.3361  -5.9218   5.1696   5.7678   6.6199   6.8492   6.9397
     7.4118   8.5101   8.5990   8.8252

          k = 0.0000 0.3333 0.3333 (  6152 PWs)   bands (ev):

   -45.5710 -28.6889 -22.3237 -22.3227 -22.2358 -10.1303 -10.0681  -9.8917
    -6.8403  -6.0973  -5.9346   5.0786   5.7450   5.7620   6.6671   7.0177
     7.7338   7.9364   8.5058   9.3540

          k = 0.0000 0.3333-0.5000 (  6158 PWs)   bands (ev):

   -45.5705 -28.6863 -22.3505 -22.3225 -22.2345 -10.1593 -10.0612  -9.8868
    -6.8251  -5.9704  -5.8007   4.8435   5.1545   5.7220   6.7414   6.7618
     7.6631   7.9086   8.3849   9.5092

          k = 0.0000-0.5000-0.5000 (  6152 PWs)   bands (ev):

   -45.5700 -28.6837 -22.3500 -22.3500 -22.2332 -10.1115 -10.1115  -9.8816
    -6.8626  -5.7413  -5.7413   4.5096   5.0594   5.2655   6.6767   6.6767
     7.7873   7.7873   8.2330   9.7885

          k = 0.1667 0.1667 0.1667 (  6148 PWs)   bands (ev):

   -45.5725 -28.6962 -22.2691 -22.2691 -22.2685 -10.0502  -9.9628  -9.9628
    -7.1261  -6.3076  -6.3076   5.9025   6.4905   6.4905   7.3066   7.3066
     8.0138   8.8091   8.8091   8.8757

          k = 0.1667 0.1667 0.3333 (  6160 PWs)   bands (ev):

   -45.5715 -28.6915 -22.3237 -22.2667 -22.2662 -10.1515  -9.9710  -9.9441
    -6.8067  -6.3091  -6.0483   5.4524   6.0533   6.2571   6.5380   6.8791
     7.7931   8.5278   8.7322   8.8660

          k = 0.1667 0.1667-0.5000 (  6166 PWs)   bands (ev):

   -45.5710 -28.6891 -22.3507 -22.2658 -22.2647 -10.2135  -9.9602  -9.9347
    -6.6653  -6.3100  -5.8846   5.1693   5.6475   6.0807   6.3436   6.8173
     7.8719   8.3528   8.7015   8.7630

          k = 0.1667 0.3333 0.3333 (  6169 PWs)   bands (ev):

   -45.5705 -28.6865 -22.3220 -22.3216 -22.2637 -10.1066 -10.0513  -9.9363
    -6.6374  -6.0911  -5.9600   5.1195   5.7539   5.7541   6.1517   6.3499
     7.3572   8.5940   8.6367   9.3825

          k = 0.1667 0.3333-0.5000 (  6158 PWs)   bands (ev):

   -45.5700 -28.6840 -22.3490 -22.3208 -22.2624 -10.1326 -10.0461  -9.9276
    -6.6114  -6.0072  -5.8128   4.9523   5.1623   5.7053   6.0001   6.2479
     7.3730   8.5427   8.6170   9.5332

          k = 0.1667-0.5000-0.5000 (  6172 PWs)   bands (ev):

   -45.5695 -28.6815 -22.3482 -22.3482 -22.2610 -10.0920 -10.0920  -9.9196
    -6.6400  -5.7781  -5.7781   4.6577   5.0769   5.2706   6.0222   6.0222
     7.3473   8.5819   8.5819   9.8160

          k = 0.3333 0.3333 0.3333 (  6169 PWs)   bands (ev):

   -45.5696 -28.6817 -22.3195 -22.3186 -22.3186 -10.0665 -10.0168 -10.0168
    -6.2643  -6.0119  -6.0119   5.1160   5.5630   5.5630   5.8741   5.8741
     5.9744   9.1833   9.1833   9.5363

          k = 0.3333 0.3333-0.5000 (  6154 PWs)   bands (ev):

   -45.5691 -28.6793 -22.3461 -22.3180 -22.3169 -10.0791 -10.0238  -9.9993
    -6.1896  -6.0383  -5.8389   5.1053   5.1709   5.3537   5.4911   5.8463
     5.9689   9.2786   9.3885   9.6544

          k = 0.3333-0.5000-0.5000 (  6128 PWs)   bands (ev):

   -45.5686 -28.6769 -22.3446 -22.3446 -22.3158 -10.0520 -10.0520  -9.9946
    -6.1566  -5.8529  -5.8529   4.9624   5.1028   5.2808   5.3572   5.3572
     5.8734   9.5253   9.5253   9.8722

          k =-0.5000-0.5000-0.5000 (  6152 PWs)   bands (ev):

   -45.5681 -28.6747 -22.3428 -22.3428 -22.3428 -10.0315 -10.0315 -10.0315
    -5.8909  -5.8909  -5.8909   5.0376   5.1195   5.1195   5.1195   5.2859
     5.2859   9.9010   9.9010   9.9010

     highest occupied level (ev):     9.9010

!    total energy              =    -291.76278701 Ry
     estimated scf accuracy    <          6.6E-10 Ry

     The total energy is the sum of the following terms:
     one-electron contribution =     -83.92972675 Ry
     hartree contribution      =      63.17861169 Ry
     xc contribution           =     -51.52305326 Ry
     ewald contribution        =    -219.48861869 Ry

     convergence has been achieved in  11 iterations

     negative rho (up, down):  7.386E-04 0.000E+00

     Forces acting on atoms (cartesian axes, Ry/au):

     atom    1 type  1   force =     0.00000000    0.00000000    0.00000000
     atom    2 type  2   force =     0.00000000    0.00000000    0.00000000
     atom    3 type  3   force =     0.00000000    0.00000000    0.00000000
     atom    4 type  3   force =     0.00000000    0.00000000    0.00000000
     atom    5 type  3   force =     0.00000000    0.00000000    0.00000000

     Total force =     0.000000     Total SCF correction =     0.000000


     Computing stress (Cartesian axis) and pressure


     negative rho (up, down):  7.386E-04 0.000E+00
          total   stress  (Ry/bohr**3)                   (kbar)     P=       45.07
   0.00030636   0.00000000   0.00000000           45.07        0.00        0.00
   0.00000000   0.00030636   0.00000000            0.00       45.07        0.00
   0.00000000   0.00000000   0.00030636            0.00        0.00       45.07


     Writing all to output data dir ./CTO_module_9.save/ :
     XML data file, charge density, pseudopotentials, collected wavefunctions
 
     init_run     :      0.82s CPU      0.92s WALL (       1 calls)
     electrons    :     11.47s CPU     12.28s WALL (       1 calls)
     forces       :      0.19s CPU      0.22s WALL (       1 calls)
     stress       :      1.63s CPU      1.67s WALL (       1 calls)

     Called by init_run:
     wfcinit      :      0.23s CPU      0.26s WALL (       1 calls)
     potinit      :      0.02s CPU      0.02s WALL (       1 calls)
     hinit0       :      0.14s CPU      0.17s WALL (       1 calls)

     Called by electrons:
     c_bands      :      8.39s CPU      8.70s WALL (      11 calls)
     sum_band     :      2.01s CPU      2.17s WALL (      11 calls)
     v_of_rho     :      0.04s CPU      0.04s WALL (      12 calls)
     newd         :      1.08s CPU      1.40s WALL (      12 calls)
     mix_rho      :      0.02s CPU      0.03s WALL (      11 calls)

     Called by c_bands:
     init_us_2    :      0.12s CPU      0.12s WALL (     500 calls)
     init_us_2:cp :      0.12s CPU      0.12s WALL (     500 calls)
     ccgdiagg     :      7.12s CPU      7.38s WALL (     220 calls)
     wfcrot       :      1.40s CPU      1.46s WALL (     220 calls)

     Called by *cgdiagg:
     h_psi        :      5.74s CPU      5.95s WALL (   13410 calls)
     s_psi        :      0.62s CPU      0.64s WALL (   26600 calls)

     Called by h_psi:
     h_psi:calbec :      0.76s CPU      0.78s WALL (   13410 calls)
     vloc_psi     :      4.49s CPU      4.66s WALL (   13410 calls)
     add_vuspsi   :      0.37s CPU      0.38s WALL (   13410 calls)
     hs_1psi      :      4.88s CPU      5.06s WALL (   13190 calls)
     s_1psi       :      0.89s CPU      0.92s WALL (   13190 calls)

     General routines
     calbec       :      1.32s CPU      1.37s WALL (   26920 calls)
     fft          :      0.05s CPU      0.06s WALL (      78 calls)
     ffts         :      0.01s CPU      0.01s WALL (      23 calls)
     fftw         :      4.03s CPU      4.16s WALL (   40060 calls)
     interpolate  :      0.01s CPU      0.01s WALL (      12 calls)
 
     Parallel routines
 
     PWSCF        :     14.34s CPU     16.79s WALL

 
   This run was terminated on:  20:10: 2  24Sep2025            

=------------------------------------------------------------------------------=
   JOB DONE.
=------------------------------------------------------------------------------=
TACC:  Shutdown complete. Exiting. 
