TACC:  Starting up job 2560829 
TACC:  Starting parallel tasks... 

     Program PWSCF v.7.3 starts on 18Nov2025 at  0: 2:15 

     This program is part of the open-source Quantum ESPRESSO suite
     for quantum simulation of materials; please cite
         "P. Giannozzi et al., J. Phys.:Condens. Matter 21 395502 (2009);
         "P. Giannozzi et al., J. Phys.:Condens. Matter 29 465901 (2017);
         "P. Giannozzi et al., J. Chem. Phys. 152 154105 (2020);
          URL http://www.quantum-espresso.org", 
     in publications or presentations arising from this work. More details at
     http://www.quantum-espresso.org/quote

     Parallel version (MPI & OpenMP), running on      10 processor cores
     Number of MPI processes:                10
     Threads/MPI process:                     1

     MPI processes distributed on     1 nodes
     189443 MiB available memory on the printing compute node when the environment starts
 
     Waiting for input...
     Reading input from standard input
Warning: card &CELL ignored
Warning: card  CELL_DYNAMICS = 'BFGS', ignored
Warning: card  PRESS=0.D0, ignored
Warning: card / ignored

     Current dimensions of program PWSCF are:
     Max number of different atomic species (ntypx) = 10
     Max number of k-points (npk) =  40000
     Max angular momentum in pseudopotentials (lmaxx) =  4
     Message from routine setup:
     using ibrav=0 with symmetry is DISCOURAGED, use correct ibrav instead
 
     R & G space division:  proc/nbgrp/npool/nimage =      10
     Subspace diagonalization in iterative solution of the eigenvalue problem:
     a serial algorithm will be used

 
     Parallelization info
     --------------------
     sticks:   dense  smooth     PW     G-vecs:    dense   smooth      PW
     Min         209      84     25                 7665     1940     321
     Max         210      85     26                 7668     1943     324
     Sum        2093     845    253                76659    19407    3227
 
     Using Slab Decomposition
 


     bravais-lattice index     =            0
     lattice parameter (alat)  =       7.2745  a.u.
     unit-cell volume          =     405.8427 (a.u.)^3
     number of atoms/cell      =            5
     number of atomic types    =            3
     number of electrons       =        44.00
     number of Kohn-Sham states=           22
     kinetic-energy cutoff     =      50.0000  Ry
     charge density cutoff     =     500.0000  Ry
     scf convergence threshold =      1.0E-08
     mixing beta               =       0.7000
     number of iterations used =            8  plain     mixing
     energy convergence thresh.=      1.0E-04
     force convergence thresh. =      1.0E-03
     Exchange-correlation= SLA  PZ   NOGX NOGC
                           (   1   1   0   0   0   0   0)
     nstep                     =           50


     celldm(1)=   7.274539  celldm(2)=   0.000000  celldm(3)=   0.000000
     celldm(4)=   0.000000  celldm(5)=   0.000000  celldm(6)=   0.000000

     crystal axes: (cart. coord. in units of alat)
               a(1) = (   1.000000   0.000000   0.000000 )  
               a(2) = (   0.000000   1.001559   0.000000 )  
               a(3) = (   0.000000   0.000000   1.052604 )  

     reciprocal axes: (cart. coord. in units 2 pi/alat)
               b(1) = (  1.000000  0.000000  0.000000 )  
               b(2) = (  0.000000  0.998444  0.000000 )  
               b(3) = (  0.000000  0.000000  0.950025 )  


     PseudoPot. # 1 for Pb read from file:
     /scratch/11018/zhc/assisgnment3/input_files/Pb_LDA.UPF
     MD5 check sum: 062a37469794d955244864f8fe2e5624
     Pseudo is Ultrasoft + core correction, Zval = 14.0
     Generated by new atomic code, or converted to UPF format
     Using radial grid of  899 points,  6 beta functions with: 
                l(1) =   0
                l(2) =   0
                l(3) =   1
                l(4) =   1
                l(5) =   2
                l(6) =   2
     Q(r) pseudized with  6 coefficients,  rinner =    1.000   1.000   1.000
                                                       1.000   1.000

     PseudoPot. # 2 for Ti read from file:
     /scratch/11018/zhc/assisgnment3/input_files/Ti_LDA.UPF
     MD5 check sum: 0d9f225c038fe889ca2a701dcc8d72cb
     Pseudo is Ultrasoft + core correction, Zval = 12.0
     Generated by new atomic code, or converted to UPF format
     Using radial grid of  851 points,  6 beta functions with: 
                l(1) =   0
                l(2) =   0
                l(3) =   1
                l(4) =   1
                l(5) =   2
                l(6) =   2
     Q(r) pseudized with  6 coefficients,  rinner =    1.000   1.000   1.000
                                                       1.000   1.000

     PseudoPot. # 3 for O  read from file:
     /scratch/11018/zhc/assisgnment3/input_files/O_LDA.UPF
     MD5 check sum: 194b818514d2a7dbb603bb78519a4f40
     Pseudo is Ultrasoft + core correction, Zval =  6.0
     Generated by new atomic code, or converted to UPF format
     Using radial grid of  737 points,  5 beta functions with: 
                l(1) =   0
                l(2) =   0
                l(3) =   1
                l(4) =   1
                l(5) =   2
     Q(r) pseudized with  8 coefficients,  rinner =    0.900   0.900   0.900
                                                       0.900   0.900

     atomic species   valence    mass     pseudopotential
     Pb               14.00   207.20000     Pb( 1.00)
     Ti               12.00    47.88000     Ti( 1.00)
     O                 6.00    16.00000     O ( 1.00)

      4 Sym. Ops. (no inversion) found



   Cartesian axes

     site n.     atom                  positions (alat units)
         1        Pb     tau(   1) = (   0.0000000   0.0000000   1.0580500  )
         2        Ti     tau(   2) = (   0.5000000   0.5007793   0.5679161  )
         3        O      tau(   3) = (   0.5000000   0.5007793   0.1047424  )
         4        O      tau(   4) = (   0.5000000   0.0000000   0.6437032  )
         5        O      tau(   5) = (   0.0000000   0.5007793   0.6437032  )

     number of k points=    48
                       cart. coord. in units 2pi/alat
        k(    1) = (   0.0000000   0.0000000   0.0000000), wk =   0.0138889
        k(    2) = (   0.0000000   0.0000000   0.2375062), wk =   0.0277778
        k(    3) = (   0.0000000   0.0000000  -0.4750125), wk =   0.0138889
        k(    4) = (   0.0000000   0.1664073   0.0000000), wk =   0.0277778
        k(    5) = (   0.0000000   0.1664073   0.2375062), wk =   0.0555556
        k(    6) = (   0.0000000   0.1664073  -0.4750125), wk =   0.0277778
        k(    7) = (   0.0000000   0.3328146   0.0000000), wk =   0.0277778
        k(    8) = (   0.0000000   0.3328146   0.2375062), wk =   0.0555556
        k(    9) = (   0.0000000   0.3328146  -0.4750125), wk =   0.0277778
        k(   10) = (   0.0000000  -0.4992219   0.0000000), wk =   0.0138889
        k(   11) = (   0.0000000  -0.4992219   0.2375062), wk =   0.0277778
        k(   12) = (   0.0000000  -0.4992219  -0.4750125), wk =   0.0138889
        k(   13) = (   0.1666667   0.0000000   0.0000000), wk =   0.0277778
        k(   14) = (   0.1666667   0.0000000   0.2375062), wk =   0.0555556
        k(   15) = (   0.1666667   0.0000000  -0.4750125), wk =   0.0277778
        k(   16) = (   0.1666667   0.1664073   0.0000000), wk =   0.0555556
        k(   17) = (   0.1666667   0.1664073   0.2375062), wk =   0.1111111
        k(   18) = (   0.1666667   0.1664073  -0.4750125), wk =   0.0555556
        k(   19) = (   0.1666667   0.3328146   0.0000000), wk =   0.0555556
        k(   20) = (   0.1666667   0.3328146   0.2375062), wk =   0.1111111
        k(   21) = (   0.1666667   0.3328146  -0.4750125), wk =   0.0555556
        k(   22) = (   0.1666667  -0.4992219   0.0000000), wk =   0.0277778
        k(   23) = (   0.1666667  -0.4992219   0.2375062), wk =   0.0555556
        k(   24) = (   0.1666667  -0.4992219  -0.4750125), wk =   0.0277778
        k(   25) = (   0.3333333   0.0000000   0.0000000), wk =   0.0277778
        k(   26) = (   0.3333333   0.0000000   0.2375062), wk =   0.0555556
        k(   27) = (   0.3333333   0.0000000  -0.4750125), wk =   0.0277778
        k(   28) = (   0.3333333   0.1664073   0.0000000), wk =   0.0555556
        k(   29) = (   0.3333333   0.1664073   0.2375062), wk =   0.1111111
        k(   30) = (   0.3333333   0.1664073  -0.4750125), wk =   0.0555556
        k(   31) = (   0.3333333   0.3328146   0.0000000), wk =   0.0555556
        k(   32) = (   0.3333333   0.3328146   0.2375062), wk =   0.1111111
        k(   33) = (   0.3333333   0.3328146  -0.4750125), wk =   0.0555556
        k(   34) = (   0.3333333  -0.4992219   0.0000000), wk =   0.0277778
        k(   35) = (   0.3333333  -0.4992219   0.2375062), wk =   0.0555556
        k(   36) = (   0.3333333  -0.4992219  -0.4750125), wk =   0.0277778
        k(   37) = (  -0.5000000   0.0000000   0.0000000), wk =   0.0138889
        k(   38) = (  -0.5000000   0.0000000   0.2375062), wk =   0.0277778
        k(   39) = (  -0.5000000   0.0000000  -0.4750125), wk =   0.0138889
        k(   40) = (  -0.5000000   0.1664073   0.0000000), wk =   0.0277778
        k(   41) = (  -0.5000000   0.1664073   0.2375062), wk =   0.0555556
        k(   42) = (  -0.5000000   0.1664073  -0.4750125), wk =   0.0277778
        k(   43) = (  -0.5000000   0.3328146   0.0000000), wk =   0.0277778
        k(   44) = (  -0.5000000   0.3328146   0.2375062), wk =   0.0555556
        k(   45) = (  -0.5000000   0.3328146  -0.4750125), wk =   0.0277778
        k(   46) = (  -0.5000000  -0.4992219   0.0000000), wk =   0.0138889
        k(   47) = (  -0.5000000  -0.4992219   0.2375062), wk =   0.0277778
        k(   48) = (  -0.5000000  -0.4992219  -0.4750125), wk =   0.0138889

     Dense  grid:    76659 G-vectors     FFT dimensions: (  54,  54,  60)

     Smooth grid:    19407 G-vectors     FFT dimensions: (  36,  36,  36)

     Estimated max dynamical RAM per process >      37.96 MB

     Estimated total dynamical RAM >     379.62 MB

     Check: negative core charge=   -0.000004

     Initial potential from superposition of free atoms

     starting charge      42.9982, renormalised to      44.0000

     negative rho (up, down):  1.668E-02 0.000E+00
     Starting wfcs are   31 randomized atomic wfcs

     total cpu time spent up to now is        0.8 secs

     Self-consistent Calculation

     iteration #  1     ecut=    50.00 Ry     beta= 0.70
     CG style diagonalization
     ethr =  1.00E-02,  avg # of iterations =  2.1

     negative rho (up, down):  1.400E-02 0.000E+00

     total cpu time spent up to now is        1.6 secs

     total energy              =    -380.06171919 Ry
     estimated scf accuracy    <       1.02235017 Ry

     iteration #  2     ecut=    50.00 Ry     beta= 0.70
     CG style diagonalization
     ethr =  2.32E-03,  avg # of iterations =  4.8

     negative rho (up, down):  1.451E-02 0.000E+00

     total cpu time spent up to now is        3.0 secs

     total energy              =    -379.75896069 Ry
     estimated scf accuracy    <       3.89550748 Ry

     iteration #  3     ecut=    50.00 Ry     beta= 0.70
     CG style diagonalization
     ethr =  2.32E-03,  avg # of iterations =  4.3

     negative rho (up, down):  1.513E-02 0.000E+00

     total cpu time spent up to now is        4.3 secs

     total energy              =    -380.53727079 Ry
     estimated scf accuracy    <       0.30935627 Ry

     iteration #  4     ecut=    50.00 Ry     beta= 0.70
     CG style diagonalization
     ethr =  7.03E-04,  avg # of iterations =  3.4

     negative rho (up, down):  1.512E-02 0.000E+00

     total cpu time spent up to now is        5.4 secs

     total energy              =    -380.56015837 Ry
     estimated scf accuracy    <       0.04171493 Ry

     iteration #  5     ecut=    50.00 Ry     beta= 0.70
     CG style diagonalization
     ethr =  9.48E-05,  avg # of iterations =  3.9

     negative rho (up, down):  1.512E-02 0.000E+00

     total cpu time spent up to now is        6.5 secs

     total energy              =    -380.57155019 Ry
     estimated scf accuracy    <       0.00814157 Ry

     iteration #  6     ecut=    50.00 Ry     beta= 0.70
     CG style diagonalization
     ethr =  1.85E-05,  avg # of iterations =  3.8

     negative rho (up, down):  1.512E-02 0.000E+00

     total cpu time spent up to now is        7.7 secs

     total energy              =    -380.57359839 Ry
     estimated scf accuracy    <       0.00611604 Ry

     iteration #  7     ecut=    50.00 Ry     beta= 0.70
     CG style diagonalization
     ethr =  1.39E-05,  avg # of iterations =  3.2

     negative rho (up, down):  1.514E-02 0.000E+00

     total cpu time spent up to now is        8.6 secs

     total energy              =    -380.57359798 Ry
     estimated scf accuracy    <       0.00163770 Ry

     iteration #  8     ecut=    50.00 Ry     beta= 0.70
     CG style diagonalization
     ethr =  3.72E-06,  avg # of iterations =  3.7

     negative rho (up, down):  1.516E-02 0.000E+00

     total cpu time spent up to now is        9.7 secs

     total energy              =    -380.57395839 Ry
     estimated scf accuracy    <       0.00001114 Ry

     iteration #  9     ecut=    50.00 Ry     beta= 0.70
     CG style diagonalization
     c_bands:  1 eigenvalues not converged
     ethr =  2.53E-08,  avg # of iterations =  7.5

     negative rho (up, down):  1.519E-02 0.000E+00

     total cpu time spent up to now is       12.0 secs

     total energy              =    -380.57402279 Ry
     estimated scf accuracy    <       0.00004036 Ry

     iteration # 10     ecut=    50.00 Ry     beta= 0.70
     CG style diagonalization
     ethr =  2.53E-08,  avg # of iterations =  3.6

     negative rho (up, down):  1.524E-02 0.000E+00

     total cpu time spent up to now is       13.1 secs

     total energy              =    -380.57401950 Ry
     estimated scf accuracy    <       0.00002145 Ry

     iteration # 11     ecut=    50.00 Ry     beta= 0.70
     CG style diagonalization
     ethr =  2.53E-08,  avg # of iterations =  3.6

     negative rho (up, down):  1.531E-02 0.000E+00

     total cpu time spent up to now is       14.1 secs

     total energy              =    -380.57401966 Ry
     estimated scf accuracy    <       0.00000377 Ry

     iteration # 12     ecut=    50.00 Ry     beta= 0.70
     CG style diagonalization
     ethr =  8.57E-09,  avg # of iterations =  4.3

     negative rho (up, down):  1.530E-02 0.000E+00

     total cpu time spent up to now is       15.4 secs

     total energy              =    -380.57402097 Ry
     estimated scf accuracy    <       0.00000063 Ry

     iteration # 13     ecut=    50.00 Ry     beta= 0.70
     CG style diagonalization
     ethr =  1.44E-09,  avg # of iterations =  6.4

     negative rho (up, down):  1.530E-02 0.000E+00

     total cpu time spent up to now is       17.4 secs

     total energy              =    -380.57402186 Ry
     estimated scf accuracy    <       0.00000004 Ry

     iteration # 14     ecut=    50.00 Ry     beta= 0.70
     CG style diagonalization
     c_bands:  1 eigenvalues not converged
     c_bands:  1 eigenvalues not converged
     ethr =  8.96E-11,  avg # of iterations =  8.9

     negative rho (up, down):  1.531E-02 0.000E+00

     total cpu time spent up to now is       20.1 secs

     total energy              =    -380.57402206 Ry
     estimated scf accuracy    <       0.00000002 Ry

     iteration # 15     ecut=    50.00 Ry     beta= 0.70
     CG style diagonalization
     ethr =  4.46E-11,  avg # of iterations =  4.4

     negative rho (up, down):  1.531E-02 0.000E+00

     total cpu time spent up to now is       21.4 secs

     End of self-consistent calculation

          k = 0.0000 0.0000 0.0000 (  2421 PWs)   bands (ev):

   -45.1409 -21.8217 -21.7397 -21.7380  -7.1512  -5.9958  -5.7361  -4.3855
    -4.3850  -4.3449  -4.2269  -4.1156   4.8674   6.7510   6.7633   7.1285
     8.7334   8.7361   8.9704   9.3143   9.4649   9.4673

          k = 0.0000 0.0000 0.2375 (  2429 PWs)   bands (ev):

   -45.1405 -21.8451 -21.7387 -21.7371  -6.9438  -5.9341  -5.6662  -4.4033
    -4.4028  -4.3434  -4.2149  -4.1925   4.0019   6.8065   6.8165   7.3309
     8.4791   8.4851   8.8877   9.4012   9.5847   9.5859

          k = 0.0000 0.0000-0.4750 (  2402 PWs)   bands (ev):

   -45.1402 -21.8683 -21.7378 -21.7361  -6.7184  -5.8666  -5.6028  -4.4209
    -4.4204  -4.3419  -4.2755  -4.2045   3.4576   6.6356   6.8414   6.8483
     8.3205   8.3308   8.8092   9.6613   9.6618  10.6796

          k = 0.0000 0.1664 0.0000 (  2415 PWs)   bands (ev):

   -45.1405 -21.8208 -21.7584 -21.7388  -7.0063  -5.9616  -5.7051  -4.4101
    -4.3834  -4.3598  -4.2300  -4.1038   4.3765   6.8171   6.8733   7.1622
     8.6903   8.7587   8.9686   9.0880   9.1946   9.5873

          k = 0.0000 0.1664 0.2375 (  2426 PWs)   bands (ev):

   -45.1402 -21.8441 -21.7574 -21.7379  -6.8155  -5.9157  -5.6294  -4.4086
    -4.4018  -4.3589  -4.2239  -4.1439   3.7669   6.6004   6.9378   7.4140
     8.1509   8.4669   8.7897   9.1808   9.2564   9.9582

          k = 0.0000 0.1664-0.4750 (  2426 PWs)   bands (ev):

   -45.1398 -21.8671 -21.7563 -21.7369  -6.6183  -5.8635  -5.5508  -4.4201
    -4.4049  -4.3581  -4.2288  -4.1793   3.3117   6.2844   6.9755   7.0599
     7.9526   8.3214   8.8578   9.2391   9.3384  10.6025

          k = 0.0000 0.3328 0.0000 (  2422 PWs)   bands (ev):

   -45.1397 -21.8192 -21.7988 -21.7371  -6.6919  -5.8874  -5.6592  -4.4475
    -4.3895  -4.3801  -4.2254  -4.1087   3.7470   6.4536   7.1123   7.1545
     8.3487   8.3830   8.8224   8.8767   9.3140  10.2432

          k = 0.0000 0.3328 0.2375 (  2411 PWs)   bands (ev):

   -45.1394 -21.8419 -21.7977 -21.7361  -6.5675  -5.8444  -5.5620  -4.4143
    -4.3999  -4.3896  -4.2175  -4.0837   3.3787   6.3219   7.0222   7.2527
     7.7849   8.2093   8.3643   8.9335   9.4449  10.3217

          k = 0.0000 0.3328-0.4750 (  2422 PWs)   bands (ev):

   -45.1391 -21.8647 -21.7964 -21.7351  -6.4752  -5.7765  -5.4342  -4.4193
    -4.3900  -4.3732  -4.2537  -4.0307   3.0567   5.9973   6.7857   7.2944
     7.6723   7.8363   8.1526   8.9659   9.8833  10.1550

          k = 0.0000-0.4992 0.0000 (  2420 PWs)   bands (ev):

   -45.1393 -21.8193 -21.8179 -21.7362  -6.5186  -5.8306  -5.6640  -4.4637
    -4.4040  -4.3785  -4.2001  -4.1404   3.5273   6.0701   7.3802   7.3967
     7.8505   8.0014   8.7444   8.9151   9.3445  11.0477

          k = 0.0000-0.4992 0.2375 (  2422 PWs)   bands (ev):

   -45.1390 -21.8407 -21.8179 -21.7352  -6.4599  -5.7543  -5.5554  -4.4268
    -4.4049  -4.3988  -4.1836  -4.0797   3.2266   6.0413   7.0516   7.2955
     7.6045   7.7999   8.4734   8.9119   9.4464  10.5286

          k = 0.0000-0.4992-0.4750 (  2432 PWs)   bands (ev):

   -45.1387 -21.8633 -21.8164 -21.7342  -6.4414  -5.6726  -5.3799  -4.4189
    -4.4059  -4.3819  -4.2393  -3.9689   2.9549   5.8581   6.4749   7.3554
     7.6189   7.8296   7.8496   8.9094   9.8320  10.1815

          k = 0.1667 0.0000 0.0000 (  2419 PWs)   bands (ev):

   -45.1405 -21.8208 -21.7605 -21.7371  -7.0048  -5.9610  -5.7048  -4.4097
    -4.3839  -4.3600  -4.2299  -4.1033   4.3771   6.8231   6.8613   7.1598
     8.6946   8.7549   8.9700   9.0890   9.1934   9.5870

          k = 0.1667 0.0000 0.2375 (  2424 PWs)   bands (ev):

   -45.1401 -21.8441 -21.7594 -21.7362  -6.8137  -5.9155  -5.6292  -4.4082
    -4.4023  -4.3591  -4.2247  -4.1421   3.7682   6.6056   6.9282   7.4124
     8.1492   8.4609   8.7893   9.1856   9.2550   9.9597

          k = 0.1667 0.0000-0.4750 (  2426 PWs)   bands (ev):

   -45.1398 -21.8671 -21.7584 -21.7352  -6.6162  -5.8641  -5.5507  -4.4205
    -4.4048  -4.3583  -4.2296  -4.1766   3.3134   6.2883   6.9693   7.0576
     7.9554   8.3111   8.8549   9.2454   9.3362  10.6000

          k = 0.1667 0.1664 0.0000 (  2419 PWs)   bands (ev):

   -45.1401 -21.8200 -21.7595 -21.7574  -6.8623  -5.9259  -5.6961  -4.4157
    -4.4000  -4.3637  -4.2058  -4.0925   4.0446   6.7417   6.9930   7.2184
     8.2140   8.3276   9.0626   9.1040   9.4062   9.8229

          k = 0.1667 0.1664 0.2375 (  2421 PWs)   bands (ev):

   -45.1398 -21.8431 -21.7585 -21.7564  -6.6824  -5.8999  -5.6207  -4.4187
    -4.3950  -4.3576  -4.1952  -4.1083   3.6435   6.5183   6.6285   7.3563
     8.0451   8.0653   8.8718   9.2452   9.4845   9.9299

          k = 0.1667 0.1664-0.4750 (  2440 PWs)   bands (ev):

   -45.1394 -21.8660 -21.7574 -21.7554  -6.5036  -5.8738  -5.5328  -4.4317
    -4.3732  -4.3348  -4.2005  -4.1301   3.2792   6.3020   6.3564   7.0458
     7.9545   7.9902   8.7754   9.3210   9.5428  10.2980

          k = 0.1667 0.3328 0.0000 (  2425 PWs)   bands (ev):

   -45.1393 -21.8183 -21.7977 -21.7576  -6.5560  -5.8535  -5.6937  -4.4403
    -4.3889  -4.3479  -4.1814  -4.0977   3.5305   6.4512   6.9935   7.2906
     7.6724   8.2617   8.5681   9.2471   9.4333  10.3228

          k = 0.1667 0.3328 0.2375 (  2426 PWs)   bands (ev):

   -45.1390 -21.8410 -21.7966 -21.7566  -6.4278  -5.8438  -5.6107  -4.4157
    -4.3897  -4.3244  -4.1597  -4.0572   3.3834   6.2697   6.3994   6.9579
     7.4105   8.1046   8.9282   9.2042   9.5371  10.0318

          k = 0.1667 0.3328-0.4750 (  2420 PWs)   bands (ev):

   -45.1387 -21.8636 -21.7954 -21.7556  -6.3378  -5.8201  -5.4881  -4.4133
    -4.3637  -4.2831  -4.1722  -4.0030   3.1917   5.9140   6.3322   6.6581
     6.9028   7.9627   9.0369   9.2518   9.5372   9.9739

          k = 0.1667-0.4992 0.0000 (  2416 PWs)   bands (ev):

   -45.1389 -21.8181 -21.8170 -21.7567  -6.3885  -5.7996  -5.7196  -4.4434
    -4.3809  -4.3260  -4.1638  -4.1305   3.3307   6.0892   7.1097   7.3354
     7.6376   7.9829   8.4318   9.2801   9.4317  10.6545

          k = 0.1667-0.4992 0.2375 (  2422 PWs)   bands (ev):

   -45.1386 -21.8397 -21.8167 -21.7557  -6.3186  -5.7645  -5.6331  -4.4139
    -4.3760  -4.3023  -4.1365  -4.0517   3.2646   6.0457   6.2941   6.7010
     7.3720   8.2470   8.6968   9.2147   9.5464   9.9965

          k = 0.1667-0.4992-0.4750 (  2400 PWs)   bands (ev):

   -45.1383 -21.8622 -21.8154 -21.7547  -6.3028  -5.7307  -5.4712  -4.4079
    -4.3318  -4.2797  -4.1553  -3.9423   3.1507   5.8090   6.1633   6.3171
     6.7547   8.0748   8.9114   9.1651   9.1941  10.1910

          k = 0.3333 0.0000 0.0000 (  2422 PWs)   bands (ev):

   -45.1397 -21.8192 -21.8015 -21.7354  -6.6871  -5.8855  -5.6582  -4.4471
    -4.3901  -4.3805  -4.2243  -4.1079   3.7468   6.4462   7.1115   7.1422
     8.3515   8.3781   8.8236   8.8770   9.3136  10.2458

          k = 0.3333 0.0000 0.2375 (  2419 PWs)   bands (ev):

   -45.1394 -21.8419 -21.8004 -21.7344  -6.5626  -5.8435  -5.5612  -4.4138
    -4.4003  -4.3902  -4.2180  -4.0802   3.3813   6.3185   7.0192   7.2432
     7.7811   8.2037   8.3607   8.9299   9.4477  10.3243

          k = 0.3333 0.0000-0.4750 (  2422 PWs)   bands (ev):

   -45.1390 -21.8646 -21.7992 -21.7334  -6.4703  -5.7765  -5.4335  -4.4196
    -4.3906  -4.3727  -4.2540  -4.0260   3.0612   5.9987   6.7797   7.2896
     7.6650   7.8325   8.1424   8.9606   9.8928  10.1442

          k = 0.3333 0.1664 0.0000 (  2422 PWs)   bands (ev):

   -45.1393 -21.8183 -21.8004 -21.7555  -6.5529  -5.8521  -5.6930  -4.4402
    -4.3889  -4.3479  -4.1809  -4.0973   3.5301   6.4432   6.9912   7.2876
     7.6744   8.2623   8.5683   9.2413   9.4331  10.3264

          k = 0.3333 0.1664 0.2375 (  2424 PWs)   bands (ev):

   -45.1390 -21.8409 -21.7994 -21.7545  -6.4246  -5.8431  -5.6102  -4.4156
    -4.3896  -4.3245  -4.1607  -4.0545   3.3849   6.2664   6.3957   6.9567
     7.4101   8.1011   8.9191   9.2009   9.5392  10.0345

          k = 0.3333 0.1664-0.4750 (  2426 PWs)   bands (ev):

   -45.1386 -21.8636 -21.7982 -21.7535  -6.3349  -5.8197  -5.4876  -4.4132
    -4.3636  -4.2833  -4.1737  -3.9989   3.1949   5.9154   6.3290   6.6568
     6.8951   7.9604   9.0291   9.2435   9.5371   9.9766

          k = 0.3333 0.3328 0.0000 (  2432 PWs)   bands (ev):

   -45.1385 -21.8166 -21.7983 -21.7955  -6.2874  -5.7853  -5.7446  -4.4199
    -4.3691  -4.2755  -4.1004  -4.0983   3.1230   6.4330   6.5255   7.3967
     7.5494   7.6974   8.3633   9.0922   9.9091  10.0548

          k = 0.3333 0.3328 0.2375 (  2424 PWs)   bands (ev):

   -45.1382 -21.8389 -21.7974 -21.7945  -6.1496  -5.8336  -5.6996  -4.3776
    -4.3620  -4.2147  -4.0511  -4.0190   3.3122   5.9742   6.0462   6.4303
     7.0714   7.5780   8.9915   9.5000   9.5460   9.9253

          k = 0.3333 0.3328-0.4750 (  2426 PWs)   bands (ev):

   -45.1379 -21.8614 -21.7963 -21.7934  -6.0794  -5.8786  -5.5746  -4.3549
    -4.3355  -4.1488  -4.0013  -3.9405   3.4771   5.5702   5.5900   6.1774
     6.8290   6.9874   8.2415   9.8794   9.8951  10.0584

          k = 0.3333-0.4992 0.0000 (  2450 PWs)   bands (ev):

   -45.1381 -21.8157 -21.8152 -21.7972  -6.1671  -5.7601  -5.7426  -4.4114
    -4.3449  -4.2112  -4.1333  -4.0637   2.9360   6.0829   6.5671   7.2083
     7.7415   7.8629   7.9797   9.0598   9.7382  10.1129

          k = 0.3333-0.4992 0.2375 (  2426 PWs)   bands (ev):

   -45.1378 -21.8377 -21.8145 -21.7963  -6.0308  -5.7893  -5.7581  -4.3681
    -4.3332  -4.1202  -4.0490  -3.9891   3.2376   5.8677   6.0220   6.0893
     6.8522   7.6492   8.5194   9.4990   9.5280  10.0862

          k = 0.3333-0.4992-0.4750 (  2412 PWs)   bands (ev):

   -45.1375 -21.8601 -21.8134 -21.7953  -6.0196  -5.8330  -5.6131  -4.3372
    -4.3109  -4.0564  -3.9636  -3.8856   3.6166   5.3013   5.4957   5.9346
     6.5905   7.0001   7.4567   9.9835  10.0593  10.2155

          k =-0.5000 0.0000 0.0000 (  2428 PWs)   bands (ev):

   -45.1393 -21.8225 -21.8178 -21.7345  -6.5122  -5.8274  -5.6633  -4.4632
    -4.4048  -4.3789  -4.1972  -4.1408   3.5269   6.0586   7.3759   7.3820
     7.8553   7.9988   8.7444   8.9151   9.3442  11.0543

          k =-0.5000 0.0000 0.2375 (  2424 PWs)   bands (ev):

   -45.1390 -21.8406 -21.8210 -21.7335  -6.4540  -5.7517  -5.5549  -4.4262
    -4.4057  -4.3991  -4.1837  -4.0753   3.2298   6.0314   7.0521   7.2888
     7.5894   7.7998   8.4710   8.9081   9.4465  10.5291

          k =-0.5000 0.0000-0.4750 (  2432 PWs)   bands (ev):

   -45.1386 -21.8632 -21.8195 -21.7325  -6.4364  -5.6706  -5.3791  -4.4192
    -4.4067  -4.3815  -4.2390  -3.9633   2.9609   5.8558   6.4663   7.3495
     7.6201   7.8141   7.8452   8.9033   9.8188  10.1871

          k =-0.5000 0.1664 0.0000 (  2416 PWs)   bands (ev):

   -45.1389 -21.8213 -21.8169 -21.7546  -6.3841  -5.7967  -5.7191  -4.4432
    -4.3809  -4.3260  -4.1615  -4.1315   3.3299   6.0772   7.1046   7.3406
     7.6302   7.9859   8.4315   9.2736   9.4301  10.6612

          k =-0.5000 0.1664 0.2375 (  2424 PWs)   bands (ev):

   -45.1386 -21.8396 -21.8199 -21.7536  -6.3147  -5.7618  -5.6330  -4.4137
    -4.3758  -4.3026  -4.1377  -4.0477   3.2667   6.0360   6.2888   6.7035
     7.3723   8.2455   8.6817   9.2118   9.5464   9.9975

          k =-0.5000 0.1664-0.4750 (  2412 PWs)   bands (ev):

   -45.1382 -21.8622 -21.8186 -21.7525  -6.2999  -5.7282  -5.4707  -4.4077
    -4.3314  -4.2800  -4.1568  -3.9369   3.1557   5.8085   6.1577   6.3100
     6.7529   8.0741   8.8939   9.1593   9.1890  10.1954

          k =-0.5000 0.3328 0.0000 (  2450 PWs)   bands (ev):

   -45.1381 -21.8189 -21.8151 -21.7944  -6.1663  -5.7608  -5.7401  -4.4114
    -4.3449  -4.2093  -4.1352  -4.0630   2.9355   6.0719   6.5761   7.2078
     7.7404   7.8543   7.9869   9.0599   9.7310  10.1184

          k =-0.5000 0.3328 0.2375 (  2428 PWs)   bands (ev):

   -45.1378 -21.8377 -21.8178 -21.7935  -6.0307  -5.7865  -5.7588  -4.3683
    -4.3329  -4.1189  -4.0520  -3.9865   3.2379   5.8654   6.0183   6.0895
     6.8549   7.6498   8.5137   9.4988   9.5274  10.0836

          k =-0.5000 0.3328-0.4750 (  2420 PWs)   bands (ev):

   -45.1375 -21.8601 -21.8166 -21.7925  -6.0209  -5.8297  -5.6130  -4.3377
    -4.3101  -4.0559  -3.9675  -3.8809   3.6185   5.2994   5.5002   5.9288
     6.5840   7.0066   7.4507   9.9782  10.0547  10.2195

          k =-0.5000-0.4992 0.0000 (  2472 PWs)   bands (ev):

   -45.1378 -21.8178 -21.8145 -21.8138  -6.1103  -5.7171  -5.7148  -4.4003
    -4.2964  -4.1573  -4.1548  -4.0117   2.7419   5.9264   6.4019   7.4215
     7.4222   7.9721   7.9821   8.8276   9.2553  10.3768

          k =-0.5000-0.4992 0.2375 (  2420 PWs)   bands (ev):

   -45.1374 -21.8365 -21.8167 -21.8134  -5.8948  -5.8035  -5.8005  -4.3557
    -4.2942  -4.0110  -4.0072  -3.9772   3.1587   5.8834   5.9895   5.9930
     6.4085   7.5910   7.8592   9.5272   9.5287  10.3592

          k =-0.5000-0.4992-0.4750 (  2400 PWs)   bands (ev):

   -45.1371 -21.8589 -21.8156 -21.8123  -5.8788  -5.8753  -5.6727  -4.3111
    -4.2920  -3.9310  -3.8730  -3.8680   3.8336   5.3285   5.3316   5.7659
     6.4151   6.4407   6.6939  10.2273  10.2313  10.3416

     highest occupied level (ev):    11.0543

!    total energy              =    -380.57402206 Ry
     estimated scf accuracy    <          9.5E-09 Ry

     The total energy is the sum of the following terms:
     one-electron contribution =     -79.51247610 Ry
     hartree contribution      =      69.87735748 Ry
     xc contribution           =    -102.68308109 Ry
     ewald contribution        =    -268.25582235 Ry

     convergence has been achieved in  15 iterations

     negative rho (up, down):  1.531E-02 0.000E+00

     Forces acting on atoms (cartesian axes, Ry/au):

     atom    1 type  1   force =     0.00000000    0.00000000    0.00040683
     atom    2 type  2   force =     0.00000000    0.00000000   -0.00030245
     atom    3 type  3   force =     0.00000000    0.00000000   -0.00013673
     atom    4 type  3   force =     0.00000000    0.00000000   -0.00014977
     atom    5 type  3   force =     0.00000000    0.00000000    0.00018212

     Total force =     0.000576     Total SCF correction =     0.000301
     SCF correction compared to forces is large: reduce conv_thr to get better values


     Computing stress (Cartesian axis) and pressure


     negative rho (up, down):  1.531E-02 0.000E+00
          total   stress  (Ry/bohr**3)                   (kbar)     P=        3.12
   0.00003654   0.00000000   0.00000000            5.38        0.00        0.00
   0.00000000   0.00001655   0.00000000            0.00        2.43        0.00
   0.00000000   0.00000000   0.00001063            0.00        0.00        1.56


     BFGS Geometry Optimization
     Energy error            =      0.0E+00 Ry
     Gradient error          =      4.1E-04 Ry/Bohr

     bfgs converged in   1 scf cycles and   0 bfgs steps
     (criteria: energy <  1.0E-04 Ry, force <  1.0E-03 Ry/Bohr)

     End of BFGS Geometry Optimization

     Final energy             =    -380.5740220611 Ry
Begin final coordinates

ATOMIC_POSITIONS (crystal)
Pb               0.0000000000        0.0000000000        1.0051738283
Ti               0.5000000000        0.5000000000        0.5395344294
O                0.5000000000        0.5000000000        0.0995079024
O                0.5000000000        0.0000000000        0.6115340639
O                0.0000000000        0.5000000000        0.6115340639
End final coordinates



     Writing all to output data dir ./pto_T1_etam0p006.save/ :
     XML data file, charge density, pseudopotentials, collected wavefunctions
 
     init_run     :      0.45s CPU      0.55s WALL (       1 calls)
     electrons    :     19.44s CPU     20.68s WALL (       1 calls)
     forces       :      0.13s CPU      0.13s WALL (       1 calls)
     stress       :      1.37s CPU      1.39s WALL (       1 calls)

     Called by init_run:
     wfcinit      :      0.25s CPU      0.28s WALL (       1 calls)
     potinit      :      0.01s CPU      0.01s WALL (       1 calls)
     hinit0       :      0.11s CPU      0.14s WALL (       1 calls)

     Called by electrons:
     c_bands      :     17.03s CPU     18.06s WALL (      15 calls)
     sum_band     :      1.78s CPU      1.88s WALL (      15 calls)
     v_of_rho     :      0.02s CPU      0.03s WALL (      16 calls)
     newd         :      0.61s CPU      0.72s WALL (      16 calls)
     mix_rho      :      0.02s CPU      0.02s WALL (      15 calls)

     Called by c_bands:
     init_us_2    :      0.15s CPU      0.16s WALL (    1584 calls)
     init_us_2:cp :      0.15s CPU      0.16s WALL (    1584 calls)
     ccgdiagg     :     15.09s CPU     16.02s WALL (     720 calls)
     wfcrot       :      2.04s CPU      2.15s WALL (     720 calls)

     Called by *cgdiagg:
     h_psi        :      9.67s CPU     10.24s WALL (   57830 calls)
     s_psi        :      1.29s CPU      1.37s WALL (  114940 calls)

     Called by h_psi:
     h_psi:calbec :      1.53s CPU      1.62s WALL (   57830 calls)
     vloc_psi     :      6.97s CPU      7.37s WALL (   57830 calls)
     add_vuspsi   :      0.73s CPU      0.77s WALL (   57830 calls)
     hs_1psi      :      8.99s CPU      9.54s WALL (   57110 calls)
     s_1psi       :      2.12s CPU      2.25s WALL (   57110 calls)

     General routines
     calbec       :      2.71s CPU      2.88s WALL (  115900 calls)
     fft          :      0.03s CPU      0.05s WALL (     102 calls)
     ffts         :      0.00s CPU      0.00s WALL (      31 calls)
     fftw         :      5.95s CPU      6.29s WALL (  162604 calls)
     interpolate  :      0.01s CPU      0.01s WALL (      16 calls)
 
     Parallel routines
 
     PWSCF        :     21.65s CPU     23.45s WALL

 
   This run was terminated on:   0: 2:39  18Nov2025            

=------------------------------------------------------------------------------=
   JOB DONE.
=------------------------------------------------------------------------------=
TACC:  Shutdown complete. Exiting. 
