TACC:  Starting up job 2406359 
TACC:  Starting parallel tasks... 

     Program PWSCF v.7.3 starts on 24Sep2025 at  0:37:54 

     This program is part of the open-source Quantum ESPRESSO suite
     for quantum simulation of materials; please cite
         "P. Giannozzi et al., J. Phys.:Condens. Matter 21 395502 (2009);
         "P. Giannozzi et al., J. Phys.:Condens. Matter 29 465901 (2017);
         "P. Giannozzi et al., J. Chem. Phys. 152 154105 (2020);
          URL http://www.quantum-espresso.org", 
     in publications or presentations arising from this work. More details at
     http://www.quantum-espresso.org/quote

     Parallel version (MPI & OpenMP), running on      10 processor cores
     Number of MPI processes:                10
     Threads/MPI process:                     1

     MPI processes distributed on     1 nodes
     184908 MiB available memory on the printing compute node when the environment starts
 
     Waiting for input...
     Reading input from standard input
Warning: card &CELL ignored
Warning: card  CELL_DYNAMICS = 'BFGS', ignored
Warning: card  PRESS=0.D0, ignored
Warning: card / ignored
     Message from routine read_cards :
     DEPRECATED: no units specified in ATOMIC_POSITIONS card
     Message from routine read_cards :
     ATOMIC_POSITIONS: units set to alat

     Current dimensions of program PWSCF are:
     Max number of different atomic species (ntypx) = 10
     Max number of k-points (npk) =  40000
     Max angular momentum in pseudopotentials (lmaxx) =  4
 
     R & G space division:  proc/nbgrp/npool/nimage =      10
     Subspace diagonalization in iterative solution of the eigenvalue problem:
     a serial algorithm will be used

 
     Parallelization info
     --------------------
     sticks:   dense  smooth     PW     G-vecs:    dense   smooth      PW
     Min         425     170     48                20969     5292     820
     Max         426     171     49                20974     5295     823
     Sum        4257    1701    489               209713    52923    8217
 
     Using Slab Decomposition
 


     bravais-lattice index     =            1
     lattice parameter (alat)  =       7.3239  a.u.
     unit-cell volume          =     392.8436 (a.u.)^3
     number of atoms/cell      =            5
     number of atomic types    =            3
     number of electrons       =        40.00
     number of Kohn-Sham states=           20
     kinetic-energy cutoff     =     100.0000  Ry
     charge density cutoff     =    1000.0000  Ry
     scf convergence threshold =      1.0E-08
     mixing beta               =       0.7000
     number of iterations used =            8  plain     mixing
     Exchange-correlation= SLA  PZ   NOGX NOGC
                           (   1   1   0   0   0   0   0)

     celldm(1)=   7.323858  celldm(2)=   0.000000  celldm(3)=   0.000000
     celldm(4)=   0.000000  celldm(5)=   0.000000  celldm(6)=   0.000000

     crystal axes: (cart. coord. in units of alat)
               a(1) = (   1.000000   0.000000   0.000000 )  
               a(2) = (   0.000000   1.000000   0.000000 )  
               a(3) = (   0.000000   0.000000   1.000000 )  

     reciprocal axes: (cart. coord. in units 2 pi/alat)
               b(1) = (  1.000000  0.000000  0.000000 )  
               b(2) = (  0.000000  1.000000  0.000000 )  
               b(3) = (  0.000000  0.000000  1.000000 )  


     PseudoPot. # 1 for Ca read from file:
     /scratch/11018/zhc/assisgnment1/CaTiO3/Ca_LDA.UPF
     MD5 check sum: d2d4e7693e10d071152e9eeb7dd009f3
     Pseudo is Ultrasoft + core correction, Zval = 10.0
     Generated by new atomic code, or converted to UPF format
     Using radial grid of  845 points,  6 beta functions with: 
                l(1) =   0
                l(2) =   0
                l(3) =   1
                l(4) =   1
                l(5) =   2
                l(6) =   2
     Q(r) pseudized with  8 coefficients,  rinner =    1.500   1.500   1.500
                                                       1.500   1.500

     PseudoPot. # 2 for Ti read from file:
     /scratch/11018/zhc/assisgnment1/CaTiO3/Ti_LDA.UPF
     MD5 check sum: 0d9f225c038fe889ca2a701dcc8d72cb
     Pseudo is Ultrasoft + core correction, Zval = 12.0
     Generated by new atomic code, or converted to UPF format
     Using radial grid of  851 points,  6 beta functions with: 
                l(1) =   0
                l(2) =   0
                l(3) =   1
                l(4) =   1
                l(5) =   2
                l(6) =   2
     Q(r) pseudized with  6 coefficients,  rinner =    1.000   1.000   1.000
                                                       1.000   1.000

     PseudoPot. # 3 for O  read from file:
     /scratch/11018/zhc/assisgnment1/CaTiO3/O_LDA.UPF
     MD5 check sum: 194b818514d2a7dbb603bb78519a4f40
     Pseudo is Ultrasoft + core correction, Zval =  6.0
     Generated by new atomic code, or converted to UPF format
     Using radial grid of  737 points,  5 beta functions with: 
                l(1) =   0
                l(2) =   0
                l(3) =   1
                l(4) =   1
                l(5) =   2
     Q(r) pseudized with  8 coefficients,  rinner =    0.900   0.900   0.900
                                                       0.900   0.900

     atomic species   valence    mass     pseudopotential
     Ca               10.00    40.07800     Ca( 1.00)
     Ti               12.00    47.88000     Ti( 1.00)
     O                 6.00    16.00000     O ( 1.00)

     48 Sym. Ops., with inversion, found



   Cartesian axes

     site n.     atom                  positions (alat units)
         1        Ca     tau(   1) = (   0.0000000   0.0000000   0.0000000  )
         2        Ti     tau(   2) = (   0.5000000   0.5000000   0.5000000  )
         3        O      tau(   3) = (   0.5000000   0.5000000   0.0000000  )
         4        O      tau(   4) = (   0.5000000   0.0000000   0.5000000  )
         5        O      tau(   5) = (   0.0000000   0.5000000   0.5000000  )

     number of k points=    20
                       cart. coord. in units 2pi/alat
        k(    1) = (   0.0000000   0.0000000   0.0000000), wk =   0.0092593
        k(    2) = (   0.0000000   0.0000000   0.1666667), wk =   0.0555556
        k(    3) = (   0.0000000   0.0000000   0.3333333), wk =   0.0555556
        k(    4) = (   0.0000000   0.0000000  -0.5000000), wk =   0.0277778
        k(    5) = (   0.0000000   0.1666667   0.1666667), wk =   0.1111111
        k(    6) = (   0.0000000   0.1666667   0.3333333), wk =   0.2222222
        k(    7) = (   0.0000000   0.1666667  -0.5000000), wk =   0.1111111
        k(    8) = (   0.0000000   0.3333333   0.3333333), wk =   0.1111111
        k(    9) = (   0.0000000   0.3333333  -0.5000000), wk =   0.1111111
        k(   10) = (   0.0000000  -0.5000000  -0.5000000), wk =   0.0277778
        k(   11) = (   0.1666667   0.1666667   0.1666667), wk =   0.0740741
        k(   12) = (   0.1666667   0.1666667   0.3333333), wk =   0.2222222
        k(   13) = (   0.1666667   0.1666667  -0.5000000), wk =   0.1111111
        k(   14) = (   0.1666667   0.3333333   0.3333333), wk =   0.2222222
        k(   15) = (   0.1666667   0.3333333  -0.5000000), wk =   0.2222222
        k(   16) = (   0.1666667  -0.5000000  -0.5000000), wk =   0.0555556
        k(   17) = (   0.3333333   0.3333333   0.3333333), wk =   0.0740741
        k(   18) = (   0.3333333   0.3333333  -0.5000000), wk =   0.1111111
        k(   19) = (   0.3333333  -0.5000000  -0.5000000), wk =   0.0555556
        k(   20) = (  -0.5000000  -0.5000000  -0.5000000), wk =   0.0092593

     Dense  grid:   209713 G-vectors     FFT dimensions: (  75,  75,  75)

     Smooth grid:    52923 G-vectors     FFT dimensions: (  48,  48,  48)

     Estimated max dynamical RAM per process >      89.92 MB

     Estimated total dynamical RAM >     899.15 MB

     Check: negative core charge=   -0.000001

     Initial potential from superposition of free atoms

     starting charge      38.9952, renormalised to      40.0000

     negative rho (up, down):  8.445E-04 0.000E+00
     Starting wfcs are   32 randomized atomic wfcs

     total cpu time spent up to now is        1.0 secs

     Self-consistent Calculation

     iteration #  1     ecut=   100.00 Ry     beta= 0.70
     CG style diagonalization
     ethr =  1.00E-02,  avg # of iterations =  2.2

     negative rho (up, down):  1.107E-03 0.000E+00

     total cpu time spent up to now is        1.8 secs

     total energy              =    -291.30412941 Ry
     estimated scf accuracy    <       0.83133882 Ry

     iteration #  2     ecut=   100.00 Ry     beta= 0.70
     CG style diagonalization
     ethr =  2.08E-03,  avg # of iterations =  5.1

     negative rho (up, down):  6.493E-04 0.000E+00

     total cpu time spent up to now is        3.0 secs

     total energy              =    -290.63775545 Ry
     estimated scf accuracy    <       6.32975232 Ry

     iteration #  3     ecut=   100.00 Ry     beta= 0.70
     CG style diagonalization
     ethr =  2.08E-03,  avg # of iterations =  4.6

     negative rho (up, down):  7.455E-04 0.000E+00

     total cpu time spent up to now is        4.2 secs

     total energy              =    -291.73298070 Ry
     estimated scf accuracy    <       0.16516498 Ry

     iteration #  4     ecut=   100.00 Ry     beta= 0.70
     CG style diagonalization
     ethr =  4.13E-04,  avg # of iterations =  3.6

     negative rho (up, down):  8.189E-04 0.000E+00

     total cpu time spent up to now is        5.1 secs

     total energy              =    -291.74659352 Ry
     estimated scf accuracy    <       0.05195907 Ry

     iteration #  5     ecut=   100.00 Ry     beta= 0.70
     CG style diagonalization
     ethr =  1.30E-04,  avg # of iterations =  3.5

     negative rho (up, down):  8.574E-04 0.000E+00

     total cpu time spent up to now is        6.0 secs

     total energy              =    -291.75545847 Ry
     estimated scf accuracy    <       0.00122129 Ry

     iteration #  6     ecut=   100.00 Ry     beta= 0.70
     CG style diagonalization
     ethr =  3.05E-06,  avg # of iterations =  4.5

     negative rho (up, down):  8.543E-04 0.000E+00

     total cpu time spent up to now is        7.1 secs

     total energy              =    -291.75692291 Ry
     estimated scf accuracy    <       0.00085738 Ry

     iteration #  7     ecut=   100.00 Ry     beta= 0.70
     CG style diagonalization
     ethr =  2.14E-06,  avg # of iterations =  3.2

     negative rho (up, down):  8.488E-04 0.000E+00

     total cpu time spent up to now is        8.0 secs

     total energy              =    -291.75690376 Ry
     estimated scf accuracy    <       0.00029387 Ry

     iteration #  8     ecut=   100.00 Ry     beta= 0.70
     CG style diagonalization
     ethr =  7.35E-07,  avg # of iterations =  3.5

     negative rho (up, down):  8.473E-04 0.000E+00

     total cpu time spent up to now is        8.9 secs

     total energy              =    -291.75695944 Ry
     estimated scf accuracy    <       0.00000294 Ry

     iteration #  9     ecut=   100.00 Ry     beta= 0.70
     CG style diagonalization
     ethr =  7.34E-09,  avg # of iterations =  4.7

     negative rho (up, down):  8.471E-04 0.000E+00

     total cpu time spent up to now is       10.0 secs

     total energy              =    -291.75696684 Ry
     estimated scf accuracy    <       0.00000240 Ry

     iteration # 10     ecut=   100.00 Ry     beta= 0.70
     CG style diagonalization
     ethr =  5.99E-09,  avg # of iterations =  3.4

     negative rho (up, down):  8.473E-04 0.000E+00

     total cpu time spent up to now is       10.9 secs

     total energy              =    -291.75696690 Ry
     estimated scf accuracy    <       0.00000057 Ry

     iteration # 11     ecut=   100.00 Ry     beta= 0.70
     CG style diagonalization
     ethr =  1.43E-09,  avg # of iterations =  3.6

     negative rho (up, down):  8.473E-04 0.000E+00

     total cpu time spent up to now is       11.9 secs

     End of self-consistent calculation

          k = 0.0000 0.0000 0.0000 (  6619 PWs)   bands (ev):

   -46.9162 -29.9816 -23.5193 -23.5193 -23.5193 -11.1799 -11.1799 -11.1799
    -8.4301  -7.3007  -7.3007   5.7388   5.7388   5.7388   7.6638   7.6638
     7.6638   8.3943   8.3943   8.3943

          k = 0.0000 0.0000 0.1667 (  6647 PWs)   bands (ev):

   -46.9158 -29.9801 -23.5387 -23.5184 -23.5184 -11.2472 -11.1770 -11.1770
    -8.2636  -7.2902  -7.2190   5.4284   5.7524   5.7524   7.2948   7.2948
     7.4322   7.5775   8.2635   8.2635

          k = 0.0000 0.0000 0.3333 (  6631 PWs)   bands (ev):

   -46.9152 -29.9770 -23.5769 -23.5166 -23.5166 -11.3715 -11.1712 -11.1712
    -7.9288  -7.2689  -7.0472   4.7554   5.8323   5.8323   6.4658   6.6307
     6.6307   7.0300   8.1455   8.1455

          k = 0.0000 0.0000-0.5000 (  6568 PWs)   bands (ev):

   -46.9149 -29.9754 -23.5959 -23.5156 -23.5156 -11.4295 -11.1682 -11.1682
    -7.7614  -7.2582  -6.9533   4.3801   5.9911   5.9911   6.0656   6.2276
     6.2276   6.8512   8.1044   8.1044

          k = 0.0000 0.1667 0.1667 (  6659 PWs)   bands (ev):

   -46.9155 -29.9785 -23.5381 -23.5376 -23.5175 -11.2565 -11.2167 -11.1739
    -8.1151  -7.2476  -7.1732   5.2417   5.6058   5.7616   6.5701   7.0560
     7.4752   7.5841   7.8903   8.0302

          k = 0.0000 0.1667 0.3333 (  6645 PWs)   bands (ev):

   -46.9149 -29.9752 -23.5764 -23.5362 -23.5157 -11.3511 -11.2136 -11.1677
    -7.8256  -7.2117  -7.0099   4.7043   5.3210   5.8281   5.8392   6.5205
     6.7828   7.5407   7.7899   7.8219

          k = 0.0000 0.1667-0.5000 (  6630 PWs)   bands (ev):

   -46.9145 -29.9736 -23.5954 -23.5354 -23.5148 -11.4014 -11.2065 -11.1646
    -7.6908  -7.1937  -6.9085   4.3752   5.0444   5.7045   5.9811   6.1503
     6.5563   7.5340   7.6832   7.7623

          k = 0.0000 0.3333 0.3333 (  6628 PWs)   bands (ev):

   -46.9142 -29.9718 -23.5754 -23.5749 -23.5139 -11.3212 -11.2851 -11.1608
    -7.6834  -7.0360  -6.9114   4.3790   4.8832   4.9400   5.8484   6.2449
     6.8504   7.0282   7.4216   8.3662

          k = 0.0000 0.3333-0.5000 (  6638 PWs)   bands (ev):

   -46.9139 -29.9701 -23.5945 -23.5746 -23.5130 -11.3452 -11.2808 -11.1574
    -7.6458  -6.9443  -6.8198   4.2003   4.3445   4.8815   5.9518   6.0021
     6.7780   7.0049   7.2900   8.5078

          k = 0.0000-0.5000-0.5000 (  6632 PWs)   bands (ev):

   -46.9136 -29.9684 -23.5940 -23.5940 -23.5122 -11.3171 -11.3171 -11.1537
    -7.6525  -6.7759  -6.7759   3.8954   4.2186   4.5196   5.9309   5.9309
     6.8862   6.8862   7.1123   8.7613

          k = 0.1667 0.1667 0.1667 (  6652 PWs)   bands (ev):

   -46.9152 -29.9768 -23.5371 -23.5371 -23.5368 -11.2605 -11.2105 -11.2105
    -7.9738  -7.1719  -7.1719   5.0748   5.5879   5.5879   6.4718   6.4718
     6.9720   7.8265   7.8265   7.9376

          k = 0.1667 0.1667 0.3333 (  6638 PWs)   bands (ev):

   -46.9145 -29.9736 -23.5756 -23.5355 -23.5352 -11.3329 -11.2155 -11.1980
    -7.7012  -7.1695  -6.9926   4.6533   5.2376   5.4729   5.7056   5.9786
     6.8055   7.5753   7.7681   7.9337

          k = 0.1667 0.1667-0.5000 (  6642 PWs)   bands (ev):

   -46.9142 -29.9719 -23.5948 -23.5348 -23.5342 -11.3769 -11.2085 -11.1918
    -7.5760  -7.1683  -6.8808   4.3733   4.9312   5.3492   5.5017   5.8832
     6.8715   7.4203   7.7435   7.8443

          k = 0.1667 0.3333 0.3333 (  6612 PWs)   bands (ev):

   -46.9139 -29.9702 -23.5743 -23.5741 -23.5335 -11.3066 -11.2737 -11.1926
    -7.5194  -7.0270  -6.9274   4.4052   4.9183   4.9370   5.3552   5.5933
     6.3518   7.6563   7.6959   8.3938

          k = 0.1667 0.3333-0.5000 (  6624 PWs)   bands (ev):

   -46.9136 -29.9685 -23.5935 -23.5735 -23.5326 -11.3281 -11.2705 -11.1867
    -7.4725  -6.9667  -6.8266   4.2950   4.3504   4.8753   5.2672   5.4690
     6.3556   7.6114   7.6813   8.5301

          k = 0.1667-0.5000-0.5000 (  6656 PWs)   bands (ev):

   -46.9133 -29.9668 -23.5928 -23.5928 -23.5317 -11.3037 -11.3037 -11.1812
    -7.4718  -6.8000  -6.8000   4.0228   4.2309   4.5241   5.2882   5.2882
     6.3111   7.6478   7.6478   8.7853

          k = 0.3333 0.3333 0.3333 (  6641 PWs)   bands (ev):

   -46.9133 -29.9670 -23.5726 -23.5721 -23.5721 -11.2820 -11.2506 -11.2506
    -7.2162  -6.9599  -6.9599   4.3849   4.8292   4.8292   5.0406   5.0681
     5.0681   8.2057   8.2057   8.5330

          k = 0.3333 0.3333-0.5000 (  6644 PWs)   bands (ev):

   -46.9129 -29.9653 -23.5915 -23.5716 -23.5710 -11.2937 -11.2551 -11.2389
    -7.1354  -6.9763  -6.8411   4.3415   4.4256   4.6506   4.7375   5.0212
     5.1033   8.2962   8.3907   8.6401

          k = 0.3333-0.5000-0.5000 (  6636 PWs)   bands (ev):

   -46.9126 -29.9637 -23.5905 -23.5905 -23.5703 -11.2764 -11.2764 -11.2356
    -7.0837  -6.8488  -6.8488   4.2300   4.2853   4.5331   4.6493   4.6493
     5.0117   8.5190   8.5190   8.8345

          k =-0.5000-0.5000-0.5000 (  6704 PWs)   bands (ev):

   -46.9123 -29.9622 -23.5894 -23.5894 -23.5894 -11.2625 -11.2625 -11.2625
    -6.8734  -6.8734  -6.8734   4.1265   4.4209   4.4209   4.4209   4.5376
     4.5376   8.8596   8.8596   8.8596

     highest occupied level (ev):     8.8596

!    total energy              =    -291.75696703 Ry
     estimated scf accuracy    <          5.7E-09 Ry

     The total energy is the sum of the following terms:
     one-electron contribution =     -91.79584436 Ry
     hartree contribution      =      65.41376666 Ry
     xc contribution           =     -51.25706130 Ry
     ewald contribution        =    -214.11782802 Ry

     convergence has been achieved in  11 iterations

     negative rho (up, down):  8.473E-04 0.000E+00

     Forces acting on atoms (cartesian axes, Ry/au):

     atom    1 type  1   force =     0.00000000    0.00000000    0.00000000
     atom    2 type  2   force =     0.00000000    0.00000000    0.00000000
     atom    3 type  3   force =     0.00000000    0.00000000    0.00000000
     atom    4 type  3   force =     0.00000000    0.00000000    0.00000000
     atom    5 type  3   force =     0.00000000    0.00000000    0.00000000

     Total force =     0.000000     Total SCF correction =     0.000000


     Computing stress (Cartesian axis) and pressure


     negative rho (up, down):  8.473E-04 0.000E+00
          total   stress  (Ry/bohr**3)                   (kbar)     P=      -97.79
  -0.00066473   0.00000000   0.00000000          -97.79        0.00        0.00
   0.00000000  -0.00066473   0.00000000            0.00      -97.79        0.00
   0.00000000   0.00000000  -0.00066473            0.00        0.00      -97.79


     Writing all to output data dir ./CTO_CELLDM_6.save/ :
     XML data file, charge density, pseudopotentials, collected wavefunctions
 
     init_run     :      0.51s CPU      0.61s WALL (       1 calls)
     electrons    :     10.36s CPU     11.00s WALL (       1 calls)
     forces       :      0.23s CPU      0.24s WALL (       1 calls)
     stress       :      1.73s CPU      1.78s WALL (       1 calls)

     Called by init_run:
     wfcinit      :      0.19s CPU      0.22s WALL (       1 calls)
     potinit      :      0.02s CPU      0.02s WALL (       1 calls)
     hinit0       :      0.15s CPU      0.18s WALL (       1 calls)

     Called by electrons:
     c_bands      :      7.03s CPU      7.28s WALL (      11 calls)
     sum_band     :      2.00s CPU      2.12s WALL (      11 calls)
     v_of_rho     :      0.04s CPU      0.04s WALL (      12 calls)
     newd         :      1.35s CPU      1.49s WALL (      12 calls)
     mix_rho      :      0.03s CPU      0.03s WALL (      11 calls)

     Called by c_bands:
     init_us_2    :      0.13s CPU      0.13s WALL (     500 calls)
     init_us_2:cp :      0.13s CPU      0.13s WALL (     500 calls)
     ccgdiagg     :      6.02s CPU      6.24s WALL (     220 calls)
     wfcrot       :      1.08s CPU      1.14s WALL (     220 calls)

     Called by *cgdiagg:
     h_psi        :      4.48s CPU      4.64s WALL (   13005 calls)
     s_psi        :      0.68s CPU      0.70s WALL (   25790 calls)

     Called by h_psi:
     h_psi:calbec :      0.76s CPU      0.79s WALL (   13005 calls)
     vloc_psi     :      3.19s CPU      3.30s WALL (   13005 calls)
     add_vuspsi   :      0.41s CPU      0.42s WALL (   13005 calls)
     hs_1psi      :      3.97s CPU      4.11s WALL (   12785 calls)
     s_1psi       :      0.90s CPU      0.93s WALL (   12785 calls)

     General routines
     calbec       :      1.31s CPU      1.36s WALL (   26110 calls)
     fft          :      0.06s CPU      0.08s WALL (      78 calls)
     ffts         :      0.00s CPU      0.00s WALL (      23 calls)
     fftw         :      2.50s CPU      2.59s WALL (   39250 calls)
     interpolate  :      0.01s CPU      0.02s WALL (      12 calls)
 
     Parallel routines
 
     PWSCF        :     13.06s CPU     15.39s WALL

 
   This run was terminated on:   0:38: 9  24Sep2025            

=------------------------------------------------------------------------------=
   JOB DONE.
=------------------------------------------------------------------------------=
TACC:  Shutdown complete. Exiting. 
