TACC:  Starting up job 2388096 
TACC:  Starting parallel tasks... 

     Program PWSCF v.7.3 starts on 19Sep2025 at 17:24: 3 

     This program is part of the open-source Quantum ESPRESSO suite
     for quantum simulation of materials; please cite
         "P. Giannozzi et al., J. Phys.:Condens. Matter 21 395502 (2009);
         "P. Giannozzi et al., J. Phys.:Condens. Matter 29 465901 (2017);
         "P. Giannozzi et al., J. Chem. Phys. 152 154105 (2020);
          URL http://www.quantum-espresso.org", 
     in publications or presentations arising from this work. More details at
     http://www.quantum-espresso.org/quote

     Parallel version (MPI & OpenMP), running on      10 processor cores
     Number of MPI processes:                10
     Threads/MPI process:                     1

     MPI processes distributed on     1 nodes
     182737 MiB available memory on the printing compute node when the environment starts
 
     Waiting for input...
     Reading input from standard input
Warning: card &CELL ignored
Warning: card  CELL_DYNAMICS = 'BFGS', ignored
Warning: card  PRESS=0.D0, ignored
Warning: card / ignored
     Message from routine read_cards :
     DEPRECATED: no units specified in ATOMIC_POSITIONS card
     Message from routine read_cards :
     ATOMIC_POSITIONS: units set to alat

     Current dimensions of program PWSCF are:
     Max number of different atomic species (ntypx) = 10
     Max number of k-points (npk) =  40000
     Max angular momentum in pseudopotentials (lmaxx) =  4
 
     R & G space division:  proc/nbgrp/npool/nimage =      10
     Subspace diagonalization in iterative solution of the eigenvalue problem:
     a serial algorithm will be used

 
     Parallelization info
     --------------------
     sticks:   dense  smooth     PW     G-vecs:    dense   smooth      PW
     Min          86      34     11                 1909      480      94
     Max          87      36     13                 1911      481      96
     Sum         869     349    121                19093     4801     949
 
     Using Slab Decomposition
 


     bravais-lattice index     =            1
     lattice parameter (alat)  =       7.3573  a.u.
     unit-cell volume          =     398.2496 (a.u.)^3
     number of atoms/cell      =            5
     number of atomic types    =            3
     number of electrons       =        40.00
     number of Kohn-Sham states=           20
     kinetic-energy cutoff     =      20.0000  Ry
     charge density cutoff     =     200.0000  Ry
     scf convergence threshold =      1.0E-08
     mixing beta               =       0.7000
     number of iterations used =            8  plain     mixing
     Exchange-correlation= SLA  PZ   NOGX NOGC
                           (   1   1   0   0   0   0   0)

     celldm(1)=   7.357300  celldm(2)=   0.000000  celldm(3)=   0.000000
     celldm(4)=   0.000000  celldm(5)=   0.000000  celldm(6)=   0.000000

     crystal axes: (cart. coord. in units of alat)
               a(1) = (   1.000000   0.000000   0.000000 )  
               a(2) = (   0.000000   1.000000   0.000000 )  
               a(3) = (   0.000000   0.000000   1.000000 )  

     reciprocal axes: (cart. coord. in units 2 pi/alat)
               b(1) = (  1.000000  0.000000  0.000000 )  
               b(2) = (  0.000000  1.000000  0.000000 )  
               b(3) = (  0.000000  0.000000  1.000000 )  


     PseudoPot. # 1 for Ca read from file:
     /scratch/11018/zhc/assisgnment1/CaTiO3/Ca_LDA.UPF
     MD5 check sum: d2d4e7693e10d071152e9eeb7dd009f3
     Pseudo is Ultrasoft + core correction, Zval = 10.0
     Generated by new atomic code, or converted to UPF format
     Using radial grid of  845 points,  6 beta functions with: 
                l(1) =   0
                l(2) =   0
                l(3) =   1
                l(4) =   1
                l(5) =   2
                l(6) =   2
     Q(r) pseudized with  8 coefficients,  rinner =    1.500   1.500   1.500
                                                       1.500   1.500

     PseudoPot. # 2 for Ti read from file:
     /scratch/11018/zhc/assisgnment1/CaTiO3/Ti_LDA.UPF
     MD5 check sum: 0d9f225c038fe889ca2a701dcc8d72cb
     Pseudo is Ultrasoft + core correction, Zval = 12.0
     Generated by new atomic code, or converted to UPF format
     Using radial grid of  851 points,  6 beta functions with: 
                l(1) =   0
                l(2) =   0
                l(3) =   1
                l(4) =   1
                l(5) =   2
                l(6) =   2
     Q(r) pseudized with  6 coefficients,  rinner =    1.000   1.000   1.000
                                                       1.000   1.000

     PseudoPot. # 3 for O  read from file:
     /scratch/11018/zhc/assisgnment1/CaTiO3/O_LDA.UPF
     MD5 check sum: 194b818514d2a7dbb603bb78519a4f40
     Pseudo is Ultrasoft + core correction, Zval =  6.0
     Generated by new atomic code, or converted to UPF format
     Using radial grid of  737 points,  5 beta functions with: 
                l(1) =   0
                l(2) =   0
                l(3) =   1
                l(4) =   1
                l(5) =   2
     Q(r) pseudized with  8 coefficients,  rinner =    0.900   0.900   0.900
                                                       0.900   0.900

     atomic species   valence    mass     pseudopotential
     Ca               10.00    40.07800     Ca( 1.00)
     Ti               12.00    47.88000     Ti( 1.00)
     O                 6.00    16.00000     O ( 1.00)

      8 Sym. Ops. (no inversion) found



   Cartesian axes

     site n.     atom                  positions (alat units)
         1        Ca     tau(   1) = (   0.0000000   0.0000000   0.0500000  )
         2        Ti     tau(   2) = (   0.5000000   0.5000000   0.5000000  )
         3        O      tau(   3) = (   0.5000000   0.5000000   0.0000000  )
         4        O      tau(   4) = (   0.5000000   0.0000000   0.5000000  )
         5        O      tau(   5) = (   0.0000000   0.5000000   0.5000000  )

     number of k points=    40
                       cart. coord. in units 2pi/alat
        k(    1) = (   0.0000000   0.0000000   0.0000000), wk =   0.0092593
        k(    2) = (   0.0000000   0.0000000   0.1666667), wk =   0.0185185
        k(    3) = (   0.0000000   0.0000000   0.3333333), wk =   0.0185185
        k(    4) = (   0.0000000   0.0000000  -0.5000000), wk =   0.0092593
        k(    5) = (   0.0000000   0.1666667   0.1666667), wk =   0.0740741
        k(    6) = (   0.0000000   0.1666667   0.3333333), wk =   0.0740741
        k(    7) = (   0.0000000   0.1666667  -0.5000000), wk =   0.0370370
        k(    8) = (   0.0000000   0.3333333   0.3333333), wk =   0.0740741
        k(    9) = (   0.0000000   0.3333333  -0.5000000), wk =   0.0370370
        k(   10) = (   0.0000000  -0.5000000  -0.5000000), wk =   0.0185185
        k(   11) = (   0.1666667   0.1666667   0.1666667), wk =   0.0740741
        k(   12) = (   0.1666667   0.1666667   0.3333333), wk =   0.0740741
        k(   13) = (   0.1666667   0.1666667  -0.5000000), wk =   0.0370370
        k(   14) = (   0.1666667   0.3333333   0.3333333), wk =   0.1481481
        k(   15) = (   0.1666667   0.3333333  -0.5000000), wk =   0.0740741
        k(   16) = (   0.1666667  -0.5000000  -0.5000000), wk =   0.0370370
        k(   17) = (   0.3333333   0.3333333   0.3333333), wk =   0.0740741
        k(   18) = (   0.3333333   0.3333333  -0.5000000), wk =   0.0370370
        k(   19) = (   0.3333333  -0.5000000  -0.5000000), wk =   0.0370370
        k(   20) = (  -0.5000000  -0.5000000  -0.5000000), wk =   0.0092593
        k(   21) = (   0.1666667   0.0000000   0.0000000), wk =   0.0370370
        k(   22) = (   0.3333333   0.0000000   0.0000000), wk =   0.0370370
        k(   23) = (  -0.5000000   0.0000000   0.0000000), wk =   0.0185185
        k(   24) = (   0.1666667  -0.1666667   0.0000000), wk =   0.0370370
        k(   25) = (   0.3333333  -0.1666667   0.0000000), wk =   0.0740741
        k(   26) = (   0.0000000   0.3333333   0.1666667), wk =   0.0740741
        k(   27) = (  -0.5000000  -0.1666667   0.0000000), wk =   0.0370370
        k(   28) = (   0.0000000  -0.5000000   0.1666667), wk =   0.0370370
        k(   29) = (   0.3333333  -0.3333333   0.0000000), wk =   0.0370370
        k(   30) = (  -0.5000000  -0.3333333   0.0000000), wk =   0.0370370
        k(   31) = (   0.0000000  -0.5000000   0.3333333), wk =   0.0370370
        k(   32) = (  -0.5000000   0.5000000   0.0000000), wk =   0.0092593
        k(   33) = (   0.3333333  -0.1666667   0.1666667), wk =   0.1481481
        k(   34) = (  -0.5000000  -0.1666667   0.1666667), wk =   0.0740741
        k(   35) = (   0.3333333  -0.3333333   0.1666667), wk =   0.0740741
        k(   36) = (  -0.5000000  -0.3333333   0.1666667), wk =   0.0740741
        k(   37) = (  -0.1666667  -0.5000000   0.3333333), wk =   0.0740741
        k(   38) = (  -0.5000000   0.5000000   0.1666667), wk =   0.0185185
        k(   39) = (  -0.5000000  -0.3333333   0.3333333), wk =   0.0740741
        k(   40) = (  -0.5000000   0.5000000   0.3333333), wk =   0.0185185

     Dense  grid:    19093 G-vectors     FFT dimensions: (  36,  36,  36)

     Smooth grid:     4801 G-vectors     FFT dimensions: (  24,  24,  24)

     Estimated max dynamical RAM per process >      11.34 MB

     Estimated total dynamical RAM >     113.41 MB

     Check: negative core charge=   -0.000005

     Initial potential from superposition of free atoms

     starting charge      38.9952, renormalised to      40.0000

     negative rho (up, down):  1.502E-03 0.000E+00
     Starting wfcs are   32 randomized atomic wfcs

     total cpu time spent up to now is        0.5 secs

     Self-consistent Calculation

     iteration #  1     ecut=    20.00 Ry     beta= 0.70
     CG style diagonalization
     ethr =  1.00E-02,  avg # of iterations =  2.3

     negative rho (up, down):  1.681E-03 0.000E+00

     total cpu time spent up to now is        0.9 secs

     total energy              =    -290.77943162 Ry
     estimated scf accuracy    <       0.51351537 Ry

     iteration #  2     ecut=    20.00 Ry     beta= 0.70
     CG style diagonalization
     ethr =  1.28E-03,  avg # of iterations =  4.6

     negative rho (up, down):  1.403E-03 0.000E+00

     total cpu time spent up to now is        1.6 secs

     total energy              =    -290.60953984 Ry
     estimated scf accuracy    <       1.71635688 Ry

     iteration #  3     ecut=    20.00 Ry     beta= 0.70
     CG style diagonalization
     ethr =  1.28E-03,  avg # of iterations =  4.1

     negative rho (up, down):  1.454E-03 0.000E+00

     total cpu time spent up to now is        2.1 secs

     total energy              =    -290.97295506 Ry
     estimated scf accuracy    <       0.08148761 Ry

     iteration #  4     ecut=    20.00 Ry     beta= 0.70
     CG style diagonalization
     ethr =  2.04E-04,  avg # of iterations =  3.5

     negative rho (up, down):  1.473E-03 0.000E+00

     total cpu time spent up to now is        2.6 secs

     total energy              =    -290.98264921 Ry
     estimated scf accuracy    <       0.00810277 Ry

     iteration #  5     ecut=    20.00 Ry     beta= 0.70
     CG style diagonalization
     ethr =  2.03E-05,  avg # of iterations =  3.9

     negative rho (up, down):  1.469E-03 0.000E+00

     total cpu time spent up to now is        3.1 secs

     total energy              =    -290.98551263 Ry
     estimated scf accuracy    <       0.00059444 Ry

     iteration #  6     ecut=    20.00 Ry     beta= 0.70
     CG style diagonalization
     ethr =  1.49E-06,  avg # of iterations =  3.9

     negative rho (up, down):  1.463E-03 0.000E+00

     total cpu time spent up to now is        3.7 secs

     total energy              =    -290.98564713 Ry
     estimated scf accuracy    <       0.00026740 Ry

     iteration #  7     ecut=    20.00 Ry     beta= 0.70
     CG style diagonalization
     ethr =  6.69E-07,  avg # of iterations =  3.6

     negative rho (up, down):  1.463E-03 0.000E+00

     total cpu time spent up to now is        4.2 secs

     total energy              =    -290.98569456 Ry
     estimated scf accuracy    <       0.00000779 Ry

     iteration #  8     ecut=    20.00 Ry     beta= 0.70
     CG style diagonalization
     ethr =  1.95E-08,  avg # of iterations =  4.2

     negative rho (up, down):  1.463E-03 0.000E+00

     total cpu time spent up to now is        4.8 secs

     total energy              =    -290.98570001 Ry
     estimated scf accuracy    <       0.00000045 Ry

     iteration #  9     ecut=    20.00 Ry     beta= 0.70
     CG style diagonalization
     ethr =  1.13E-09,  avg # of iterations =  3.9

     negative rho (up, down):  1.463E-03 0.000E+00

     total cpu time spent up to now is        5.3 secs

     total energy              =    -290.98570015 Ry
     estimated scf accuracy    <       0.00000007 Ry

     iteration # 10     ecut=    20.00 Ry     beta= 0.70
     CG style diagonalization
     ethr =  1.77E-10,  avg # of iterations =  3.9

     negative rho (up, down):  1.463E-03 0.000E+00

     total cpu time spent up to now is        5.9 secs

     End of self-consistent calculation

          k = 0.0000 0.0000 0.0000 (   619 PWs)   bands (ev):

   -47.6122 -30.0874 -24.1108 -24.1108 -24.1022 -11.2962 -11.2695 -11.2695
    -9.0358  -7.9992  -7.9483   5.5726   5.5759   5.5759   7.5459   7.5514
     7.5514   8.0299   8.0299   8.0476

          k = 0.0000 0.0000 0.1667 (   611 PWs)   bands (ev):

   -47.6113 -30.0858 -24.1033 -24.1033 -24.1022 -11.3641 -11.2654 -11.2654
    -8.8734  -7.9883  -7.8708   5.2550   5.6003   5.6003   7.1941   7.1941
     7.4225   7.4240   7.9439   7.9439

          k = 0.0000 0.0000 0.3333 (   606 PWs)   bands (ev):

   -47.6099 -30.0828 -24.1538 -24.0920 -24.0920 -11.4952 -11.2580 -11.2580
    -8.5530  -7.9708  -7.7173   4.6494   5.7081   5.7081   6.3219   6.5120
     6.5120   6.9150   7.8976   7.8976

          k = 0.0000 0.0000-0.5000 (   610 PWs)   bands (ev):

   -47.6098 -30.0815 -24.1674 -24.1051 -24.1051 -11.5542 -11.2580 -11.2580
    -8.3909  -7.9662  -7.6385   4.3027   5.7592   5.7592   5.9936   6.1194
     6.1194   6.7140   7.9011   7.9011

          k = 0.0000 0.1667 0.1667 (   611 PWs)   bands (ev):

   -47.6108 -30.0842 -24.1163 -24.1065 -24.1045 -11.3696 -11.3122 -11.2635
    -8.7287  -7.9415  -7.8404   5.1025   5.4400   5.5820   6.4550   6.9324
     7.3253   7.4636   7.7343   7.7714

          k = 0.0000 0.1667 0.3333 (   598 PWs)   bands (ev):

   -47.6092 -30.0810 -24.1422 -24.1063 -24.0872 -11.4696 -11.3033 -11.2538
    -8.4556  -7.9144  -7.6855   4.6554   5.2478   5.7045   5.7306   6.4378
     6.6873   7.4164   7.6149   7.6685

          k = 0.0000 0.1667-0.5000 (   598 PWs)   bands (ev):

   -47.6088 -30.0795 -24.1632 -24.1053 -24.0942 -11.5212 -11.2954 -11.2523
    -8.3292  -7.9008  -7.5963   4.3120   5.0335   5.5555   5.8219   6.0737
     6.4650   7.4075   7.5706   7.5763

          k = 0.0000 0.3333 0.3333 (   596 PWs)   bands (ev):

   -47.6085 -30.0778 -24.1498 -24.1404 -24.0843 -11.4336 -11.3821 -11.2469
    -8.3314  -7.7382  -7.6083   4.3354   4.7965   4.9005   5.8125   6.1892
     6.7459   6.8900   7.1762   8.3018

          k = 0.0000 0.3333-0.5000 (   602 PWs)   bands (ev):

   -47.6086 -30.0763 -24.1733 -24.1529 -24.0834 -11.4589 -11.3786 -11.2442
    -8.3033  -7.6693  -7.5136   4.1955   4.2504   4.7780   5.8458   5.9685
     6.6364   6.8813   7.1353   8.3760

          k = 0.0000-0.5000-0.5000 (   576 PWs)   bands (ev):

   -47.6068 -30.0741 -24.1565 -24.1472 -24.0380 -11.4192 -11.4171 -11.2329
    -8.3114  -7.5103  -7.4688   3.9802   4.1596   4.5647   5.9321   5.9991
     6.8127   6.8425   7.0320   8.7047

          k = 0.1667 0.1667 0.1667 (   609 PWs)   bands (ev):

   -47.6101 -30.0826 -24.1217 -24.1153 -24.1077 -11.3735 -11.3057 -11.3021
    -8.5925  -7.8768  -7.8381   4.9688   5.4179   5.4199   6.3657   6.3667
     6.7451   7.6602   7.7023   7.8023

          k = 0.1667 0.1667 0.3333 (   598 PWs)   bands (ev):

   -47.6089 -30.0794 -24.1469 -24.1090 -24.1015 -11.4495 -11.3041 -11.2879
    -8.3411  -7.8761  -7.6704   4.6092   5.1598   5.3903   5.6033   5.8618
     6.6897   7.4624   7.6322   7.8404

          k = 0.1667 0.1667-0.5000 (   600 PWs)   bands (ev):

   -47.6087 -30.0780 -24.1683 -24.1126 -24.1041 -11.4944 -11.2976 -11.2814
    -8.2259  -7.8778  -7.5718   4.3086   4.9273   5.2890   5.3900   5.7636
     6.7293   7.3113   7.5847   7.7163

          k = 0.1667 0.3333 0.3333 (   603 PWs)   bands (ev):

   -47.6085 -30.0764 -24.1571 -24.1454 -24.1119 -11.4178 -11.3709 -11.2826
    -8.1794  -7.7330  -7.6245   4.3295   4.8220   4.8737   5.2535   5.4998
     6.2059   7.5048   7.5734   8.2607

          k = 0.1667 0.3333-0.5000 (   608 PWs)   bands (ev):

   -47.6087 -30.0749 -24.1718 -24.1574 -24.1159 -11.4394 -11.3672 -11.2779
    -8.1448  -7.6887  -7.5230   4.2405   4.2835   4.7643   5.2142   5.3562
     6.1707   7.4628   7.5042   8.3814

          k = 0.1667-0.5000-0.5000 (   612 PWs)   bands (ev):

   -47.6085 -30.0733 -24.1839 -24.1744 -24.1146 -11.4087 -11.4074 -11.2720
    -8.1509  -7.5379  -7.4977   3.9845   4.1008   4.4434   5.1653   5.2087
     6.0753   7.4614   7.5173   8.5973

          k = 0.3333 0.3333 0.3333 (   609 PWs)   bands (ev):

   -47.6087 -30.0733 -24.1603 -24.1560 -24.1445 -11.3904 -11.3480 -11.3422
    -7.9003  -7.6828  -7.6555   4.2898   4.7661   4.7746   4.8868   4.9756
     4.9976   8.0215   8.0741   8.3952

          k = 0.3333 0.3333-0.5000 (   598 PWs)   bands (ev):

   -47.6078 -30.0715 -24.1536 -24.1518 -24.1439 -11.3969 -11.3456 -11.3308
    -7.8377  -7.6984  -7.5380   4.2709   4.4504   4.6642   4.6743   4.9195
     4.9832   8.1184   8.2517   8.5349

          k = 0.3333-0.5000-0.5000 (   608 PWs)   bands (ev):

   -47.6080 -30.0702 -24.1776 -24.1681 -24.1502 -11.3755 -11.3753 -11.3265
    -7.7972  -7.5845  -7.5465   4.0663   4.2332   4.4506   4.5979   4.6263
     4.8941   8.3051   8.3682   8.6920

          k =-0.5000-0.5000-0.5000 (   624 PWs)   bands (ev):

   -47.6087 -30.0691 -24.1903 -24.1903 -24.1807 -11.3630 -11.3630 -11.3592
    -7.6102  -7.6102  -7.5751   3.8359   4.2937   4.3176   4.3176   4.4293
     4.4504   8.6309   8.6877   8.6877

          k = 0.1667 0.0000 0.0000 (   611 PWs)   bands (ev):

   -47.6113 -30.0857 -24.1111 -24.1032 -24.0948 -11.3468 -11.2850 -11.2655
    -8.8698  -7.9601  -7.9016   5.2528   5.6001   5.6002   7.1701   7.1847
     7.3996   7.4564   7.9705   7.9782

          k = 0.3333 0.0000 0.0000 (   606 PWs)   bands (ev):

   -47.6098 -30.0827 -24.1631 -24.0918 -24.0831 -11.4842 -11.2739 -11.2584
    -8.5382  -7.9422  -7.7557   4.6223   5.7138   5.7200   6.3214   6.4799
     6.4967   6.9697   7.9375   7.9377

          k =-0.5000 0.0000 0.0000 (   610 PWs)   bands (ev):

   -47.6098 -30.0814 -24.1767 -24.1052 -24.0964 -11.5455 -11.2722 -11.2586
    -8.3702  -7.9397  -7.6800   4.2685   5.8006   5.8232   5.9872   6.0509
     6.0591   6.7833   7.9421   7.9453

          k = 0.1667-0.1667 0.0000 (   611 PWs)   bands (ev):

   -47.6107 -30.0842 -24.1171 -24.1150 -24.0956 -11.3597 -11.3089 -11.2790
    -8.7244  -7.9090  -7.8754   5.0906   5.4407   5.5861   6.4427   6.9414
     7.3656   7.4934   7.7133   7.7562

          k = 0.3333-0.1667 0.0000 (   598 PWs)   bands (ev):

   -47.6092 -30.0809 -24.1514 -24.1063 -24.0782 -11.4592 -11.3066 -11.2656
    -8.4389  -7.8892  -7.7222   4.6253   5.2223   5.6891   5.7813   6.4388
     6.7249   7.4656   7.6156   7.6578

          k = 0.0000 0.3333 0.1667 (   598 PWs)   bands (ev):

   -47.6092 -30.0809 -24.1514 -24.0972 -24.0871 -11.4601 -11.3158 -11.2540
    -8.4472  -7.8883  -7.7169   4.6306   5.2378   5.7383   5.7453   6.4126
     6.6628   7.4504   7.6416   7.6935

          k =-0.5000-0.1667 0.0000 (   598 PWs)   bands (ev):

   -47.6088 -30.0794 -24.1726 -24.1053 -24.0854 -11.5129 -11.2994 -11.2620
    -8.3043  -7.8812  -7.6353   4.2756   5.0037   5.5760   5.8847   6.0385
     6.5078   7.4594   7.5234   7.6167

          k = 0.0000-0.5000 0.1667 (   598 PWs)   bands (ev):

   -47.6088 -30.0795 -24.1725 -24.0963 -24.0942 -11.5136 -11.3068 -11.2528
    -8.3177  -7.8677  -7.6370   4.2764   5.0263   5.6096   5.8690   6.0066
     6.4439   7.4473   7.5983   7.6086

          k = 0.3333-0.3333 0.0000 (   596 PWs)   bands (ev):

   -47.6085 -30.0776 -24.1507 -24.1488 -24.0754 -11.4259 -11.3837 -11.2569
    -8.3062  -7.7362  -7.6305   4.3135   4.7772   4.8827   5.8420   6.2070
     6.7925   6.9241   7.2076   8.2234

          k =-0.5000-0.3333 0.0000 (   602 PWs)   bands (ev):

   -47.6086 -30.0761 -24.1828 -24.1530 -24.0746 -11.4531 -11.3810 -11.2529
    -8.2716  -7.6581  -7.5492   4.1829   4.2065   4.7779   5.9046   5.9542
     6.6609   6.9352   7.1745   8.3016

          k = 0.0000-0.5000 0.3333 (   602 PWs)   bands (ev):

   -47.6086 -30.0763 -24.1827 -24.1437 -24.0834 -11.4550 -11.3841 -11.2444
    -8.3016  -7.6279  -7.5552   4.1959   4.2178   4.8135   5.9014   5.9047
     6.6122   6.9157   7.1479   8.3850

          k =-0.5000 0.5000 0.0000 (   576 PWs)   bands (ev):

   -47.6068 -30.0738 -24.1565 -24.1565 -24.0291 -11.4165 -11.4165 -11.2407
    -8.2783  -7.5019  -7.5019   3.9709   4.1276   4.5487   5.9903   5.9903
     6.8573   6.8573   7.0705   8.6245

          k = 0.3333-0.1667 0.1667 (   598 PWs)   bands (ev):

   -47.6089 -30.0794 -24.1562 -24.1065 -24.0948 -11.4408 -11.3157 -11.2881
    -8.3299  -7.8509  -7.7035   4.5821   5.1476   5.3804   5.6175   5.8902
     6.7187   7.4292   7.6771   7.8425

          k =-0.5000-0.1667 0.1667 (   600 PWs)   bands (ev):

   -47.6087 -30.0778 -24.1777 -24.1100 -24.0976 -11.4874 -11.3094 -11.2804
    -8.2088  -7.8525  -7.6101   4.2715   4.9021   5.2788   5.4320   5.7972
     6.7639   7.2755   7.6421   7.7103

          k = 0.3333-0.3333 0.1667 (   603 PWs)   bands (ev):

   -47.6085 -30.0763 -24.1596 -24.1521 -24.1030 -11.4109 -11.3735 -11.2894
    -8.1567  -7.7303  -7.6465   4.3082   4.8086   4.8541   5.2745   5.5126
     6.2453   7.5628   7.5761   8.1949

          k =-0.5000-0.3333 0.1667 (   608 PWs)   bands (ev):

   -47.6087 -30.0747 -24.1813 -24.1573 -24.1070 -11.4337 -11.3708 -11.2838
    -8.1137  -7.6795  -7.5583   4.1999   4.2654   4.7673   5.2129   5.3973
     6.2120   7.4682   7.5643   8.3127

          k =-0.1667-0.5000 0.3333 (   608 PWs)   bands (ev):

   -47.6087 -30.0748 -24.1813 -24.1483 -24.1156 -11.4349 -11.3735 -11.2773
    -8.1428  -7.6503  -7.5622   4.2084   4.2809   4.7995   5.1764   5.3966
     6.1774   7.4088   7.5606   8.3857

          k =-0.5000 0.5000 0.1667 (   612 PWs)   bands (ev):

   -47.6085 -30.0732 -24.1840 -24.1840 -24.1055 -11.4071 -11.4071 -11.2779
    -8.1167  -7.5318  -7.5318   3.9720   4.0723   4.4271   5.2063   5.2063
     6.1146   7.5206   7.5206   8.5231

          k =-0.5000-0.3333 0.3333 (   598 PWs)   bands (ev):

   -47.6078 -30.0715 -24.1631 -24.1494 -24.1370 -11.3913 -11.3571 -11.3260
    -7.8229  -7.6748  -7.5746   4.2384   4.4331   4.6548   4.6931   4.9340
     5.0154   8.1836   8.2105   8.5105

          k =-0.5000 0.5000 0.3333 (   608 PWs)   bands (ev):

   -47.6080 -30.0701 -24.1777 -24.1777 -24.1408 -11.3750 -11.3750 -11.3289
    -7.7613  -7.5828  -7.5828   4.0464   4.2141   4.4343   4.6267   4.6267
     4.9285   8.3648   8.3648   8.6275

     highest occupied level (ev):     8.7047

!    total energy              =    -290.98570017 Ry
     estimated scf accuracy    <          2.3E-09 Ry

     The total energy is the sum of the following terms:
     one-electron contribution =     -92.41639743 Ry
     hartree contribution      =      65.12222005 Ry
     xc contribution           =     -50.97160643 Ry
     ewald contribution        =    -212.71991637 Ry

     convergence has been achieved in  10 iterations

     negative rho (up, down):  1.463E-03 0.000E+00

     Forces acting on atoms (cartesian axes, Ry/au):

     atom    1 type  1   force =     0.00000000    0.00000000    0.00054912
     atom    2 type  2   force =     0.00000000    0.00000000    0.01744777
     atom    3 type  3   force =     0.00000000    0.00000000    0.00859131
     atom    4 type  3   force =     0.00000000    0.00000000   -0.01329410
     atom    5 type  3   force =     0.00000000    0.00000000   -0.01329410

     Total force =     0.027056     Total SCF correction =     0.000096


     Computing stress (Cartesian axis) and pressure


     negative rho (up, down):  1.463E-03 0.000E+00
          total   stress  (Ry/bohr**3)                   (kbar)     P=    -1228.68
  -0.00835373   0.00000000   0.00000000        -1228.88        0.00        0.00
   0.00000000  -0.00835373   0.00000000            0.00    -1228.88        0.00
   0.00000000   0.00000000  -0.00834970            0.00        0.00    -1228.28


     Writing all to output data dir ./CTO.save/ :
     XML data file, charge density, pseudopotentials, collected wavefunctions
 
     init_run     :      0.19s CPU      0.26s WALL (       1 calls)
     electrons    :      4.94s CPU      5.37s WALL (       1 calls)
     forces       :      0.04s CPU      0.04s WALL (       1 calls)
     stress       :      0.31s CPU      0.32s WALL (       1 calls)

     Called by init_run:
     wfcinit      :      0.11s CPU      0.13s WALL (       1 calls)
     potinit      :      0.01s CPU      0.01s WALL (       1 calls)
     hinit0       :      0.06s CPU      0.09s WALL (       1 calls)

     Called by electrons:
     c_bands      :      4.44s CPU      4.81s WALL (      10 calls)
     sum_band     :      0.39s CPU      0.42s WALL (      10 calls)
     v_of_rho     :      0.01s CPU      0.01s WALL (      11 calls)
     newd         :      0.10s CPU      0.11s WALL (      11 calls)
     mix_rho      :      0.00s CPU      0.01s WALL (      10 calls)

     Called by c_bands:
     init_us_2    :      0.03s CPU      0.03s WALL (     920 calls)
     init_us_2:cp :      0.03s CPU      0.03s WALL (     920 calls)
     ccgdiagg     :      3.95s CPU      4.27s WALL (     400 calls)
     wfcrot       :      0.56s CPU      0.63s WALL (     400 calls)

     Called by *cgdiagg:
     h_psi        :      2.27s CPU      2.46s WALL (   23513 calls)
     s_psi        :      0.31s CPU      0.34s WALL (   46626 calls)

     Called by h_psi:
     h_psi:calbec :      0.44s CPU      0.47s WALL (   23513 calls)
     vloc_psi     :      1.50s CPU      1.62s WALL (   23513 calls)
     add_vuspsi   :      0.17s CPU      0.19s WALL (   23513 calls)
     hs_1psi      :      2.15s CPU      2.32s WALL (   23113 calls)
     s_1psi       :      0.62s CPU      0.67s WALL (   23113 calls)

     General routines
     calbec       :      0.77s CPU      0.83s WALL (   47226 calls)
     fft          :      0.01s CPU      0.02s WALL (      72 calls)
     ffts         :      0.00s CPU      0.00s WALL (      21 calls)
     fftw         :      1.35s CPU      1.46s WALL (   71186 calls)
     interpolate  :      0.00s CPU      0.00s WALL (      11 calls)
 
     Parallel routines
 
     PWSCF        :      5.71s CPU      6.57s WALL

 
   This run was terminated on:  17:24:10  19Sep2025            

=------------------------------------------------------------------------------=
   JOB DONE.
=------------------------------------------------------------------------------=
TACC:  Shutdown complete. Exiting. 
