TACC:  Starting up job 2476511 
TACC:  Starting parallel tasks... 

     Program PWSCF v.7.3 starts on 18Oct2025 at 15:13: 0 

     This program is part of the open-source Quantum ESPRESSO suite
     for quantum simulation of materials; please cite
         "P. Giannozzi et al., J. Phys.:Condens. Matter 21 395502 (2009);
         "P. Giannozzi et al., J. Phys.:Condens. Matter 29 465901 (2017);
         "P. Giannozzi et al., J. Chem. Phys. 152 154105 (2020);
          URL http://www.quantum-espresso.org", 
     in publications or presentations arising from this work. More details at
     http://www.quantum-espresso.org/quote

     Parallel version (MPI & OpenMP), running on      10 processor cores
     Number of MPI processes:                10
     Threads/MPI process:                     1

     MPI processes distributed on     1 nodes
     185395 MiB available memory on the printing compute node when the environment starts
 
     Waiting for input...
     Reading input from standard input
Warning: card &CELL ignored
Warning: card  CELL_DYNAMICS = 'BFGS', ignored
Warning: card  PRESS=0.D0, ignored
Warning: card / ignored

     Current dimensions of program PWSCF are:
     Max number of different atomic species (ntypx) = 10
     Max number of k-points (npk) =  40000
     Max angular momentum in pseudopotentials (lmaxx) =  4
 
     R & G space division:  proc/nbgrp/npool/nimage =      10
     Subspace diagonalization in iterative solution of the eigenvalue problem:
     a serial algorithm will be used

 
     Parallelization info
     --------------------
     sticks:   dense  smooth     PW     G-vecs:    dense   smooth      PW
     Min         352      94     29                15684     2162     369
     Max         353      95     30                15687     2165     371
     Sum        3521     949    293               156843    21631    3695
 
     Using Slab Decomposition
 


     bravais-lattice index     =            1
     lattice parameter (alat)  =       7.6794  a.u.
     unit-cell volume          =     452.8787 (a.u.)^3
     number of atoms/cell      =            5
     number of atomic types    =            3
     number of electrons       =        40.00
     number of Kohn-Sham states=           20
     kinetic-energy cutoff     =      50.0000  Ry
     charge density cutoff     =     750.0000  Ry
     scf convergence threshold =      1.0E-08
     mixing beta               =       0.7000
     number of iterations used =            8  plain     mixing
     Exchange-correlation= SLA  PZ   NOGX NOGC
                           (   1   1   0   0   0   0   0)

     celldm(1)=   7.679400  celldm(2)=   0.000000  celldm(3)=   0.000000
     celldm(4)=   0.000000  celldm(5)=   0.000000  celldm(6)=   0.000000

     crystal axes: (cart. coord. in units of alat)
               a(1) = (   1.000000   0.000000   0.000000 )  
               a(2) = (   0.000000   1.000000   0.000000 )  
               a(3) = (   0.000000   0.000000   1.000000 )  

     reciprocal axes: (cart. coord. in units 2 pi/alat)
               b(1) = (  1.000000  0.000000  0.000000 )  
               b(2) = (  0.000000  1.000000  0.000000 )  
               b(3) = (  0.000000  0.000000  1.000000 )  


     PseudoPot. # 1 for Ba read from file:
     /scratch/11018/zhc/Assisgnment2/Q1/1D/energy_off/Ba_LDA.UPF
     MD5 check sum: 0ec7675c796dc0a11c6269c68e51391e
     Pseudo is Ultrasoft + core correction, Zval = 10.0
     Generated by new atomic code, or converted to UPF format
     Using radial grid of  907 points,  7 beta functions with: 
                l(1) =   0
                l(2) =   0
                l(3) =   1
                l(4) =   1
                l(5) =   2
                l(6) =   2
                l(7) =   3
     Q(r) pseudized with  6 coefficients,  rinner =    1.700   1.700   1.700
                                                       1.700   1.700   1.700
                                                       1.700

     PseudoPot. # 2 for Ti read from file:
     /scratch/11018/zhc/Assisgnment2/Q1/1D/energy_off/Ti_LDA.UPF
     MD5 check sum: 0d9f225c038fe889ca2a701dcc8d72cb
     Pseudo is Ultrasoft + core correction, Zval = 12.0
     Generated by new atomic code, or converted to UPF format
     Using radial grid of  851 points,  6 beta functions with: 
                l(1) =   0
                l(2) =   0
                l(3) =   1
                l(4) =   1
                l(5) =   2
                l(6) =   2
     Q(r) pseudized with  6 coefficients,  rinner =    1.000   1.000   1.000
                                                       1.000   1.000

     PseudoPot. # 3 for O  read from file:
     /scratch/11018/zhc/Assisgnment2/Q1/1D/energy_off/O_LDA.UPF
     MD5 check sum: 194b818514d2a7dbb603bb78519a4f40
     Pseudo is Ultrasoft + core correction, Zval =  6.0
     Generated by new atomic code, or converted to UPF format
     Using radial grid of  737 points,  5 beta functions with: 
                l(1) =   0
                l(2) =   0
                l(3) =   1
                l(4) =   1
                l(5) =   2
     Q(r) pseudized with  8 coefficients,  rinner =    0.900   0.900   0.900
                                                       0.900   0.900

     atomic species   valence    mass     pseudopotential
     Ba               10.00   137.32700     Ba( 1.00)
     Ti               12.00    47.88000     Ti( 1.00)
     O                 6.00    16.00000     O ( 1.00)

     48 Sym. Ops., with inversion, found



   Cartesian axes

     site n.     atom                  positions (alat units)
         1        Ba     tau(   1) = (   0.0000000   0.0000000   0.0000000  )
         2        Ti     tau(   2) = (   0.5000000   0.5000000   0.5000000  )
         3        O      tau(   3) = (   0.5000000   0.5000000   0.0000000  )
         4        O      tau(   4) = (   0.5000000   0.0000000   0.5000000  )
         5        O      tau(   5) = (   0.0000000   0.5000000   0.5000000  )

     number of k points=     4
                       cart. coord. in units 2pi/alat
        k(    1) = (   0.0000000   0.0000000   0.0000000), wk =   0.2500000
        k(    2) = (   0.0000000   0.0000000  -0.5000000), wk =   0.7500000
        k(    3) = (   0.0000000  -0.5000000  -0.5000000), wk =   0.7500000
        k(    4) = (  -0.5000000  -0.5000000  -0.5000000), wk =   0.2500000

     Dense  grid:   156843 G-vectors     FFT dimensions: (  72,  72,  72)

     Smooth grid:    21631 G-vectors     FFT dimensions: (  36,  36,  36)

     Estimated max dynamical RAM per process >     113.99 MB

     Estimated total dynamical RAM >       1.11 GB

     Check: negative core charge=   -0.000002

     Initial potential from superposition of free atoms

     starting charge      38.9872, renormalised to      40.0000

     negative rho (up, down):  1.013E-01 0.000E+00
     Starting wfcs are   35 randomized atomic wfcs

     total cpu time spent up to now is        0.9 secs

     Self-consistent Calculation

     iteration #  1     ecut=    50.00 Ry     beta= 0.70
     CG style diagonalization
     ethr =  1.00E-02,  avg # of iterations =  2.2

     negative rho (up, down):  9.414E-02 0.000E+00

     total cpu time spent up to now is        1.2 secs

     total energy              =    -286.62198311 Ry
     estimated scf accuracy    <       0.87554142 Ry

     iteration #  2     ecut=    50.00 Ry     beta= 0.70
     CG style diagonalization
     ethr =  2.19E-03,  avg # of iterations =  4.6

     negative rho (up, down):  9.254E-02 0.000E+00

     total cpu time spent up to now is        1.7 secs

     total energy              =    -285.82256509 Ry
     estimated scf accuracy    <       8.37232983 Ry

     iteration #  3     ecut=    50.00 Ry     beta= 0.70
     CG style diagonalization
     ethr =  2.19E-03,  avg # of iterations =  4.5

     negative rho (up, down):  9.165E-02 0.000E+00

     total cpu time spent up to now is        2.1 secs

     total energy              =    -287.12316064 Ry
     estimated scf accuracy    <       0.16801694 Ry

     iteration #  4     ecut=    50.00 Ry     beta= 0.70
     CG style diagonalization
     ethr =  4.20E-04,  avg # of iterations =  3.4

     negative rho (up, down):  9.081E-02 0.000E+00

     total cpu time spent up to now is        2.5 secs

     total energy              =    -287.12395915 Ry
     estimated scf accuracy    <       0.05189726 Ry

     iteration #  5     ecut=    50.00 Ry     beta= 0.70
     CG style diagonalization
     ethr =  1.30E-04,  avg # of iterations =  3.3

     negative rho (up, down):  9.091E-02 0.000E+00

     total cpu time spent up to now is        2.9 secs

     total energy              =    -287.13455542 Ry
     estimated scf accuracy    <       0.00048372 Ry

     iteration #  6     ecut=    50.00 Ry     beta= 0.70
     CG style diagonalization
     ethr =  1.21E-06,  avg # of iterations =  4.2

     negative rho (up, down):  9.081E-02 0.000E+00

     total cpu time spent up to now is        3.3 secs

     total energy              =    -287.13495371 Ry
     estimated scf accuracy    <       0.00002058 Ry

     iteration #  7     ecut=    50.00 Ry     beta= 0.70
     CG style diagonalization
     ethr =  5.14E-08,  avg # of iterations =  4.3

     negative rho (up, down):  9.076E-02 0.000E+00

     total cpu time spent up to now is        3.7 secs

     total energy              =    -287.13497300 Ry
     estimated scf accuracy    <       0.00000651 Ry

     iteration #  8     ecut=    50.00 Ry     beta= 0.70
     CG style diagonalization
     ethr =  1.63E-08,  avg # of iterations =  3.6

     negative rho (up, down):  9.076E-02 0.000E+00

     total cpu time spent up to now is        4.1 secs

     total energy              =    -287.13497380 Ry
     estimated scf accuracy    <       0.00000093 Ry

     iteration #  9     ecut=    50.00 Ry     beta= 0.70
     CG style diagonalization
     ethr =  2.32E-09,  avg # of iterations =  3.9

     negative rho (up, down):  9.076E-02 0.000E+00

     total cpu time spent up to now is        4.5 secs

     total energy              =    -287.13497420 Ry
     estimated scf accuracy    <       0.00000001 Ry

     iteration # 10     ecut=    50.00 Ry     beta= 0.70
     CG style diagonalization
     ethr =  2.85E-11,  avg # of iterations =  5.5

     negative rho (up, down):  9.076E-02 0.000E+00

     total cpu time spent up to now is        4.9 secs

     total energy              =    -287.13497425 Ry
     estimated scf accuracy    <       0.00000004 Ry

     iteration # 11     ecut=    50.00 Ry     beta= 0.70
     CG style diagonalization
     ethr =  2.85E-11,  avg # of iterations =  3.7

     negative rho (up, down):  9.075E-02 0.000E+00

     total cpu time spent up to now is        5.3 secs

     End of self-consistent calculation

          k = 0.0000 0.0000 0.0000 (  2721 PWs)   bands (ev):

   -47.1429 -23.6411 -23.6411 -23.6411 -15.3098  -6.9660  -6.2383  -6.2383
    -0.4582  -0.4582  -0.4582   7.1357   7.1357   7.1357   8.4241   8.4241
     8.4241   9.3219   9.3219   9.3219

          k = 0.0000 0.0000-0.5000 (  2730 PWs)   bands (ev):

   -47.1424 -23.6792 -23.6395 -23.6395 -15.2147  -7.1394  -6.2023  -6.0053
    -0.3062  -0.3062  -0.0743   5.4906   6.7450   6.7450   7.5451   7.6074
     7.6074   7.6521   8.7779   8.7779

          k = 0.0000-0.5000-0.5000 (  2704 PWs)   bands (ev):

   -47.1418 -23.6766 -23.6766 -23.6378 -15.1505  -6.5608  -6.2238  -6.2238
    -0.4825  -0.4825  -0.1223   5.1861   5.4880   5.6418   6.8388   6.8388
     7.7177   8.5960   8.5960   9.4209

          k =-0.5000-0.5000-0.5000 (  2608 PWs)   bands (ev):

   -47.1413 -23.6746 -23.6746 -23.6746 -15.0940  -6.0510  -6.0510  -6.0510
    -1.1092  -1.1092  -1.1092   4.9990   5.6577   5.6577   7.0014   7.0014
     7.0014   9.4843   9.4843   9.4843

     highest occupied level (ev):     9.4843

!    total energy              =    -287.13497424 Ry
     estimated scf accuracy    <          5.6E-09 Ry

     The total energy is the sum of the following terms:
     one-electron contribution =     -76.42071875 Ry
     hartree contribution      =      60.66706292 Ry
     xc contribution           =     -67.17675771 Ry
     ewald contribution        =    -204.20456071 Ry

     convergence has been achieved in  11 iterations

     negative rho (up, down):  9.075E-02 0.000E+00

     Forces acting on atoms (cartesian axes, Ry/au):

     atom    1 type  1   force =     0.00000000    0.00000000    0.00000000
     atom    2 type  2   force =     0.00000000    0.00000000    0.00000000
     atom    3 type  3   force =     0.00000000    0.00000000    0.00000000
     atom    4 type  3   force =     0.00000000    0.00000000    0.00000000
     atom    5 type  3   force =     0.00000000    0.00000000    0.00000000

     Total force =     0.000000     Total SCF correction =     0.000000


     Computing stress (Cartesian axis) and pressure


     negative rho (up, down):  9.075E-02 0.000E+00
          total   stress  (Ry/bohr**3)                   (kbar)     P=     -121.84
  -0.00082822   0.00000000   0.00000000         -121.84        0.00        0.00
   0.00000000  -0.00082822   0.00000000            0.00     -121.84        0.00
   0.00000000   0.00000000  -0.00082822            0.00        0.00     -121.84


     Writing all to output data dir ./BTO_50.save/ :
     XML data file, charge density, pseudopotentials, collected wavefunctions
 
     init_run     :      0.53s CPU      0.62s WALL (       1 calls)
     electrons    :      3.74s CPU      4.45s WALL (       1 calls)
     forces       :      0.17s CPU      0.19s WALL (       1 calls)
     stress       :      0.81s CPU      0.90s WALL (       1 calls)

     Called by init_run:
     wfcinit      :      0.03s CPU      0.05s WALL (       1 calls)
     potinit      :      0.01s CPU      0.02s WALL (       1 calls)
     hinit0       :      0.14s CPU      0.18s WALL (       1 calls)

     Called by electrons:
     c_bands      :      0.94s CPU      0.99s WALL (      11 calls)
     sum_band     :      1.50s CPU      1.82s WALL (      11 calls)
     v_of_rho     :      0.03s CPU      0.04s WALL (      12 calls)
     newd         :      1.34s CPU      1.69s WALL (      12 calls)
     mix_rho      :      0.02s CPU      0.02s WALL (      11 calls)

     Called by c_bands:
     init_us_2    :      0.01s CPU      0.02s WALL (     100 calls)
     init_us_2:cp :      0.01s CPU      0.02s WALL (     100 calls)
     ccgdiagg     :      0.81s CPU      0.85s WALL (      44 calls)
     wfcrot       :      0.15s CPU      0.17s WALL (      44 calls)

     Called by *cgdiagg:
     h_psi        :      0.59s CPU      0.62s WALL (    2694 calls)
     s_psi        :      0.07s CPU      0.07s WALL (    5344 calls)

     Called by h_psi:
     h_psi:calbec :      0.09s CPU      0.10s WALL (    2694 calls)
     vloc_psi     :      0.43s CPU      0.45s WALL (    2694 calls)
     add_vuspsi   :      0.04s CPU      0.04s WALL (    2694 calls)
     hs_1psi      :      0.52s CPU      0.54s WALL (    2650 calls)
     s_1psi       :      0.11s CPU      0.11s WALL (    2650 calls)

     General routines
     calbec       :      0.16s CPU      0.17s WALL (    5408 calls)
     fft          :      0.04s CPU      0.05s WALL (      78 calls)
     ffts         :      0.00s CPU      0.00s WALL (      23 calls)
     fftw         :      0.32s CPU      0.33s WALL (    8060 calls)
     interpolate  :      0.01s CPU      0.01s WALL (      12 calls)
 
     Parallel routines
 
     PWSCF        :      5.44s CPU      6.53s WALL

 
   This run was terminated on:  15:13: 7  18Oct2025            

=------------------------------------------------------------------------------=
   JOB DONE.
=------------------------------------------------------------------------------=
TACC:  Shutdown complete. Exiting. 
