TACC:  Starting up job 2560485 
TACC:  Starting parallel tasks... 

     Program PWSCF v.7.3 starts on 17Nov2025 at 20:39:17 

     This program is part of the open-source Quantum ESPRESSO suite
     for quantum simulation of materials; please cite
         "P. Giannozzi et al., J. Phys.:Condens. Matter 21 395502 (2009);
         "P. Giannozzi et al., J. Phys.:Condens. Matter 29 465901 (2017);
         "P. Giannozzi et al., J. Chem. Phys. 152 154105 (2020);
          URL http://www.quantum-espresso.org", 
     in publications or presentations arising from this work. More details at
     http://www.quantum-espresso.org/quote

     Parallel version (MPI & OpenMP), running on      10 processor cores
     Number of MPI processes:                10
     Threads/MPI process:                     1

     MPI processes distributed on     1 nodes
     189496 MiB available memory on the printing compute node when the environment starts
 
     Waiting for input...
     Reading input from standard input
Warning: card &CELL ignored
Warning: card  CELL_DYNAMICS = 'BFGS', ignored
Warning: card  PRESS=0.D0, ignored
Warning: card / ignored

     Current dimensions of program PWSCF are:
     Max number of different atomic species (ntypx) = 10
     Max number of k-points (npk) =  40000
     Max angular momentum in pseudopotentials (lmaxx) =  4
     Message from routine setup:
     using ibrav=0 with symmetry is DISCOURAGED, use correct ibrav instead
 
     R & G space division:  proc/nbgrp/npool/nimage =      10
     Subspace diagonalization in iterative solution of the eigenvalue problem:
     a serial algorithm will be used

 
     Parallelization info
     --------------------
     sticks:   dense  smooth     PW     G-vecs:    dense   smooth      PW
     Min         213      85     25                 7674     1938     322
     Max         215      87     27                 7675     1940     325
     Sum        2145     861    261                76749    19391    3231
 
     Using Slab Decomposition
 


     bravais-lattice index     =            0
     lattice parameter (alat)  =       7.3296  a.u.
     unit-cell volume          =     406.4311 (a.u.)^3
     number of atoms/cell      =            5
     number of atomic types    =            3
     number of electrons       =        44.00
     number of Kohn-Sham states=           22
     kinetic-energy cutoff     =      50.0000  Ry
     charge density cutoff     =     500.0000  Ry
     scf convergence threshold =      1.0E-08
     mixing beta               =       0.7000
     number of iterations used =            8  plain     mixing
     energy convergence thresh.=      1.0E-04
     force convergence thresh. =      1.0E-03
     Exchange-correlation= SLA  PZ   NOGX NOGC
                           (   1   1   0   0   0   0   0)
     nstep                     =           50


     celldm(1)=   7.329589  celldm(2)=   0.000000  celldm(3)=   0.000000
     celldm(4)=   0.000000  celldm(5)=   0.000000  celldm(6)=   0.000000

     crystal axes: (cart. coord. in units of alat)
               a(1) = (   1.000000   0.000000   0.000000 )  
               a(2) = (   0.000000   1.000000   0.000000 )  
               a(3) = (   0.000000   0.000000   1.032162 )  

     reciprocal axes: (cart. coord. in units 2 pi/alat)
               b(1) = (  1.000000  0.000000  0.000000 )  
               b(2) = (  0.000000  1.000000  0.000000 )  
               b(3) = (  0.000000  0.000000  0.968840 )  


     PseudoPot. # 1 for Pb read from file:
     /scratch/11018/zhc/assisgnment3/input_files/Pb_LDA.UPF
     MD5 check sum: 062a37469794d955244864f8fe2e5624
     Pseudo is Ultrasoft + core correction, Zval = 14.0
     Generated by new atomic code, or converted to UPF format
     Using radial grid of  899 points,  6 beta functions with: 
                l(1) =   0
                l(2) =   0
                l(3) =   1
                l(4) =   1
                l(5) =   2
                l(6) =   2
     Q(r) pseudized with  6 coefficients,  rinner =    1.000   1.000   1.000
                                                       1.000   1.000

     PseudoPot. # 2 for Ti read from file:
     /scratch/11018/zhc/assisgnment3/input_files/Ti_LDA.UPF
     MD5 check sum: 0d9f225c038fe889ca2a701dcc8d72cb
     Pseudo is Ultrasoft + core correction, Zval = 12.0
     Generated by new atomic code, or converted to UPF format
     Using radial grid of  851 points,  6 beta functions with: 
                l(1) =   0
                l(2) =   0
                l(3) =   1
                l(4) =   1
                l(5) =   2
                l(6) =   2
     Q(r) pseudized with  6 coefficients,  rinner =    1.000   1.000   1.000
                                                       1.000   1.000

     PseudoPot. # 3 for O  read from file:
     /scratch/11018/zhc/assisgnment3/input_files/O_LDA.UPF
     MD5 check sum: 194b818514d2a7dbb603bb78519a4f40
     Pseudo is Ultrasoft + core correction, Zval =  6.0
     Generated by new atomic code, or converted to UPF format
     Using radial grid of  737 points,  5 beta functions with: 
                l(1) =   0
                l(2) =   0
                l(3) =   1
                l(4) =   1
                l(5) =   2
     Q(r) pseudized with  8 coefficients,  rinner =    0.900   0.900   0.900
                                                       0.900   0.900

     atomic species   valence    mass     pseudopotential
     Pb               14.00   207.20000     Pb( 1.00)
     Ti               12.00    47.88000     Ti( 1.00)
     O                 6.00    16.00000     O ( 1.00)

      8 Sym. Ops. (no inversion) found



   Cartesian axes

     site n.     atom                  positions (alat units)
         1        Pb     tau(   1) = (   0.0000000   0.0000000   1.0375027  )
         2        Ti     tau(   2) = (   0.5000000   0.5000000   0.5568872  )
         3        O      tau(   3) = (   0.5000000   0.5000000   0.1027083  )
         4        O      tau(   4) = (   0.5000000   0.0000000   0.6312025  )
         5        O      tau(   5) = (   0.0000000   0.5000000   0.6312025  )

     number of k points=    30
                       cart. coord. in units 2pi/alat
        k(    1) = (   0.0000000   0.0000000   0.0000000), wk =   0.0138889
        k(    2) = (   0.0000000   0.0000000   0.2422099), wk =   0.0277778
        k(    3) = (   0.0000000   0.0000000  -0.4844199), wk =   0.0138889
        k(    4) = (   0.0000000   0.1666667   0.0000000), wk =   0.0555556
        k(    5) = (   0.0000000   0.1666667   0.2422099), wk =   0.1111111
        k(    6) = (   0.0000000   0.1666667  -0.4844199), wk =   0.0555556
        k(    7) = (   0.0000000   0.3333333   0.0000000), wk =   0.0555556
        k(    8) = (   0.0000000   0.3333333   0.2422099), wk =   0.1111111
        k(    9) = (   0.0000000   0.3333333  -0.4844199), wk =   0.0555556
        k(   10) = (   0.0000000  -0.5000000   0.0000000), wk =   0.0277778
        k(   11) = (   0.0000000  -0.5000000   0.2422099), wk =   0.0555556
        k(   12) = (   0.0000000  -0.5000000  -0.4844199), wk =   0.0277778
        k(   13) = (   0.1666667   0.1666667   0.0000000), wk =   0.0555556
        k(   14) = (   0.1666667   0.1666667   0.2422099), wk =   0.1111111
        k(   15) = (   0.1666667   0.1666667  -0.4844199), wk =   0.0555556
        k(   16) = (   0.1666667   0.3333333   0.0000000), wk =   0.1111111
        k(   17) = (   0.1666667   0.3333333   0.2422099), wk =   0.2222222
        k(   18) = (   0.1666667   0.3333333  -0.4844199), wk =   0.1111111
        k(   19) = (   0.1666667  -0.5000000   0.0000000), wk =   0.0555556
        k(   20) = (   0.1666667  -0.5000000   0.2422099), wk =   0.1111111
        k(   21) = (   0.1666667  -0.5000000  -0.4844199), wk =   0.0555556
        k(   22) = (   0.3333333   0.3333333   0.0000000), wk =   0.0555556
        k(   23) = (   0.3333333   0.3333333   0.2422099), wk =   0.1111111
        k(   24) = (   0.3333333   0.3333333  -0.4844199), wk =   0.0555556
        k(   25) = (   0.3333333  -0.5000000   0.0000000), wk =   0.0555556
        k(   26) = (   0.3333333  -0.5000000   0.2422099), wk =   0.1111111
        k(   27) = (   0.3333333  -0.5000000  -0.4844199), wk =   0.0555556
        k(   28) = (  -0.5000000  -0.5000000   0.0000000), wk =   0.0138889
        k(   29) = (  -0.5000000  -0.5000000   0.2422099), wk =   0.0277778
        k(   30) = (  -0.5000000  -0.5000000  -0.4844199), wk =   0.0138889

     Dense  grid:    76749 G-vectors     FFT dimensions: (  54,  54,  54)

     Smooth grid:    19391 G-vectors     FFT dimensions: (  36,  36,  36)

     Estimated max dynamical RAM per process >      36.54 MB

     Estimated total dynamical RAM >     365.35 MB

     Check: negative core charge=   -0.000004

     Initial potential from superposition of free atoms

     starting charge      42.9982, renormalised to      44.0000

     negative rho (up, down):  1.666E-02 0.000E+00
     Starting wfcs are   31 randomized atomic wfcs

     total cpu time spent up to now is        0.7 secs

     Self-consistent Calculation

     iteration #  1     ecut=    50.00 Ry     beta= 0.70
     CG style diagonalization
     ethr =  1.00E-02,  avg # of iterations =  2.1

     negative rho (up, down):  1.411E-02 0.000E+00

     total cpu time spent up to now is        1.2 secs

     total energy              =    -380.06580714 Ry
     estimated scf accuracy    <       1.01669672 Ry

     iteration #  2     ecut=    50.00 Ry     beta= 0.70
     CG style diagonalization
     ethr =  2.31E-03,  avg # of iterations =  4.8

     negative rho (up, down):  1.443E-02 0.000E+00

     total cpu time spent up to now is        2.2 secs

     total energy              =    -379.75761295 Ry
     estimated scf accuracy    <       3.90036295 Ry

     iteration #  3     ecut=    50.00 Ry     beta= 0.70
     CG style diagonalization
     ethr =  2.31E-03,  avg # of iterations =  4.3

     negative rho (up, down):  1.505E-02 0.000E+00

     total cpu time spent up to now is        3.1 secs

     total energy              =    -380.53695216 Ry
     estimated scf accuracy    <       0.30915018 Ry

     iteration #  4     ecut=    50.00 Ry     beta= 0.70
     CG style diagonalization
     ethr =  7.03E-04,  avg # of iterations =  3.4

     negative rho (up, down):  1.509E-02 0.000E+00

     total cpu time spent up to now is        3.7 secs

     total energy              =    -380.55961605 Ry
     estimated scf accuracy    <       0.04134399 Ry

     iteration #  5     ecut=    50.00 Ry     beta= 0.70
     CG style diagonalization
     ethr =  9.40E-05,  avg # of iterations =  3.9

     negative rho (up, down):  1.512E-02 0.000E+00

     total cpu time spent up to now is        4.5 secs

     total energy              =    -380.57105272 Ry
     estimated scf accuracy    <       0.00755621 Ry

     iteration #  6     ecut=    50.00 Ry     beta= 0.70
     CG style diagonalization
     ethr =  1.72E-05,  avg # of iterations =  3.9

     negative rho (up, down):  1.510E-02 0.000E+00

     total cpu time spent up to now is        5.3 secs

     total energy              =    -380.57304870 Ry
     estimated scf accuracy    <       0.00591702 Ry

     iteration #  7     ecut=    50.00 Ry     beta= 0.70
     CG style diagonalization
     ethr =  1.34E-05,  avg # of iterations =  3.3

     negative rho (up, down):  1.510E-02 0.000E+00

     total cpu time spent up to now is        5.9 secs

     total energy              =    -380.57309312 Ry
     estimated scf accuracy    <       0.00149148 Ry

     iteration #  8     ecut=    50.00 Ry     beta= 0.70
     CG style diagonalization
     ethr =  3.39E-06,  avg # of iterations =  3.6

     negative rho (up, down):  1.512E-02 0.000E+00

     total cpu time spent up to now is        6.6 secs

     total energy              =    -380.57341596 Ry
     estimated scf accuracy    <       0.00000751 Ry

     iteration #  9     ecut=    50.00 Ry     beta= 0.70
     CG style diagonalization
     c_bands:  1 eigenvalues not converged
     c_bands:  1 eigenvalues not converged
     c_bands:  1 eigenvalues not converged
     ethr =  1.71E-08,  avg # of iterations =  8.1

     negative rho (up, down):  1.515E-02 0.000E+00

     total cpu time spent up to now is        8.2 secs

     total energy              =    -380.57348773 Ry
     estimated scf accuracy    <       0.00005011 Ry

     iteration # 10     ecut=    50.00 Ry     beta= 0.70
     CG style diagonalization
     ethr =  1.71E-08,  avg # of iterations =  3.7

     negative rho (up, down):  1.526E-02 0.000E+00

     total cpu time spent up to now is        9.0 secs

     total energy              =    -380.57347846 Ry
     estimated scf accuracy    <       0.00002703 Ry

     iteration # 11     ecut=    50.00 Ry     beta= 0.70
     CG style diagonalization
     ethr =  1.71E-08,  avg # of iterations =  4.4

     negative rho (up, down):  1.526E-02 0.000E+00

     total cpu time spent up to now is        9.8 secs

     total energy              =    -380.57348389 Ry
     estimated scf accuracy    <       0.00000091 Ry

     iteration # 12     ecut=    50.00 Ry     beta= 0.70
     CG style diagonalization
     ethr =  2.06E-09,  avg # of iterations =  5.6

     negative rho (up, down):  1.526E-02 0.000E+00

     total cpu time spent up to now is       10.9 secs

     total energy              =    -380.57348475 Ry
     estimated scf accuracy    <       0.00000003 Ry

     iteration # 13     ecut=    50.00 Ry     beta= 0.70
     CG style diagonalization
     c_bands:  1 eigenvalues not converged
     c_bands:  1 eigenvalues not converged
     c_bands:  1 eigenvalues not converged
     c_bands:  1 eigenvalues not converged
     ethr =  7.91E-11,  avg # of iterations = 10.5

     negative rho (up, down):  1.526E-02 0.000E+00

     total cpu time spent up to now is       13.0 secs

     total energy              =    -380.57348508 Ry
     estimated scf accuracy    <       0.00000007 Ry

     iteration # 14     ecut=    50.00 Ry     beta= 0.70
     CG style diagonalization
     ethr =  7.91E-11,  avg # of iterations =  4.5

     negative rho (up, down):  1.526E-02 0.000E+00

     total cpu time spent up to now is       13.9 secs

     total energy              =    -380.57348510 Ry
     estimated scf accuracy    <       0.00000001 Ry

     iteration # 15     ecut=    50.00 Ry     beta= 0.70
     CG style diagonalization
     ethr =  2.68E-11,  avg # of iterations =  4.2

     negative rho (up, down):  1.526E-02 0.000E+00

     total cpu time spent up to now is       14.8 secs

     End of self-consistent calculation

          k = 0.0000 0.0000 0.0000 (  2437 PWs)   bands (ev):

   -45.1566 -21.8605 -21.7465 -21.7465  -7.1506  -5.9977  -5.7689  -4.4147
    -4.4147  -4.3803  -4.2782  -4.1175   4.8767   6.7059   6.7059   7.1715
     8.7048   8.7048   8.9999   9.2971   9.4247   9.4247

          k = 0.0000 0.0000 0.2422 (  2445 PWs)   bands (ev):

   -45.1562 -21.8875 -21.7454 -21.7454  -6.9254  -5.9305  -5.6865  -4.4346
    -4.4346  -4.3786  -4.2586  -4.2001   3.9997   6.7628   6.7628   7.2756
     8.4328   8.4328   8.9032   9.4132   9.5510   9.5510

          k = 0.0000 0.0000-0.4844 (  2402 PWs)   bands (ev):

   -45.1558 -21.9143 -21.7442 -21.7442  -6.6822  -5.8564  -5.6080  -4.4544
    -4.4544  -4.3769  -4.2897  -4.2399   3.4431   6.5045   6.7944   6.7944
     8.2701   8.2701   8.8117   9.6323   9.6323  10.7352

          k = 0.0000 0.1667 0.0000 (  2433 PWs)   bands (ev):

   -45.1562 -21.8597 -21.7656 -21.7457  -7.0098  -5.9646  -5.7417  -4.4394
    -4.4132  -4.3943  -4.2776  -4.1105   4.3673   6.8190   6.8364   7.1990
     8.6478   8.7112   8.9563   9.0655   9.1819   9.5718

          k = 0.0000 0.1667 0.2422 (  2431 PWs)   bands (ev):

   -45.1558 -21.8866 -21.7643 -21.7445  -6.8008  -5.9148  -5.6544  -4.4367
    -4.4337  -4.3932  -4.2659  -4.1550   3.7633   6.5749   6.8864   7.3979
     8.0859   8.4092   8.7551   9.1750   9.2309   9.9671

          k = 0.0000 0.1667-0.4844 (  2426 PWs)   bands (ev):

   -45.1554 -21.9132 -21.7631 -21.7434  -6.5870  -5.8578  -5.5600  -4.4541
    -4.4319  -4.3922  -4.2622  -4.1973   3.3028   6.1948   6.9218   7.0049
     7.8992   8.2602   8.8307   9.2099   9.3154  10.6371

          k = 0.0000 0.3333 0.0000 (  2414 PWs)   bands (ev):

   -45.1555 -21.8580 -21.8035 -21.7441  -6.7016  -5.8960  -5.7036  -4.4775
    -4.4222  -4.4101  -4.2635  -4.1259   3.7296   6.4752   7.1115   7.1733
     8.3291   8.3555   8.8233   8.8488   9.3076  10.1804

          k = 0.0000 0.3333 0.2422 (  2431 PWs)   bands (ev):

   -45.1551 -21.8845 -21.8020 -21.7429  -6.5573  -5.8522  -5.5979  -4.4404
    -4.4320  -4.4222  -4.2524  -4.0999   3.3747   6.3265   7.0199   7.2098
     7.7364   8.1567   8.3251   8.8946   9.4636  10.2725

          k = 0.0000 0.3333-0.4844 (  2420 PWs)   bands (ev):

   -45.1547 -21.9108 -21.8005 -21.7417  -6.4539  -5.7795  -5.4525  -4.4534
    -4.4225  -4.3941  -4.2876  -4.0454   3.0571   5.9324   6.7715   7.2395
     7.6070   7.7997   8.1122   8.9246   9.7861  10.1921

          k = 0.0000-0.5000 0.0000 (  2424 PWs)   bands (ev):

   -45.1552 -21.8570 -21.8224 -21.7433  -6.5283  -5.8468  -5.7117  -4.4938
    -4.4359  -4.4086  -4.2276  -4.1684   3.5078   6.0982   7.3718   7.4236
     7.9004   7.9393   8.7417   8.8745   9.3418  10.9674

          k = 0.0000-0.5000 0.2422 (  2430 PWs)   bands (ev):

   -45.1548 -21.8834 -21.8207 -21.7421  -6.4496  -5.7663  -5.6007  -4.4524
    -4.4367  -4.4309  -4.2126  -4.0993   3.2218   6.0650   7.0305   7.2673
     7.5953   7.7264   8.4443   8.8577   9.4958  10.4196

          k = 0.0000-0.5000-0.4844 (  2424 PWs)   bands (ev):

   -45.1544 -21.9096 -21.8191 -21.7409  -6.4249  -5.6797  -5.4043  -4.4531
    -4.4375  -4.4021  -4.2709  -3.9817   2.9585   5.8199   6.4493   7.3106
     7.5333   7.8064   7.8387   8.8473   9.7260  10.1940

          k = 0.1667 0.1667 0.0000 (  2419 PWs)   bands (ev):

   -45.1559 -21.8588 -21.7649 -21.7645  -6.8725  -5.9302  -5.7339  -4.4476
    -4.4284  -4.3962  -4.2532  -4.1034   4.0235   6.7179   7.0323   7.2423
     8.2094   8.3042   9.0482   9.0713   9.3600   9.7856

          k = 0.1667 0.1667 0.2422 (  2425 PWs)   bands (ev):

   -45.1555 -21.8856 -21.7636 -21.7633  -6.6741  -5.9011  -5.6485  -4.4487
    -4.4250  -4.3894  -4.2383  -4.1216   3.6356   6.4896   6.6059   7.3406
     8.0130   8.0254   8.8078   9.2393   9.4465   9.9262

          k = 0.1667 0.1667-0.4844 (  2432 PWs)   bands (ev):

   -45.1551 -21.9121 -21.7623 -21.7621  -6.4800  -5.8716  -5.5446  -4.4625
    -4.4046  -4.3610  -4.2398  -4.1469   3.2716   6.2472   6.2647   7.0362
     7.9006   7.9673   8.6901   9.3065   9.5007  10.3100

          k = 0.1667 0.3333 0.0000 (  2429 PWs)   bands (ev):

   -45.1552 -21.8571 -21.8025 -21.7630  -6.5757  -5.8617  -5.7321  -4.4721
    -4.4188  -4.3810  -4.2250  -4.1173   3.4989   6.4690   6.9933   7.3377
     7.6784   8.2387   8.5829   9.2100   9.4147  10.2584

          k = 0.1667 0.3333 0.2422 (  2426 PWs)   bands (ev):

   -45.1548 -21.8836 -21.8010 -21.7617  -6.4262  -5.8521  -5.6435  -4.4450
    -4.4207  -4.3575  -4.1977  -4.0750   3.3706   6.2714   6.3902   6.9357
     7.3784   8.0734   8.9035   9.1645   9.5322   9.9830

          k = 0.1667 0.3333-0.4844 (  2412 PWs)   bands (ev):

   -45.1544 -21.9098 -21.7996 -21.7605  -6.3252  -5.8261  -5.5040  -4.4440
    -4.3935  -4.3113  -4.2074  -4.0187   3.1899   5.8653   6.3024   6.5919
     6.8975   7.9393   8.9305   9.2164   9.4813   9.9803

          k = 0.1667-0.5000 0.0000 (  2438 PWs)   bands (ev):

   -45.1548 -21.8561 -21.8213 -21.7621  -6.4114  -5.8143  -5.7557  -4.4756
    -4.4113  -4.3621  -4.1978  -4.1596   3.2953   6.1162   7.1201   7.3418
     7.6872   8.0019   8.3916   9.2376   9.4268  10.6134

          k = 0.1667-0.5000 0.2422 (  2422 PWs)   bands (ev):

   -45.1544 -21.8825 -21.8197 -21.7609  -6.3176  -5.7770  -5.6709  -4.4430
    -4.4071  -4.3412  -4.1645  -4.0746   3.2491   6.0673   6.2867   6.6881
     7.3228   8.2099   8.6939   9.1731   9.5683   9.9165

          k = 0.1667-0.5000-0.4844 (  2412 PWs)   bands (ev):

   -45.1540 -21.9086 -21.8182 -21.7597  -6.2952  -5.7412  -5.4892  -4.4384
    -4.3580  -4.3189  -4.1829  -3.9568   3.1507   5.7691   6.1556   6.3145
     6.6707   8.0547   8.8397   9.0855   9.1457  10.1932

          k = 0.3333 0.3333 0.0000 (  2438 PWs)   bands (ev):

   -45.1545 -21.8554 -21.8006 -21.8002  -6.3298  -5.7940  -5.7692  -4.4542
    -4.4011  -4.3089  -4.1524  -4.1247   3.0736   6.4410   6.5596   7.4233
     7.5983   7.6779   8.3996   9.0879   9.8602  10.0358

          k = 0.3333 0.3333 0.2422 (  2431 PWs)   bands (ev):

   -45.1541 -21.8817 -21.7993 -21.7990  -6.1650  -5.8442  -5.7270  -4.4083
    -4.3950  -4.2506  -4.0952  -4.0393   3.2826   5.9791   6.0402   6.4243
     7.0849   7.5296   8.9951   9.5100   9.5181   9.8782

          k = 0.3333 0.3333-0.4844 (  2418 PWs)   bands (ev):

   -45.1537 -21.9078 -21.7979 -21.7977  -6.0836  -5.8909  -5.5862  -4.3880
    -4.3631  -4.1869  -4.0341  -3.9572   3.4708   5.5405   5.5849   6.1088
     6.7832   7.0124   8.1726   9.8415   9.8549  10.0295

          k = 0.3333-0.5000 0.0000 (  2448 PWs)   bands (ev):

   -45.1541 -21.8543 -21.8191 -21.7994  -6.2204  -5.7741  -5.7539  -4.4465
    -4.3784  -4.2434  -4.1640  -4.1197   2.8800   6.1001   6.6089   7.2219
     7.7226   7.9115   8.0168   9.0593   9.7552  10.0802

          k = 0.3333-0.5000 0.2422 (  2426 PWs)   bands (ev):

   -45.1537 -21.8806 -21.8177 -21.7982  -6.0506  -5.8027  -5.7838  -4.3995
    -4.3672  -4.1644  -4.0747  -4.0242   3.2011   5.8638   6.0269   6.0951
     6.8674   7.5857   8.5399   9.5123   9.5289  10.0367

          k = 0.3333-0.5000-0.4844 (  2420 PWs)   bands (ev):

   -45.1533 -21.9067 -21.8163 -21.7969  -6.0305  -5.8481  -5.6228  -4.3692
    -4.3404  -4.1068  -3.9849  -3.9046   3.6100   5.2937   5.4636   5.9127
     6.5489   6.9842   7.4070   9.9429  10.0080  10.2087

          k =-0.5000-0.5000 0.0000 (  2448 PWs)   bands (ev):

   -45.1538 -21.8533 -21.8180 -21.8180  -6.1714  -5.7265  -5.7265  -4.4363
    -4.3331  -4.1855  -4.1855  -4.0805   2.6794   5.9444   6.4571   7.4106
     7.4106   8.0229   8.0229   8.8259   9.3574  10.3236

          k =-0.5000-0.5000 0.2422 (  2420 PWs)   bands (ev):

   -45.1534 -21.8796 -21.8167 -21.8167  -5.9295  -5.8172  -5.8172  -4.3877
    -4.3306  -4.0443  -4.0316  -4.0316   3.1151   5.8994   5.9684   5.9684
     6.4649   7.5202   7.9134   9.5531   9.5531  10.3043

          k =-0.5000-0.5000-0.4844 (  2408 PWs)   bands (ev):

   -45.1530 -21.9056 -21.8154 -21.8154  -5.8957  -5.8957  -5.6793  -4.3390
    -4.3281  -3.9941  -3.8869  -3.8869   3.8310   5.2915   5.2915   5.7558
     6.4312   6.4727   6.5908  10.2175  10.2175  10.2852

     highest occupied level (ev):    10.9674

!    total energy              =    -380.57348510 Ry
     estimated scf accuracy    <          9.3E-10 Ry

     The total energy is the sum of the following terms:
     one-electron contribution =     -79.58250075 Ry
     hartree contribution      =      69.87488845 Ry
     xc contribution           =    -102.67794856 Ry
     ewald contribution        =    -268.18792424 Ry

     convergence has been achieved in  15 iterations

     negative rho (up, down):  1.526E-02 0.000E+00

     Forces acting on atoms (cartesian axes, Ry/au):

     atom    1 type  1   force =     0.00000000    0.00000000   -0.00051405
     atom    2 type  2   force =     0.00000000    0.00000000    0.01506338
     atom    3 type  3   force =     0.00000000    0.00000000   -0.01293784
     atom    4 type  3   force =     0.00000000    0.00000000   -0.00080574
     atom    5 type  3   force =     0.00000000    0.00000000   -0.00080574

     Total force =     0.019896     Total SCF correction =     0.000022


     Computing stress (Cartesian axis) and pressure


     negative rho (up, down):  1.526E-02 0.000E+00
          total   stress  (Ry/bohr**3)                   (kbar)     P=        0.53
  -0.00007503   0.00000000   0.00000000          -11.04        0.00        0.00
   0.00000000  -0.00007503   0.00000000            0.00      -11.04        0.00
   0.00000000   0.00000000   0.00016082            0.00        0.00       23.66


     BFGS Geometry Optimization
     Energy error            =      0.0E+00 Ry
     Gradient error          =      1.5E-02 Ry/Bohr

     number of scf cycles    =   1
     number of bfgs steps    =   0

     energy             new  =    -380.5734851049 Ry

     new trust radius        =       0.0150633837 bohr
     new conv_thr            =       0.0000000100 Ry


ATOMIC_POSITIONS (crystal)
Pb               0.0000000000        0.0000000000        1.0051058796
Ti               0.5000000000        0.5000000000        0.5415255376
O                0.5000000000        0.5000000000        0.0977977525
O                0.5000000000        0.0000000000        0.6114275591
O                0.0000000000        0.5000000000        0.6114275591



     Writing config-only to output data dir ./pto_tetragonal_eta0p006.save/ :
     XML data file
     NEW-OLD atomic charge density approx. for the potential

     Check: negative core charge=   -0.000004

     negative rho (up, down):  1.529E-02 0.000E+00

     total cpu time spent up to now is       16.0 secs

     Self-consistent Calculation

     iteration #  1     ecut=    50.00 Ry     beta= 0.70
     CG style diagonalization
     c_bands:  1 eigenvalues not converged
     c_bands:  1 eigenvalues not converged
     c_bands:  1 eigenvalues not converged
     c_bands:  1 eigenvalues not converged
     c_bands:  2 eigenvalues not converged
     ethr =  1.00E-06,  avg # of iterations =  6.2

     negative rho (up, down):  1.530E-02 0.000E+00

     total cpu time spent up to now is       17.3 secs

     total energy              =    -380.57365691 Ry
     estimated scf accuracy    <       0.00017186 Ry

     iteration #  2     ecut=    50.00 Ry     beta= 0.70
     CG style diagonalization
     ethr =  3.91E-07,  avg # of iterations =  4.6

     negative rho (up, down):  1.529E-02 0.000E+00

     total cpu time spent up to now is       18.2 secs

     total energy              =    -380.57363944 Ry
     estimated scf accuracy    <       0.00045616 Ry

     iteration #  3     ecut=    50.00 Ry     beta= 0.70
     CG style diagonalization
     ethr =  3.91E-07,  avg # of iterations =  4.2

     negative rho (up, down):  1.529E-02 0.000E+00

     total cpu time spent up to now is       19.0 secs

     total energy              =    -380.57372925 Ry
     estimated scf accuracy    <       0.00004060 Ry

     iteration #  4     ecut=    50.00 Ry     beta= 0.70
     CG style diagonalization
     ethr =  9.23E-08,  avg # of iterations =  3.6

     negative rho (up, down):  1.529E-02 0.000E+00

     total cpu time spent up to now is       19.7 secs

     total energy              =    -380.57373889 Ry
     estimated scf accuracy    <       0.00000439 Ry

     iteration #  5     ecut=    50.00 Ry     beta= 0.70
     CG style diagonalization
     ethr =  9.99E-09,  avg # of iterations =  3.9

     negative rho (up, down):  1.529E-02 0.000E+00

     total cpu time spent up to now is       20.5 secs

     total energy              =    -380.57374060 Ry
     estimated scf accuracy    <       0.00000025 Ry

     iteration #  6     ecut=    50.00 Ry     beta= 0.70
     CG style diagonalization
     ethr =  5.76E-10,  avg # of iterations =  5.0

     negative rho (up, down):  1.529E-02 0.000E+00

     total cpu time spent up to now is       21.5 secs

     total energy              =    -380.57374085 Ry
     estimated scf accuracy    <       0.00000031 Ry

     iteration #  7     ecut=    50.00 Ry     beta= 0.70
     CG style diagonalization
     ethr =  5.76E-10,  avg # of iterations =  3.7

     negative rho (up, down):  1.529E-02 0.000E+00

     total cpu time spent up to now is       22.2 secs

     total energy              =    -380.57374087 Ry
     estimated scf accuracy    <       0.00000007 Ry

     iteration #  8     ecut=    50.00 Ry     beta= 0.70
     CG style diagonalization
     ethr =  1.48E-10,  avg # of iterations =  4.0

     negative rho (up, down):  1.529E-02 0.000E+00

     total cpu time spent up to now is       23.0 secs

     End of self-consistent calculation

          k = 0.0000 0.0000 0.0000 (  2437 PWs)   bands (ev):

   -45.1889 -21.8691 -21.7806 -21.7806  -7.1571  -6.0115  -5.7607  -4.4112
    -4.4112  -4.3748  -4.2728  -4.1165   4.8821   6.7008   6.7008   7.1552
     8.7727   8.7727   8.9986   9.3474   9.4128   9.4128

          k = 0.0000 0.0000 0.2422 (  2445 PWs)   bands (ev):

   -45.1886 -21.8961 -21.7795 -21.7795  -6.9360  -5.9450  -5.6751  -4.4312
    -4.4312  -4.3731  -4.2527  -4.1984   4.0134   6.7697   6.7697   7.2674
     8.4706   8.4706   8.9024   9.4273   9.5409   9.5409

          k = 0.0000 0.0000-0.4844 (  2402 PWs)   bands (ev):

   -45.1882 -21.9228 -21.7784 -21.7784  -6.6984  -5.8718  -5.5920  -4.4510
    -4.4510  -4.3714  -4.2870  -4.2334   3.4657   6.4935   6.8173   6.8173
     8.2813   8.2813   8.8113   9.6210   9.6210  10.7295

          k = 0.0000 0.1667 0.0000 (  2433 PWs)   bands (ev):

   -45.1886 -21.8683 -21.7997 -21.7798  -7.0157  -5.9778  -5.7333  -4.4356
    -4.4097  -4.3889  -4.2730  -4.1093   4.3699   6.8126   6.8308   7.1948
     8.6815   8.7711   8.9588   9.0621   9.1947   9.5942

          k = 0.0000 0.1667 0.2422 (  2431 PWs)   bands (ev):

   -45.1882 -21.8951 -21.7985 -21.7787  -6.8109  -5.9282  -5.6425  -4.4330
    -4.4303  -4.3878  -4.2606  -4.1536   3.7731   6.5824   6.8918   7.3895
     8.1046   8.4435   8.7504   9.1902   9.2249   9.9657

          k = 0.0000 0.1667-0.4844 (  2426 PWs)   bands (ev):

   -45.1878 -21.9217 -21.7972 -21.7776  -6.6025  -5.8717  -5.5436  -4.4507
    -4.4282  -4.3867  -4.2565  -4.1955   3.3200   6.2075   6.9437   6.9971
     7.9031   8.2707   8.8169   9.2257   9.3046  10.6286

          k = 0.0000 0.3333 0.0000 (  2414 PWs)   bands (ev):

   -45.1879 -21.8667 -21.8375 -21.7783  -6.7068  -5.9069  -5.6948  -4.4738
    -4.4168  -4.4066  -4.2601  -4.1239   3.7315   6.4628   7.1011   7.1736
     8.3222   8.3528   8.8204   8.9168   9.3378  10.1953

          k = 0.0000 0.3333 0.2422 (  2431 PWs)   bands (ev):

   -45.1875 -21.8931 -21.8361 -21.7771  -6.5677  -5.8620  -5.5850  -4.4366
    -4.4286  -4.4168  -4.2485  -4.0987   3.3794   6.3250   7.0163   7.2107
     7.7321   8.1688   8.3246   8.9159   9.4789  10.2773

          k = 0.0000 0.3333-0.4844 (  2420 PWs)   bands (ev):

   -45.1871 -21.9193 -21.8346 -21.7759  -6.4684  -5.7898  -5.4348  -4.4501
    -4.4170  -4.3903  -4.2831  -4.0448   3.0647   5.9503   6.7503   7.2601
     7.6044   7.7846   8.1136   8.9246   9.8219  10.1785

          k = 0.0000-0.5000 0.0000 (  2424 PWs)   bands (ev):

   -45.1875 -21.8657 -21.8566 -21.7775  -6.5340  -5.8559  -5.7023  -4.4904
    -4.4305  -4.4052  -4.2254  -4.1652   3.5108   6.0757   7.3553   7.4339
     7.8841   7.9349   8.7408   8.9469   9.3734  10.9809

          k = 0.0000-0.5000 0.2422 (  2430 PWs)   bands (ev):

   -45.1872 -21.8920 -21.8549 -21.7763  -6.4610  -5.7755  -5.5846  -4.4491
    -4.4313  -4.4276  -4.2092  -4.0980   3.2251   6.0488   7.0307   7.2677
     7.5775   7.7465   8.4421   8.8908   9.5030  10.4355

          k = 0.0000-0.5000-0.4844 (  2424 PWs)   bands (ev):

   -45.1868 -21.9181 -21.8533 -21.7751  -6.4389  -5.6891  -5.3845  -4.4498
    -4.4320  -4.3989  -4.2670  -3.9814   2.9618   5.8295   6.4346   7.3046
     7.5671   7.7895   7.8194   8.8558   9.7428  10.2072

          k = 0.1667 0.1667 0.0000 (  2419 PWs)   bands (ev):

   -45.1882 -21.8676 -21.7991 -21.7986  -6.8774  -5.9430  -5.7257  -4.4439
    -4.4246  -4.3913  -4.2484  -4.1021   4.0243   6.7087   7.0249   7.2478
     8.2575   8.3037   9.0682   9.0799   9.3452   9.8242

          k = 0.1667 0.1667 0.2422 (  2425 PWs)   bands (ev):

   -45.1879 -21.8942 -21.7978 -21.7975  -6.6834  -5.9141  -5.6362  -4.4446
    -4.4211  -4.3848  -4.2331  -4.1204   3.6428   6.4972   6.6086   7.3414
     8.0069   8.0341   8.8443   9.2390   9.4447   9.9251

          k = 0.1667 0.1667-0.4844 (  2432 PWs)   bands (ev):

   -45.1875 -21.9206 -21.7965 -21.7963  -6.4945  -5.8849  -5.5275  -4.4582
    -4.3996  -4.3581  -4.2338  -4.1457   3.2858   6.2562   6.2824   7.0203
     7.9058   7.9572   8.7112   9.3055   9.5019  10.3018

          k = 0.1667 0.3333 0.0000 (  2429 PWs)   bands (ev):

   -45.1875 -21.8659 -21.8365 -21.7971  -6.5786  -5.8725  -5.7253  -4.4686
    -4.4150  -4.3757  -4.2207  -4.1155   3.4983   6.4531   6.9977   7.3285
     7.6782   8.2873   8.5732   9.2173   9.4189  10.2805

          k = 0.1667 0.3333 0.2422 (  2426 PWs)   bands (ev):

   -45.1872 -21.8922 -21.8352 -21.7959  -6.4347  -5.8621  -5.6314  -4.4409
    -4.4170  -4.3521  -4.1935  -4.0738   3.3733   6.2721   6.3904   6.9313
     7.3785   8.0691   8.9098   9.1795   9.5442   9.9875

          k = 0.1667 0.3333-0.4844 (  2412 PWs)   bands (ev):

   -45.1868 -21.9184 -21.8338 -21.7947  -6.3383  -5.8364  -5.4869  -4.4397
    -4.3890  -4.3063  -4.2033  -4.0181   3.1965   5.8828   6.3014   6.5851
     6.8801   7.9262   8.9609   9.2046   9.4872   9.9919

          k = 0.1667-0.5000 0.0000 (  2438 PWs)   bands (ev):

   -45.1872 -21.8648 -21.8555 -21.7962  -6.4134  -5.8235  -5.7499  -4.4723
    -4.4076  -4.3561  -4.1949  -4.1567   3.2950   6.0938   7.1360   7.3294
     7.6704   7.9892   8.4563   9.2359   9.4398  10.6214

          k = 0.1667-0.5000 0.2422 (  2422 PWs)   bands (ev):

   -45.1868 -21.8911 -21.8539 -21.7950  -6.3269  -5.7860  -5.6572  -4.4391
    -4.4038  -4.3343  -4.1619  -4.0730   3.2503   6.0522   6.2834   6.6933
     7.3249   8.2078   8.6852   9.2009   9.5679   9.9350

          k = 0.1667-0.5000-0.4844 (  2412 PWs)   bands (ev):

   -45.1864 -21.9171 -21.8524 -21.7938  -6.3078  -5.7500  -5.4717  -4.4341
    -4.3548  -4.3109  -4.1805  -3.9563   3.1532   5.7828   6.1454   6.3036
     6.6668   8.0371   8.8454   9.1122   9.1371  10.2126

          k = 0.3333 0.3333 0.0000 (  2438 PWs)   bands (ev):

   -45.1868 -21.8642 -21.8346 -21.8344  -6.3255  -5.8043  -5.7682  -4.4511
    -4.3966  -4.3045  -4.1461  -4.1229   3.0700   6.4313   6.5351   7.4459
     7.5894   7.7276   8.3696   9.0930   9.8511  10.0471

          k = 0.3333 0.3333 0.2422 (  2431 PWs)   bands (ev):

   -45.1865 -21.8903 -21.8334 -21.8332  -6.1688  -5.8540  -5.7176  -4.4051
    -4.3903  -4.2447  -4.0901  -4.0384   3.2805   5.9829   6.0444   6.4160
     7.0662   7.5262   9.0001   9.5185   9.5402   9.8722

          k = 0.3333 0.3333-0.4844 (  2418 PWs)   bands (ev):

   -45.1861 -21.9163 -21.8320 -21.8319  -6.0939  -5.9002  -5.5707  -4.3831
    -4.3596  -4.1788  -4.0306  -3.9569   3.4728   5.5502   5.5800   6.1097
     6.7702   6.9833   8.1805   9.8417   9.8659  10.0503

          k = 0.3333-0.5000 0.0000 (  2448 PWs)   bands (ev):

   -45.1865 -21.8631 -21.8533 -21.8335  -6.2106  -5.7786  -5.7630  -4.4434
    -4.3739  -4.2395  -4.1618  -4.1129   2.8756   6.0818   6.5829   7.2528
     7.7679   7.8933   8.0043   9.0579   9.7571  10.0677

          k = 0.3333-0.5000 0.2422 (  2426 PWs)   bands (ev):

   -45.1861 -21.8893 -21.8519 -21.8323  -6.0523  -5.8111  -5.7766  -4.3962
    -4.3625  -4.1566  -4.0734  -4.0209   3.1967   5.8686   6.0253   6.0859
     6.8485   7.5839   8.5385   9.5278   9.5487  10.0267

          k = 0.3333-0.5000-0.4844 (  2420 PWs)   bands (ev):

   -45.1857 -21.9152 -21.8505 -21.8311  -6.0400  -5.8561  -5.6081  -4.3647
    -4.3367  -4.0959  -3.9841  -3.9033   3.6068   5.2898   5.4762   5.9025
     6.5330   6.9603   7.4145   9.9674   9.9943  10.2303

          k =-0.5000-0.5000 0.0000 (  2448 PWs)   bands (ev):

   -45.1862 -21.8620 -21.8522 -21.8522  -6.1560  -5.7354  -5.7354  -4.4333
    -4.3280  -4.1841  -4.1841  -4.0706   2.6737   5.9287   6.4213   7.4493
     7.4493   8.0080   8.0080   8.8268   9.3465  10.3100

          k =-0.5000-0.5000 0.2422 (  2420 PWs)   bands (ev):

   -45.1858 -21.8882 -21.8509 -21.8509  -5.9147  -5.8253  -5.8253  -4.3845
    -4.3255  -4.0330  -4.0308  -4.0308   3.1080   5.8843   5.9793   5.9793
     6.4290   7.5195   7.9101   9.5695   9.5695  10.2907

          k =-0.5000-0.5000-0.4844 (  2408 PWs)   bands (ev):

   -45.1854 -21.9142 -21.8496 -21.8496  -5.9033  -5.9033  -5.6656  -4.3357
    -4.3230  -3.9809  -3.8865  -3.8865   3.8196   5.2993   5.2993   5.7436
     6.4346   6.4368   6.5861  10.2391  10.2391  10.2716

     highest occupied level (ev):    10.9809

!    total energy              =    -380.57374089 Ry
     estimated scf accuracy    <          2.8E-09 Ry

     The total energy is the sum of the following terms:
     one-electron contribution =     -79.49263095 Ry
     hartree contribution      =      69.82090982 Ry
     xc contribution           =    -102.67078159 Ry
     ewald contribution        =    -268.23123817 Ry

     convergence has been achieved in   8 iterations

     negative rho (up, down):  1.529E-02 0.000E+00

     Forces acting on atoms (cartesian axes, Ry/au):

     atom    1 type  1   force =     0.00000000    0.00000000    0.00124353
     atom    2 type  2   force =     0.00000000    0.00000000    0.00519146
     atom    3 type  3   force =     0.00000000    0.00000000   -0.00353701
     atom    4 type  3   force =     0.00000000    0.00000000   -0.00144899
     atom    5 type  3   force =     0.00000000    0.00000000   -0.00144899

     Total force =     0.006724     Total SCF correction =     0.000215


     Computing stress (Cartesian axis) and pressure


     negative rho (up, down):  1.529E-02 0.000E+00
          total   stress  (Ry/bohr**3)                   (kbar)     P=       -3.53
  -0.00007576   0.00000000   0.00000000          -11.14        0.00        0.00
   0.00000000  -0.00007576   0.00000000            0.00      -11.14        0.00
   0.00000000   0.00000000   0.00007956            0.00        0.00       11.70

     Energy error            =      2.6E-04 Ry
     Gradient error          =      5.2E-03 Ry/Bohr

     number of scf cycles    =   2
     number of bfgs steps    =   1

     energy             old  =    -380.5734851049 Ry
     energy             new  =    -380.5737408930 Ry

     CASE: energy            _new < energy            _old

     new trust radius        =       0.0080402397 bohr
     new conv_thr            =       0.0000000003 Ry


ATOMIC_POSITIONS (crystal)
Pb               0.0000000000        0.0000000000        1.0053447345
Ti               0.5000000000        0.5000000000        0.5425883126
O                0.5000000000        0.5000000000        0.0970634721
O                0.5000000000        0.0000000000        0.6111438844
O                0.0000000000        0.5000000000        0.6111438844



     Writing config-only to output data dir ./pto_tetragonal_eta0p006.save/ :
     XML data file
     NEW-OLD atomic charge density approx. for the potential

     Check: negative core charge=   -0.000004

     negative rho (up, down):  1.533E-02 0.000E+00

     total cpu time spent up to now is       24.3 secs

     Self-consistent Calculation

     iteration #  1     ecut=    50.00 Ry     beta= 0.70
     CG style diagonalization
     ethr =  1.00E-06,  avg # of iterations =  4.7

     Threshold (ethr) on eigenvalues was too large:
     Diagonalizing with lowered threshold

     CG style diagonalization
     c_bands:  1 eigenvalues not converged
     ethr =  8.73E-08,  avg # of iterations =  4.3

     negative rho (up, down):  1.534E-02 0.000E+00

     total cpu time spent up to now is       26.3 secs

     total energy              =    -380.57376753 Ry
     estimated scf accuracy    <       0.00003611 Ry

     iteration #  2     ecut=    50.00 Ry     beta= 0.70
     CG style diagonalization
     ethr =  8.21E-08,  avg # of iterations =  4.7

     negative rho (up, down):  1.533E-02 0.000E+00

     total cpu time spent up to now is       27.2 secs

     total energy              =    -380.57376317 Ry
     estimated scf accuracy    <       0.00008817 Ry

     iteration #  3     ecut=    50.00 Ry     beta= 0.70
     CG style diagonalization
     ethr =  8.21E-08,  avg # of iterations =  4.2

     negative rho (up, down):  1.533E-02 0.000E+00

     total cpu time spent up to now is       28.0 secs

     total energy              =    -380.57378171 Ry
     estimated scf accuracy    <       0.00000924 Ry

     iteration #  4     ecut=    50.00 Ry     beta= 0.70
     CG style diagonalization
     ethr =  2.10E-08,  avg # of iterations =  3.7

     negative rho (up, down):  1.533E-02 0.000E+00

     total cpu time spent up to now is       28.7 secs

     total energy              =    -380.57378391 Ry
     estimated scf accuracy    <       0.00000101 Ry

     iteration #  5     ecut=    50.00 Ry     beta= 0.70
     CG style diagonalization
     ethr =  2.29E-09,  avg # of iterations =  4.4

     negative rho (up, down):  1.533E-02 0.000E+00

     total cpu time spent up to now is       29.6 secs

     total energy              =    -380.57378457 Ry
     estimated scf accuracy    <       0.00000014 Ry

     iteration #  6     ecut=    50.00 Ry     beta= 0.70
     CG style diagonalization
     ethr =  3.13E-10,  avg # of iterations =  4.2

     negative rho (up, down):  1.533E-02 0.000E+00

     total cpu time spent up to now is       30.4 secs

     total energy              =    -380.57378461 Ry
     estimated scf accuracy    <       0.00000004 Ry

     iteration #  7     ecut=    50.00 Ry     beta= 0.70
     CG style diagonalization
     ethr =  9.50E-11,  avg # of iterations =  4.6

     negative rho (up, down):  1.533E-02 0.000E+00

     total cpu time spent up to now is       31.4 secs

     total energy              =    -380.57378462 Ry
     estimated scf accuracy    <       0.00000004 Ry

     iteration #  8     ecut=    50.00 Ry     beta= 0.70
     CG style diagonalization
     ethr =  8.54E-11,  avg # of iterations =  3.8

     negative rho (up, down):  1.533E-02 0.000E+00

     total cpu time spent up to now is       32.1 secs

     total energy              =    -380.57378463 Ry
     estimated scf accuracy    <          1.8E-09 Ry

     iteration #  9     ecut=    50.00 Ry     beta= 0.70
     CG style diagonalization
     ethr =  4.07E-12,  avg # of iterations =  5.7

     negative rho (up, down):  1.533E-02 0.000E+00

     total cpu time spent up to now is       33.2 secs

     End of self-consistent calculation

          k = 0.0000 0.0000 0.0000 (  2437 PWs)   bands (ev):

   -45.2031 -21.8728 -21.7956 -21.7956  -7.1581  -6.0158  -5.7574  -4.4113
    -4.4113  -4.3744  -4.2714  -4.1191   4.8833   6.7009   6.7009   7.1455
     8.8059   8.8059   9.0002   9.3720   9.4105   9.4105

          k = 0.0000 0.0000 0.2422 (  2445 PWs)   bands (ev):

   -45.2027 -21.8998 -21.7945 -21.7945  -6.9386  -5.9494  -5.6704  -4.4313
    -4.4313  -4.3727  -4.2512  -4.2009   4.0183   6.7765   6.7765   7.2626
     8.4881   8.4881   8.9043   9.4337   9.5388   9.5388

          k = 0.0000 0.0000-0.4844 (  2402 PWs)   bands (ev):

   -45.2023 -21.9264 -21.7933 -21.7933  -6.7031  -5.8763  -5.5855  -4.4511
    -4.4511  -4.3710  -4.2894  -4.2319   3.4748   6.4877   6.8328   6.8328
     8.2843   8.2843   8.8134   9.6183   9.6183  10.7269

          k = 0.0000 0.1667 0.0000 (  2433 PWs)   bands (ev):

   -45.2027 -21.8721 -21.8146 -21.7948  -7.0164  -5.9817  -5.7296  -4.4355
    -4.4098  -4.3884  -4.2722  -4.1118   4.3704   6.8121   6.8293   7.1928
     8.6957   8.7978   8.9632   9.0664   9.2018   9.6057

          k = 0.0000 0.1667 0.2422 (  2431 PWs)   bands (ev):

   -45.2023 -21.8988 -21.8134 -21.7936  -6.8133  -5.9320  -5.6374  -4.4330
    -4.4304  -4.3873  -4.2597  -4.1561   3.7764   6.5882   6.8978   7.3857
     8.1129   8.4595   8.7491   9.1996   9.2245   9.9647

          k = 0.0000 0.1667-0.4844 (  2426 PWs)   bands (ev):

   -45.2019 -21.9253 -21.8122 -21.7925  -6.6070  -5.8755  -5.5366  -4.4508
    -4.4284  -4.3863  -4.2556  -4.1977   3.3265   6.2151   6.9588   6.9951
     7.9030   8.2739   8.8133   9.2350   9.3015  10.6229

          k = 0.0000 0.3333 0.0000 (  2414 PWs)   bands (ev):

   -45.2020 -21.8706 -21.8524 -21.7932  -6.7072  -5.9092  -5.6903  -4.4738
    -4.4163  -4.4067  -4.2607  -4.1259   3.7319   6.4578   7.0985   7.1724
     8.3201   8.3507   8.8217   8.9521   9.3535  10.2012

          k = 0.0000 0.3333 0.2422 (  2431 PWs)   bands (ev):

   -45.2016 -21.8968 -21.8511 -21.7920  -6.5702  -5.8637  -5.5787  -4.4368
    -4.4287  -4.4164  -4.2487  -4.1011   3.3804   6.3255   7.0145   7.2140
     7.7304   8.1759   8.3250   8.9272   9.4869  10.2786

          k = 0.0000 0.3333-0.4844 (  2420 PWs)   bands (ev):

   -45.2012 -21.9230 -21.8496 -21.7908  -6.4728  -5.7913  -5.4267  -4.4502
    -4.4166  -4.3907  -4.2832  -4.0474   3.0667   5.9608   6.7391   7.2739
     7.6044   7.7791   8.1153   8.9244   9.8390  10.1700

          k = 0.0000-0.5000 0.0000 (  2424 PWs)   bands (ev):

   -45.2017 -21.8715 -21.8694 -21.7924  -6.5348  -5.8571  -5.6971  -4.4908
    -4.4301  -4.4053  -4.2277  -4.1658   3.5117   6.0650   7.3495   7.4360
     7.8775   7.9349   8.7432   8.9837   9.3898  10.9861

          k = 0.0000-0.5000 0.2422 (  2430 PWs)   bands (ev):

   -45.2013 -21.8957 -21.8699 -21.7912  -6.4641  -5.7764  -5.5769  -4.4495
    -4.4308  -4.4277  -4.2099  -4.1004   3.2254   6.0413   7.0312   7.2686
     7.5713   7.7588   8.4420   8.9068   9.5066  10.4416

          k = 0.0000-0.5000-0.4844 (  2424 PWs)   bands (ev):

   -45.2009 -21.9217 -21.8682 -21.7900  -6.4434  -5.6896  -5.3752  -4.4499
    -4.4316  -4.3996  -4.2678  -3.9839   2.9615   5.8352   6.4270   7.3047
     7.5869   7.7818   7.8126   8.8584   9.7456  10.2156

          k = 0.1667 0.1667 0.0000 (  2419 PWs)   bands (ev):

   -45.2024 -21.8713 -21.8139 -21.8136  -6.8775  -5.9464  -5.7219  -4.4439
    -4.4245  -4.3911  -4.2478  -4.1047   4.0243   6.7067   7.0214   7.2516
     8.2802   8.3047   9.0683   9.0953   9.3399   9.8419

          k = 0.1667 0.1667 0.2422 (  2425 PWs)   bands (ev):

   -45.2020 -21.8979 -21.8127 -21.8124  -6.6854  -5.9175  -5.6308  -4.4445
    -4.4212  -4.3847  -4.2323  -4.1230   3.6453   6.5033   6.6115   7.3428
     8.0053   8.0367   8.8619   9.2406   9.4465   9.9228

          k = 0.1667 0.1667-0.4844 (  2432 PWs)   bands (ev):

   -45.2016 -21.9242 -21.8114 -21.8112  -6.4984  -5.8884  -5.5202  -4.4580
    -4.3993  -4.3585  -4.2327  -4.1484   3.2912   6.2618   6.2934   7.0139
     7.9113   7.9503   8.7203   9.3067   9.5052  10.2958

          k = 0.1667 0.3333 0.0000 (  2429 PWs)   bands (ev):

   -45.2017 -21.8698 -21.8514 -21.8120  -6.5779  -5.8747  -5.7214  -4.4689
    -4.4150  -4.3754  -4.2209  -4.1177   3.4982   6.4466   7.0013   7.3233
     7.6802   8.3075   8.5705   9.2224   9.4218  10.2899

          k = 0.1667 0.3333 0.2422 (  2426 PWs)   bands (ev):

   -45.2013 -21.8959 -21.8501 -21.8108  -6.4364  -5.8639  -5.6256  -4.4409
    -4.4171  -4.3515  -4.1936  -4.0762   3.3742   6.2737   6.3916   6.9304
     7.3789   8.0658   8.9120   9.1896   9.5508   9.9887

          k = 0.1667 0.3333-0.4844 (  2412 PWs)   bands (ev):

   -45.2009 -21.9220 -21.8487 -21.8096  -6.3419  -5.8381  -5.4792  -4.4394
    -4.3889  -4.3058  -4.2035  -4.0206   3.1986   5.8928   6.3029   6.5820
     6.8724   7.9199   8.9742   9.2018   9.4874   9.9988

          k = 0.1667-0.5000 0.0000 (  2438 PWs)   bands (ev):

   -45.2013 -21.8704 -21.8686 -21.8111  -6.4126  -5.8245  -5.7460  -4.4726
    -4.4076  -4.3554  -4.1967  -4.1578   3.2953   6.0830   7.1436   7.3265
     7.6615   7.9829   8.4872   9.2377   9.4462  10.6238

          k = 0.1667-0.5000 0.2422 (  2422 PWs)   bands (ev):

   -45.2009 -21.8948 -21.8689 -21.8100  -6.3290  -5.7868  -5.6505  -4.4392
    -4.4040  -4.3329  -4.1630  -4.0751   3.2505   6.0451   6.2826   6.6970
     7.3269   8.2051   8.6816   9.2160   9.5680   9.9432

          k = 0.1667-0.5000-0.4844 (  2412 PWs)   bands (ev):

   -45.2005 -21.9208 -21.8673 -21.8088  -6.3115  -5.7506  -5.4639  -4.4339
    -4.3552  -4.3090  -4.1818  -3.9586   3.1531   5.7904   6.1431   6.2987
     6.6652   8.0283   8.8456   9.1256   9.1336  10.2229

          k = 0.3333 0.3333 0.0000 (  2438 PWs)   bands (ev):

   -45.2010 -21.8682 -21.8493 -21.8493  -6.3221  -5.8058  -5.7660  -4.4515
    -4.3965  -4.3048  -4.1453  -4.1253   3.0697   6.4280   6.5242   7.4547
     7.5865   7.7498   8.3551   9.0941   9.8494  10.0508

          k = 0.3333 0.3333 0.2422 (  2431 PWs)   bands (ev):

   -45.2006 -21.8941 -21.8483 -21.8481  -6.1685  -5.8556  -5.7128  -4.4055
    -4.3900  -4.2439  -4.0897  -4.0408   3.2807   5.9848   6.0466   6.4135
     7.0554   7.5235   8.9990   9.5232   9.5518   9.8721

          k = 0.3333 0.3333-0.4844 (  2418 PWs)   bands (ev):

   -45.2002 -21.9200 -21.8470 -21.8469  -6.0958  -5.9019  -5.5640  -4.3827
    -4.3599  -4.1766  -4.0309  -3.9593   3.4745   5.5546   5.5793   6.1121
     6.7627   6.9677   8.1794   9.8382   9.8785  10.0611

          k = 0.3333-0.5000 0.0000 (  2448 PWs)   bands (ev):

   -45.2006 -21.8682 -21.8669 -21.8483  -6.2055  -5.7780  -5.7636  -4.4439
    -4.3738  -4.2405  -4.1637  -4.1119   2.8754   6.0733   6.5713   7.2664
     7.7866   7.8844   7.9998   9.0561   9.7565  10.0640

          k = 0.3333-0.5000 0.2422 (  2426 PWs)   bands (ev):

   -45.2002 -21.8930 -21.8669 -21.8472  -6.0513  -5.8118  -5.7723  -4.3966
    -4.3623  -4.1548  -4.0752  -4.0218   3.1967   5.8700   6.0232   6.0833
     6.8387   7.5815   8.5345   9.5355   9.5588  10.0247

          k = 0.3333-0.5000-0.4844 (  2420 PWs)   bands (ev):

   -45.1999 -21.9189 -21.8655 -21.8460  -6.0418  -5.8568  -5.6018  -4.3645
    -4.3369  -4.0922  -3.9858  -3.9050   3.6075   5.2886   5.4818   5.8991
     6.5244   6.9472   7.4129   9.9799   9.9906  10.2411

          k =-0.5000-0.5000 0.0000 (  2448 PWs)   bands (ev):

   -45.2003 -21.8672 -21.8672 -21.8657  -6.1492  -5.7358  -5.7358  -4.4338
    -4.3276  -4.1867  -4.1867  -4.0675   2.6735   5.9217   6.4033   7.4660
     7.4660   8.0014   8.0014   8.8259   9.3389  10.3063

          k =-0.5000-0.5000 0.2422 (  2420 PWs)   bands (ev):

   -45.1999 -21.8919 -21.8659 -21.8659  -5.9084  -5.8259  -5.8259  -4.3850
    -4.3251  -4.0330  -4.0330  -4.0292   3.1080   5.8779   5.9828   5.9828
     6.4109   7.5181   7.9048   9.5775   9.5775  10.2870

          k =-0.5000-0.5000-0.4844 (  2408 PWs)   bands (ev):

   -45.1995 -21.9178 -21.8646 -21.8646  -5.9041  -5.9041  -5.6599  -4.3362
    -4.3226  -3.9760  -3.8883  -3.8883   3.8204   5.3012   5.3012   5.7393
     6.4186   6.4296   6.5823  10.2498  10.2498  10.2679

     highest occupied level (ev):    10.9861

!    total energy              =    -380.57378464 Ry
     estimated scf accuracy    <          8.3E-11 Ry

     The total energy is the sum of the following terms:
     one-electron contribution =     -79.43224695 Ry
     hartree contribution      =      69.78638374 Ry
     xc contribution           =    -102.66714606 Ry
     ewald contribution        =    -268.26077538 Ry

     convergence has been achieved in   9 iterations

     negative rho (up, down):  1.533E-02 0.000E+00

     Forces acting on atoms (cartesian axes, Ry/au):

     atom    1 type  1   force =     0.00000000    0.00000000    0.00190984
     atom    2 type  2   force =     0.00000000    0.00000000    0.00084366
     atom    3 type  3   force =     0.00000000    0.00000000    0.00020841
     atom    4 type  3   force =     0.00000000    0.00000000   -0.00148095
     atom    5 type  3   force =     0.00000000    0.00000000   -0.00148095

     Total force =     0.002965     Total SCF correction =     0.000054


     Computing stress (Cartesian axis) and pressure


     negative rho (up, down):  1.533E-02 0.000E+00
          total   stress  (Ry/bohr**3)                   (kbar)     P=       -5.50
  -0.00007669   0.00000000   0.00000000          -11.28        0.00        0.00
   0.00000000  -0.00007669   0.00000000            0.00      -11.28        0.00
   0.00000000   0.00000000   0.00004120            0.00        0.00        6.06

     Energy error            =      4.4E-05 Ry
     Gradient error          =      1.9E-03 Ry/Bohr

     number of scf cycles    =   3
     number of bfgs steps    =   2

     energy             old  =    -380.5737408930 Ry
     energy             new  =    -380.5737846360 Ry

     CASE: energy            _new < energy            _old

     new trust radius        =       0.0030170630 bohr
     new conv_thr            =            1.0E-10 Ry


ATOMIC_POSITIONS (crystal)
Pb               0.0000000000        0.0000000000        1.0057098584
Ti               0.5000000000        0.5000000000        0.5429871140
O                0.5000000000        0.5000000000        0.0969115719
O                0.5000000000        0.0000000000        0.6108378718
O                0.0000000000        0.5000000000        0.6108378718



     Writing config-only to output data dir ./pto_tetragonal_eta0p006.save/ :
     XML data file
     NEW-OLD atomic charge density approx. for the potential

     Check: negative core charge=   -0.000004

     negative rho (up, down):  1.536E-02 0.000E+00

     total cpu time spent up to now is       34.4 secs

     Self-consistent Calculation

     iteration #  1     ecut=    50.00 Ry     beta= 0.70
     CG style diagonalization
     ethr =  1.00E-06,  avg # of iterations =  3.3

     Threshold (ethr) on eigenvalues was too large:
     Diagonalizing with lowered threshold

     CG style diagonalization
     c_bands:  2 eigenvalues not converged
     c_bands:  1 eigenvalues not converged
     c_bands:  1 eigenvalues not converged
     c_bands:  1 eigenvalues not converged
     c_bands:  1 eigenvalues not converged
     c_bands:  2 eigenvalues not converged
     c_bands:  1 eigenvalues not converged
     c_bands:  1 eigenvalues not converged
     c_bands:  1 eigenvalues not converged
     ethr =  1.37E-08,  avg # of iterations =  6.6

     negative rho (up, down):  1.536E-02 0.000E+00

     total cpu time spent up to now is       36.5 secs

     total energy              =    -380.57379584 Ry
     estimated scf accuracy    <       0.00000315 Ry

     iteration #  2     ecut=    50.00 Ry     beta= 0.70
     CG style diagonalization
     ethr =  7.16E-09,  avg # of iterations =  4.5

     negative rho (up, down):  1.536E-02 0.000E+00

     total cpu time spent up to now is       37.4 secs

     total energy              =    -380.57379565 Ry
     estimated scf accuracy    <       0.00000421 Ry

     iteration #  3     ecut=    50.00 Ry     beta= 0.70
     CG style diagonalization
     ethr =  7.16E-09,  avg # of iterations =  4.0

     negative rho (up, down):  1.536E-02 0.000E+00

     total cpu time spent up to now is       38.2 secs

     total energy              =    -380.57379668 Ry
     estimated scf accuracy    <       0.00000130 Ry

     iteration #  4     ecut=    50.00 Ry     beta= 0.70
     CG style diagonalization
     ethr =  2.95E-09,  avg # of iterations =  3.5

     negative rho (up, down):  1.536E-02 0.000E+00

     total cpu time spent up to now is       38.9 secs

     total energy              =    -380.57379689 Ry
     estimated scf accuracy    <       0.00000009 Ry

     iteration #  5     ecut=    50.00 Ry     beta= 0.70
     CG style diagonalization
     ethr =  1.95E-10,  avg # of iterations =  4.2

     negative rho (up, down):  1.536E-02 0.000E+00

     total cpu time spent up to now is       39.8 secs

     total energy              =    -380.57379695 Ry
     estimated scf accuracy    <       0.00000001 Ry

     iteration #  6     ecut=    50.00 Ry     beta= 0.70
     CG style diagonalization
     ethr =  2.52E-11,  avg # of iterations =  4.6

     negative rho (up, down):  1.536E-02 0.000E+00

     total cpu time spent up to now is       40.7 secs

     total energy              =    -380.57379695 Ry
     estimated scf accuracy    <          7.3E-09 Ry

     iteration #  7     ecut=    50.00 Ry     beta= 0.70
     CG style diagonalization
     ethr =  1.66E-11,  avg # of iterations =  3.8

     negative rho (up, down):  1.536E-02 0.000E+00

     total cpu time spent up to now is       41.4 secs

     total energy              =    -380.57379695 Ry
     estimated scf accuracy    <          1.4E-09 Ry

     iteration #  8     ecut=    50.00 Ry     beta= 0.70
     CG style diagonalization
     ethr =  3.09E-12,  avg # of iterations =  4.6

     negative rho (up, down):  1.536E-02 0.000E+00

     total cpu time spent up to now is       42.3 secs

     End of self-consistent calculation

          k = 0.0000 0.0000 0.0000 (  2437 PWs)   bands (ev):

   -45.2062 -21.8731 -21.7989 -21.7989  -7.1562  -6.0147  -5.7571  -4.4128
    -4.4128  -4.3763  -4.2721  -4.1230   4.8826   6.7036   6.7036   7.1402
     8.8167   8.8167   9.0028   9.3799   9.4131   9.4131

          k = 0.0000 0.0000 0.2422 (  2445 PWs)   bands (ev):

   -45.2058 -21.9001 -21.7978 -21.7978  -6.9368  -5.9481  -5.6700  -4.4329
    -4.4329  -4.3746  -4.2521  -4.2050   4.0181   6.7820   6.7820   7.2603
     8.4930   8.4930   8.9069   9.4354   9.5409   9.5409

          k = 0.0000 0.0000-0.4844 (  2402 PWs)   bands (ev):

   -45.2054 -21.9267 -21.7967 -21.7967  -6.7015  -5.8747  -5.5847  -4.4527
    -4.4527  -4.3729  -4.2938  -4.2330   3.4759   6.4853   6.8423   6.8423
     8.2831   8.2831   8.8161   9.6202   9.6202  10.7262

          k = 0.0000 0.1667 0.0000 (  2433 PWs)   bands (ev):

   -45.2058 -21.8724 -21.8180 -21.7981  -7.0144  -5.9802  -5.7290  -4.4370
    -4.4114  -4.3903  -4.2734  -4.1157   4.3699   6.8145   6.8299   7.1921
     8.6994   8.8057   8.9668   9.0716   9.2058   9.6090

          k = 0.0000 0.1667 0.2422 (  2431 PWs)   bands (ev):

   -45.2054 -21.8991 -21.8167 -21.7970  -6.8114  -5.9304  -5.6365  -4.4348
    -4.4320  -4.3892  -4.2609  -4.1600   3.7761   6.5922   6.9030   7.3847
     8.1153   8.4644   8.7498   9.2041   9.2264   9.9640

          k = 0.0000 0.1667-0.4844 (  2426 PWs)   bands (ev):

   -45.2050 -21.9256 -21.8155 -21.7958  -6.6053  -5.8736  -5.5355  -4.4524
    -4.4304  -4.3881  -4.2571  -4.2015   3.3270   6.2189   6.9680   6.9963
     7.9015   8.2733   8.8151   9.2394   9.3025  10.6198

          k = 0.0000 0.3333 0.0000 (  2414 PWs)   bands (ev):

   -45.2051 -21.8709 -21.8557 -21.7965  -6.7052  -5.9070  -5.6888  -4.4756
    -4.4182  -4.4083  -4.2631  -4.1294   3.7317   6.4574   7.1001   7.1710
     8.3212   8.3498   8.8246   8.9648   9.3597  10.2014

          k = 0.0000 0.3333 0.2422 (  2431 PWs)   bands (ev):

   -45.2047 -21.8971 -21.8544 -21.7953  -6.5685  -5.8612  -5.5770  -4.4388
    -4.4303  -4.4182  -4.2507  -4.1049   3.3796   6.3271   7.0140   7.2182
     7.7304   8.1799   8.3258   8.9311   9.4902  10.2778

          k = 0.0000 0.3333-0.4844 (  2420 PWs)   bands (ev):

   -45.2043 -21.9233 -21.8530 -21.7942  -6.4716  -5.7883  -5.4248  -4.4518
    -4.4184  -4.3930  -4.2854  -4.0508   3.0657   5.9659   6.7347   7.2823
     7.6058   7.7792   8.1167   8.9242   9.8442  10.1656

          k = 0.0000-0.5000 0.0000 (  2424 PWs)   bands (ev):

   -45.2048 -21.8749 -21.8697 -21.7957  -6.5329  -5.8543  -5.6950  -4.4928
    -4.4320  -4.4069  -4.2316  -4.1681   3.5116   6.0620   7.3499   7.4347
     7.8766   7.9371   8.7465   8.9967   9.3963  10.9864

          k = 0.0000-0.5000 0.2422 (  2430 PWs)   bands (ev):

   -45.2044 -21.8960 -21.8733 -21.7945  -6.4627  -5.7731  -5.5747  -4.4516
    -4.4327  -4.4293  -4.2124  -4.1039   3.2243   6.0396   7.0316   7.2699
     7.5718   7.7656   8.4429   8.9117   9.5083  10.4418

          k = 0.0000-0.5000-0.4844 (  2424 PWs)   bands (ev):

   -45.2040 -21.9220 -21.8716 -21.7933  -6.4424  -5.6859  -5.3728  -4.4515
    -4.4334  -4.4018  -4.2706  -3.9871   2.9597   5.8385   6.4239   7.3078
     7.5966   7.7799   7.8132   8.8579   9.7428  10.2193

          k = 0.1667 0.1667 0.0000 (  2419 PWs)   bands (ev):

   -45.2055 -21.8716 -21.8173 -21.8169  -6.8754  -5.9447  -5.7210  -4.4455
    -4.4261  -4.3930  -4.2493  -4.1086   4.0242   6.7084   7.0205   7.2540
     8.2873   8.3065   9.0697   9.0999   9.3399   9.8466

          k = 0.1667 0.1667 0.2422 (  2425 PWs)   bands (ev):

   -45.2051 -21.8982 -21.8160 -21.8157  -6.6833  -5.9158  -5.6297  -4.4462
    -4.4230  -4.3865  -4.2336  -4.1269   3.6452   6.5078   6.6139   7.3443
     8.0065   8.0363   8.8673   9.2433   9.4488   9.9206

          k = 0.1667 0.1667-0.4844 (  2432 PWs)   bands (ev):

   -45.2047 -21.9245 -21.8148 -21.8146  -6.4966  -5.8865  -5.5189  -4.4597
    -4.4012  -4.3603  -4.2340  -4.1523   3.2916   6.2647   6.2995   7.0133
     7.9165   7.9465   8.7219   9.3095   9.5083  10.2919

          k = 0.1667 0.3333 0.0000 (  2429 PWs)   bands (ev):

   -45.2048 -21.8701 -21.8547 -21.8153  -6.5756  -5.8722  -5.7198  -4.4707
    -4.4167  -4.3773  -4.2231  -4.1214   3.4986   6.4458   7.0041   7.3211
     7.6826   8.3124   8.5703   9.2258   9.4238  10.2915

          k = 0.1667 0.3333 0.2422 (  2426 PWs)   bands (ev):

   -45.2044 -21.8963 -21.8535 -21.8142  -6.4343  -5.8614  -5.6240  -4.4427
    -4.4190  -4.3532  -4.1956  -4.0799   3.3741   6.2757   6.3933   6.9313
     7.3792   8.0639   8.9134   9.1943   9.5539   9.9877

          k = 0.1667 0.3333-0.4844 (  2412 PWs)   bands (ev):

   -45.2040 -21.9223 -21.8521 -21.8130  -6.3402  -5.8354  -5.4776  -4.4411
    -4.3908  -4.3074  -4.2057  -4.0240   3.1982   5.8975   6.3057   6.5813
     6.8707   7.9181   8.9777   9.2036   9.4852  10.0018

          k = 0.1667-0.5000 0.0000 (  2438 PWs)   bands (ev):

   -45.2044 -21.8738 -21.8689 -21.8145  -6.4104  -5.8214  -5.7441  -4.4746
    -4.4094  -4.3572  -4.2003  -4.1604   3.2958   6.0799   7.1465   7.3284
     7.6579   7.9810   8.4965   9.2407   9.4489  10.6232

          k = 0.1667-0.5000 0.2422 (  2422 PWs)   bands (ev):

   -45.2040 -21.8951 -21.8722 -21.8133  -6.3272  -5.7836  -5.6487  -4.4410
    -4.4059  -4.3343  -4.1657  -4.0785   3.2503   6.0435   6.2834   6.6994
     7.3284   8.2032   8.6814   9.2219   9.5690   9.9443

          k = 0.1667-0.5000-0.4844 (  2412 PWs)   bands (ev):

   -45.2037 -21.9211 -21.8707 -21.8121  -6.3101  -5.7473  -5.4621  -4.4356
    -4.3571  -4.3101  -4.1847  -3.9617   3.1520   5.7940   6.1452   6.2974
     6.6650   8.0255   8.8439   9.1302   9.1331  10.2269

          k = 0.3333 0.3333 0.0000 (  2438 PWs)   bands (ev):

   -45.2041 -21.8686 -21.8527 -21.8526  -6.3197  -5.8028  -5.7640  -4.4535
    -4.3984  -4.3072  -4.1471  -4.1292   3.0711   6.4285   6.5217   7.4579
     7.5848   7.7553   8.3507   9.0932   9.8516  10.0502

          k = 0.3333 0.3333 0.2422 (  2431 PWs)   bands (ev):

   -45.2037 -21.8944 -21.8516 -21.8515  -6.1660  -5.8529  -5.7112  -4.4075
    -4.3917  -4.2455  -4.0917  -4.0443   3.2822   5.9859   6.0478   6.4142
     7.0506   7.5217   8.9959   9.5256   9.5557   9.8745

          k = 0.3333 0.3333-0.4844 (  2418 PWs)   bands (ev):

   -45.2033 -21.9203 -21.8503 -21.8502  -6.0935  -5.8995  -5.5628  -4.3844
    -4.3619  -4.1775  -4.0330  -3.9625   3.4759   5.5560   5.5809   6.1146
     6.7595   6.9616   8.1747   9.8401   9.8832  10.0652

          k = 0.3333-0.5000 0.0000 (  2448 PWs)   bands (ev):

   -45.2037 -21.8716 -21.8673 -21.8516  -6.2035  -5.7753  -5.7601  -4.4459
    -4.3758  -4.2436  -4.1671  -4.1138   2.8773   6.0713   6.5685   7.2703
     7.7918   7.8812   7.9979   9.0546   9.7546  10.0652

          k = 0.3333-0.5000 0.2422 (  2426 PWs)   bands (ev):

   -45.2034 -21.8933 -21.8702 -21.8506  -6.0490  -5.8087  -5.7707  -4.3986
    -4.3641  -4.1561  -4.0782  -4.0245   3.1990   5.8699   6.0230   6.0832
     6.8349   7.5795   8.5302   9.5382   9.5625  10.0267

          k = 0.3333-0.5000-0.4844 (  2420 PWs)   bands (ev):

   -45.2030 -21.9192 -21.8689 -21.8494  -6.0396  -5.8540  -5.6008  -4.3663
    -4.3387  -4.0925  -3.9884  -3.9076   3.6101   5.2890   5.4832   5.8997
     6.5209   6.9417   7.4073   9.9845   9.9923  10.2449

          k =-0.5000-0.5000 0.0000 (  2448 PWs)   bands (ev):

   -45.2034 -21.8705 -21.8705 -21.8660  -6.1478  -5.7320  -5.7320  -4.4357
    -4.3295  -4.1908  -4.1908  -4.0681   2.6762   5.9203   6.3970   7.4707
     7.4707   7.9989   7.9989   8.8245   9.3342  10.3081

          k =-0.5000-0.5000 0.2422 (  2420 PWs)   bands (ev):

   -45.2030 -21.8922 -21.8692 -21.8692  -5.9073  -5.8228  -5.8228  -4.3869
    -4.3269  -4.0362  -4.0362  -4.0295   3.1116   5.8768   5.9828   5.9828
     6.4047   7.5167   7.8995   9.5802   9.5802  10.2888

          k =-0.5000-0.5000-0.4844 (  2408 PWs)   bands (ev):

   -45.2026 -21.9181 -21.8680 -21.8680  -5.9015  -5.9015  -5.6591  -4.3381
    -4.3244  -3.9758  -3.8909  -3.8909   3.8272   5.3003   5.3003   5.7395
     6.4123   6.4211   6.5798  10.2535  10.2535  10.2696

     highest occupied level (ev):    10.9864

!    total energy              =    -380.57379695 Ry
     estimated scf accuracy    <          4.2E-11 Ry

     The total energy is the sum of the following terms:
     one-electron contribution =     -79.38954788 Ry
     hartree contribution      =      69.76385961 Ry
     xc contribution           =    -102.66569038 Ry
     ewald contribution        =    -268.28241829 Ry

     convergence has been achieved in   8 iterations

     negative rho (up, down):  1.536E-02 0.000E+00

     Forces acting on atoms (cartesian axes, Ry/au):

     atom    1 type  1   force =     0.00000000    0.00000000    0.00189889
     atom    2 type  2   force =     0.00000000    0.00000000   -0.00034252
     atom    3 type  3   force =     0.00000000    0.00000000    0.00090530
     atom    4 type  3   force =     0.00000000    0.00000000   -0.00123084
     atom    5 type  3   force =     0.00000000    0.00000000   -0.00123084

     Total force =     0.002752     Total SCF correction =     0.000018


     Computing stress (Cartesian axis) and pressure


     negative rho (up, down):  1.536E-02 0.000E+00
          total   stress  (Ry/bohr**3)                   (kbar)     P=       -6.23
  -0.00007790   0.00000000   0.00000000          -11.46        0.00        0.00
   0.00000000  -0.00007790   0.00000000            0.00      -11.46        0.00
   0.00000000   0.00000000   0.00002865            0.00        0.00        4.21

     Energy error            =      1.2E-05 Ry
     Gradient error          =      1.9E-03 Ry/Bohr

     number of scf cycles    =   4
     number of bfgs steps    =   3

     energy             old  =    -380.5737846360 Ry
     energy             new  =    -380.5737969533 Ry

     CASE: energy            _new < energy            _old

     new trust radius        =       0.0033187693 bohr
     new conv_thr            =            1.0E-10 Ry


ATOMIC_POSITIONS (crystal)
Pb               0.0000000000        0.0000000000        1.0061485400
Ti               0.5000000000        0.5000000000        0.5432390230
O                0.5000000000        0.5000000000        0.0968750942
O                0.5000000000        0.0000000000        0.6105108154
O                0.0000000000        0.5000000000        0.6105108154



     Writing config-only to output data dir ./pto_tetragonal_eta0p006.save/ :
     XML data file
     NEW-OLD atomic charge density approx. for the potential

     Check: negative core charge=   -0.000004

     negative rho (up, down):  1.537E-02 0.000E+00

     total cpu time spent up to now is       43.5 secs

     Self-consistent Calculation

     iteration #  1     ecut=    50.00 Ry     beta= 0.70
     CG style diagonalization
     ethr =  1.00E-06,  avg # of iterations =  3.4

     Threshold (ethr) on eigenvalues was too large:
     Diagonalizing with lowered threshold

     CG style diagonalization
     c_bands:  3 eigenvalues not converged
     c_bands:  1 eigenvalues not converged
     c_bands:  1 eigenvalues not converged
     c_bands:  1 eigenvalues not converged
     c_bands:  1 eigenvalues not converged
     c_bands:  1 eigenvalues not converged
     c_bands:  1 eigenvalues not converged
     c_bands:  1 eigenvalues not converged
     c_bands:  1 eigenvalues not converged
     c_bands:  1 eigenvalues not converged
     c_bands:  2 eigenvalues not converged
     ethr =  5.24E-09,  avg # of iterations =  7.4

     negative rho (up, down):  1.538E-02 0.000E+00

     total cpu time spent up to now is       45.8 secs

     total energy              =    -380.57380587 Ry
     estimated scf accuracy    <       0.00000151 Ry

     iteration #  2     ecut=    50.00 Ry     beta= 0.70
     CG style diagonalization
     ethr =  3.43E-09,  avg # of iterations =  3.9

     negative rho (up, down):  1.538E-02 0.000E+00

     total cpu time spent up to now is       46.6 secs

     total energy              =    -380.57380600 Ry
     estimated scf accuracy    <       0.00000062 Ry

     iteration #  3     ecut=    50.00 Ry     beta= 0.70
     CG style diagonalization
     ethr =  1.41E-09,  avg # of iterations =  4.1

     negative rho (up, down):  1.538E-02 0.000E+00

     total cpu time spent up to now is       47.4 secs

     total energy              =    -380.57380619 Ry
     estimated scf accuracy    <       0.00000053 Ry

     iteration #  4     ecut=    50.00 Ry     beta= 0.70
     CG style diagonalization
     ethr =  1.21E-09,  avg # of iterations =  3.6

     negative rho (up, down):  1.538E-02 0.000E+00

     total cpu time spent up to now is       48.1 secs

     total energy              =    -380.57380628 Ry
     estimated scf accuracy    <          4.4E-09 Ry

     iteration #  5     ecut=    50.00 Ry     beta= 0.70
     CG style diagonalization
     ethr =  1.01E-11,  avg # of iterations =  6.2

     negative rho (up, down):  1.538E-02 0.000E+00

     total cpu time spent up to now is       49.4 secs

     total energy              =    -380.57380629 Ry
     estimated scf accuracy    <       0.00000001 Ry

     iteration #  6     ecut=    50.00 Ry     beta= 0.70
     CG style diagonalization
     ethr =  1.01E-11,  avg # of iterations =  4.2

     negative rho (up, down):  1.538E-02 0.000E+00

     total cpu time spent up to now is       50.2 secs

     total energy              =    -380.57380629 Ry
     estimated scf accuracy    <          5.3E-10 Ry

     iteration #  7     ecut=    50.00 Ry     beta= 0.70
     CG style diagonalization
     ethr =  1.21E-12,  avg # of iterations =  4.8

     negative rho (up, down):  1.538E-02 0.000E+00

     total cpu time spent up to now is       51.1 secs

     End of self-consistent calculation

          k = 0.0000 0.0000 0.0000 (  2437 PWs)   bands (ev):

   -45.2069 -21.8726 -21.7997 -21.7997  -7.1535  -6.0120  -5.7576  -4.4149
    -4.4149  -4.3789  -4.2733  -4.1274   4.8814   6.7070   6.7070   7.1355
     8.8228   8.8228   9.0058   9.3845   9.4170   9.4170

          k = 0.0000 0.0000 0.2422 (  2445 PWs)   bands (ev):

   -45.2065 -21.8996 -21.7986 -21.7986  -6.9338  -5.9451  -5.6704  -4.4350
    -4.4350  -4.3772  -4.2536  -4.2097   4.0168   6.7877   6.7877   7.2583
     8.4952   8.4952   8.9100   9.4360   9.5442   9.5442

          k = 0.0000 0.0000-0.4844 (  2402 PWs)   bands (ev):

   -45.2061 -21.9262 -21.7975 -21.7975  -6.6982  -5.8713  -5.5853  -4.4548
    -4.4548  -4.3755  -4.2990  -4.2348   3.4751   6.4835   6.8509   6.8509
     8.2809   8.2809   8.8191   9.6235   9.6235  10.7260

          k = 0.0000 0.1667 0.0000 (  2433 PWs)   bands (ev):

   -45.2065 -21.8719 -21.8188 -21.7989  -7.0116  -5.9773  -5.7290  -4.4391
    -4.4135  -4.3929  -4.2752  -4.1201   4.3692   6.8178   6.8312   7.1917
     8.7009   8.8099   8.9703   9.0772   9.2094   9.6106

          k = 0.0000 0.1667 0.2422 (  2431 PWs)   bands (ev):

   -45.2061 -21.8986 -21.8176 -21.7978  -6.8084  -5.9272  -5.6367  -4.4372
    -4.4341  -4.3918  -4.2627  -4.1646   3.7750   6.5961   6.9085   7.3844
     8.1164   8.4669   8.7511   9.2078   9.2292   9.9635

          k = 0.0000 0.1667-0.4844 (  2426 PWs)   bands (ev):

   -45.2057 -21.9251 -21.8163 -21.7966  -6.6020  -5.8701  -5.5358  -4.4545
    -4.4330  -4.3908  -4.2593  -4.2059   3.3260   6.2219   6.9764   6.9983
     7.8997   8.2718   8.8185   9.2429   9.3048  10.6171

          k = 0.0000 0.3333 0.0000 (  2414 PWs)   bands (ev):

   -45.2058 -21.8705 -21.8565 -21.7973  -6.7024  -5.9034  -5.6878  -4.4779
    -4.4208  -4.4104  -4.2661  -4.1335   3.7312   6.4582   7.1029   7.1696
     8.3232   8.3493   8.8280   8.9730   9.3640  10.2003

          k = 0.0000 0.3333 0.2422 (  2431 PWs)   bands (ev):

   -45.2054 -21.8966 -21.8552 -21.7961  -6.5656  -5.8574  -5.5762  -4.4413
    -4.4324  -4.4208  -4.2533  -4.1092   3.3784   6.3293   7.0139   7.2229
     7.7311   8.1835   8.3267   8.9335   9.4928  10.2764

          k = 0.0000 0.3333-0.4844 (  2420 PWs)   bands (ev):

   -45.2050 -21.9228 -21.8538 -21.7950  -6.4687  -5.7838  -5.4243  -4.4539
    -4.4210  -4.3959  -4.2882  -4.0548   3.0640   5.9700   6.7319   7.2900
     7.6077   7.7809   8.1182   8.9241   9.8469  10.1620

          k = 0.0000-0.5000 0.0000 (  2424 PWs)   bands (ev):

   -45.2055 -21.8757 -21.8692 -21.7965  -6.5302  -5.8502  -5.6935  -4.4953
    -4.4346  -4.4090  -4.2364  -4.1709   3.5113   6.0608   7.3520   7.4326
     7.8771   7.9399   8.7502   9.0049   9.4009  10.9855

          k = 0.0000-0.5000 0.2422 (  2430 PWs)   bands (ev):

   -45.2051 -21.8955 -21.8741 -21.7953  -6.4600  -5.7686  -5.5737  -4.4543
    -4.4353  -4.4314  -4.2155  -4.1081   3.2229   6.0395   7.0320   7.2716
     7.5741   7.7716   8.4441   8.9142   9.5098  10.4404

          k = 0.0000-0.5000-0.4844 (  2424 PWs)   bands (ev):

   -45.2047 -21.9215 -21.8725 -21.7941  -6.4399  -5.6807  -5.3719  -4.4536
    -4.4360  -4.4047  -4.2740  -3.9908   2.9573   5.8416   6.4217   7.3121
     7.6044   7.7793   7.8158   8.8568   9.7384  10.2219

          k = 0.1667 0.1667 0.0000 (  2419 PWs)   bands (ev):

   -45.2062 -21.8711 -21.8181 -21.8177  -6.8725  -5.9415  -5.7207  -4.4476
    -4.4283  -4.3955  -4.2514  -4.1131   4.0240   6.7112   7.0201   7.2562
     8.2911   8.3089   9.0716   9.1022   9.3414   9.8486

          k = 0.1667 0.1667 0.2422 (  2425 PWs)   bands (ev):

   -45.2058 -21.8977 -21.8168 -21.8165  -6.6801  -5.9124  -5.6296  -4.4485
    -4.4255  -4.3890  -4.2356  -4.1314   3.6444   6.5122   6.6164   7.3458
     8.0084   8.0353   8.8702   9.2468   9.4514   9.9182

          k = 0.1667 0.1667-0.4844 (  2432 PWs)   bands (ev):

   -45.2054 -21.9240 -21.8156 -21.8154  -6.4931  -5.8831  -5.5190  -4.4620
    -4.4037  -4.3627  -4.2361  -4.1569   3.2907   6.2671   6.3047   7.0142
     7.9220   7.9434   8.7219   9.3131   9.5114  10.2884

          k = 0.1667 0.3333 0.0000 (  2429 PWs)   bands (ev):

   -45.2055 -21.8697 -21.8555 -21.8162  -6.5727  -5.8684  -5.7187  -4.4731
    -4.4189  -4.3799  -4.2260  -4.1257   3.4990   6.4465   7.0069   7.3197
     7.6852   8.3141   8.5706   9.2289   9.4257  10.2915

          k = 0.1667 0.3333 0.2422 (  2426 PWs)   bands (ev):

   -45.2051 -21.8958 -21.8543 -21.8150  -6.4312  -5.8575  -5.6233  -4.4451
    -4.4214  -4.3556  -4.1983  -4.0841   3.3738   6.2780   6.3952   6.9328
     7.3796   8.0624   8.9151   9.1978   9.5565   9.9862

          k = 0.1667 0.3333-0.4844 (  2412 PWs)   bands (ev):

   -45.2047 -21.9218 -21.8529 -21.8138  -6.3370  -5.8314  -5.4774  -4.4434
    -4.3932  -4.3096  -4.2086  -4.0279   3.1973   5.9012   6.3090   6.5811
     6.8706   7.9175   8.9791   9.2066   9.4823  10.0041

          k = 0.1667-0.5000 0.0000 (  2438 PWs)   bands (ev):

   -45.2051 -21.8746 -21.8684 -21.8153  -6.4077  -5.8171  -5.7424  -4.4771
    -4.4116  -4.3598  -4.2047  -4.1636   3.2966   6.0787   7.1486   7.3317
     7.6556   7.9802   8.5012   9.2443   9.4510  10.6218

          k = 0.1667-0.5000 0.2422 (  2422 PWs)   bands (ev):

   -45.2047 -21.8946 -21.8731 -21.8141  -6.3242  -5.7791  -5.6480  -4.4434
    -4.4083  -4.3365  -4.1689  -4.0826   3.2501   6.0433   6.2849   6.7016
     7.3299   8.2015   8.6822   9.2262   9.5703   9.9438

          k = 0.1667-0.5000-0.4844 (  2412 PWs)   bands (ev):

   -45.2044 -21.9206 -21.8715 -21.8129  -6.3073  -5.7426  -5.4618  -4.4378
    -4.3596  -4.3120  -4.1881  -3.9653   3.1507   5.7971   6.1487   6.2969
     6.6652   8.0242   8.8416   9.1331   9.1333  10.2296

          k = 0.3333 0.3333 0.0000 (  2438 PWs)   bands (ev):

   -45.2048 -21.8681 -21.8535 -21.8533  -6.3173  -5.7983  -5.7617  -4.4559
    -4.4009  -4.3103  -4.1497  -4.1337   3.0731   6.4300   6.5212   7.4603
     7.5832   7.7571   8.3487   9.0920   9.8550  10.0486

          k = 0.3333 0.3333 0.2422 (  2431 PWs)   bands (ev):

   -45.2044 -21.8939 -21.8524 -21.8523  -6.1627  -5.8489  -5.7104  -4.4100
    -4.3941  -4.2479  -4.0943  -4.0483   3.2842   5.9869   6.0490   6.4158
     7.0470   7.5202   8.9923   9.5277   9.5581   9.8778

          k = 0.3333 0.3333-0.4844 (  2418 PWs)   bands (ev):

   -45.2040 -21.9198 -21.8512 -21.8511  -6.0898  -5.8959  -5.5629  -4.3867
    -4.3643  -4.1791  -4.0356  -3.9661   3.4774   5.5568   5.5834   6.1173
     6.7572   6.9577   8.1687   9.8435   9.8863  10.0680

          k = 0.3333-0.5000 0.0000 (  2448 PWs)   bands (ev):

   -45.2044 -21.8724 -21.8668 -21.8524  -6.2021  -5.7718  -5.7552  -4.4484
    -4.3783  -4.2474  -4.1712  -4.1164   2.8800   6.0707   6.5678   7.2721
     7.7943   7.8793   7.9964   9.0534   9.7523  10.0679

          k = 0.3333-0.5000 0.2422 (  2426 PWs)   bands (ev):

   -45.2041 -21.8928 -21.8711 -21.8514  -6.0462  -5.8043  -5.7696  -4.4010
    -4.3665  -4.1582  -4.0817  -4.0278   3.2021   5.8696   6.0235   6.0837
     6.8326   7.5776   8.5254   9.5399   9.5649  10.0301

          k = 0.3333-0.5000-0.4844 (  2420 PWs)   bands (ev):

   -45.2037 -21.9187 -21.8697 -21.8502  -6.0362  -5.8501  -5.6011  -4.3687
    -4.3412  -4.0938  -3.9914  -3.9108   3.6135   5.2900   5.4837   5.9012
     6.5186   6.9380   7.4001   9.9876   9.9956  10.2474

          k =-0.5000-0.5000 0.0000 (  2448 PWs)   bands (ev):

   -45.2041 -21.8714 -21.8714 -21.8655  -6.1477  -5.7268  -5.7268  -4.4382
    -4.3320  -4.1955  -4.1955  -4.0697   2.6798   5.9203   6.3935   7.4728
     7.4728   7.9973   7.9973   8.8230   9.3300  10.3114

          k =-0.5000-0.5000 0.2422 (  2420 PWs)   bands (ev):

   -45.2037 -21.8917 -21.8701 -21.8701  -5.9074  -5.8185  -5.8185  -4.3894
    -4.3294  -4.0399  -4.0399  -4.0308   3.1164   5.8772   5.9819   5.9819
     6.4011   7.5154   7.8938   9.5818   9.5818  10.2921

          k =-0.5000-0.5000-0.4844 (  2408 PWs)   bands (ev):

   -45.2033 -21.9176 -21.8688 -21.8688  -5.8978  -5.8978  -5.6596  -4.3406
    -4.3269  -3.9768  -3.8938  -3.8938   3.8362   5.2988   5.2988   5.7408
     6.4087   6.4110   6.5777  10.2558  10.2558  10.2729

     highest occupied level (ev):    10.9855

!    total energy              =    -380.57380629 Ry
     estimated scf accuracy    <          6.3E-11 Ry

     The total energy is the sum of the following terms:
     one-electron contribution =     -79.34591247 Ry
     hartree contribution      =      69.74150045 Ry
     xc contribution           =    -102.66459239 Ry
     ewald contribution        =    -268.30480188 Ry

     convergence has been achieved in   7 iterations

     negative rho (up, down):  1.538E-02 0.000E+00

     Forces acting on atoms (cartesian axes, Ry/au):

     atom    1 type  1   force =     0.00000000    0.00000000    0.00167740
     atom    2 type  2   force =     0.00000000    0.00000000   -0.00085712
     atom    3 type  3   force =     0.00000000    0.00000000    0.00098156
     atom    4 type  3   force =     0.00000000    0.00000000   -0.00090092
     atom    5 type  3   force =     0.00000000    0.00000000   -0.00090092

     Total force =     0.002477     Total SCF correction =     0.000012


     Computing stress (Cartesian axis) and pressure


     negative rho (up, down):  1.538E-02 0.000E+00
          total   stress  (Ry/bohr**3)                   (kbar)     P=       -6.76
  -0.00007946   0.00000000   0.00000000          -11.69        0.00        0.00
   0.00000000  -0.00007946   0.00000000            0.00      -11.69        0.00
   0.00000000   0.00000000   0.00002105            0.00        0.00        3.10

     Energy error            =      9.3E-06 Ry
     Gradient error          =      1.7E-03 Ry/Bohr

     number of scf cycles    =   5
     number of bfgs steps    =   4

     energy             old  =    -380.5737969533 Ry
     energy             new  =    -380.5738062898 Ry

     CASE: energy            _new < energy            _old

     new trust radius        =       0.0049781540 bohr
     new conv_thr            =            1.0E-10 Ry


ATOMIC_POSITIONS (crystal)
Pb               0.0000000000        0.0000000000        1.0068065624
Ti               0.5000000000        0.5000000000        0.5434528841
O                0.5000000000        0.5000000000        0.0968930950
O                0.5000000000        0.0000000000        0.6100658733
O                0.0000000000        0.5000000000        0.6100658733



     Writing config-only to output data dir ./pto_tetragonal_eta0p006.save/ :
     XML data file
     NEW-OLD atomic charge density approx. for the potential

     Check: negative core charge=   -0.000004

     negative rho (up, down):  1.538E-02 0.000E+00

     total cpu time spent up to now is       52.3 secs

     Self-consistent Calculation

     iteration #  1     ecut=    50.00 Ry     beta= 0.70
     CG style diagonalization
     ethr =  1.00E-06,  avg # of iterations =  3.5

     Threshold (ethr) on eigenvalues was too large:
     Diagonalizing with lowered threshold

     CG style diagonalization
     c_bands:  1 eigenvalues not converged
     c_bands:  1 eigenvalues not converged
     c_bands:  1 eigenvalues not converged
     c_bands:  1 eigenvalues not converged
     c_bands:  1 eigenvalues not converged
     c_bands:  2 eigenvalues not converged
     c_bands:  2 eigenvalues not converged
     c_bands:  1 eigenvalues not converged
     c_bands:  1 eigenvalues not converged
     c_bands:  3 eigenvalues not converged
     ethr =  5.95E-09,  avg # of iterations =  7.9

     negative rho (up, down):  1.539E-02 0.000E+00

     total cpu time spent up to now is       54.7 secs

     total energy              =    -380.57381586 Ry
     estimated scf accuracy    <       0.00000251 Ry

     iteration #  2     ecut=    50.00 Ry     beta= 0.70
     CG style diagonalization
     ethr =  5.70E-09,  avg # of iterations =  4.1

     negative rho (up, down):  1.539E-02 0.000E+00

     total cpu time spent up to now is       55.5 secs

     total energy              =    -380.57381601 Ry
     estimated scf accuracy    <       0.00000156 Ry

     iteration #  3     ecut=    50.00 Ry     beta= 0.70
     CG style diagonalization
     ethr =  3.55E-09,  avg # of iterations =  3.9

     negative rho (up, down):  1.539E-02 0.000E+00

     total cpu time spent up to now is       56.3 secs

     total energy              =    -380.57381644 Ry
     estimated scf accuracy    <       0.00000096 Ry

     iteration #  4     ecut=    50.00 Ry     beta= 0.70
     CG style diagonalization
     ethr =  2.19E-09,  avg # of iterations =  3.5

     negative rho (up, down):  1.539E-02 0.000E+00

     total cpu time spent up to now is       57.0 secs

     total energy              =    -380.57381661 Ry
     estimated scf accuracy    <       0.00000002 Ry

     iteration #  5     ecut=    50.00 Ry     beta= 0.70
     CG style diagonalization
     ethr =  4.02E-11,  avg # of iterations =  5.1

     negative rho (up, down):  1.539E-02 0.000E+00

     total cpu time spent up to now is       58.0 secs

     total energy              =    -380.57381663 Ry
     estimated scf accuracy    <          2.3E-09 Ry

     iteration #  6     ecut=    50.00 Ry     beta= 0.70
     CG style diagonalization
     ethr =  5.16E-12,  avg # of iterations =  5.3

     negative rho (up, down):  1.539E-02 0.000E+00

     total cpu time spent up to now is       59.1 secs

     total energy              =    -380.57381663 Ry
     estimated scf accuracy    <          1.5E-09 Ry

     iteration #  7     ecut=    50.00 Ry     beta= 0.70
     CG style diagonalization
     ethr =  3.44E-12,  avg # of iterations =  4.1

     negative rho (up, down):  1.539E-02 0.000E+00

     total cpu time spent up to now is       59.9 secs

     total energy              =    -380.57381663 Ry
     estimated scf accuracy    <          2.3E-10 Ry

     iteration #  8     ecut=    50.00 Ry     beta= 0.70
     CG style diagonalization
     ethr =  5.18E-13,  avg # of iterations =  4.9

     negative rho (up, down):  1.539E-02 0.000E+00

     total cpu time spent up to now is       60.9 secs

     End of self-consistent calculation

          k = 0.0000 0.0000 0.0000 (  2437 PWs)   bands (ev):

   -45.2061 -21.8714 -21.7989 -21.7989  -7.1491  -6.0072  -5.7588  -4.4180
    -4.4180  -4.3828  -4.2753  -4.1337   4.8795   6.7122   6.7122   7.1293
     8.8275   8.8275   9.0100   9.3880   9.4232   9.4232

          k = 0.0000 0.0000 0.2422 (  2445 PWs)   bands (ev):

   -45.2057 -21.8983 -21.7978 -21.7978  -6.9288  -5.9398  -5.6719  -4.4381
    -4.4381  -4.3811  -4.2559  -4.2165   4.0142   6.7951   6.7951   7.2557
     8.4962   8.4962   8.9142   9.4362   9.5495   9.5495

          k = 0.0000 0.0000-0.4844 (  2402 PWs)   bands (ev):

   -45.2053 -21.9250 -21.7967 -21.7967  -6.6923  -5.8654  -5.5873  -4.4579
    -4.4579  -4.3794  -4.3065  -4.2377   3.4727   6.4815   6.8614   6.8614
     8.2774   8.2774   8.8234   9.6289   9.6289  10.7262

          k = 0.0000 0.1667 0.0000 (  2433 PWs)   bands (ev):

   -45.2058 -21.8707 -21.8180 -21.7981  -7.0072  -5.9722  -5.7297  -4.4422
    -4.4166  -4.3969  -4.2779  -4.1265   4.3681   6.8228   6.8333   7.1910
     8.7013   8.8128   8.9749   9.0848   9.2139   9.6113

          k = 0.0000 0.1667 0.2422 (  2431 PWs)   bands (ev):

   -45.2054 -21.8974 -21.8168 -21.7970  -6.8033  -5.9217  -5.6376  -4.4407
    -4.4372  -4.3958  -4.2655  -4.1711   3.7728   6.6011   6.9158   7.3842
     8.1171   8.4686   8.7535   9.2120   9.2335   9.9629

          k = 0.0000 0.1667-0.4844 (  2426 PWs)   bands (ev):

   -45.2050 -21.9239 -21.8156 -21.7959  -6.5962  -5.8641  -5.5373  -4.4576
    -4.4369  -4.3947  -4.2628  -4.2121   3.3236   6.2253   6.9868   7.0017
     7.8972   8.2694   8.8243   9.2469   9.3088  10.6140

          k = 0.0000 0.3333 0.0000 (  2414 PWs)   bands (ev):

   -45.2051 -21.8693 -21.8558 -21.7965  -6.6980  -5.8975  -5.6871  -4.4814
    -4.4248  -4.4136  -4.2707  -4.1394   3.7306   6.4601   7.1076   7.1678
     8.3265   8.3491   8.8329   8.9805   9.3684  10.1978

          k = 0.0000 0.3333 0.2422 (  2431 PWs)   bands (ev):

   -45.2047 -21.8954 -21.8545 -21.7954  -6.5607  -5.8512  -5.5760  -4.4451
    -4.4355  -4.4247  -4.2572  -4.1154   3.3763   6.3325   7.0140   7.2295
     7.7327   8.1878   8.3279   8.9357   9.4956  10.2742

          k = 0.0000 0.3333-0.4844 (  2420 PWs)   bands (ev):

   -45.2043 -21.9216 -21.8531 -21.7942  -6.4637  -5.7768  -5.4248  -4.4571
    -4.4249  -4.4001  -4.2924  -4.0604   3.0611   5.9748   6.7294   7.2996
     7.6106   7.7843   8.1203   8.9243   9.8485  10.1579

          k = 0.0000-0.5000 0.0000 (  2424 PWs)   bands (ev):

   -45.2047 -21.8750 -21.8680 -21.7957  -6.5259  -5.8438  -5.6918  -4.4990
    -4.4385  -4.4121  -4.2432  -4.1751   3.5107   6.0607   7.3561   7.4296
     7.8788   7.9440   8.7556   9.0121   9.4056  10.9834

          k = 0.0000-0.5000 0.2422 (  2430 PWs)   bands (ev):

   -45.2043 -21.8943 -21.8734 -21.7946  -6.4553  -5.7615  -5.5732  -4.4582
    -4.4392  -4.4346  -4.2201  -4.1141   3.2206   6.0404   7.0327   7.2744
     7.5786   7.7786   8.4459   8.9160   9.5116  10.4374

          k = 0.0000-0.5000-0.4844 (  2424 PWs)   bands (ev):

   -45.2039 -21.9203 -21.8718 -21.7934  -6.4354  -5.6727  -5.3719  -4.4568
    -4.4399  -4.4088  -4.2791  -3.9961   2.9538   5.8455   6.4197   7.3189
     7.6132   7.7794   7.8207   8.8551   9.7315  10.2248

          k = 0.1667 0.1667 0.0000 (  2419 PWs)   bands (ev):

   -45.2054 -21.8699 -21.8174 -21.8170  -6.8680  -5.9360  -5.7209  -4.4509
    -4.4316  -4.3993  -4.2546  -4.1195   4.0238   6.7156   7.0200   7.2589
     8.2938   8.3123   9.0744   9.1035   9.3445   9.8492

          k = 0.1667 0.1667 0.2422 (  2425 PWs)   bands (ev):

   -45.2050 -21.8965 -21.8161 -21.8158  -6.6750  -5.9068  -5.6303  -4.4519
    -4.4291  -4.3927  -4.2387  -4.1378   3.6430   6.5179   6.6198   7.3479
     8.0117   8.0337   8.8723   9.2518   9.4550   9.9151

          k = 0.1667 0.1667-0.4844 (  2432 PWs)   bands (ev):

   -45.2046 -21.9228 -21.8148 -21.8147  -6.4872  -5.8772  -5.5203  -4.4654
    -4.4076  -4.3661  -4.2393  -4.1634   3.2887   6.2698   6.3109   7.0165
     7.9296   7.9400   8.7206   9.3183   9.5157  10.2841

          k = 0.1667 0.3333 0.0000 (  2429 PWs)   bands (ev):

   -45.2047 -21.8685 -21.8547 -21.8154  -6.5685  -5.8621  -5.7175  -4.4766
    -4.4223  -4.3839  -4.2304  -4.1318   3.4998   6.4484   7.0106   7.3184
     7.6891   8.3143   8.5715   9.2329   9.4283  10.2900

          k = 0.1667 0.3333 0.2422 (  2426 PWs)   bands (ev):

   -45.2043 -21.8945 -21.8536 -21.8142  -6.4261  -5.8514  -5.6232  -4.4487
    -4.4249  -4.3593  -4.2022  -4.0902   3.3733   6.2814   6.3981   6.9352
     7.3803   8.0609   8.9175   9.2018   9.5596   9.9836

          k = 0.1667 0.3333-0.4844 (  2412 PWs)   bands (ev):

   -45.2039 -21.9206 -21.8522 -21.8130  -6.3316  -5.8249  -5.4783  -4.4467
    -4.3969  -4.3130  -4.2129  -4.0334   3.1955   5.9055   6.3139   6.5812
     6.8717   7.9176   8.9795   9.2118   9.4780  10.0065

          k = 0.1667-0.5000 0.0000 (  2438 PWs)   bands (ev):

   -45.2044 -21.8739 -21.8672 -21.8145  -6.4038  -5.8104  -5.7403  -4.4807
    -4.4150  -4.3638  -4.2111  -4.1683   3.2977   6.0786   7.1509   7.3369
     7.6534   7.9798   8.5040   9.2496   9.4532  10.6193

          k = 0.1667-0.5000 0.2422 (  2422 PWs)   bands (ev):

   -45.2040 -21.8934 -21.8724 -21.8134  -6.3194  -5.7721  -5.6478  -4.4470
    -4.4118  -4.3400  -4.1736  -4.0884   3.2498   6.0442   6.2874   6.7044
     7.3318   8.1995   8.6841   9.2304   9.5725   9.9416

          k = 0.1667-0.5000-0.4844 (  2412 PWs)   bands (ev):

   -45.2036 -21.9194 -21.8708 -21.8122  -6.3024  -5.7354  -5.4625  -4.4412
    -4.3631  -4.3152  -4.1930  -3.9704   3.1487   5.8008   6.1546   6.2968
     6.6656   8.0236   8.8381   9.1345   9.1356  10.2324

          k = 0.3333 0.3333 0.0000 (  2438 PWs)   bands (ev):

   -45.2040 -21.8669 -21.8528 -21.8526  -6.3144  -5.7912  -5.7585  -4.4595
    -4.4047  -4.3149  -4.1537  -4.1403   3.0763   6.4329   6.5221   7.4628
     7.5812   7.7567   8.3479   9.0902   9.8605  10.0455

          k = 0.3333 0.3333 0.2422 (  2431 PWs)   bands (ev):

   -45.2036 -21.8927 -21.8517 -21.8516  -6.1579  -5.8425  -5.7098  -4.4137
    -4.3977  -4.2515  -4.0983  -4.0542   3.2872   5.9883   6.0506   6.4187
     7.0433   7.5183   8.9871   9.5303   9.5599   9.8829

          k = 0.3333 0.3333-0.4844 (  2418 PWs)   bands (ev):

   -45.2033 -21.9186 -21.8504 -21.8503  -6.0839  -5.8901  -5.5642  -4.3902
    -4.3680  -4.1818  -4.0396  -3.9712   3.4796   5.5573   5.5874   6.1208
     6.7551   6.9542   8.1597   9.8493   9.8893  10.0707

          k = 0.3333-0.5000 0.0000 (  2448 PWs)   bands (ev):

   -45.2037 -21.8717 -21.8656 -21.8517  -6.2009  -5.7664  -5.7476  -4.4520
    -4.3822  -4.2531  -4.1771  -4.1205   2.8842   6.0713   6.5685   7.2730
     7.7955   7.8779   7.9948   9.0517   9.7488  10.0725

          k = 0.3333-0.5000 0.2422 (  2426 PWs)   bands (ev):

   -45.2033 -21.8916 -21.8704 -21.8507  -6.0420  -5.7976  -5.7685  -4.4047
    -4.3702  -4.1615  -4.0868  -4.0327   3.2069   5.8691   6.0248   6.0847
     6.8305   7.5752   8.5189   9.5414   9.5673  10.0355

          k = 0.3333-0.5000-0.4844 (  2420 PWs)   bands (ev):

   -45.2029 -21.9175 -21.8690 -21.8495  -6.0307  -5.8439  -5.6025  -4.3723
    -4.3449  -4.0961  -3.9957  -3.9152   3.6187   5.2918   5.4838   5.9039
     6.5165   6.9345   7.3894   9.9905  10.0012  10.2497

          k =-0.5000-0.5000 0.0000 (  2448 PWs)   bands (ev):

   -45.2033 -21.8707 -21.8707 -21.8643  -6.1487  -5.7188  -5.7188  -4.4419
    -4.3357  -4.2024  -4.2024  -4.0723   2.6854   5.9213   6.3909   7.4735
     7.4735   7.9962   7.9962   8.8208   9.3247  10.3171

          k =-0.5000-0.5000 0.2422 (  2420 PWs)   bands (ev):

   -45.2030 -21.8905 -21.8694 -21.8694  -5.9086  -5.8118  -5.8118  -4.3931
    -4.3332  -4.0452  -4.0452  -4.0332   3.1239   5.8787   5.9803   5.9803
     6.3985   7.5136   7.8858   9.5832   9.5832  10.2977

          k =-0.5000-0.5000-0.4844 (  2408 PWs)   bands (ev):

   -45.2026 -21.9164 -21.8681 -21.8681  -5.8920  -5.8920  -5.6612  -4.3443
    -4.3307  -3.9788  -3.8979  -3.8979   3.8500   5.2964   5.2964   5.7434
     6.3962   6.4061   6.5752  10.2579  10.2579  10.2785

     highest occupied level (ev):    10.9834

!    total energy              =    -380.57381663 Ry
     estimated scf accuracy    <          1.1E-11 Ry

     The total energy is the sum of the following terms:
     one-electron contribution =     -79.28533221 Ry
     hartree contribution      =      69.71105586 Ry
     xc contribution           =    -102.66338729 Ry
     ewald contribution        =    -268.33615300 Ry

     convergence has been achieved in   8 iterations

     negative rho (up, down):  1.539E-02 0.000E+00

     Forces acting on atoms (cartesian axes, Ry/au):

     atom    1 type  1   force =     0.00000000    0.00000000    0.00124758
     atom    2 type  2   force =     0.00000000    0.00000000   -0.00104239
     atom    3 type  3   force =     0.00000000    0.00000000    0.00065817
     atom    4 type  3   force =     0.00000000    0.00000000   -0.00043168
     atom    5 type  3   force =     0.00000000    0.00000000   -0.00043168

     Total force =     0.001857     Total SCF correction =     0.000007


     Computing stress (Cartesian axis) and pressure


     negative rho (up, down):  1.539E-02 0.000E+00
          total   stress  (Ry/bohr**3)                   (kbar)     P=       -7.30
  -0.00008168   0.00000000   0.00000000          -12.02        0.00        0.00
   0.00000000  -0.00008168   0.00000000            0.00      -12.02        0.00
   0.00000000   0.00000000   0.00001455            0.00        0.00        2.14

     Energy error            =      1.0E-05 Ry
     Gradient error          =      1.2E-03 Ry/Bohr

     number of scf cycles    =   6
     number of bfgs steps    =   5

     energy             old  =    -380.5738062898 Ry
     energy             new  =    -380.5738166334 Ry

     CASE: energy            _new < energy            _old

     new trust radius        =       0.0073168854 bohr
     new conv_thr            =            1.0E-10 Ry


ATOMIC_POSITIONS (crystal)
Pb               0.0000000000        0.0000000000        1.0077737229
Ti               0.5000000000        0.5000000000        0.5435803995
O                0.5000000000        0.5000000000        0.0969448248
O                0.5000000000        0.0000000000        0.6094926703
O                0.0000000000        0.5000000000        0.6094926703



     Writing config-only to output data dir ./pto_tetragonal_eta0p006.save/ :
     XML data file
     NEW-OLD atomic charge density approx. for the potential

     Check: negative core charge=   -0.000004

     negative rho (up, down):  1.536E-02 0.000E+00

     total cpu time spent up to now is       62.0 secs

     Self-consistent Calculation

     iteration #  1     ecut=    50.00 Ry     beta= 0.70
     CG style diagonalization
     ethr =  1.00E-06,  avg # of iterations =  3.7

     Threshold (ethr) on eigenvalues was too large:
     Diagonalizing with lowered threshold

     CG style diagonalization
     c_bands:  1 eigenvalues not converged
     c_bands:  1 eigenvalues not converged
     c_bands:  2 eigenvalues not converged
     c_bands:  1 eigenvalues not converged
     c_bands:  1 eigenvalues not converged
     c_bands:  2 eigenvalues not converged
     c_bands:  2 eigenvalues not converged
     c_bands:  2 eigenvalues not converged
     ethr =  1.09E-08,  avg # of iterations =  7.3

     negative rho (up, down):  1.536E-02 0.000E+00

     total cpu time spent up to now is       64.4 secs

     total energy              =    -380.57381957 Ry
     estimated scf accuracy    <       0.00000497 Ry

     iteration #  2     ecut=    50.00 Ry     beta= 0.70
     CG style diagonalization
     ethr =  1.13E-08,  avg # of iterations =  4.2

     negative rho (up, down):  1.537E-02 0.000E+00

     total cpu time spent up to now is       65.2 secs

     total energy              =    -380.57381966 Ry
     estimated scf accuracy    <       0.00000495 Ry

     iteration #  3     ecut=    50.00 Ry     beta= 0.70
     CG style diagonalization
     ethr =  1.12E-08,  avg # of iterations =  3.9

     negative rho (up, down):  1.537E-02 0.000E+00

     total cpu time spent up to now is       66.0 secs

     total energy              =    -380.57382098 Ry
     estimated scf accuracy    <       0.00000165 Ry

     iteration #  4     ecut=    50.00 Ry     beta= 0.70
     CG style diagonalization
     ethr =  3.75E-09,  avg # of iterations =  3.5

     negative rho (up, down):  1.537E-02 0.000E+00

     total cpu time spent up to now is       66.7 secs

     total energy              =    -380.57382129 Ry
     estimated scf accuracy    <       0.00000009 Ry

     iteration #  5     ecut=    50.00 Ry     beta= 0.70
     CG style diagonalization
     ethr =  2.09E-10,  avg # of iterations =  4.2

     negative rho (up, down):  1.537E-02 0.000E+00

     total cpu time spent up to now is       67.5 secs

     total energy              =    -380.57382134 Ry
     estimated scf accuracy    <       0.00000002 Ry

     iteration #  6     ecut=    50.00 Ry     beta= 0.70
     CG style diagonalization
     ethr =  4.90E-11,  avg # of iterations =  4.4

     negative rho (up, down):  1.537E-02 0.000E+00

     total cpu time spent up to now is       68.4 secs

     total energy              =    -380.57382135 Ry
     estimated scf accuracy    <          3.2E-09 Ry

     iteration #  7     ecut=    50.00 Ry     beta= 0.70
     CG style diagonalization
     ethr =  7.31E-12,  avg # of iterations =  4.8

     negative rho (up, down):  1.537E-02 0.000E+00

     total cpu time spent up to now is       69.3 secs

     total energy              =    -380.57382135 Ry
     estimated scf accuracy    <          2.1E-10 Ry

     iteration #  8     ecut=    50.00 Ry     beta= 0.70
     CG style diagonalization
     ethr =  4.75E-13,  avg # of iterations =  6.8

     negative rho (up, down):  1.537E-02 0.000E+00

     total cpu time spent up to now is       70.7 secs

     End of self-consistent calculation

          k = 0.0000 0.0000 0.0000 (  2437 PWs)   bands (ev):

   -45.2035 -21.8693 -21.7962 -21.7962  -7.1426  -5.9995  -5.7609  -4.4225
    -4.4225  -4.3885  -4.2781  -4.1423   4.8771   6.7193   6.7193   7.1210
     8.8299   8.8299   9.0157   9.3903   9.4324   9.4324

          k = 0.0000 0.0000 0.2422 (  2445 PWs)   bands (ev):

   -45.2031 -21.8962 -21.7951 -21.7951  -6.9213  -5.9313  -5.6745  -4.4425
    -4.4425  -4.3868  -4.2594  -4.2260   4.0100   6.8046   6.8046   7.2522
     8.4958   8.4958   8.9198   9.4359   9.5576   9.5576

          k = 0.0000 0.0000-0.4844 (  2402 PWs)   bands (ev):

   -45.2027 -21.9229 -21.7940 -21.7940  -6.6831  -5.8559  -5.5909  -4.4624
    -4.4624  -4.3851  -4.3170  -4.2419   3.4683   6.4790   6.8740   6.8740
     8.2728   8.2728   8.8290   9.6372   9.6372  10.7270

          k = 0.0000 0.1667 0.0000 (  2433 PWs)   bands (ev):

   -45.2031 -21.8685 -21.8153 -21.7954  -7.0007  -5.9640  -5.7310  -4.4467
    -4.4210  -4.4025  -4.2817  -4.1352   4.3667   6.8300   6.8366   7.1899
     8.7003   8.8141   8.9809   9.0947   9.2196   9.6112

          k = 0.0000 0.1667 0.2422 (  2431 PWs)   bands (ev):

   -45.2027 -21.8953 -21.8141 -21.7942  -6.7957  -5.9131  -5.6396  -4.4456
    -4.4417  -4.4014  -4.2695  -4.1801   3.7693   6.6073   6.9252   7.3843
     8.1173   8.4693   8.7574   9.2167   9.2400   9.9625

          k = 0.0000 0.1667-0.4844 (  2426 PWs)   bands (ev):

   -45.2023 -21.9218 -21.8128 -21.7931  -6.5871  -5.8547  -5.5403  -4.4621
    -4.4425  -4.4004  -4.2679  -4.2207   3.3195   6.2289   6.9992   7.0065
     7.8941   8.2661   8.8334   9.2513   9.3154  10.6104

          k = 0.0000 0.3333 0.0000 (  2414 PWs)   bands (ev):

   -45.2024 -21.8671 -21.8530 -21.7938  -6.6916  -5.8885  -5.6864  -4.4862
    -4.4304  -4.4180  -4.2771  -4.1474   3.7295   6.4639   7.1146   7.1657
     8.3313   8.3497   8.8397   8.9867   9.3728  10.1933

          k = 0.0000 0.3333 0.2422 (  2431 PWs)   bands (ev):

   -45.2020 -21.8933 -21.8518 -21.7926  -6.5532  -5.8420  -5.5765  -4.4504
    -4.4400  -4.4304  -4.2627  -4.1239   3.3733   6.3373   7.0146   7.2383
     7.7357   8.1932   8.3296   8.9379   9.4989  10.2708

          k = 0.0000 0.3333-0.4844 (  2420 PWs)   bands (ev):

   -45.2016 -21.9194 -21.8503 -21.7914  -6.4556  -5.7663  -5.4265  -4.4615
    -4.4306  -4.4062  -4.2984  -4.0681   3.0567   5.9802   6.7278   7.3111
     7.6149   7.7903   8.1234   8.9252   9.8485  10.1536

          k = 0.0000-0.5000 0.0000 (  2424 PWs)   bands (ev):

   -45.2021 -21.8723 -21.8658 -21.7930  -6.5196  -5.8344  -5.6898  -4.5042
    -4.4441  -4.4166  -4.2529  -4.1809   3.5097   6.0625   7.3630   7.4258
     7.8823   7.9495   8.7628   9.0180   9.4103  10.9797

          k = 0.0000-0.5000 0.2422 (  2430 PWs)   bands (ev):

   -45.2017 -21.8921 -21.8707 -21.7918  -6.4480  -5.7511  -5.5735  -4.4637
    -4.4448  -4.4390  -4.2265  -4.1223   3.2174   6.0432   7.0339   7.2787
     7.5861   7.7865   8.4485   8.9171   9.5142  10.4322

          k = 0.0000-0.5000-0.4844 (  2424 PWs)   bands (ev):

   -45.2013 -21.9182 -21.8690 -21.7906  -6.4281  -5.6611  -5.3732  -4.4612
    -4.4455  -4.4147  -4.2863  -4.0033   2.9489   5.8505   6.4183   7.3291
     7.6225   7.7804   7.8291   8.8531   9.7214  10.2278

          k = 0.1667 0.1667 0.0000 (  2419 PWs)   bands (ev):

   -45.2028 -21.8677 -21.8146 -21.8142  -6.8616  -5.9274  -5.7215  -4.4554
    -4.4362  -4.4048  -4.2591  -4.1284   4.0237   6.7220   7.0206   7.2620
     8.2950   8.3174   9.0784   9.1036   9.3501   9.8480

          k = 0.1667 0.1667 0.2422 (  2425 PWs)   bands (ev):

   -45.2024 -21.8943 -21.8133 -21.8130  -6.6673  -5.8979  -5.6319  -4.4567
    -4.4342  -4.3979  -4.2431  -4.1467   3.6406   6.5249   6.6244   7.3504
     8.0168   8.0317   8.8733   9.2588   9.4601   9.9113

          k = 0.1667 0.1667-0.4844 (  2432 PWs)   bands (ev):

   -45.2020 -21.9207 -21.8121 -21.8119  -6.4780  -5.8681  -5.5232  -4.4704
    -4.4132  -4.3709  -4.2440  -4.1725   3.2852   6.2727   6.3180   7.0210
     7.9367   7.9397   8.7182   9.3258   9.5215  10.2789

          k = 0.1667 0.3333 0.0000 (  2429 PWs)   bands (ev):

   -45.2021 -21.8663 -21.8520 -21.8127  -6.5625  -5.8526  -5.7160  -4.4816
    -4.4270  -4.3896  -4.2366  -4.1404   3.5010   6.4524   7.0153   7.3176
     7.6944   8.3125   8.5732   9.2379   9.4320  10.2867

          k = 0.1667 0.3333 0.2422 (  2426 PWs)   bands (ev):

   -45.2017 -21.8924 -21.8508 -21.8115  -6.4186  -5.8422  -5.6236  -4.4539
    -4.4299  -4.3645  -4.2078  -4.0986   3.3725   6.2861   6.4024   6.9386
     7.3814   8.0596   8.9211   9.2061   9.5633   9.9798

          k = 0.1667 0.3333-0.4844 (  2412 PWs)   bands (ev):

   -45.2013 -21.9185 -21.8494 -21.8103  -6.3232  -5.8152  -5.4805  -4.4516
    -4.4022  -4.3179  -4.2189  -4.0410   3.1929   5.9102   6.3209   6.5817
     6.8747   7.9190   8.9785   9.2197   9.4720  10.0092

          k = 0.1667-0.5000 0.0000 (  2438 PWs)   bands (ev):

   -45.2017 -21.8712 -21.8650 -21.8118  -6.3983  -5.8004  -5.7375  -4.4859
    -4.4198  -4.3695  -4.2202  -4.1749   3.2993   6.0803   7.1534   7.3445
     7.6522   7.9804   8.5042   9.2570   9.4559  10.6154

          k = 0.1667-0.5000 0.2422 (  2422 PWs)   bands (ev):

   -45.2013 -21.8912 -21.8697 -21.8106  -6.3121  -5.7619  -5.6483  -4.4522
    -4.4168  -4.3450  -4.1802  -4.0964   3.2493   6.0469   6.2916   6.7078
     7.3342   8.1976   8.6877   9.2346   9.5759   9.9373

          k = 0.1667-0.5000-0.4844 (  2412 PWs)   bands (ev):

   -45.2010 -21.9173 -21.8681 -21.8094  -6.2948  -5.7249  -5.4646  -4.4460
    -4.3682  -4.3199  -4.2000  -3.9774   3.1460   5.8052   6.1638   6.2976
     6.6663   8.0243   8.8326   9.1373   9.1376  10.2352

          k = 0.3333 0.3333 0.0000 (  2438 PWs)   bands (ev):

   -45.2014 -21.8647 -21.8501 -21.8499  -6.3107  -5.7805  -5.7539  -4.4646
    -4.4101  -4.3215  -4.1595  -4.1494   3.0810   6.4376   6.5251   7.4652
     7.5792   7.7534   8.3493   9.0877   9.8687  10.0407

          k = 0.3333 0.3333 0.2422 (  2431 PWs)   bands (ev):

   -45.2010 -21.8905 -21.8490 -21.8488  -6.1512  -5.8330  -5.7095  -4.4189
    -4.4029  -4.2567  -4.1041  -4.0622   3.2917   5.9903   6.0525   6.4233
     7.0401   7.5161   8.9802   9.5336   9.5611   9.8904

          k = 0.3333 0.3333-0.4844 (  2418 PWs)   bands (ev):

   -45.2006 -21.9165 -21.8477 -21.8476  -6.0750  -5.8815  -5.5670  -4.3952
    -4.3732  -4.1859  -4.0451  -3.9783   3.4825   5.5576   5.5936   6.1252
     6.7535   6.9518   8.1470   9.8582   9.8921  10.0734

          k = 0.3333-0.5000 0.0000 (  2448 PWs)   bands (ev):

   -45.2010 -21.8690 -21.8635 -21.8490  -6.2001  -5.7583  -5.7365  -4.4572
    -4.3877  -4.2612  -4.1853  -4.1264   2.8904   6.0737   6.5713   7.2725
     7.7947   7.8778   7.9939   9.0499   9.7439  10.0800

          k = 0.3333-0.5000 0.2422 (  2426 PWs)   bands (ev):

   -45.2007 -21.8894 -21.8677 -21.8480  -6.0364  -5.7876  -5.7672  -4.4099
    -4.3754  -4.1665  -4.0939  -4.0395   3.2140   5.8684   6.0273   6.0865
     6.8294   7.5722   8.5100   9.5427   9.5695  10.0437

          k = 0.3333-0.5000-0.4844 (  2420 PWs)   bands (ev):

   -45.2003 -21.9153 -21.8663 -21.8468  -6.0224  -5.8349  -5.6055  -4.3774
    -4.3500  -4.0998  -4.0016  -3.9214   3.6263   5.2951   5.4834   5.9081
     6.5150   6.9320   7.3740   9.9930  10.0101  10.2517

          k =-0.5000-0.5000 0.0000 (  2448 PWs)   bands (ev):

   -45.2007 -21.8679 -21.8679 -21.8622  -6.1511  -5.7070  -5.7070  -4.4471
    -4.3412  -4.2120  -4.2120  -4.0764   2.6936   5.9242   6.3901   7.4721
     7.4721   7.9962   7.9962   8.8179   9.3182  10.3260

          k =-0.5000-0.5000 0.2422 (  2420 PWs)   bands (ev):

   -45.2003 -21.8884 -21.8666 -21.8666  -5.9114  -5.8020  -5.8020  -4.3983
    -4.3386  -4.0525  -4.0525  -4.0369   3.1349   5.8821   5.9776   5.9776
     6.3977   7.5114   7.8750   9.5843   9.5843  10.3065

          k =-0.5000-0.5000-0.4844 (  2408 PWs)   bands (ev):

   -45.1999 -21.9143 -21.8654 -21.8654  -5.8835  -5.8835  -5.6644  -4.3494
    -4.3361  -3.9821  -3.9035  -3.9035   3.8705   5.2928   5.2928   5.7476
     6.3750   6.4053   6.5727  10.2595  10.2595  10.2872

     highest occupied level (ev):    10.9797

!    total energy              =    -380.57382135 Ry
     estimated scf accuracy    <          1.6E-11 Ry

     The total energy is the sum of the following terms:
     one-electron contribution =     -79.20057742 Ry
     hartree contribution      =      69.66900649 Ry
     xc contribution           =    -102.66197042 Ry
     ewald contribution        =    -268.38028000 Ry

     convergence has been achieved in   8 iterations

     negative rho (up, down):  1.537E-02 0.000E+00

     Forces acting on atoms (cartesian axes, Ry/au):

     atom    1 type  1   force =     0.00000000    0.00000000    0.00049801
     atom    2 type  2   force =     0.00000000    0.00000000   -0.00073987
     atom    3 type  3   force =     0.00000000    0.00000000   -0.00010093
     atom    4 type  3   force =     0.00000000    0.00000000    0.00017140
     atom    5 type  3   force =     0.00000000    0.00000000    0.00017140

     Total force =     0.000930     Total SCF correction =     0.000008


     Computing stress (Cartesian axis) and pressure


     negative rho (up, down):  1.537E-02 0.000E+00
          total   stress  (Ry/bohr**3)                   (kbar)     P=       -7.91
  -0.00008525   0.00000000   0.00000000          -12.54        0.00        0.00
   0.00000000  -0.00008525   0.00000000            0.00      -12.54        0.00
   0.00000000   0.00000000   0.00000921            0.00        0.00        1.35

     Energy error            =      4.7E-06 Ry
     Gradient error          =      7.4E-04 Ry/Bohr

     bfgs converged in   7 scf cycles and   6 bfgs steps
     (criteria: energy <  1.0E-04 Ry, force <  1.0E-03 Ry/Bohr)

     End of BFGS Geometry Optimization

     Final energy             =    -380.5738213505 Ry

     File ./pto_tetragonal_eta0p006.bfgs deleted, as requested
Begin final coordinates

ATOMIC_POSITIONS (crystal)
Pb               0.0000000000        0.0000000000        1.0077737229
Ti               0.5000000000        0.5000000000        0.5435803995
O                0.5000000000        0.5000000000        0.0969448248
O                0.5000000000        0.0000000000        0.6094926703
O                0.0000000000        0.5000000000        0.6094926703
End final coordinates



     Writing all to output data dir ./pto_tetragonal_eta0p006.save/ :
     XML data file, charge density, pseudopotentials, collected wavefunctions
 
     init_run     :      0.37s CPU      0.46s WALL (       1 calls)
     electrons    :     59.22s CPU     63.07s WALL (       7 calls)
     update_pot   :      0.02s CPU      0.04s WALL (       6 calls)
     forces       :      0.69s CPU      0.75s WALL (       7 calls)
     stress       :      6.61s CPU      6.69s WALL (       7 calls)

     Called by init_run:
     wfcinit      :      0.16s CPU      0.18s WALL (       1 calls)
     potinit      :      0.01s CPU      0.01s WALL (       1 calls)
     hinit0       :      0.11s CPU      0.14s WALL (       1 calls)

     Called by electrons:
     c_bands      :     50.12s CPU     53.21s WALL (      68 calls)
     sum_band     :      6.28s CPU      6.58s WALL (      68 calls)
     v_of_rho     :      0.11s CPU      0.11s WALL (      70 calls)
     newd         :      2.86s CPU      3.15s WALL (      70 calls)
     mix_rho      :      0.07s CPU      0.08s WALL (      68 calls)

     Called by c_bands:
     init_us_2    :      0.45s CPU      0.47s WALL (    4530 calls)
     init_us_2:cp :      0.44s CPU      0.46s WALL (    4530 calls)
     ccgdiagg     :     45.17s CPU     48.04s WALL (    2040 calls)
     wfcrot       :      4.74s CPU      4.96s WALL (    1710 calls)

     Called by *cgdiagg:
     h_psi        :     28.19s CPU     29.90s WALL (  170382 calls)
     s_psi        :      4.78s CPU      5.10s WALL (  339054 calls)

     Called by h_psi:
     h_psi:calbec :      4.42s CPU      4.69s WALL (  170382 calls)
     vloc_psi     :     19.72s CPU     20.91s WALL (  170382 calls)
     add_vuspsi   :      2.71s CPU      2.88s WALL (  170382 calls)
     hs_1psi      :     27.79s CPU     29.54s WALL (  168672 calls)
     s_1psi       :      6.83s CPU      7.25s WALL (  168672 calls)

     General routines
     calbec       :      7.97s CPU      8.47s WALL (  342144 calls)
     fft          :      0.14s CPU      0.16s WALL (     473 calls)
     ffts         :      0.01s CPU      0.01s WALL (     138 calls)
     fftw         :     16.82s CPU     17.78s WALL (  458004 calls)
     interpolate  :      0.03s CPU      0.03s WALL (      70 calls)
 
     Parallel routines
 
     PWSCF        :   1m 7.41s CPU   1m12.13s WALL

 
   This run was terminated on:  20:40:29  17Nov2025            

=------------------------------------------------------------------------------=
   JOB DONE.
=------------------------------------------------------------------------------=
TACC:  Shutdown complete. Exiting. 
