TACC:  Starting up job 2406371 
TACC:  Starting parallel tasks... 

     Program PWSCF v.7.3 starts on 24Sep2025 at  0:40:53 

     This program is part of the open-source Quantum ESPRESSO suite
     for quantum simulation of materials; please cite
         "P. Giannozzi et al., J. Phys.:Condens. Matter 21 395502 (2009);
         "P. Giannozzi et al., J. Phys.:Condens. Matter 29 465901 (2017);
         "P. Giannozzi et al., J. Chem. Phys. 152 154105 (2020);
          URL http://www.quantum-espresso.org", 
     in publications or presentations arising from this work. More details at
     http://www.quantum-espresso.org/quote

     Parallel version (MPI & OpenMP), running on      10 processor cores
     Number of MPI processes:                10
     Threads/MPI process:                     1

     MPI processes distributed on     1 nodes
     183237 MiB available memory on the printing compute node when the environment starts
 
     Waiting for input...
     Reading input from standard input
Warning: card &CELL ignored
Warning: card  CELL_DYNAMICS = 'BFGS', ignored
Warning: card  PRESS=0.D0, ignored
Warning: card / ignored
     Message from routine read_cards :
     DEPRECATED: no units specified in ATOMIC_POSITIONS card
     Message from routine read_cards :
     ATOMIC_POSITIONS: units set to alat

     Current dimensions of program PWSCF are:
     Max number of different atomic species (ntypx) = 10
     Max number of k-points (npk) =  40000
     Max angular momentum in pseudopotentials (lmaxx) =  4
 
     R & G space division:  proc/nbgrp/npool/nimage =      10
     Subspace diagonalization in iterative solution of the eigenvalue problem:
     a serial algorithm will be used

 
     Parallelization info
     --------------------
     sticks:   dense  smooth     PW     G-vecs:    dense   smooth      PW
     Min         450     178     51                22790     5752     882
     Max         451     179     53                22793     5757     883
     Sum        4501    1789    517               227911    57555    8829
 
     Using Slab Decomposition
 


     bravais-lattice index     =            1
     lattice parameter (alat)  =       7.5245  a.u.
     unit-cell volume          =     426.0248 (a.u.)^3
     number of atoms/cell      =            5
     number of atomic types    =            3
     number of electrons       =        40.00
     number of Kohn-Sham states=           20
     kinetic-energy cutoff     =     100.0000  Ry
     charge density cutoff     =    1000.0000  Ry
     scf convergence threshold =      1.0E-08
     mixing beta               =       0.7000
     number of iterations used =            8  plain     mixing
     Exchange-correlation= SLA  PZ   NOGX NOGC
                           (   1   1   0   0   0   0   0)

     celldm(1)=   7.524511  celldm(2)=   0.000000  celldm(3)=   0.000000
     celldm(4)=   0.000000  celldm(5)=   0.000000  celldm(6)=   0.000000

     crystal axes: (cart. coord. in units of alat)
               a(1) = (   1.000000   0.000000   0.000000 )  
               a(2) = (   0.000000   1.000000   0.000000 )  
               a(3) = (   0.000000   0.000000   1.000000 )  

     reciprocal axes: (cart. coord. in units 2 pi/alat)
               b(1) = (  1.000000  0.000000  0.000000 )  
               b(2) = (  0.000000  1.000000  0.000000 )  
               b(3) = (  0.000000  0.000000  1.000000 )  


     PseudoPot. # 1 for Ca read from file:
     /scratch/11018/zhc/assisgnment1/CaTiO3/Ca_LDA.UPF
     MD5 check sum: d2d4e7693e10d071152e9eeb7dd009f3
     Pseudo is Ultrasoft + core correction, Zval = 10.0
     Generated by new atomic code, or converted to UPF format
     Using radial grid of  845 points,  6 beta functions with: 
                l(1) =   0
                l(2) =   0
                l(3) =   1
                l(4) =   1
                l(5) =   2
                l(6) =   2
     Q(r) pseudized with  8 coefficients,  rinner =    1.500   1.500   1.500
                                                       1.500   1.500

     PseudoPot. # 2 for Ti read from file:
     /scratch/11018/zhc/assisgnment1/CaTiO3/Ti_LDA.UPF
     MD5 check sum: 0d9f225c038fe889ca2a701dcc8d72cb
     Pseudo is Ultrasoft + core correction, Zval = 12.0
     Generated by new atomic code, or converted to UPF format
     Using radial grid of  851 points,  6 beta functions with: 
                l(1) =   0
                l(2) =   0
                l(3) =   1
                l(4) =   1
                l(5) =   2
                l(6) =   2
     Q(r) pseudized with  6 coefficients,  rinner =    1.000   1.000   1.000
                                                       1.000   1.000

     PseudoPot. # 3 for O  read from file:
     /scratch/11018/zhc/assisgnment1/CaTiO3/O_LDA.UPF
     MD5 check sum: 194b818514d2a7dbb603bb78519a4f40
     Pseudo is Ultrasoft + core correction, Zval =  6.0
     Generated by new atomic code, or converted to UPF format
     Using radial grid of  737 points,  5 beta functions with: 
                l(1) =   0
                l(2) =   0
                l(3) =   1
                l(4) =   1
                l(5) =   2
     Q(r) pseudized with  8 coefficients,  rinner =    0.900   0.900   0.900
                                                       0.900   0.900

     atomic species   valence    mass     pseudopotential
     Ca               10.00    40.07800     Ca( 1.00)
     Ti               12.00    47.88000     Ti( 1.00)
     O                 6.00    16.00000     O ( 1.00)

     48 Sym. Ops., with inversion, found



   Cartesian axes

     site n.     atom                  positions (alat units)
         1        Ca     tau(   1) = (   0.0000000   0.0000000   0.0000000  )
         2        Ti     tau(   2) = (   0.5000000   0.5000000   0.5000000  )
         3        O      tau(   3) = (   0.5000000   0.5000000   0.0000000  )
         4        O      tau(   4) = (   0.5000000   0.0000000   0.5000000  )
         5        O      tau(   5) = (   0.0000000   0.5000000   0.5000000  )

     number of k points=    20
                       cart. coord. in units 2pi/alat
        k(    1) = (   0.0000000   0.0000000   0.0000000), wk =   0.0092593
        k(    2) = (   0.0000000   0.0000000   0.1666667), wk =   0.0555556
        k(    3) = (   0.0000000   0.0000000   0.3333333), wk =   0.0555556
        k(    4) = (   0.0000000   0.0000000  -0.5000000), wk =   0.0277778
        k(    5) = (   0.0000000   0.1666667   0.1666667), wk =   0.1111111
        k(    6) = (   0.0000000   0.1666667   0.3333333), wk =   0.2222222
        k(    7) = (   0.0000000   0.1666667  -0.5000000), wk =   0.1111111
        k(    8) = (   0.0000000   0.3333333   0.3333333), wk =   0.1111111
        k(    9) = (   0.0000000   0.3333333  -0.5000000), wk =   0.1111111
        k(   10) = (   0.0000000  -0.5000000  -0.5000000), wk =   0.0277778
        k(   11) = (   0.1666667   0.1666667   0.1666667), wk =   0.0740741
        k(   12) = (   0.1666667   0.1666667   0.3333333), wk =   0.2222222
        k(   13) = (   0.1666667   0.1666667  -0.5000000), wk =   0.1111111
        k(   14) = (   0.1666667   0.3333333   0.3333333), wk =   0.2222222
        k(   15) = (   0.1666667   0.3333333  -0.5000000), wk =   0.2222222
        k(   16) = (   0.1666667  -0.5000000  -0.5000000), wk =   0.0555556
        k(   17) = (   0.3333333   0.3333333   0.3333333), wk =   0.0740741
        k(   18) = (   0.3333333   0.3333333  -0.5000000), wk =   0.1111111
        k(   19) = (   0.3333333  -0.5000000  -0.5000000), wk =   0.0555556
        k(   20) = (  -0.5000000  -0.5000000  -0.5000000), wk =   0.0092593

     Dense  grid:   227911 G-vectors     FFT dimensions: (  75,  75,  75)

     Smooth grid:    57555 G-vectors     FFT dimensions: (  48,  48,  48)

     Estimated max dynamical RAM per process >      96.77 MB

     Estimated total dynamical RAM >     967.71 MB

     Initial potential from superposition of free atoms

     starting charge      38.9952, renormalised to      40.0000

     negative rho (up, down):  8.893E-04 0.000E+00
     Starting wfcs are   32 randomized atomic wfcs

     total cpu time spent up to now is        0.9 secs

     Self-consistent Calculation

     iteration #  1     ecut=   100.00 Ry     beta= 0.70
     CG style diagonalization
     ethr =  1.00E-02,  avg # of iterations =  2.2

     negative rho (up, down):  1.180E-03 0.000E+00

     total cpu time spent up to now is        1.7 secs

     total energy              =    -291.25332581 Ry
     estimated scf accuracy    <       0.84486990 Ry

     iteration #  2     ecut=   100.00 Ry     beta= 0.70
     CG style diagonalization
     ethr =  2.11E-03,  avg # of iterations =  5.3

     negative rho (up, down):  6.245E-04 0.000E+00

     total cpu time spent up to now is        3.1 secs

     total energy              =    -290.14866126 Ry
     estimated scf accuracy    <      10.20661695 Ry

     iteration #  3     ecut=   100.00 Ry     beta= 0.70
     CG style diagonalization
     ethr =  2.11E-03,  avg # of iterations =  4.7

     negative rho (up, down):  7.338E-04 0.000E+00

     total cpu time spent up to now is        4.3 secs

     total energy              =    -291.68716353 Ry
     estimated scf accuracy    <       0.21650851 Ry

     iteration #  4     ecut=   100.00 Ry     beta= 0.70
     CG style diagonalization
     ethr =  5.41E-04,  avg # of iterations =  3.6

     negative rho (up, down):  8.067E-04 0.000E+00

     total cpu time spent up to now is        5.3 secs

     total energy              =    -291.71127471 Ry
     estimated scf accuracy    <       0.08339581 Ry

     iteration #  5     ecut=   100.00 Ry     beta= 0.70
     CG style diagonalization
     ethr =  2.08E-04,  avg # of iterations =  3.4

     negative rho (up, down):  8.590E-04 0.000E+00

     total cpu time spent up to now is        6.2 secs

     total energy              =    -291.71862515 Ry
     estimated scf accuracy    <       0.00901881 Ry

     iteration #  6     ecut=   100.00 Ry     beta= 0.70
     CG style diagonalization
     ethr =  2.25E-05,  avg # of iterations =  3.7

     negative rho (up, down):  8.771E-04 0.000E+00

     total cpu time spent up to now is        7.2 secs

     total energy              =    -291.72142622 Ry
     estimated scf accuracy    <       0.00002581 Ry

     iteration #  7     ecut=   100.00 Ry     beta= 0.70
     CG style diagonalization
     ethr =  6.45E-08,  avg # of iterations =  5.8

     negative rho (up, down):  8.753E-04 0.000E+00

     total cpu time spent up to now is        8.7 secs

     total energy              =    -291.72175853 Ry
     estimated scf accuracy    <       0.00041329 Ry

     iteration #  8     ecut=   100.00 Ry     beta= 0.70
     CG style diagonalization
     ethr =  6.45E-08,  avg # of iterations =  4.5

     negative rho (up, down):  8.730E-04 0.000E+00

     total cpu time spent up to now is        9.9 secs

     total energy              =    -291.72177341 Ry
     estimated scf accuracy    <       0.00004709 Ry

     iteration #  9     ecut=   100.00 Ry     beta= 0.70
     CG style diagonalization
     ethr =  6.45E-08,  avg # of iterations =  3.6

     negative rho (up, down):  8.718E-04 0.000E+00

     total cpu time spent up to now is       10.8 secs

     total energy              =    -291.72177782 Ry
     estimated scf accuracy    <       0.00000243 Ry

     iteration # 10     ecut=   100.00 Ry     beta= 0.70
     CG style diagonalization
     ethr =  6.09E-09,  avg # of iterations =  3.8

     negative rho (up, down):  8.717E-04 0.000E+00

     total cpu time spent up to now is       11.9 secs

     total energy              =    -291.72177848 Ry
     estimated scf accuracy    <       0.00000010 Ry

     iteration # 11     ecut=   100.00 Ry     beta= 0.70
     CG style diagonalization
     ethr =  2.60E-10,  avg # of iterations =  4.5

     negative rho (up, down):  8.717E-04 0.000E+00

     total cpu time spent up to now is       13.0 secs

     total energy              =    -291.72177861 Ry
     estimated scf accuracy    <       0.00000004 Ry

     iteration # 12     ecut=   100.00 Ry     beta= 0.70
     CG style diagonalization
     ethr =  8.95E-11,  avg # of iterations =  3.4

     negative rho (up, down):  8.717E-04 0.000E+00

     total cpu time spent up to now is       14.0 secs

     total energy              =    -291.72177862 Ry
     estimated scf accuracy    <       0.00000001 Ry

     iteration # 13     ecut=   100.00 Ry     beta= 0.70
     CG style diagonalization
     ethr =  2.64E-11,  avg # of iterations =  3.7

     negative rho (up, down):  8.717E-04 0.000E+00

     total cpu time spent up to now is       15.0 secs

     End of self-consistent calculation

          k = 0.0000 0.0000 0.0000 (  7123 PWs)   bands (ev):

   -48.2888 -31.3121 -24.8332 -24.8332 -24.8332 -12.4937 -12.4937 -12.4937
    -9.1600  -8.1271  -8.1271   4.8099   4.8099   4.8099   6.7403   6.7403
     6.7403   7.3115   7.3115   7.3115

          k = 0.0000 0.0000 0.1667 (  7172 PWs)   bands (ev):

   -48.2886 -31.3111 -24.8462 -24.8326 -24.8326 -12.5342 -12.4917 -12.4917
    -9.0308  -8.1188  -8.0741   4.5240   4.8347   4.8347   6.4020   6.4020
     6.5404   6.5654   7.1937   7.1937

          k = 0.0000 0.0000 0.3333 (  7140 PWs)   bands (ev):

   -48.2882 -31.3090 -24.8722 -24.8314 -24.8314 -12.6118 -12.4876 -12.4876
    -8.7658  -8.1022  -7.9650   3.9172   4.9357   4.9357   5.5615   5.7795
     5.7795   6.1894   7.0901   7.0901

          k = 0.0000 0.0000-0.5000 (  7224 PWs)   bands (ev):

   -48.2880 -31.3080 -24.8850 -24.8308 -24.8308 -12.6491 -12.4855 -12.4855
    -8.6303  -8.0939  -7.9075   3.5882   5.0847   5.0847   5.1989   5.4132
     5.4132   6.0322   7.0532   7.0532

          k = 0.0000 0.1667 0.1667 (  7189 PWs)   bands (ev):

   -48.2884 -31.3101 -24.8458 -24.8456 -24.8320 -12.5388 -12.5179 -12.4895
    -8.9112  -8.0907  -8.0434   4.3771   4.6883   4.8569   5.7024   6.1938
     6.4922   6.6300   6.9164   6.9685

          k = 0.0000 0.1667 0.3333 (  7173 PWs)   bands (ev):

   -48.2880 -31.3079 -24.8717 -24.8446 -24.8309 -12.6004 -12.5157 -12.4852
    -8.6722  -8.0658  -7.9389   3.8813   4.5103   4.9503   4.9537   5.6922
     5.8988   6.5722   6.7738   6.8454

          k = 0.0000 0.1667-0.5000 (  7200 PWs)   bands (ev):

   -48.2878 -31.3069 -24.8846 -24.8441 -24.8303 -12.6334 -12.5112 -12.4831
    -8.5558  -8.0538  -7.8761   3.5809   4.3143   4.7930   5.1002   5.3503
     5.6940   6.5619   6.7194   6.7557

          k = 0.0000 0.3333 0.3333 (  7219 PWs)   bands (ev):

   -48.2876 -31.3057 -24.8710 -24.8708 -24.8297 -12.5840 -12.5644 -12.4806
    -8.5200  -7.9587  -7.8713   3.6512   4.0539   4.1214   5.0142   5.4571
     5.9625   6.1150   6.3623   7.3660

          k = 0.0000 0.3333-0.5000 (  7222 PWs)   bands (ev):

   -48.2874 -31.3046 -24.8839 -24.8704 -24.8292 -12.6022 -12.5618 -12.4782
    -8.4676  -7.8971  -7.8136   3.5299   3.5513   4.0544   5.1411   5.2289
     5.8887   6.0968   6.2231   7.4936

          k = 0.0000-0.5000-0.5000 (  7184 PWs)   bands (ev):

   -48.2872 -31.3035 -24.8835 -24.8835 -24.8286 -12.5867 -12.5867 -12.4758
    -8.4506  -7.7825  -7.7825   3.2755   3.3866   3.7681   5.1704   5.1704
     5.9823   5.9823   6.0132   7.7211

          k = 0.1667 0.1667 0.1667 (  7163 PWs)   bands (ev):

   -48.2882 -31.3090 -24.8452 -24.8452 -24.8451 -12.5410 -12.5140 -12.5140
    -8.7954  -8.0411  -8.0411   4.2439   4.6893   4.6893   5.6327   5.6327
     5.9492   6.8408   6.8408   6.9859

          k = 0.1667 0.1667 0.3333 (  7179 PWs)   bands (ev):

   -48.2878 -31.3069 -24.8712 -24.8441 -24.8440 -12.5901 -12.5166 -12.5061
    -8.5666  -8.0365  -7.9262   3.8461   4.4255   4.6654   4.8623   5.1010
     5.8421   6.6187   6.7998   6.9867

          k = 0.1667 0.1667-0.5000 (  7192 PWs)   bands (ev):

   -48.2876 -31.3058 -24.8842 -24.8437 -24.8433 -12.6195 -12.5123 -12.5021
    -8.4575  -8.0343  -7.8561   3.5764   4.2082   4.6116   4.6481   4.9546
     5.8962   6.4812   6.7814   6.9100

          k = 0.1667 0.3333 0.3333 (  7202 PWs)   bands (ev):

   -48.2874 -31.3047 -24.8703 -24.8702 -24.8429 -12.5753 -12.5572 -12.5024
    -8.3902  -7.9492  -7.8804   3.6622   4.1016   4.1222   4.5621   4.8296
     5.3697   6.7106   6.7457   7.3921

          k = 0.1667 0.3333-0.5000 (  7216 PWs)   bands (ev):

   -48.2872 -31.3036 -24.8833 -24.8698 -24.8423 -12.5919 -12.5551 -12.4986
    -8.3307  -7.9092  -7.8165   3.5319   3.6333   4.0534   4.5286   4.6834
     5.3628   6.6703   6.7365   7.5142

          k = 0.1667-0.5000-0.5000 (  7200 PWs)   bands (ev):

   -48.2870 -31.3025 -24.8828 -24.8828 -24.8417 -12.5781 -12.5781 -12.4950
    -8.3075  -7.7970  -7.7970   3.3846   3.3921   3.7720   4.5481   4.5481
     5.2955   6.7044   6.7044   7.7419

          k = 0.3333 0.3333 0.3333 (  7205 PWs)   bands (ev):

   -48.2870 -31.3026 -24.8692 -24.8689 -24.8689 -12.5610 -12.5426 -12.5426
    -8.1460  -7.8987  -7.8987   3.6187   4.0790   4.0790   4.1609   4.2789
     4.2789   7.2163   7.2163   7.5168

          k = 0.3333 0.3333-0.5000 (  7178 PWs)   bands (ev):

   -48.2868 -31.3015 -24.8820 -24.8686 -24.8683 -12.5711 -12.5453 -12.5353
    -8.0651  -7.9080  -7.8228   3.4969   3.7440   3.9483   3.9672   4.1979
     4.2881   7.3012   7.3814   7.6127

          k = 0.3333-0.5000-0.5000 (  7200 PWs)   bands (ev):

   -48.2866 -31.3005 -24.8814 -24.8814 -24.8677 -12.5607 -12.5607 -12.5331
    -8.0034  -7.8262  -7.8262   3.3599   3.6097   3.7799   3.9426   3.9426
     4.1683   7.5004   7.5004   7.7843

          k =-0.5000-0.5000-0.5000 (  7208 PWs)   bands (ev):

   -48.2864 -31.2995 -24.8807 -24.8807 -24.8807 -12.5520 -12.5520 -12.5520
    -7.8409  -7.8409  -7.8409   3.2366   3.7261   3.7261   3.7261   3.7839
     3.7839   7.8060   7.8060   7.8060

     highest occupied level (ev):     7.8060

!    total energy              =    -291.72177862 Ry
     estimated scf accuracy    <          1.7E-10 Ry

     The total energy is the sum of the following terms:
     one-electron contribution =    -100.22563076 Ry
     hartree contribution      =      67.90388006 Ry
     xc contribution           =     -50.99201042 Ry
     ewald contribution        =    -208.40801749 Ry

     convergence has been achieved in  13 iterations

     negative rho (up, down):  8.717E-04 0.000E+00

     Forces acting on atoms (cartesian axes, Ry/au):

     atom    1 type  1   force =     0.00000000    0.00000000    0.00000000
     atom    2 type  2   force =     0.00000000    0.00000000    0.00000000
     atom    3 type  3   force =     0.00000000    0.00000000    0.00000000
     atom    4 type  3   force =     0.00000000    0.00000000    0.00000000
     atom    5 type  3   force =     0.00000000    0.00000000    0.00000000

     Total force =     0.000000     Total SCF correction =     0.000000


     Computing stress (Cartesian axis) and pressure


     negative rho (up, down):  8.717E-04 0.000E+00
          total   stress  (Ry/bohr**3)                   (kbar)     P=     -206.90
  -0.00140650   0.00000000   0.00000000         -206.90        0.00        0.00
   0.00000000  -0.00140650   0.00000000            0.00     -206.90        0.00
   0.00000000   0.00000000  -0.00140650            0.00        0.00     -206.90


     Writing all to output data dir ./CTO_CELLDM_9.save/ :
     XML data file, charge density, pseudopotentials, collected wavefunctions
 
     init_run     :      0.53s CPU      0.64s WALL (       1 calls)
     electrons    :     13.40s CPU     14.11s WALL (       1 calls)
     forces       :      0.23s CPU      0.26s WALL (       1 calls)
     stress       :      1.87s CPU      1.93s WALL (       1 calls)

     Called by init_run:
     wfcinit      :      0.21s CPU      0.23s WALL (       1 calls)
     potinit      :      0.02s CPU      0.02s WALL (       1 calls)
     hinit0       :      0.15s CPU      0.18s WALL (       1 calls)

     Called by electrons:
     c_bands      :      9.28s CPU      9.64s WALL (      13 calls)
     sum_band     :      2.54s CPU      2.68s WALL (      13 calls)
     v_of_rho     :      0.05s CPU      0.05s WALL (      14 calls)
     newd         :      1.58s CPU      1.78s WALL (      14 calls)
     mix_rho      :      0.04s CPU      0.04s WALL (      13 calls)

     Called by c_bands:
     init_us_2    :      0.16s CPU      0.16s WALL (     580 calls)
     init_us_2:cp :      0.16s CPU      0.16s WALL (     580 calls)
     ccgdiagg     :      8.02s CPU      8.34s WALL (     260 calls)
     wfcrot       :      1.33s CPU      1.39s WALL (     260 calls)

     Called by *cgdiagg:
     h_psi        :      5.87s CPU      6.10s WALL (   16323 calls)
     s_psi        :      1.09s CPU      1.14s WALL (   32386 calls)

     Called by h_psi:
     h_psi:calbec :      1.02s CPU      1.06s WALL (   16323 calls)
     vloc_psi     :      4.08s CPU      4.23s WALL (   16323 calls)
     add_vuspsi   :      0.61s CPU      0.64s WALL (   16323 calls)
     hs_1psi      :      5.38s CPU      5.59s WALL (   16063 calls)
     s_1psi       :      1.29s CPU      1.34s WALL (   16063 calls)

     General routines
     calbec       :      1.74s CPU      1.81s WALL (   32746 calls)
     fft          :      0.07s CPU      0.09s WALL (      90 calls)
     ffts         :      0.00s CPU      0.01s WALL (      27 calls)
     fftw         :      3.22s CPU      3.34s WALL (   48206 calls)
     interpolate  :      0.01s CPU      0.02s WALL (      14 calls)
 
     Parallel routines
 
     PWSCF        :     16.25s CPU     17.56s WALL

 
   This run was terminated on:   0:41:11  24Sep2025            

=------------------------------------------------------------------------------=
   JOB DONE.
=------------------------------------------------------------------------------=
TACC:  Shutdown complete. Exiting. 
