TACC:  Starting up job 2387917 
TACC:  Starting parallel tasks... 

     Program PWSCF v.7.3 starts on 19Sep2025 at 16:48:31 

     This program is part of the open-source Quantum ESPRESSO suite
     for quantum simulation of materials; please cite
         "P. Giannozzi et al., J. Phys.:Condens. Matter 21 395502 (2009);
         "P. Giannozzi et al., J. Phys.:Condens. Matter 29 465901 (2017);
         "P. Giannozzi et al., J. Chem. Phys. 152 154105 (2020);
          URL http://www.quantum-espresso.org", 
     in publications or presentations arising from this work. More details at
     http://www.quantum-espresso.org/quote

     Parallel version (MPI & OpenMP), running on      10 processor cores
     Number of MPI processes:                10
     Threads/MPI process:                     1

     MPI processes distributed on     1 nodes
     186246 MiB available memory on the printing compute node when the environment starts
 
     Waiting for input...
     Reading input from standard input
Warning: card &CELL ignored
Warning: card  CELL_DYNAMICS = 'BFGS', ignored
Warning: card  PRESS=0.D0, ignored
Warning: card / ignored
     Message from routine read_cards :
     DEPRECATED: no units specified in ATOMIC_POSITIONS card
     Message from routine read_cards :
     ATOMIC_POSITIONS: units set to alat
Warning: card   2 2 2 0 0 0 ignored

     Current dimensions of program PWSCF are:
     Max number of different atomic species (ntypx) = 10
     Max number of k-points (npk) =  40000
     Max angular momentum in pseudopotentials (lmaxx) =  4
 
     R & G space division:  proc/nbgrp/npool/nimage =      10
     Subspace diagonalization in iterative solution of the eigenvalue problem:
     a serial algorithm will be used

 
     Parallelization info
     --------------------
     sticks:   dense  smooth     PW     G-vecs:    dense   smooth      PW
     Min         215      86     24                 7503     1909     294
     Max         217      87     25                 7505     1911     299
     Sum        2161     869    241                75037    19093    2945
 
     Using Slab Decomposition
 


     bravais-lattice index     =            1
     lattice parameter (alat)  =       7.3573  a.u.
     unit-cell volume          =     398.2496 (a.u.)^3
     number of atoms/cell      =            5
     number of atomic types    =            3
     number of electrons       =        40.00
     number of Kohn-Sham states=           20
     kinetic-energy cutoff     =      50.0000  Ry
     charge density cutoff     =     500.0000  Ry
     scf convergence threshold =      1.0E-08
     mixing beta               =       0.7000
     number of iterations used =            8  plain     mixing
     Exchange-correlation= SLA  PZ   NOGX NOGC
                           (   1   1   0   0   0   0   0)

     celldm(1)=   7.357300  celldm(2)=   0.000000  celldm(3)=   0.000000
     celldm(4)=   0.000000  celldm(5)=   0.000000  celldm(6)=   0.000000

     crystal axes: (cart. coord. in units of alat)
               a(1) = (   1.000000   0.000000   0.000000 )  
               a(2) = (   0.000000   1.000000   0.000000 )  
               a(3) = (   0.000000   0.000000   1.000000 )  

     reciprocal axes: (cart. coord. in units 2 pi/alat)
               b(1) = (  1.000000  0.000000  0.000000 )  
               b(2) = (  0.000000  1.000000  0.000000 )  
               b(3) = (  0.000000  0.000000  1.000000 )  


     PseudoPot. # 1 for Ca read from file:
     /scratch/11018/zhc/assisgnment1/CaTiO3/Ca_LDA.UPF
     MD5 check sum: d2d4e7693e10d071152e9eeb7dd009f3
     Pseudo is Ultrasoft + core correction, Zval = 10.0
     Generated by new atomic code, or converted to UPF format
     Using radial grid of  845 points,  6 beta functions with: 
                l(1) =   0
                l(2) =   0
                l(3) =   1
                l(4) =   1
                l(5) =   2
                l(6) =   2
     Q(r) pseudized with  8 coefficients,  rinner =    1.500   1.500   1.500
                                                       1.500   1.500

     PseudoPot. # 2 for Ti read from file:
     /scratch/11018/zhc/assisgnment1/CaTiO3/Ti_LDA.UPF
     MD5 check sum: 0d9f225c038fe889ca2a701dcc8d72cb
     Pseudo is Ultrasoft + core correction, Zval = 12.0
     Generated by new atomic code, or converted to UPF format
     Using radial grid of  851 points,  6 beta functions with: 
                l(1) =   0
                l(2) =   0
                l(3) =   1
                l(4) =   1
                l(5) =   2
                l(6) =   2
     Q(r) pseudized with  6 coefficients,  rinner =    1.000   1.000   1.000
                                                       1.000   1.000

     PseudoPot. # 3 for O  read from file:
     /scratch/11018/zhc/assisgnment1/CaTiO3/O_LDA.UPF
     MD5 check sum: 194b818514d2a7dbb603bb78519a4f40
     Pseudo is Ultrasoft + core correction, Zval =  6.0
     Generated by new atomic code, or converted to UPF format
     Using radial grid of  737 points,  5 beta functions with: 
                l(1) =   0
                l(2) =   0
                l(3) =   1
                l(4) =   1
                l(5) =   2
     Q(r) pseudized with  8 coefficients,  rinner =    0.900   0.900   0.900
                                                       0.900   0.900

     atomic species   valence    mass     pseudopotential
     Ca               10.00    40.07800     Ca( 1.00)
     Ti               12.00    47.88000     Ti( 1.00)
     O                 6.00    16.00000     O ( 1.00)

     48 Sym. Ops., with inversion, found



   Cartesian axes

     site n.     atom                  positions (alat units)
         1        Ca     tau(   1) = (   0.0000000   0.0000000   0.0000000  )
         2        Ti     tau(   2) = (   0.5000000   0.5000000   0.5000000  )
         3        O      tau(   3) = (   0.5000000   0.5000000   0.0000000  )
         4        O      tau(   4) = (   0.5000000   0.0000000   0.5000000  )
         5        O      tau(   5) = (   0.0000000   0.5000000   0.5000000  )

     number of k points=     4
                       cart. coord. in units 2pi/alat
        k(    1) = (   0.0000000   0.0000000   0.0000000), wk =   0.0740741
        k(    2) = (   0.0000000   0.0000000   0.3333333), wk =   0.4444444
        k(    3) = (   0.0000000   0.3333333   0.3333333), wk =   0.8888889
        k(    4) = (   0.3333333   0.3333333   0.3333333), wk =   0.5925926

     Dense  grid:    75037 G-vectors     FFT dimensions: (  54,  54,  54)

     Smooth grid:    19093 G-vectors     FFT dimensions: (  36,  36,  36)

     Estimated max dynamical RAM per process >      33.77 MB

     Estimated total dynamical RAM >     337.71 MB

     Check: negative core charge=   -0.000005

     Initial potential from superposition of free atoms

     starting charge      38.9952, renormalised to      40.0000

     negative rho (up, down):  5.762E-04 0.000E+00
     Starting wfcs are   32 randomized atomic wfcs

     total cpu time spent up to now is        0.6 secs

     Self-consistent Calculation

     iteration #  1     ecut=    50.00 Ry     beta= 0.70
     CG style diagonalization
     ethr =  1.00E-02,  avg # of iterations =  2.2

     negative rho (up, down):  1.252E-03 0.000E+00

     total cpu time spent up to now is        0.7 secs

     total energy              =    -291.28276178 Ry
     estimated scf accuracy    <       0.84443894 Ry

     iteration #  2     ecut=    50.00 Ry     beta= 0.70
     CG style diagonalization
     ethr =  2.11E-03,  avg # of iterations =  5.0

     negative rho (up, down):  4.014E-04 0.000E+00

     total cpu time spent up to now is        0.9 secs

     total energy              =    -290.78140269 Ry
     estimated scf accuracy    <       5.23660343 Ry

     iteration #  3     ecut=    50.00 Ry     beta= 0.70
     CG style diagonalization
     ethr =  2.11E-03,  avg # of iterations =  4.4

     negative rho (up, down):  4.497E-04 0.000E+00

     total cpu time spent up to now is        1.1 secs

     total energy              =    -291.72088710 Ry
     estimated scf accuracy    <       0.16085369 Ry

     iteration #  4     ecut=    50.00 Ry     beta= 0.70
     CG style diagonalization
     ethr =  4.02E-04,  avg # of iterations =  3.5

     negative rho (up, down):  6.191E-04 0.000E+00

     total cpu time spent up to now is        1.3 secs

     total energy              =    -291.73519820 Ry
     estimated scf accuracy    <       0.02616989 Ry

     iteration #  5     ecut=    50.00 Ry     beta= 0.70
     CG style diagonalization
     ethr =  6.54E-05,  avg # of iterations =  3.5

     negative rho (up, down):  6.359E-04 0.000E+00

     total cpu time spent up to now is        1.5 secs

     total energy              =    -291.74178694 Ry
     estimated scf accuracy    <       0.00024646 Ry

     iteration #  6     ecut=    50.00 Ry     beta= 0.70
     CG style diagonalization
     ethr =  6.16E-07,  avg # of iterations =  4.4

     negative rho (up, down):  6.248E-04 0.000E+00

     total cpu time spent up to now is        1.7 secs

     total energy              =    -291.74229155 Ry
     estimated scf accuracy    <       0.00011735 Ry

     iteration #  7     ecut=    50.00 Ry     beta= 0.70
     CG style diagonalization
     ethr =  2.93E-07,  avg # of iterations =  3.7

     negative rho (up, down):  6.244E-04 0.000E+00

     total cpu time spent up to now is        1.8 secs

     total energy              =    -291.74231750 Ry
     estimated scf accuracy    <       0.00000652 Ry

     iteration #  8     ecut=    50.00 Ry     beta= 0.70
     CG style diagonalization
     ethr =  1.63E-08,  avg # of iterations =  3.9

     negative rho (up, down):  6.231E-04 0.000E+00

     total cpu time spent up to now is        2.0 secs

     total energy              =    -291.74231997 Ry
     estimated scf accuracy    <       0.00000086 Ry

     iteration #  9     ecut=    50.00 Ry     beta= 0.70
     CG style diagonalization
     ethr =  2.14E-09,  avg # of iterations =  4.0

     negative rho (up, down):  6.232E-04 0.000E+00

     total cpu time spent up to now is        2.2 secs

     total energy              =    -291.74232038 Ry
     estimated scf accuracy    <       0.00000007 Ry

     iteration # 10     ecut=    50.00 Ry     beta= 0.70
     CG style diagonalization
     ethr =  1.72E-10,  avg # of iterations =  3.9

     negative rho (up, down):  6.232E-04 0.000E+00

     total cpu time spent up to now is        2.4 secs

     total energy              =    -291.74232039 Ry
     estimated scf accuracy    <       0.00000002 Ry

     iteration # 11     ecut=    50.00 Ry     beta= 0.70
     CG style diagonalization
     ethr =  5.47E-11,  avg # of iterations =  3.6

     negative rho (up, down):  6.234E-04 0.000E+00

     total cpu time spent up to now is        2.6 secs

     End of self-consistent calculation

          k = 0.0000 0.0000 0.0000 (  2373 PWs)   bands (ev):

   -47.2469 -30.2044 -23.8327 -23.8327 -23.8327 -11.3996 -11.3996 -11.3996
    -8.5421  -7.4265  -7.4265   5.5882   5.5882   5.5882   7.5248   7.5248
     7.5248   8.2266   8.2266   8.2266

          k = 0.0000 0.0000 0.3333 (  2376 PWs)   bands (ev):

   -47.2460 -30.2001 -23.8857 -23.8301 -23.8301 -11.5758 -11.3913 -11.3913
    -8.0615  -7.3959  -7.1917   4.6096   5.6871   5.6871   6.3234   6.4911
     6.4911   6.9035   7.9811   7.9811

          k = 0.0000 0.3333 0.3333 (  2390 PWs)   bands (ev):

   -47.2451 -30.1953 -23.8842 -23.8838 -23.8277 -11.5305 -11.4979 -11.3816
    -7.8137  -7.1818  -7.0640   4.2602   4.7405   4.7931   5.7120   6.1147
     6.7135   6.8869   7.2473   8.2146

          k = 0.3333 0.3333 0.3333 (  2365 PWs)   bands (ev):

   -47.2443 -30.1908 -23.8817 -23.8812 -23.8812 -11.4946 -11.4660 -11.4660
    -7.3644  -7.1081  -7.1081   4.2610   4.7028   4.7028   4.8911   4.9272
     4.9272   8.0550   8.0550   8.3796

     highest occupied level (ev):     8.3796

!    total energy              =    -291.74232039 Ry
     estimated scf accuracy    <          3.4E-09 Ry

     The total energy is the sum of the following terms:
     one-electron contribution =     -93.18799625 Ry
     hartree contribution      =      65.80030093 Ry
     xc contribution           =     -51.21006069 Ry
     ewald contribution        =    -213.14456438 Ry

     convergence has been achieved in  11 iterations

     negative rho (up, down):  6.234E-04 0.000E+00

     Forces acting on atoms (cartesian axes, Ry/au):

     atom    1 type  1   force =     0.00000000    0.00000000    0.00000000
     atom    2 type  2   force =     0.00000000    0.00000000    0.00000000
     atom    3 type  3   force =     0.00000000    0.00000000    0.00000000
     atom    4 type  3   force =     0.00000000    0.00000000    0.00000000
     atom    5 type  3   force =     0.00000000    0.00000000    0.00000000

     Total force =     0.000000     Total SCF correction =     0.000000


     Computing stress (Cartesian axis) and pressure


     negative rho (up, down):  6.234E-04 0.000E+00
          total   stress  (Ry/bohr**3)                   (kbar)     P=     -118.10
  -0.00080280   0.00000000   0.00000000         -118.10        0.00        0.00
   0.00000000  -0.00080280   0.00000000            0.00     -118.10        0.00
   0.00000000   0.00000000  -0.00080280            0.00        0.00     -118.10


     Writing all to output data dir ./CTO.save/ :
     XML data file, charge density, pseudopotentials, collected wavefunctions
 
     init_run     :      0.23s CPU      0.31s WALL (       1 calls)
     electrons    :      1.76s CPU      2.02s WALL (       1 calls)
     forces       :      0.06s CPU      0.06s WALL (       1 calls)
     stress       :      0.31s CPU      0.32s WALL (       1 calls)

     Called by init_run:
     wfcinit      :      0.02s CPU      0.04s WALL (       1 calls)
     potinit      :      0.01s CPU      0.02s WALL (       1 calls)
     hinit0       :      0.11s CPU      0.14s WALL (       1 calls)

     Called by electrons:
     c_bands      :      0.78s CPU      0.85s WALL (      11 calls)
     sum_band     :      0.56s CPU      0.60s WALL (      11 calls)
     v_of_rho     :      0.02s CPU      0.02s WALL (      12 calls)
     newd         :      0.42s CPU      0.55s WALL (      12 calls)
     mix_rho      :      0.01s CPU      0.02s WALL (      11 calls)

     Called by c_bands:
     init_us_2    :      0.01s CPU      0.01s WALL (     100 calls)
     init_us_2:cp :      0.01s CPU      0.01s WALL (     100 calls)
     ccgdiagg     :      0.67s CPU      0.73s WALL (      44 calls)
     wfcrot       :      0.12s CPU      0.15s WALL (      44 calls)

     Called by *cgdiagg:
     h_psi        :      0.46s CPU      0.50s WALL (    2604 calls)
     s_psi        :      0.06s CPU      0.07s WALL (    5164 calls)

     Called by h_psi:
     h_psi:calbec :      0.07s CPU      0.08s WALL (    2604 calls)
     vloc_psi     :      0.33s CPU      0.35s WALL (    2604 calls)
     add_vuspsi   :      0.04s CPU      0.04s WALL (    2604 calls)
     hs_1psi      :      0.41s CPU      0.44s WALL (    2560 calls)
     s_1psi       :      0.10s CPU      0.11s WALL (    2560 calls)

     General routines
     calbec       :      0.13s CPU      0.14s WALL (    5228 calls)
     fft          :      0.02s CPU      0.04s WALL (      78 calls)
     ffts         :      0.00s CPU      0.00s WALL (      23 calls)
     fftw         :      0.28s CPU      0.30s WALL (    7856 calls)
     interpolate  :      0.01s CPU      0.01s WALL (      12 calls)
 
     Parallel routines
 
     PWSCF        :      2.54s CPU      3.10s WALL

 
   This run was terminated on:  16:48:34  19Sep2025            

=------------------------------------------------------------------------------=
   JOB DONE.
=------------------------------------------------------------------------------=
TACC:  Shutdown complete. Exiting. 
