TACC:  Starting up job 2547141 
TACC:  Starting parallel tasks... 

     Program PWSCF v.7.3 starts on 13Nov2025 at  0:32:36 

     This program is part of the open-source Quantum ESPRESSO suite
     for quantum simulation of materials; please cite
         "P. Giannozzi et al., J. Phys.:Condens. Matter 21 395502 (2009);
         "P. Giannozzi et al., J. Phys.:Condens. Matter 29 465901 (2017);
         "P. Giannozzi et al., J. Chem. Phys. 152 154105 (2020);
          URL http://www.quantum-espresso.org", 
     in publications or presentations arising from this work. More details at
     http://www.quantum-espresso.org/quote

     Parallel version (MPI & OpenMP), running on      10 processor cores
     Number of MPI processes:                10
     Threads/MPI process:                     1

     MPI processes distributed on     1 nodes
     187297 MiB available memory on the printing compute node when the environment starts
 
     Waiting for input...
     Reading input from standard input
Warning: card &CELL ignored
Warning: card  CELL_DYNAMICS = 'BFGS', ignored
Warning: card  PRESS=0.D0, ignored
Warning: card / ignored

     Current dimensions of program PWSCF are:
     Max number of different atomic species (ntypx) = 10
     Max number of k-points (npk) =  40000
     Max angular momentum in pseudopotentials (lmaxx) =  4
     Message from routine setup:
     using ibrav=0 with symmetry is DISCOURAGED, use correct ibrav instead
 
     R & G space division:  proc/nbgrp/npool/nimage =      10
     Subspace diagonalization in iterative solution of the eigenvalue problem:
     a serial algorithm will be used

 
     Parallelization info
     --------------------
     sticks:   dense  smooth     PW     G-vecs:    dense   smooth      PW
     Min         345     136     40                16067     4064     641
     Max         346     137     41                16070     4067     645
     Sum        3457    1369    405               160685    40653    6419
 
     Using Slab Decomposition
 


     bravais-lattice index     =            0
     lattice parameter (alat)  =       7.3699  a.u.
     unit-cell volume          =     420.8329 (a.u.)^3
     number of atoms/cell      =            5
     number of atomic types    =            3
     number of electrons       =        44.00
     number of Kohn-Sham states=           22
     kinetic-energy cutoff     =      80.0000  Ry
     charge density cutoff     =     800.0000  Ry
     scf convergence threshold =      1.0E-08
     mixing beta               =       0.7000
     number of iterations used =            8  plain     mixing
     energy convergence thresh.=      1.0E-04
     force convergence thresh. =      1.0E-03
     Exchange-correlation= SLA  PZ   NOGX NOGC
                           (   1   1   0   0   0   0   0)
     nstep                     =           50


     celldm(1)=   7.369932  celldm(2)=   0.000000  celldm(3)=   0.000000
     celldm(4)=   0.000000  celldm(5)=   0.000000  celldm(6)=   0.000000

     crystal axes: (cart. coord. in units of alat)
               a(1) = (   1.000000   0.000000   0.000000 )  
               a(2) = (   0.000000   1.000000   0.000000 )  
               a(3) = (   0.000000   0.000000   1.051282 )  

     reciprocal axes: (cart. coord. in units 2 pi/alat)
               b(1) = (  1.000000  0.000000  0.000000 )  
               b(2) = (  0.000000  1.000000  0.000000 )  
               b(3) = (  0.000000  0.000000  0.951220 )  


     PseudoPot. # 1 for Pb read from file:
     /scratch/11018/zhc/assisgnment3/input_files/Pb_LDA.UPF
     MD5 check sum: 062a37469794d955244864f8fe2e5624
     Pseudo is Ultrasoft + core correction, Zval = 14.0
     Generated by new atomic code, or converted to UPF format
     Using radial grid of  899 points,  6 beta functions with: 
                l(1) =   0
                l(2) =   0
                l(3) =   1
                l(4) =   1
                l(5) =   2
                l(6) =   2
     Q(r) pseudized with  6 coefficients,  rinner =    1.000   1.000   1.000
                                                       1.000   1.000

     PseudoPot. # 2 for Ti read from file:
     /scratch/11018/zhc/assisgnment3/input_files/Ti_LDA.UPF
     MD5 check sum: 0d9f225c038fe889ca2a701dcc8d72cb
     Pseudo is Ultrasoft + core correction, Zval = 12.0
     Generated by new atomic code, or converted to UPF format
     Using radial grid of  851 points,  6 beta functions with: 
                l(1) =   0
                l(2) =   0
                l(3) =   1
                l(4) =   1
                l(5) =   2
                l(6) =   2
     Q(r) pseudized with  6 coefficients,  rinner =    1.000   1.000   1.000
                                                       1.000   1.000

     PseudoPot. # 3 for O  read from file:
     /scratch/11018/zhc/assisgnment3/input_files/O_LDA.UPF
     MD5 check sum: 194b818514d2a7dbb603bb78519a4f40
     Pseudo is Ultrasoft + core correction, Zval =  6.0
     Generated by new atomic code, or converted to UPF format
     Using radial grid of  737 points,  5 beta functions with: 
                l(1) =   0
                l(2) =   0
                l(3) =   1
                l(4) =   1
                l(5) =   2
     Q(r) pseudized with  8 coefficients,  rinner =    0.900   0.900   0.900
                                                       0.900   0.900

     atomic species   valence    mass     pseudopotential
     Pb               14.00   207.20000     Pb( 1.00)
     Ti               12.00    47.88000     Ti( 1.00)
     O                 6.00    16.00000     O ( 1.00)

      8 Sym. Ops. (no inversion) found



   Cartesian axes

     site n.     atom                  positions (alat units)
         1        Pb     tau(   1) = (   0.0000000   0.0000000   1.0580339  )
         2        Ti     tau(   2) = (   0.5000000   0.5000000   0.5681377  )
         3        O      tau(   3) = (   0.5000000   0.5000000   0.1036357  )
         4        O      tau(   4) = (   0.5000000   0.0000000   0.6422586  )
         5        O      tau(   5) = (   0.0000000   0.5000000   0.6422586  )

     number of k points=    30
                       cart. coord. in units 2pi/alat
        k(    1) = (   0.0000000   0.0000000   0.0000000), wk =   0.0138889
        k(    2) = (   0.0000000   0.0000000   0.2378049), wk =   0.0277778
        k(    3) = (   0.0000000   0.0000000  -0.4756098), wk =   0.0138889
        k(    4) = (   0.0000000   0.1666667   0.0000000), wk =   0.0555556
        k(    5) = (   0.0000000   0.1666667   0.2378049), wk =   0.1111111
        k(    6) = (   0.0000000   0.1666667  -0.4756098), wk =   0.0555556
        k(    7) = (   0.0000000   0.3333333   0.0000000), wk =   0.0555556
        k(    8) = (   0.0000000   0.3333333   0.2378049), wk =   0.1111111
        k(    9) = (   0.0000000   0.3333333  -0.4756098), wk =   0.0555556
        k(   10) = (   0.0000000  -0.5000000   0.0000000), wk =   0.0277778
        k(   11) = (   0.0000000  -0.5000000   0.2378049), wk =   0.0555556
        k(   12) = (   0.0000000  -0.5000000  -0.4756098), wk =   0.0277778
        k(   13) = (   0.1666667   0.1666667   0.0000000), wk =   0.0555556
        k(   14) = (   0.1666667   0.1666667   0.2378049), wk =   0.1111111
        k(   15) = (   0.1666667   0.1666667  -0.4756098), wk =   0.0555556
        k(   16) = (   0.1666667   0.3333333   0.0000000), wk =   0.1111111
        k(   17) = (   0.1666667   0.3333333   0.2378049), wk =   0.2222222
        k(   18) = (   0.1666667   0.3333333  -0.4756098), wk =   0.1111111
        k(   19) = (   0.1666667  -0.5000000   0.0000000), wk =   0.0555556
        k(   20) = (   0.1666667  -0.5000000   0.2378049), wk =   0.1111111
        k(   21) = (   0.1666667  -0.5000000  -0.4756098), wk =   0.0555556
        k(   22) = (   0.3333333   0.3333333   0.0000000), wk =   0.0555556
        k(   23) = (   0.3333333   0.3333333   0.2378049), wk =   0.1111111
        k(   24) = (   0.3333333   0.3333333  -0.4756098), wk =   0.0555556
        k(   25) = (   0.3333333  -0.5000000   0.0000000), wk =   0.0555556
        k(   26) = (   0.3333333  -0.5000000   0.2378049), wk =   0.1111111
        k(   27) = (   0.3333333  -0.5000000  -0.4756098), wk =   0.0555556
        k(   28) = (  -0.5000000  -0.5000000   0.0000000), wk =   0.0138889
        k(   29) = (  -0.5000000  -0.5000000   0.2378049), wk =   0.0277778
        k(   30) = (  -0.5000000  -0.5000000  -0.4756098), wk =   0.0138889

     Dense  grid:   160685 G-vectors     FFT dimensions: (  72,  72,  72)

     Smooth grid:    40653 G-vectors     FFT dimensions: (  45,  45,  45)

     Estimated max dynamical RAM per process >      72.38 MB

     Estimated total dynamical RAM >     723.80 MB

     Check: negative core charge=   -0.000002

     Initial potential from superposition of free atoms

     starting charge      42.9982, renormalised to      44.0000

     negative rho (up, down):  1.703E-02 0.000E+00
     Starting wfcs are   31 randomized atomic wfcs

     total cpu time spent up to now is        1.1 secs

     Self-consistent Calculation

     iteration #  1     ecut=    80.00 Ry     beta= 0.70
     CG style diagonalization
     ethr =  1.00E-02,  avg # of iterations =  2.1

     negative rho (up, down):  1.438E-02 0.000E+00

     total cpu time spent up to now is        2.2 secs

     total energy              =    -380.04365428 Ry
     estimated scf accuracy    <       1.03954093 Ry

     iteration #  2     ecut=    80.00 Ry     beta= 0.70
     CG style diagonalization
     ethr =  2.36E-03,  avg # of iterations =  4.9

     negative rho (up, down):  1.457E-02 0.000E+00

     total cpu time spent up to now is        4.1 secs

     total energy              =    -379.56308877 Ry
     estimated scf accuracy    <       5.09308122 Ry

     iteration #  3     ecut=    80.00 Ry     beta= 0.70
     CG style diagonalization
     ethr =  2.36E-03,  avg # of iterations =  4.5

     negative rho (up, down):  1.533E-02 0.000E+00

     total cpu time spent up to now is        5.8 secs

     total energy              =    -380.53942422 Ry
     estimated scf accuracy    <       0.31265250 Ry

     iteration #  4     ecut=    80.00 Ry     beta= 0.70
     CG style diagonalization
     ethr =  7.11E-04,  avg # of iterations =  3.5

     negative rho (up, down):  1.540E-02 0.000E+00

     total cpu time spent up to now is        7.1 secs

     total energy              =    -380.55503860 Ry
     estimated scf accuracy    <       0.07770770 Ry

     iteration #  5     ecut=    80.00 Ry     beta= 0.70
     CG style diagonalization
     ethr =  1.77E-04,  avg # of iterations =  3.7

     negative rho (up, down):  1.541E-02 0.000E+00

     total cpu time spent up to now is        8.6 secs

     total energy              =    -380.56908448 Ry
     estimated scf accuracy    <       0.00669795 Ry

     iteration #  6     ecut=    80.00 Ry     beta= 0.70
     CG style diagonalization
     ethr =  1.52E-05,  avg # of iterations =  4.2

     negative rho (up, down):  1.540E-02 0.000E+00

     total cpu time spent up to now is       10.2 secs

     total energy              =    -380.57331002 Ry
     estimated scf accuracy    <       0.00622589 Ry

     iteration #  7     ecut=    80.00 Ry     beta= 0.70
     CG style diagonalization
     ethr =  1.41E-05,  avg # of iterations =  3.1

     negative rho (up, down):  1.540E-02 0.000E+00

     total cpu time spent up to now is       11.4 secs

     total energy              =    -380.57260556 Ry
     estimated scf accuracy    <       0.00329794 Ry

     iteration #  8     ecut=    80.00 Ry     beta= 0.70
     CG style diagonalization
     ethr =  7.50E-06,  avg # of iterations =  3.6

     negative rho (up, down):  1.541E-02 0.000E+00

     total cpu time spent up to now is       12.8 secs

     total energy              =    -380.57313774 Ry
     estimated scf accuracy    <       0.00006093 Ry

     iteration #  9     ecut=    80.00 Ry     beta= 0.70
     CG style diagonalization
     ethr =  1.38E-07,  avg # of iterations =  5.2

     negative rho (up, down):  1.544E-02 0.000E+00

     total cpu time spent up to now is       14.8 secs

     total energy              =    -380.57320144 Ry
     estimated scf accuracy    <       0.00000266 Ry

     iteration # 10     ecut=    80.00 Ry     beta= 0.70
     CG style diagonalization
     ethr =  6.05E-09,  avg # of iterations =  7.7

     negative rho (up, down):  1.552E-02 0.000E+00

     total cpu time spent up to now is       17.6 secs

     total energy              =    -380.57321340 Ry
     estimated scf accuracy    <       0.00000226 Ry

     iteration # 11     ecut=    80.00 Ry     beta= 0.70
     CG style diagonalization
     ethr =  5.13E-09,  avg # of iterations =  4.0

     negative rho (up, down):  1.554E-02 0.000E+00

     total cpu time spent up to now is       19.2 secs

     total energy              =    -380.57321365 Ry
     estimated scf accuracy    <       0.00000071 Ry

     iteration # 12     ecut=    80.00 Ry     beta= 0.70
     CG style diagonalization
     ethr =  1.61E-09,  avg # of iterations =  5.4

     negative rho (up, down):  1.554E-02 0.000E+00

     total cpu time spent up to now is       21.2 secs

     total energy              =    -380.57321412 Ry
     estimated scf accuracy    <       0.00000024 Ry

     iteration # 13     ecut=    80.00 Ry     beta= 0.70
     CG style diagonalization
     ethr =  5.34E-10,  avg # of iterations =  5.3

     negative rho (up, down):  1.554E-02 0.000E+00

     total cpu time spent up to now is       23.2 secs

     End of self-consistent calculation

          k = 0.0000 0.0000 0.0000 (  5115 PWs)   bands (ev):

   -45.8574 -22.4927 -22.4306 -22.4306  -7.5130  -6.4336  -6.2004  -5.0271
    -5.0271  -4.9922  -4.8707  -4.7661   4.2241   6.3077   6.3077   6.6262
     8.2746   8.2746   8.4911   8.7790   8.9396   8.9396

          k = 0.0000 0.0000 0.2378 (  5102 PWs)   bands (ev):

   -45.8571 -22.5122 -22.4298 -22.4298  -7.3201  -6.3747  -6.1426  -5.0423
    -5.0423  -4.9909  -4.8629  -4.8374   3.4623   6.3770   6.3770   6.7881
     8.0080   8.0080   8.4071   8.8275   9.0458   9.0458

          k = 0.0000 0.0000-0.4756 (  5102 PWs)   bands (ev):

   -45.8568 -22.5316 -22.4290 -22.4290  -7.1095  -6.3099  -6.0928  -5.0574
    -5.0574  -4.9896  -4.9145  -4.8571   2.9645   6.1479   6.4334   6.4334
     7.8242   7.8242   8.3268   9.1158   9.1158   9.9984

          k = 0.0000 0.1667 0.0000 (  5099 PWs)   bands (ev):

   -45.8570 -22.4920 -22.4477 -22.4299  -7.3781  -6.4043  -6.1715  -5.0478
    -5.0258  -5.0049  -4.8757  -4.7569   3.7956   6.3510   6.4166   6.6730
     8.1861   8.2983   8.4914   8.5696   8.6708   9.0381

          k = 0.0000 0.1667 0.2378 (  5086 PWs)   bands (ev):

   -45.8568 -22.5114 -22.4469 -22.4291  -7.2010  -6.3611  -6.1084  -5.0459
    -5.0414  -5.0041  -4.8728  -4.7935   3.2509   6.1629   6.4932   6.8885
     7.6642   7.9988   8.2718   8.6926   8.7199   9.3662

          k = 0.0000 0.1667-0.4756 (  5122 PWs)   bands (ev):

   -45.8565 -22.5306 -22.4461 -22.4283  -7.0170  -6.3121  -6.0442  -5.0570
    -5.0414  -5.0034  -4.8806  -4.8266   2.8359   5.8585   6.5525   6.5786
     7.4666   7.8270   8.3379   8.7470   8.7943   9.9275

          k = 0.0000 0.3333 0.0000 (  5077 PWs)   bands (ev):

   -45.8564 -22.4909 -22.4815 -22.4284  -7.0845  -6.3413  -6.1276  -5.0808
    -5.0304  -5.0230  -4.8734  -4.7651   3.2188   5.9805   6.6727   6.7024
     7.8545   7.8759   8.3457   8.4081   8.7756   9.6134

          k = 0.0000 0.3333 0.2378 (  5089 PWs)   bands (ev):

   -45.8561 -22.5097 -22.4809 -22.4276  -6.9702  -6.3023  -6.0448  -5.0510
    -5.0397  -5.0304  -4.8698  -4.7392   2.8950   5.8684   6.5587   6.7996
     7.3092   7.7476   7.8608   8.4051   8.9368   9.6817

          k = 0.0000 0.3333-0.4756 (  5100 PWs)   bands (ev):

   -45.8559 -22.5286 -22.4799 -22.4268  -6.8854  -6.2399  -5.9346  -5.0561
    -5.0306  -5.0129  -4.9065  -4.6901   2.6070   5.5744   6.3162   6.8545
     7.2008   7.3657   7.6889   8.4119   9.3281   9.5160

          k = 0.0000-0.5000 0.0000 (  5088 PWs)   bands (ev):

   -45.8561 -22.4991 -22.4896 -22.4277  -6.9219  -6.2945  -6.1291  -5.0962
    -5.0429  -5.0216  -4.8472  -4.7992   3.0107   5.6182   6.9601   6.9705
     7.3497   7.4684   8.2688   8.4485   8.8117  10.3560

          k = 0.0000-0.5000 0.2378 (  5082 PWs)   bands (ev):

   -45.8558 -22.5086 -22.4979 -22.4269  -6.8700  -6.2233  -6.0367  -5.0637
    -5.0435  -5.0387  -4.8402  -4.7353   2.7517   5.5903   6.5915   6.8579
     7.1645   7.3162   7.9700   8.3934   8.9299   9.8618

          k = 0.0000-0.5000-0.4756 (  5080 PWs)   bands (ev):

   -45.8555 -22.5275 -22.4968 -22.4261  -6.8553  -6.1469  -5.8826  -5.0556
    -5.0441  -5.0238  -4.8931  -4.6341   2.5126   5.4245   6.0397   6.9192
     7.1685   7.3706   7.3745   8.3571   9.1472   9.6530

          k = 0.1667 0.1667 0.0000 (  5087 PWs)   bands (ev):

   -45.8567 -22.4914 -22.4471 -22.4468  -7.2458  -6.3740  -6.1640  -5.0533
    -5.0399  -5.0071  -4.8544  -4.7481   3.4994   6.2925   6.5221   6.7211
     7.7670   7.8511   8.5442   8.5675   8.8868   9.2658

          k = 0.1667 0.1667 0.2378 (  5097 PWs)   bands (ev):

   -45.8564 -22.5106 -22.4462 -22.4460  -7.0797  -6.3502  -6.1016  -5.0558
    -5.0353  -5.0004  -4.8458  -4.7624   3.1378   6.1079   6.1886   6.8516
     7.5504   7.5528   8.3748   8.7467   8.9715   9.3177

          k = 0.1667 0.1667-0.4756 (  5090 PWs)   bands (ev):

   -45.8562 -22.5297 -22.4453 -22.4452  -6.9137  -6.3261  -6.0289  -5.0669
    -5.0166  -4.9774  -4.8534  -4.7819   2.8090   5.9086   5.9190   6.5854
     7.4561   7.4706   8.2676   8.8168   9.0315   9.6355

          k = 0.1667 0.3333 0.0000 (  5070 PWs)   bands (ev):

   -45.8561 -22.4902 -22.4806 -22.4454  -6.9612  -6.3123  -6.1633  -5.0756
    -5.0302  -4.9905  -4.8316  -4.7557   3.0305   5.9851   6.5405   6.8251
     7.2114   7.8044   8.0608   8.7214   8.8993   9.6943

          k = 0.1667 0.3333 0.2378 (  5093 PWs)   bands (ev):

   -45.8558 -22.5089 -22.4800 -22.4446  -6.8444  -6.3055  -6.0941  -5.0537
    -5.0307  -4.9670  -4.8137  -4.7152   2.9029   5.8353   6.0047   6.4892
     6.9295   7.5761   8.4102   8.7016   9.0260   9.4111

          k = 0.1667 0.3333-0.4756 (  5082 PWs)   bands (ev):

   -45.8555 -22.5278 -22.4791 -22.4438  -6.7627  -6.2854  -5.9897  -5.0506
    -5.0079  -4.9281  -4.8260  -4.6643   2.7382   5.5161   5.9215   6.2223
     6.4317   7.4288   8.5143   8.7399   8.9212   9.4494

          k = 0.1667-0.5000 0.0000 (  5062 PWs)   bands (ev):

   -45.8558 -22.4981 -22.4888 -22.4446  -6.8051  -6.2675  -6.1862  -5.0787
    -5.0231  -4.9686  -4.8123  -4.7903   2.8441   5.6347   6.6963   6.8505
     7.1892   7.4651   7.9756   8.7810   8.8790   9.9762

          k = 0.1667-0.5000 0.2378 (  5082 PWs)   bands (ev):

   -45.8555 -22.5078 -22.4970 -22.4438  -6.7438  -6.2364  -6.1150  -5.0525
    -5.0185  -4.9444  -4.7951  -4.7086   2.7940   5.5962   5.9121   6.2777
     6.8764   7.7194   8.1789   8.7164   9.0174   9.3827

          k = 0.1667-0.5000-0.4756 (  5112 PWs)   bands (ev):

   -45.8552 -22.5267 -22.4960 -22.4430  -6.7322  -6.2067  -5.9750  -5.0459
    -4.9812  -4.9208  -4.8105  -4.6089   2.7036   5.3940   5.7823   5.8875
     6.3059   7.5403   8.3017   8.6577   8.6652   9.6610

          k = 0.3333 0.3333 0.0000 (  5081 PWs)   bands (ev):

   -45.8554 -22.4890 -22.4792 -22.4786  -6.7174  -6.2549  -6.2167  -5.0580
    -5.0124  -4.9223  -4.7590  -4.7526   2.6717   5.9491   6.0848   6.9498
     7.0871   7.2644   7.8802   8.5182   9.3848   9.4059

          k = 0.3333 0.3333 0.2378 (  5082 PWs)   bands (ev):

   -45.8552 -22.5073 -22.4783 -22.4783  -6.5946  -6.3035  -6.1825  -5.0218
    -5.0058  -4.8623  -4.7083  -4.6819   2.8539   5.5997   5.6629   5.9393
     6.6061   7.0670   8.3842   8.9907   9.0198   9.4010

          k = 0.3333 0.3333-0.4756 (  5084 PWs)   bands (ev):

   -45.8549 -22.5260 -22.4775 -22.4775  -6.5330  -6.3483  -6.0768  -4.9995
    -4.9855  -4.7975  -4.6635  -4.6075   3.0205   5.2161   5.2357   5.7013
     6.3520   6.5132   7.6503   9.3559   9.3699   9.5314

          k = 0.3333-0.5000 0.0000 (  5070 PWs)   bands (ev):

   -45.8551 -22.4962 -22.4876 -22.4780  -6.6070  -6.2331  -6.2183  -5.0508
    -4.9909  -4.8604  -4.7919  -4.7187   2.5046   5.6145   6.1202   6.7800
     7.3017   7.4046   7.4994   8.4936   9.0786   9.5726

          k = 0.3333-0.5000 0.2378 (  5068 PWs)   bands (ev):

   -45.8549 -22.5062 -22.4953 -22.4775  -6.4876  -6.2658  -6.2386  -5.0138
    -4.9805  -4.7724  -4.7111  -4.6493   2.7974   5.4973   5.5741   5.6826
     6.3894   7.1409   7.9043   8.9872   9.0182   9.5533

          k = 0.3333-0.5000-0.4756 (  5072 PWs)   bands (ev):

   -45.8546 -22.5250 -22.4943 -22.4767  -6.4818  -6.3096  -6.1148  -4.9857
    -4.9629  -4.7092  -4.6301  -4.5548   3.1663   4.9604   5.1463   5.4570
     6.1409   6.5283   6.8809   9.4557   9.5251   9.6828

          k =-0.5000-0.5000 0.0000 (  5052 PWs)   bands (ev):

   -45.8548 -22.4953 -22.4953 -22.4863  -6.5569  -6.1965  -6.1965  -5.0412
    -4.9491  -4.8094  -4.8094  -4.6715   2.3354   5.4595   5.9627   6.9991
     6.9991   7.5185   7.5185   8.2482   8.5812   9.8300

          k =-0.5000-0.5000 0.2378 (  5080 PWs)   bands (ev):

   -45.8546 -22.5052 -22.4944 -22.4944  -6.3668  -6.2816  -6.2816  -5.0031
    -4.9473  -4.6710  -4.6710  -4.6376   2.7452   5.4130   5.6166   5.6166
     5.9688   7.0816   7.2558   9.0190   9.0190   9.8145

          k =-0.5000-0.5000-0.4756 (  5048 PWs)   bands (ev):

   -45.8543 -22.5240 -22.4935 -22.4935  -6.3551  -6.3551  -6.1726  -4.9649
    -4.9454  -4.5927  -4.5421  -4.5421   3.4110   4.9826   4.9826   5.2901
     5.8877   5.9750   6.2464   9.6936   9.6936   9.7991

     highest occupied level (ev):    10.3560

!    total energy              =    -380.57321430 Ry
     estimated scf accuracy    <          2.3E-09 Ry

     The total energy is the sum of the following terms:
     one-electron contribution =     -84.08780608 Ry
     hartree contribution      =      71.17138542 Ry
     xc contribution           =    -102.54263419 Ry
     ewald contribution        =    -265.11415945 Ry

     convergence has been achieved in  13 iterations

     negative rho (up, down):  1.554E-02 0.000E+00

     Forces acting on atoms (cartesian axes, Ry/au):

     atom    1 type  1   force =     0.00000000    0.00000000   -0.00780329
     atom    2 type  2   force =     0.00000000    0.00000000   -0.01236608
     atom    3 type  3   force =     0.00000000    0.00000000    0.02042977
     atom    4 type  3   force =     0.00000000    0.00000000   -0.00013020
     atom    5 type  3   force =     0.00000000    0.00000000   -0.00013020

     Total force =     0.025124     Total SCF correction =     0.000241


     Computing stress (Cartesian axis) and pressure


     negative rho (up, down):  1.554E-02 0.000E+00
          total   stress  (Ry/bohr**3)                   (kbar)     P=      -64.37
  -0.00042613   0.00000000   0.00000000          -62.69        0.00        0.00
   0.00000000  -0.00042613   0.00000000            0.00      -62.69        0.00
   0.00000000   0.00000000  -0.00046041            0.00        0.00      -67.73


     BFGS Geometry Optimization
     Energy error            =      0.0E+00 Ry
     Gradient error          =      2.0E-02 Ry/Bohr

     number of scf cycles    =   1
     number of bfgs steps    =   0

     energy             new  =    -380.5732142971 Ry

     new trust radius        =       0.0204297726 bohr
     new conv_thr            =       0.0000000100 Ry


ATOMIC_POSITIONS (crystal)
Pb               0.0000000000        0.0000000000        1.0054153562
Ti               0.5000000000        0.5000000000        0.5388276359
O                0.5000000000        0.5000000000        0.1012171230
O                0.5000000000        0.0000000000        0.6109120865
O                0.0000000000        0.5000000000        0.6109120865



     Writing config-only to output data dir ./pto_80.save/ :
     XML data file
     NEW-OLD atomic charge density approx. for the potential

     Check: negative core charge=   -0.000002

     negative rho (up, down):  1.563E-02 0.000E+00

     total cpu time spent up to now is       25.5 secs

     Self-consistent Calculation

     iteration #  1     ecut=    80.00 Ry     beta= 0.70
     CG style diagonalization
     c_bands:  1 eigenvalues not converged
     c_bands:  1 eigenvalues not converged
     c_bands:  1 eigenvalues not converged
     c_bands:  1 eigenvalues not converged
     ethr =  1.00E-06,  avg # of iterations =  6.9

     negative rho (up, down):  1.560E-02 0.000E+00

     total cpu time spent up to now is       28.2 secs

     total energy              =    -380.57358405 Ry
     estimated scf accuracy    <       0.00023805 Ry

     iteration #  2     ecut=    80.00 Ry     beta= 0.70
     CG style diagonalization
     ethr =  5.41E-07,  avg # of iterations =  4.7

     negative rho (up, down):  1.561E-02 0.000E+00

     total cpu time spent up to now is       30.0 secs

     total energy              =    -380.57356482 Ry
     estimated scf accuracy    <       0.00066319 Ry

     iteration #  3     ecut=    80.00 Ry     beta= 0.70
     CG style diagonalization
     ethr =  5.41E-07,  avg # of iterations =  4.3

     negative rho (up, down):  1.561E-02 0.000E+00

     total cpu time spent up to now is       31.7 secs

     total energy              =    -380.57369723 Ry
     estimated scf accuracy    <       0.00005287 Ry

     iteration #  4     ecut=    80.00 Ry     beta= 0.70
     CG style diagonalization
     ethr =  1.20E-07,  avg # of iterations =  3.7

     negative rho (up, down):  1.561E-02 0.000E+00

     total cpu time spent up to now is       33.1 secs

     total energy              =    -380.57370923 Ry
     estimated scf accuracy    <       0.00000621 Ry

     iteration #  5     ecut=    80.00 Ry     beta= 0.70
     CG style diagonalization
     ethr =  1.41E-08,  avg # of iterations =  4.2

     negative rho (up, down):  1.561E-02 0.000E+00

     total cpu time spent up to now is       34.8 secs

     total energy              =    -380.57371233 Ry
     estimated scf accuracy    <       0.00000064 Ry

     iteration #  6     ecut=    80.00 Ry     beta= 0.70
     CG style diagonalization
     ethr =  1.46E-09,  avg # of iterations =  4.6

     negative rho (up, down):  1.561E-02 0.000E+00

     total cpu time spent up to now is       36.5 secs

     total energy              =    -380.57371273 Ry
     estimated scf accuracy    <       0.00000030 Ry

     iteration #  7     ecut=    80.00 Ry     beta= 0.70
     CG style diagonalization
     ethr =  6.87E-10,  avg # of iterations =  4.1

     negative rho (up, down):  1.561E-02 0.000E+00

     total cpu time spent up to now is       38.1 secs

     total energy              =    -380.57371281 Ry
     estimated scf accuracy    <       0.00000007 Ry

     iteration #  8     ecut=    80.00 Ry     beta= 0.70
     CG style diagonalization
     ethr =  1.55E-10,  avg # of iterations =  4.6

     negative rho (up, down):  1.561E-02 0.000E+00

     total cpu time spent up to now is       39.9 secs

     End of self-consistent calculation

          k = 0.0000 0.0000 0.0000 (  5115 PWs)   bands (ev):

   -45.8218 -22.4796 -22.3944 -22.3944  -7.5101  -6.4273  -6.2112  -5.0297
    -5.0297  -4.9965  -4.8781  -4.7639   4.2143   6.3114   6.3114   6.6561
     8.2063   8.2063   8.4926   8.7217   8.9484   8.9484

          k = 0.0000 0.0000 0.2378 (  5102 PWs)   bands (ev):

   -45.8215 -22.4992 -22.3937 -22.3937  -7.3143  -6.3682  -6.1558  -5.0448
    -5.0448  -4.9953  -4.8703  -4.8353   3.4481   6.3711   6.3711   6.8034
     7.9652   7.9652   8.4080   8.8091   9.0514   9.0514

          k = 0.0000 0.0000-0.4756 (  5102 PWs)   bands (ev):

   -45.8212 -22.5186 -22.3929 -22.3929  -7.0995  -6.3032  -6.1095  -5.0599
    -5.0599  -4.9940  -4.9126  -4.8645   2.9431   6.1612   6.4146   6.4146
     7.8039   7.8039   8.3274   9.1213   9.1213  10.0016

          k = 0.0000 0.1667 0.0000 (  5099 PWs)   bands (ev):

   -45.8215 -22.4789 -22.4116 -22.3937  -7.3756  -6.3985  -6.1832  -5.0509
    -5.0283  -5.0093  -4.8810  -4.7547   3.7906   6.3533   6.4211   6.6853
     8.1541   8.2315   8.4839   8.5766   8.6508   9.0150

          k = 0.0000 0.1667 0.2378 (  5086 PWs)   bands (ev):

   -45.8212 -22.4983 -22.4108 -22.3929  -7.1955  -6.3555  -6.1226  -5.0486
    -5.0439  -5.0085  -4.8786  -4.7913   3.2411   6.1548   6.4885   6.9008
     7.6417   7.9587   8.2701   8.6765   8.7224   9.3650

          k = 0.0000 0.1667-0.4756 (  5122 PWs)   bands (ev):

   -45.8209 -22.5177 -22.4099 -22.3921  -7.0077  -6.3065  -6.0618  -5.0594
    -5.0437  -5.0077  -4.8861  -4.8250   2.8202   5.8457   6.5347   6.5893
     7.4557   7.8069   8.3445   8.7305   8.7995   9.9348

          k = 0.0000 0.3333 0.0000 (  5077 PWs)   bands (ev):

   -45.8208 -22.4774 -22.4459 -22.3923  -7.0827  -6.3373  -6.1419  -5.0836
    -5.0346  -5.0255  -4.8748  -4.7636   3.2167   5.9888   6.6706   6.7093
     7.8510   7.8836   8.3363   8.3465   8.7401   9.6008

          k = 0.0000 0.3333 0.2378 (  5089 PWs)   bands (ev):

   -45.8205 -22.4966 -22.4449 -22.3915  -6.9649  -6.2995  -6.0615  -5.0536
    -5.0422  -5.0346  -4.8723  -4.7366   2.8912   5.8675   6.5589   6.7981
     7.3042   7.7342   7.8600   8.3757   8.9220   9.6753

          k = 0.0000 0.3333-0.4756 (  5100 PWs)   bands (ev):

   -45.8203 -22.5156 -22.4438 -22.3906  -6.8773  -6.2367  -5.9544  -5.0585
    -5.0349  -5.0152  -4.9093  -4.6876   2.6010   5.5569   6.3288   6.8384
     7.1968   7.3779   7.6798   8.4028   9.2932   9.5287

          k = 0.0000-0.5000 0.0000 (  5088 PWs)   bands (ev):

   -45.8205 -22.4764 -22.4630 -22.3916  -6.9198  -6.2910  -6.1460  -5.0982
    -5.0471  -5.0241  -4.8445  -4.8005   3.0084   5.6345   6.9432   6.9807
     7.3612   7.4753   8.2685   8.3727   8.7747  10.3434

          k = 0.0000-0.5000 0.2378 (  5082 PWs)   bands (ev):

   -45.8202 -22.4955 -22.4619 -22.3907  -6.8644  -6.2202  -6.0571  -5.0655
    -5.0477  -5.0411  -4.8413  -4.7328   2.7496   5.6020   6.5857   6.8490
     7.1751   7.3024   7.9698   8.3508   8.9236   9.8454

          k = 0.0000-0.5000-0.4756 (  5080 PWs)   bands (ev):

   -45.8200 -22.5145 -22.4607 -22.3899  -6.8479  -6.1442  -5.9048  -5.0580
    -5.0483  -5.0253  -4.8943  -4.6317   2.5108   5.4176   6.0409   6.9145
     7.1418   7.3857   7.3879   8.3365   9.1442   9.6271

          k = 0.1667 0.1667 0.0000 (  5087 PWs)   bands (ev):

   -45.8211 -22.4782 -22.4110 -22.4107  -7.2442  -6.3687  -6.1762  -5.0562
    -5.0428  -5.0108  -4.8593  -4.7458   3.4963   6.3010   6.5256   6.7213
     7.7171   7.8503   8.5070   8.5719   8.8931   9.2242

          k = 0.1667 0.1667 0.2378 (  5097 PWs)   bands (ev):

   -45.8209 -22.4975 -22.4101 -22.4099  -7.0750  -6.3448  -6.1166  -5.0589
    -5.0382  -5.0038  -4.8512  -4.7600   3.1302   6.1021   6.1831   6.8545
     7.5383   7.5504   8.3350   8.7437   8.9697   9.3152

          k = 0.1667 0.1667-0.4756 (  5090 PWs)   bands (ev):

   -45.8206 -22.5167 -22.4092 -22.4091  -6.9053  -6.3206  -6.0473  -5.0702
    -5.0203  -4.9794  -4.8595  -4.7792   2.7960   5.8989   5.9039   6.5975
     7.4496   7.4733   8.2390   8.8141   9.0269   9.6430

          k = 0.1667 0.3333 0.0000 (  5070 PWs)   bands (ev):

   -45.8205 -22.4766 -22.4450 -22.4093  -6.9612  -6.3086  -6.1756  -5.0779
    -5.0329  -4.9945  -4.8345  -4.7537   3.0289   5.9962   6.5372   6.8313
     7.2084   7.7553   8.0637   8.7072   8.8930   9.6723

          k = 0.1667 0.3333 0.2378 (  5093 PWs)   bands (ev):

   -45.8202 -22.4958 -22.4440 -22.4085  -6.8406  -6.3024  -6.1094  -5.0566
    -5.0333  -4.9717  -4.8167  -4.7128   2.8992   5.8336   6.0005   6.4936
     6.9244   7.5745   8.3977   8.6830   9.0154   9.4034

          k = 0.1667 0.3333-0.4756 (  5082 PWs)   bands (ev):

   -45.8200 -22.5148 -22.4430 -22.4076  -6.7557  -6.2818  -6.0081  -5.0540
    -5.0110  -4.9326  -4.8288  -4.6619   2.7320   5.4993   5.9191   6.2269
     6.4405   7.4368   8.4811   8.7432   8.9229   9.4320

          k = 0.1667-0.5000 0.0000 (  5062 PWs)   bands (ev):

   -45.8202 -22.4757 -22.4621 -22.4086  -6.8058  -6.2644  -6.1990  -5.0807
    -5.0257  -4.9737  -4.8114  -4.7907   2.8424   5.6512   6.6769   6.8630
     7.2003   7.4733   7.9089   8.7795   8.8601   9.9694

          k = 0.1667-0.5000 0.2378 (  5082 PWs)   bands (ev):

   -45.8199 -22.4947 -22.4610 -22.4077  -6.7397  -6.2336  -6.1320  -5.0551
    -5.0207  -4.9511  -4.7952  -4.7069   2.7918   5.6075   5.9094   6.2712
     6.8732   7.7142   8.1802   8.6858   9.0194   9.3640

          k = 0.1667-0.5000-0.4756 (  5112 PWs)   bands (ev):

   -45.8196 -22.5137 -22.4599 -22.4069  -6.7258  -6.2041  -5.9935  -5.0491
    -4.9831  -4.9291  -4.8100  -4.6069   2.7011   5.3832   5.7834   5.8905
     6.3079   7.5514   8.2967   8.6361   8.6656   9.6378

          k = 0.3333 0.3333 0.0000 (  5081 PWs)   bands (ev):

   -45.8199 -22.4751 -22.4433 -22.4431  -6.7232  -6.2518  -6.2237  -5.0598
    -5.0156  -4.9246  -4.7587  -4.7565   2.6702   5.9552   6.1065   6.9333
     7.0875   7.2159   7.9033   8.5054   9.3880   9.3957

          k = 0.3333 0.3333 0.2378 (  5082 PWs)   bands (ev):

   -45.8196 -22.4941 -22.4424 -22.4422  -6.5945  -6.3003  -6.1947  -5.0236
    -5.0095  -4.8671  -4.7133  -4.6792   2.8509   5.5934   5.6598   5.9461
     6.6176   7.0657   8.3808   8.9791   8.9952   9.4024

          k = 0.3333 0.3333-0.4756 (  5084 PWs)   bands (ev):

   -45.8193 -22.5130 -22.4415 -22.4414  -6.5284  -6.3451  -6.0925  -5.0035
    -4.9875  -4.8055  -4.6669  -4.6047   3.0145   5.2070   5.2337   5.7045
     6.3558   6.5353   7.6488   9.3288   9.3761   9.5107

          k = 0.3333-0.5000 0.0000 (  5070 PWs)   bands (ev):

   -45.8195 -22.4741 -22.4602 -22.4423  -6.6174  -6.2358  -6.2161  -5.0525
    -4.9942  -4.8611  -4.7904  -4.7257   2.5028   5.6276   6.1425   6.7530
     7.2618   7.4150   7.5022   8.4895   9.0788   9.5788

          k = 0.3333-0.5000 0.2378 (  5068 PWs)   bands (ev):

   -45.8193 -22.4931 -22.4592 -22.4415  -6.4893  -6.2635  -6.2489  -5.0157
    -4.9841  -4.7793  -4.7093  -4.6519   2.7947   5.4910   5.5838   5.6811
     6.4019   7.1373   7.9100   8.9702   8.9967   9.5577

          k = 0.3333-0.5000-0.4756 (  5072 PWs)   bands (ev):

   -45.8190 -22.5120 -22.4583 -22.4406  -6.4780  -6.3073  -6.1291  -4.9888
    -4.9656  -4.7214  -4.6283  -4.5544   3.1614   4.9597   5.1333   5.4695
     6.1513   6.5412   6.8836   9.4307   9.5319   9.6608

          k =-0.5000-0.5000 0.0000 (  5052 PWs)   bands (ev):

   -45.8192 -22.4731 -22.4592 -22.4592  -6.5720  -6.1948  -6.1948  -5.0428
    -4.9531  -4.8061  -4.8061  -4.6837   2.3331   5.4704   5.9921   6.9655
     6.9655   7.5255   7.5255   8.2428   8.5942   9.8369

          k =-0.5000-0.5000 0.2378 (  5080 PWs)   bands (ev):

   -45.8190 -22.4921 -22.4583 -22.4583  -6.3809  -6.2796  -6.2796  -5.0048
    -4.9513  -4.6682  -4.6682  -4.6516   2.7421   5.4251   5.6053   5.6053
     5.9983   7.0774   7.2666   9.0016   9.0016   9.8214

          k =-0.5000-0.5000-0.4756 (  5048 PWs)   bands (ev):

   -45.8187 -22.5110 -22.4574 -22.4574  -6.3529  -6.3529  -6.1853  -4.9667
    -4.9495  -4.6090  -4.5397  -4.5397   3.4046   4.9741   4.9741   5.3037
     5.9005   6.0045   6.2422   9.6724   9.6724   9.8060

     highest occupied level (ev):    10.3434

!    total energy              =    -380.57371285 Ry
     estimated scf accuracy    <          4.9E-09 Ry

     The total energy is the sum of the following terms:
     one-electron contribution =     -84.30445705 Ry
     hartree contribution      =      71.28895898 Ry
     xc contribution           =    -102.55242943 Ry
     ewald contribution        =    -265.00578535 Ry

     convergence has been achieved in   8 iterations

     negative rho (up, down):  1.561E-02 0.000E+00

     Forces acting on atoms (cartesian axes, Ry/au):

     atom    1 type  1   force =     0.00000000    0.00000000   -0.00859909
     atom    2 type  2   force =     0.00000000    0.00000000   -0.00503006
     atom    3 type  3   force =     0.00000000    0.00000000    0.01140971
     atom    4 type  3   force =     0.00000000    0.00000000    0.00110972
     atom    5 type  3   force =     0.00000000    0.00000000    0.00110972

     Total force =     0.015228     Total SCF correction =     0.000114


     Computing stress (Cartesian axis) and pressure


     negative rho (up, down):  1.561E-02 0.000E+00
          total   stress  (Ry/bohr**3)                   (kbar)     P=      -59.14
  -0.00041560   0.00000000   0.00000000          -61.14        0.00        0.00
   0.00000000  -0.00041560   0.00000000            0.00      -61.14        0.00
   0.00000000   0.00000000  -0.00037497            0.00        0.00      -55.16

     Energy error            =      5.0E-04 Ry
     Gradient error          =      1.1E-02 Ry/Bohr

     number of scf cycles    =   2
     number of bfgs steps    =   1

     energy             old  =    -380.5732142971 Ry
     energy             new  =    -380.5737128476 Ry

     CASE: energy            _new < energy            _old

     new trust radius        =       0.0224727499 bohr
     new conv_thr            =       0.0000000005 Ry


ATOMIC_POSITIONS (crystal)
Pb               0.0000000000        0.0000000000        1.0033786499
Ti               0.5000000000        0.5000000000        0.5374828776
O                0.5000000000        0.5000000000        0.1041176272
O                0.5000000000        0.0000000000        0.6111525666
O                0.0000000000        0.5000000000        0.6111525666



     Writing config-only to output data dir ./pto_80.save/ :
     XML data file
     NEW-OLD atomic charge density approx. for the potential

     Check: negative core charge=   -0.000002

     negative rho (up, down):  1.582E-02 0.000E+00

     total cpu time spent up to now is       42.1 secs

     Self-consistent Calculation

     iteration #  1     ecut=    80.00 Ry     beta= 0.70
     CG style diagonalization
     c_bands:  1 eigenvalues not converged
     c_bands:  1 eigenvalues not converged
     c_bands:  1 eigenvalues not converged
     c_bands:  1 eigenvalues not converged
     c_bands:  1 eigenvalues not converged
     ethr =  1.00E-06,  avg # of iterations =  7.1

     negative rho (up, down):  1.578E-02 0.000E+00

     total cpu time spent up to now is       45.0 secs

     total energy              =    -380.57388425 Ry
     estimated scf accuracy    <       0.00023939 Ry

     iteration #  2     ecut=    80.00 Ry     beta= 0.70
     CG style diagonalization
     ethr =  5.44E-07,  avg # of iterations =  4.7

     negative rho (up, down):  1.579E-02 0.000E+00

     total cpu time spent up to now is       46.7 secs

     total energy              =    -380.57386484 Ry
     estimated scf accuracy    <       0.00065094 Ry

     iteration #  3     ecut=    80.00 Ry     beta= 0.70
     CG style diagonalization
     ethr =  5.44E-07,  avg # of iterations =  4.3

     negative rho (up, down):  1.578E-02 0.000E+00

     total cpu time spent up to now is       48.4 secs

     total energy              =    -380.57399703 Ry
     estimated scf accuracy    <       0.00005421 Ry

     iteration #  4     ecut=    80.00 Ry     beta= 0.70
     CG style diagonalization
     ethr =  1.23E-07,  avg # of iterations =  3.7

     negative rho (up, down):  1.578E-02 0.000E+00

     total cpu time spent up to now is       49.8 secs

     total energy              =    -380.57400843 Ry
     estimated scf accuracy    <       0.00000617 Ry

     iteration #  5     ecut=    80.00 Ry     beta= 0.70
     CG style diagonalization
     ethr =  1.40E-08,  avg # of iterations =  4.3

     negative rho (up, down):  1.578E-02 0.000E+00

     total cpu time spent up to now is       51.5 secs

     total energy              =    -380.57401184 Ry
     estimated scf accuracy    <       0.00000070 Ry

     iteration #  6     ecut=    80.00 Ry     beta= 0.70
     CG style diagonalization
     ethr =  1.59E-09,  avg # of iterations =  4.6

     negative rho (up, down):  1.578E-02 0.000E+00

     total cpu time spent up to now is       53.2 secs

     total energy              =    -380.57401223 Ry
     estimated scf accuracy    <       0.00000029 Ry

     iteration #  7     ecut=    80.00 Ry     beta= 0.70
     CG style diagonalization
     ethr =  6.69E-10,  avg # of iterations =  4.2

     negative rho (up, down):  1.578E-02 0.000E+00

     total cpu time spent up to now is       54.8 secs

     total energy              =    -380.57401232 Ry
     estimated scf accuracy    <       0.00000007 Ry

     iteration #  8     ecut=    80.00 Ry     beta= 0.70
     CG style diagonalization
     ethr =  1.63E-10,  avg # of iterations =  4.5

     negative rho (up, down):  1.578E-02 0.000E+00

     total cpu time spent up to now is       56.6 secs

     total energy              =    -380.57401236 Ry
     estimated scf accuracy    <          2.7E-09 Ry

     iteration #  9     ecut=    80.00 Ry     beta= 0.70
     CG style diagonalization
     ethr =  6.12E-12,  avg # of iterations =  7.9

     negative rho (up, down):  1.578E-02 0.000E+00

     total cpu time spent up to now is       59.5 secs

     total energy              =    -380.57401238 Ry
     estimated scf accuracy    <          6.5E-10 Ry

     iteration # 10     ecut=    80.00 Ry     beta= 0.70
     CG style diagonalization
     ethr =  1.49E-12,  avg # of iterations =  5.7

     negative rho (up, down):  1.578E-02 0.000E+00

     total cpu time spent up to now is       61.6 secs

     End of self-consistent calculation

          k = 0.0000 0.0000 0.0000 (  5115 PWs)   bands (ev):

   -45.7866 -22.4687 -22.3588 -22.3588  -7.5131  -6.4297  -6.2197  -5.0288
    -5.0288  -4.9965  -4.8837  -4.7550   4.2050   6.3094   6.3094   6.6964
     8.1381   8.1381   8.4904   8.6623   8.9497   8.9497

          k = 0.0000 0.0000 0.2378 (  5102 PWs)   bands (ev):

   -45.7863 -22.4884 -22.3580 -22.3580  -7.3157  -6.3712  -6.1659  -5.0438
    -5.0438  -4.9952  -4.8754  -4.8257   3.4364   6.3587   6.3587   6.8237
     7.9221   7.9221   8.4055   8.7905   9.0495   9.0495

          k = 0.0000 0.0000-0.4756 (  5102 PWs)   bands (ev):

   -45.7860 -22.5079 -22.3573 -22.3573  -7.0988  -6.3069  -6.1219  -5.0588
    -5.0588  -4.9940  -4.9022  -4.8687   2.9248   6.1778   6.3888   6.3888
     7.7835   7.7835   8.3244   9.1186   9.1186  10.0032

          k = 0.0000 0.1667 0.0000 (  5099 PWs)   bands (ev):

   -45.7862 -22.4680 -22.3761 -22.3581  -7.3791  -6.4017  -6.1935  -5.0504
    -5.0274  -5.0092  -4.8837  -4.7456   3.7862   6.3516   6.4198   6.6997
     8.1217   8.1632   8.4749   8.5779   8.6219   8.9937

          k = 0.0000 0.1667 0.2378 (  5086 PWs)   bands (ev):

   -45.7860 -22.4875 -22.3752 -22.3573  -7.1973  -6.3592  -6.1344  -5.0474
    -5.0429  -5.0084  -4.8814  -4.7820   3.2336   6.1423   6.4769   6.9138
     7.6172   7.9169   8.2631   8.6585   8.7191   9.3624

          k = 0.0000 0.1667-0.4756 (  5122 PWs)   bands (ev):

   -45.7857 -22.5069 -22.3744 -22.3565  -7.0074  -6.3108  -6.0756  -5.0584
    -5.0417  -5.0076  -4.8880  -4.8162   2.8076   5.8307   6.5097   6.5983
     7.4429   7.7859   8.3421   8.7116   8.7976   9.9429

          k = 0.0000 0.3333 0.0000 (  5077 PWs)   bands (ev):

   -45.7856 -22.4664 -22.4105 -22.3567  -7.0868  -6.3424  -6.1562  -5.0825
    -5.0344  -5.0245  -4.8713  -4.7553   3.2155   5.9920   6.6667   6.7096
     7.8421   7.8855   8.2637   8.3433   8.7007   9.5932

          k = 0.0000 0.3333 0.2378 (  5089 PWs)   bands (ev):

   -45.7853 -22.4857 -22.4094 -22.3559  -6.9670  -6.3056  -6.0768  -5.0520
    -5.0411  -5.0344  -4.8705  -4.7273   2.8897   5.8612   6.5570   6.7894
     7.2922   7.7140   7.8579   8.3459   8.9031   9.6724

          k = 0.0000 0.3333-0.4756 (  5100 PWs)   bands (ev):

   -45.7850 -22.5048 -22.4083 -22.3550  -6.8777  -6.2432  -5.9714  -5.0574
    -5.0347  -5.0128  -4.9072  -4.6791   2.5984   5.5355   6.3393   6.8150
     7.1848   7.3860   7.6656   8.3905   9.2582   9.5431

          k = 0.0000-0.5000 0.0000 (  5088 PWs)   bands (ev):

   -45.7853 -22.4655 -22.4276 -22.3560  -6.9239  -6.2962  -6.1641  -5.0959
    -5.0469  -5.0231  -4.8338  -4.7971   3.0075   5.6456   6.9218   6.9826
     7.3690   7.4785   8.2634   8.2953   8.7339  10.3341

          k = 0.0000-0.5000 0.2378 (  5082 PWs)   bands (ev):

   -45.7850 -22.4847 -22.4264 -22.3551  -6.8663  -6.2265  -6.0761  -5.0629
    -5.0475  -5.0401  -4.8374  -4.7236   2.7501   5.6079   6.5776   6.8320
     7.1769   7.2834   7.9674   8.3072   8.9123   9.8349

          k = 0.0000-0.5000-0.4756 (  5080 PWs)   bands (ev):

   -45.7847 -22.5037 -22.4253 -22.3543  -6.8486  -6.1519  -5.9243  -5.0569
    -5.0481  -5.0222  -4.8897  -4.6237   2.5126   5.4047   6.0410   6.8980
     7.1106   7.3873   7.4038   8.3142   9.1441   9.6016

          k = 0.1667 0.1667 0.0000 (  5087 PWs)   bands (ev):

   -45.7859 -22.4672 -22.3755 -22.3751  -7.2483  -6.3725  -6.1875  -5.0556
    -5.0420  -5.0103  -4.8607  -4.7364   3.4928   6.3045   6.5257   6.7211
     7.6664   7.8429   8.4716   8.5723   8.8922   9.1832

          k = 0.1667 0.1667 0.2378 (  5097 PWs)   bands (ev):

   -45.7856 -22.4866 -22.3746 -22.3743  -7.0774  -6.3487  -6.1294  -5.0581
    -5.0369  -5.0032  -4.8532  -4.7505   3.1241   6.0915   6.1731   6.8562
     7.5221   7.5443   8.2945   8.7348   8.9626   9.3136

          k = 0.1667 0.1667-0.4756 (  5090 PWs)   bands (ev):

   -45.7854 -22.5059 -22.3737 -22.3735  -6.9057  -6.3247  -6.0619  -5.0695
    -5.0196  -4.9776  -4.8619  -4.7694   2.7856   5.8849   5.8875   6.6051
     7.4338   7.4739   8.2108   8.8047   9.0169   9.6522

          k = 0.1667 0.3333 0.0000 (  5070 PWs)   bands (ev):

   -45.7853 -22.4656 -22.4096 -22.3738  -6.9666  -6.3142  -6.1885  -5.0762
    -5.0320  -4.9943  -4.8325  -4.7448   3.0261   6.0021   6.5293   6.8347
     7.2009   7.7038   8.0653   8.6896   8.8803   9.6535

          k = 0.1667 0.3333 0.2378 (  5093 PWs)   bands (ev):

   -45.7850 -22.4849 -22.4086 -22.3729  -6.8438  -6.3082  -6.1235  -5.0553
    -5.0318  -4.9723  -4.8152  -4.7038   2.8960   5.8269   5.9907   6.4946
     6.9172   7.5703   8.3771   8.6634   8.9998   9.3998

          k = 0.1667 0.3333-0.4756 (  5082 PWs)   bands (ev):

   -45.7847 -22.5039 -22.4075 -22.3721  -6.7572  -6.2874  -6.0231  -5.0535
    -5.0099  -4.9336  -4.8266  -4.6536   2.7274   5.4793   5.9096   6.2294
     6.4441   7.4412   8.4464   8.7392   8.9263   9.4136

          k = 0.1667-0.5000 0.0000 (  5062 PWs)   bands (ev):

   -45.7849 -22.4647 -22.4267 -22.3730  -6.8116  -6.2703  -6.2138  -5.0786
    -5.0245  -4.9745  -4.8029  -4.7858   2.8393   5.6625   6.6524   6.8704
     7.2078   7.4786   7.8437   8.7715   8.8363   9.9659

          k = 0.1667-0.5000 0.2378 (  5082 PWs)   bands (ev):

   -45.7847 -22.4839 -22.4255 -22.3722  -6.7430  -6.2400  -6.1474  -5.0537
    -5.0189  -4.9540  -4.7900  -4.6987   2.7896   5.6130   5.9000   6.2616
     6.8684   7.7061   8.1748   8.6532   9.0148   9.3521

          k = 0.1667-0.5000-0.4756 (  5112 PWs)   bands (ev):

   -45.7844 -22.5029 -22.4244 -22.3713  -6.7276  -6.2110  -6.0085  -5.0485
    -4.9811  -4.9336  -4.8041  -4.5995   2.7002   5.3670   5.7738   5.8925
     6.3083   7.5582   8.2948   8.6056   8.6682   9.6126

          k = 0.3333 0.3333 0.0000 (  5081 PWs)   bands (ev):

   -45.7846 -22.4640 -22.4079 -22.4076  -6.7315  -6.2587  -6.2343  -5.0574
    -5.0146  -4.9222  -4.7599  -4.7468   2.6640   5.9559   6.1236   6.9100
     7.0899   7.1701   7.9206   8.4917   9.3828   9.3894

          k = 0.3333 0.3333 0.2378 (  5082 PWs)   bands (ev):

   -45.7844 -22.4831 -22.4070 -22.4068  -6.6002  -6.3062  -6.2063  -5.0213
    -5.0091  -4.8683  -4.7134  -4.6701   2.8435   5.5831   5.6541   5.9485
     6.6273   7.0639   8.3786   8.9637   8.9720   9.3959

          k = 0.3333 0.3333-0.4756 (  5084 PWs)   bands (ev):

   -45.7841 -22.5021 -22.4060 -22.4059  -6.5321  -6.3502  -6.1041  -5.0035
    -4.9854  -4.8109  -4.6654  -4.5964   3.0050   5.1969   5.2238   5.7055
     6.3582   6.5544   7.6553   9.2996   9.3733   9.4872

          k = 0.3333-0.5000 0.0000 (  5070 PWs)   bands (ev):

   -45.7843 -22.4631 -22.4248 -22.4069  -6.6274  -6.2455  -6.2238  -5.0501
    -4.9931  -4.8563  -4.7822  -4.7274   2.4947   5.6354   6.1606   6.7252
     7.2195   7.4216   7.5062   8.4836   9.0840   9.5762

          k = 0.3333-0.5000 0.2378 (  5068 PWs)   bands (ev):

   -45.7840 -22.4822 -22.4238 -22.4060  -6.4959  -6.2702  -6.2592  -5.0135
    -4.9835  -4.7834  -4.7018  -4.6484   2.7849   5.4828   5.5872   5.6785
     6.4123   7.1332   7.9214   8.9518   8.9727   9.5536

          k = 0.3333-0.5000-0.4756 (  5072 PWs)   bands (ev):

   -45.7838 -22.5011 -22.4228 -22.4051  -6.4823  -6.3132  -6.1390  -4.9879
    -4.9642  -4.7313  -4.6216  -4.5489   3.1487   4.9540   5.1195   5.4789
     6.1589   6.5516   6.8989   9.4034   9.5293   9.6365

          k =-0.5000-0.5000 0.0000 (  5052 PWs)   bands (ev):

   -45.7840 -22.4622 -22.4238 -22.4238  -6.5832  -6.2035  -6.2035  -5.0404
    -4.9529  -4.7953  -4.7953  -4.6932   2.3224   5.4763   6.0174   6.9324
     6.9324   7.5299   7.5299   8.2379   8.6113   9.8345

          k =-0.5000-0.5000 0.2378 (  5080 PWs)   bands (ev):

   -45.7837 -22.4812 -22.4229 -22.4229  -6.3908  -6.2865  -6.2865  -5.0025
    -4.9510  -4.6631  -4.6595  -4.6595   2.7280   5.4325   5.5943   5.5943
     6.0236   7.0731   7.2863   8.9820   8.9820   9.8191

          k =-0.5000-0.5000-0.4756 (  5048 PWs)   bands (ev):

   -45.7835 -22.5002 -22.4220 -22.4220  -6.3586  -6.3586  -6.1933  -4.9645
    -4.9492  -4.6232  -4.5328  -4.5328   3.3792   4.9665   4.9665   5.3141
     5.9314   6.0300   6.2364   9.6490   9.6490   9.8038

     highest occupied level (ev):    10.3341

!    total energy              =    -380.57401238 Ry
     estimated scf accuracy    <          8.1E-11 Ry

     The total energy is the sum of the following terms:
     one-electron contribution =     -84.64411570 Ry
     hartree contribution      =      71.46799283 Ry
     xc contribution           =    -102.56468685 Ry
     ewald contribution        =    -264.83320266 Ry

     convergence has been achieved in  10 iterations

     negative rho (up, down):  1.578E-02 0.000E+00

     Forces acting on atoms (cartesian axes, Ry/au):

     atom    1 type  1   force =     0.00000000    0.00000000   -0.00857672
     atom    2 type  2   force =     0.00000000    0.00000000    0.00277817
     atom    3 type  3   force =     0.00000000    0.00000000    0.00125875
     atom    4 type  3   force =     0.00000000    0.00000000    0.00226990
     atom    5 type  3   force =     0.00000000    0.00000000    0.00226990

     Total force =     0.009652     Total SCF correction =     0.000014


     Computing stress (Cartesian axis) and pressure


     negative rho (up, down):  1.578E-02 0.000E+00
          total   stress  (Ry/bohr**3)                   (kbar)     P=      -52.74
  -0.00039957   0.00000000   0.00000000          -58.78        0.00        0.00
   0.00000000  -0.00039957   0.00000000            0.00      -58.78        0.00
   0.00000000   0.00000000  -0.00027649            0.00        0.00      -40.67

     Energy error            =      3.0E-04 Ry
     Gradient error          =      8.6E-03 Ry/Bohr

     number of scf cycles    =   3
     number of bfgs steps    =   2

     energy             old  =    -380.5737128476 Ry
     energy             new  =    -380.5740123788 Ry

     CASE: energy            _new < energy            _old

     new trust radius        =       0.0190585254 bohr
     new conv_thr            =       0.0000000003 Ry


ATOMIC_POSITIONS (crystal)
Pb               0.0000000000        0.0000000000        1.0009188116
Ti               0.5000000000        0.5000000000        0.5372245451
O                0.5000000000        0.5000000000        0.1058465807
O                0.5000000000        0.0000000000        0.6116471753
O                0.0000000000        0.5000000000        0.6116471753



     Writing config-only to output data dir ./pto_80.save/ :
     XML data file
     NEW-OLD atomic charge density approx. for the potential

     Check: negative core charge=   -0.000002

     negative rho (up, down):  1.590E-02 0.000E+00

     total cpu time spent up to now is       63.9 secs

     Self-consistent Calculation

     iteration #  1     ecut=    80.00 Ry     beta= 0.70
     CG style diagonalization
     ethr =  1.00E-06,  avg # of iterations =  5.6

     negative rho (up, down):  1.586E-02 0.000E+00

     total cpu time spent up to now is       66.2 secs

     total energy              =    -380.57411510 Ry
     estimated scf accuracy    <       0.00005595 Ry

     iteration #  2     ecut=    80.00 Ry     beta= 0.70
     CG style diagonalization
     ethr =  1.27E-07,  avg # of iterations =  4.8

     negative rho (up, down):  1.586E-02 0.000E+00

     total cpu time spent up to now is       68.0 secs

     total energy              =    -380.57412473 Ry
     estimated scf accuracy    <       0.00012672 Ry

     iteration #  3     ecut=    80.00 Ry     beta= 0.70
     CG style diagonalization
     ethr =  1.27E-07,  avg # of iterations =  4.3

     negative rho (up, down):  1.586E-02 0.000E+00

     total cpu time spent up to now is       69.7 secs

     total energy              =    -380.57415191 Ry
     estimated scf accuracy    <       0.00001666 Ry

     iteration #  4     ecut=    80.00 Ry     beta= 0.70
     CG style diagonalization
     ethr =  3.79E-08,  avg # of iterations =  3.7

     negative rho (up, down):  1.585E-02 0.000E+00

     total cpu time spent up to now is       71.1 secs

     total energy              =    -380.57415548 Ry
     estimated scf accuracy    <       0.00000200 Ry

     iteration #  5     ecut=    80.00 Ry     beta= 0.70
     CG style diagonalization
     ethr =  4.55E-09,  avg # of iterations =  4.2

     negative rho (up, down):  1.585E-02 0.000E+00

     total cpu time spent up to now is       72.7 secs

     total energy              =    -380.57415659 Ry
     estimated scf accuracy    <       0.00000010 Ry

     iteration #  6     ecut=    80.00 Ry     beta= 0.70
     CG style diagonalization
     ethr =  2.32E-10,  avg # of iterations =  5.7

     negative rho (up, down):  1.585E-02 0.000E+00

     total cpu time spent up to now is       74.9 secs

     total energy              =    -380.57415673 Ry
     estimated scf accuracy    <       0.00000012 Ry

     iteration #  7     ecut=    80.00 Ry     beta= 0.70
     CG style diagonalization
     ethr =  2.32E-10,  avg # of iterations =  4.0

     negative rho (up, down):  1.585E-02 0.000E+00

     total cpu time spent up to now is       76.4 secs

     total energy              =    -380.57415675 Ry
     estimated scf accuracy    <       0.00000003 Ry

     iteration #  8     ecut=    80.00 Ry     beta= 0.70
     CG style diagonalization
     ethr =  7.92E-11,  avg # of iterations =  4.1

     negative rho (up, down):  1.585E-02 0.000E+00

     total cpu time spent up to now is       78.0 secs

     total energy              =    -380.57415676 Ry
     estimated scf accuracy    <          1.1E-09 Ry

     iteration #  9     ecut=    80.00 Ry     beta= 0.70
     CG style diagonalization
     ethr =  2.48E-12,  avg # of iterations =  7.6

     negative rho (up, down):  1.585E-02 0.000E+00

     total cpu time spent up to now is       80.8 secs

     total energy              =    -380.57415677 Ry
     estimated scf accuracy    <          4.5E-10 Ry

     iteration # 10     ecut=    80.00 Ry     beta= 0.70
     CG style diagonalization
     ethr =  1.01E-12,  avg # of iterations =  4.2

     negative rho (up, down):  1.585E-02 0.000E+00

     total cpu time spent up to now is       82.4 secs

     End of self-consistent calculation

          k = 0.0000 0.0000 0.0000 (  5115 PWs)   bands (ev):

   -45.7733 -22.4664 -22.3459 -22.3459  -7.5234  -6.4441  -6.2205  -5.0228
    -5.0228  -4.9895  -4.8835  -4.7406   4.2015   6.3001   6.3001   6.7302
     8.1089   8.1089   8.4839   8.6335   8.9384   8.9384

          k = 0.0000 0.0000 0.2378 (  5102 PWs)   bands (ev):

   -45.7730 -22.4861 -22.3451 -22.3451  -7.3275  -6.3870  -6.1662  -5.0379
    -5.0379  -4.9883  -4.8741  -4.8099   3.4355   6.3445   6.3445   6.8408
     7.9034   7.9034   8.3989   8.7819   9.0365   9.0365

          k = 0.0000 0.0000-0.4756 (  5102 PWs)   bands (ev):

   -45.7727 -22.5057 -22.3443 -22.3443  -7.1127  -6.3244  -6.1210  -5.0529
    -5.0529  -4.9870  -4.8847  -4.8660   2.9220   6.1906   6.3688   6.3688
     7.7744   7.7744   8.3177   9.1044   9.1044  10.0012

          k = 0.0000 0.1667 0.0000 (  5099 PWs)   bands (ev):

   -45.7729 -22.4657 -22.3632 -22.3452  -7.3895  -6.4167  -6.1961  -5.0447
    -5.0214  -5.0022  -4.8806  -4.7309   3.7855   6.3442   6.4103   6.7108
     8.1109   8.1336   8.4647   8.5677   8.6020   8.9815

          k = 0.0000 0.1667 0.2378 (  5086 PWs)   bands (ev):

   -45.7727 -22.4852 -22.3624 -22.3444  -7.2092  -6.3750  -6.1363  -5.0407
    -5.0370  -5.0014  -4.8781  -4.7668   3.2344   6.1302   6.4628   6.9215
     7.6051   7.8976   8.2522   8.6465   8.7072   9.3592

          k = 0.0000 0.1667-0.4756 (  5122 PWs)   bands (ev):

   -45.7724 -22.5047 -22.3615 -22.3436  -7.0213  -6.3277  -6.0762  -5.0524
    -5.0341  -5.0006  -4.8835  -4.8012   2.8073   5.8210   6.4898   6.6003
     7.4354   7.7754   8.3269   8.6998   8.7854   9.9476

          k = 0.0000 0.3333 0.0000 (  5077 PWs)   bands (ev):

   -45.7723 -22.4641 -22.3977 -22.3438  -7.0975  -6.3584  -6.1634  -5.0758
    -5.0274  -5.0185  -4.8623  -4.7412   3.2169   5.9854   6.6638   6.6997
     7.8314   7.8790   8.2293   8.3345   8.6787   9.5974

          k = 0.0000 0.3333 0.2378 (  5089 PWs)   bands (ev):

   -45.7720 -22.4834 -22.3966 -22.3429  -6.9792  -6.3218  -6.0823  -5.0446
    -5.0351  -5.0274  -4.8629  -4.7127   2.8930   5.8503   6.5534   6.7758
     7.2773   7.6984   7.8550   8.3283   8.8895   9.6761

          k = 0.0000 0.3333-0.4756 (  5100 PWs)   bands (ev):

   -45.7717 -22.5026 -22.3955 -22.3421  -6.8910  -6.2609  -5.9749  -5.0514
    -5.0276  -5.0045  -4.8987  -4.6659   2.6027   5.5205   6.3402   6.7962
     7.1676   7.3839   7.6519   8.3787   9.2440   9.5520

          k = 0.0000-0.5000 0.0000 (  5088 PWs)   bands (ev):

   -45.7720 -22.4632 -22.4148 -22.3431  -6.9349  -6.3118  -6.1746  -5.0883
    -5.0398  -5.0171  -4.8169  -4.7884   3.0093   5.6422   6.9084   6.9708
     7.3660   7.4747   8.2532   8.2588   8.7110  10.3360

          k = 0.0000-0.5000 0.2378 (  5082 PWs)   bands (ev):

   -45.7717 -22.4824 -22.4137 -22.3422  -6.8788  -6.2438  -6.0828  -5.0549
    -5.0404  -5.0341  -4.8277  -4.7093   2.7547   5.6021   6.5702   6.8135
     7.1638   7.2703   7.9630   8.2852   8.9014   9.8389

          k = 0.0000-0.5000-0.4756 (  5080 PWs)   bands (ev):

   -45.7714 -22.5015 -22.4125 -22.3414  -6.8614  -6.1711  -5.9289  -5.0509
    -5.0411  -5.0137  -4.8786  -4.6114   2.5193   5.3921   6.0366   6.8733
     7.0929   7.3727   7.4091   8.3007   9.1541   9.5875

          k = 0.1667 0.1667 0.0000 (  5087 PWs)   bands (ev):

   -45.7726 -22.4649 -22.3627 -22.3623  -7.2588  -6.3881  -6.1915  -5.0495
    -5.0359  -5.0033  -4.8560  -4.7215   3.4912   6.2985   6.5197   6.7221
     7.6447   7.8311   8.4574   8.5670   8.8799   9.1672

          k = 0.1667 0.1667 0.2378 (  5097 PWs)   bands (ev):

   -45.7723 -22.4844 -22.3617 -22.3614  -7.0894  -6.3647  -6.1322  -5.0517
    -5.0300  -4.9964  -4.8489  -4.7355   3.1242   6.0809   6.1618   6.8560
     7.5136   7.5334   8.2756   8.7234   8.9494   9.3146

          k = 0.1667 0.1667-0.4756 (  5090 PWs)   bands (ev):

   -45.7721 -22.5037 -22.3608 -22.3606  -6.9198  -6.3412  -6.0628  -5.0631
    -5.0125  -4.9710  -4.8575  -4.7542   2.7855   5.8719   5.8796   6.6019
     7.4148   7.4715   8.1988   8.7921   9.0026   9.6593

          k = 0.1667 0.3333 0.0000 (  5070 PWs)   bands (ev):

   -45.7720 -22.4634 -22.3968 -22.3609  -6.9769  -6.3309  -6.1960  -5.0692
    -5.0256  -4.9873  -4.8242  -4.7300   3.0232   5.9967   6.5207   6.8328
     7.1896   7.6829   8.0609   8.6772   8.8649   9.6506

          k = 0.1667 0.3333 0.2378 (  5093 PWs)   bands (ev):

   -45.7717 -22.4826 -22.3958 -22.3601  -6.8560  -6.3244  -6.1283  -5.0484
    -5.0249  -4.9663  -4.8076  -4.6895   2.8953   5.8169   5.9789   6.4904
     6.9108   7.5657   8.3607   8.6491   8.9863   9.4030

          k = 0.1667 0.3333-0.4756 (  5082 PWs)   bands (ev):

   -45.7714 -22.5017 -22.3947 -22.3592  -6.7709  -6.3039  -6.0248  -5.0472
    -5.0029  -4.9282  -4.8182  -4.6406   2.7285   5.4660   5.8953   6.2282
     6.4374   7.4379   8.4312   8.7252   8.9324   9.4026

          k = 0.1667-0.5000 0.0000 (  5062 PWs)   bands (ev):

   -45.7716 -22.4625 -22.4139 -22.3601  -6.8216  -6.2868  -6.2240  -5.0712
    -5.0180  -4.9681  -4.7876  -4.7755   2.8360   5.6594   6.6365   6.8656
     7.2048   7.4764   7.8178   8.7581   8.8203   9.9700

          k = 0.1667-0.5000 0.2378 (  5082 PWs)   bands (ev):

   -45.7714 -22.4816 -22.4128 -22.3593  -6.7554  -6.2570  -6.1522  -5.0467
    -5.0119  -4.9492  -4.7796  -4.6852   2.7889   5.6075   5.8864   6.2536
     6.8638   7.6997   8.1633   8.6350   9.0045   9.3559

          k = 0.1667-0.5000-0.4756 (  5112 PWs)   bands (ev):

   -45.7711 -22.5006 -22.4117 -22.3584  -6.7409  -6.2285  -6.0100  -5.0421
    -4.9739  -4.9300  -4.7930  -4.5878   2.7024   5.3541   5.7537   5.8894
     6.3070   7.5551   8.2998   8.5903   8.6622   9.5982

          k = 0.3333 0.3333 0.0000 (  5081 PWs)   bands (ev):

   -45.7713 -22.4617 -22.3951 -22.3948  -6.7389  -6.2770  -6.2450  -5.0501
    -5.0075  -4.9136  -4.7532  -4.7313   2.6539   5.9481   6.1241   6.8988
     7.0867   7.1562   7.9191   8.4851   9.3673   9.3931

          k = 0.3333 0.3333 0.2378 (  5082 PWs)   bands (ev):

   -45.7710 -22.4808 -22.3942 -22.3939  -6.6114  -6.3227  -6.2109  -5.0138
    -5.0025  -4.8629  -4.7063  -4.6563   2.8333   5.5738   5.6494   5.9425
     6.6287   7.0631   8.3823   8.9518   8.9624   9.3805

          k = 0.3333 0.3333-0.4756 (  5084 PWs)   bands (ev):

   -45.7708 -22.4998 -22.3932 -22.3931  -6.5466  -6.3652  -6.1030  -4.9972
    -4.9780  -4.8087  -4.6580  -4.5841   2.9958   5.1924   5.2079   5.7022
     6.3572   6.5579   7.6722   9.2837   9.3583   9.4731

          k = 0.3333-0.5000 0.0000 (  5070 PWs)   bands (ev):

   -45.7710 -22.4608 -22.4120 -22.3941  -6.6311  -6.2607  -6.2424  -5.0426
    -4.9859  -4.8457  -4.7684  -4.7200   2.4815   5.6308   6.1612   6.7159
     7.2070   7.4167   7.5017   8.4794   9.0937   9.5617

          k = 0.3333-0.5000 0.2378 (  5068 PWs)   bands (ev):

   -45.7707 -22.4799 -22.4110 -22.3932  -6.5058  -6.2870  -6.2646  -5.0061
    -4.9768  -4.7801  -4.6898  -4.6380   2.7697   5.4778   5.5817   5.6753
     6.4126   7.1317   7.9363   8.9418   8.9585   9.5384

          k = 0.3333-0.5000-0.4756 (  5072 PWs)   bands (ev):

   -45.7705 -22.4989 -22.4100 -22.3923  -6.4964  -6.3285  -6.1368  -4.9812
    -4.9571  -4.7317  -4.6113  -4.5389   3.1311   4.9448   5.1135   5.4780
     6.1582   6.5520   6.9257   9.3886   9.5137   9.6232

          k =-0.5000-0.5000 0.0000 (  5052 PWs)   bands (ev):

   -45.7707 -22.4599 -22.4110 -22.4110  -6.5822  -6.2233  -6.2233  -5.0329
    -4.9460  -4.7788  -4.7788  -4.6931   2.3046   5.4710   6.0217   6.9256
     6.9256   7.5228   7.5228   8.2375   8.6252   9.8192

          k =-0.5000-0.5000 0.2378 (  5080 PWs)   bands (ev):

   -45.7704 -22.4790 -22.4101 -22.4101  -6.3887  -6.3032  -6.3032  -4.9950
    -4.9442  -4.6644  -4.6466  -4.6466   2.7047   5.4284   5.5918   5.5918
     6.0280   7.0715   7.3088   8.9705   8.9705   9.8040

          k =-0.5000-0.5000-0.4756 (  5048 PWs)   bands (ev):

   -45.7701 -22.4979 -22.4092 -22.4092  -6.3731  -6.3731  -6.1898  -4.9571
    -4.9424  -4.6263  -4.5226  -4.5226   3.3392   4.9659   4.9659   5.3133
     5.9726   6.0343   6.2317   9.6364   9.6364   9.7888

     highest occupied level (ev):    10.3360

!    total energy              =    -380.57415677 Ry
     estimated scf accuracy    <          3.5E-11 Ry

     The total energy is the sum of the following terms:
     one-electron contribution =     -84.96097634 Ry
     hartree contribution      =      71.62988561 Ry
     xc contribution           =    -102.57308946 Ry
     ewald contribution        =    -264.66997658 Ry

     convergence has been achieved in  10 iterations

     negative rho (up, down):  1.585E-02 0.000E+00

     Forces acting on atoms (cartesian axes, Ry/au):

     atom    1 type  1   force =     0.00000000    0.00000000   -0.00716425
     atom    2 type  2   force =     0.00000000    0.00000000    0.00542346
     atom    3 type  3   force =     0.00000000    0.00000000   -0.00361575
     atom    4 type  3   force =     0.00000000    0.00000000    0.00267827
     atom    5 type  3   force =     0.00000000    0.00000000    0.00267827

     Total force =     0.010400     Total SCF correction =     0.000010


     Computing stress (Cartesian axis) and pressure


     negative rho (up, down):  1.585E-02 0.000E+00
          total   stress  (Ry/bohr**3)                   (kbar)     P=      -48.38
  -0.00038317   0.00000000   0.00000000          -56.37        0.00        0.00
   0.00000000  -0.00038317   0.00000000            0.00      -56.37        0.00
   0.00000000   0.00000000  -0.00022033            0.00        0.00      -32.41

     Energy error            =      1.4E-04 Ry
     Gradient error          =      7.2E-03 Ry/Bohr

     number of scf cycles    =   4
     number of bfgs steps    =   3

     energy             old  =    -380.5740123788 Ry
     energy             new  =    -380.5741567661 Ry

     CASE: energy            _new < energy            _old

     new trust radius        =       0.0209643780 bohr
     new conv_thr            =       0.0000000001 Ry


ATOMIC_POSITIONS (crystal)
Pb               0.0000000000        0.0000000000        0.9982129894
Ti               0.5000000000        0.5000000000        0.5375055872
O                0.5000000000        0.5000000000        0.1069116450
O                0.5000000000        0.0000000000        0.6123270332
O                0.0000000000        0.5000000000        0.6123270332



     Writing config-only to output data dir ./pto_80.save/ :
     XML data file
     NEW-OLD atomic charge density approx. for the potential

     Check: negative core charge=   -0.000002

     negative rho (up, down):  1.589E-02 0.000E+00

     total cpu time spent up to now is       84.7 secs

     Self-consistent Calculation

     iteration #  1     ecut=    80.00 Ry     beta= 0.70
     CG style diagonalization
     ethr =  1.00E-06,  avg # of iterations =  5.5

     Threshold (ethr) on eigenvalues was too large:
     Diagonalizing with lowered threshold

     CG style diagonalization
     c_bands:  1 eigenvalues not converged
     c_bands:  1 eigenvalues not converged
     c_bands:  1 eigenvalues not converged
     c_bands:  1 eigenvalues not converged
     c_bands:  2 eigenvalues not converged
     c_bands:  1 eigenvalues not converged
     ethr =  4.26E-08,  avg # of iterations =  6.0

     negative rho (up, down):  1.586E-02 0.000E+00

     total cpu time spent up to now is       89.2 secs

     total energy              =    -380.57427839 Ry
     estimated scf accuracy    <       0.00002061 Ry

     iteration #  2     ecut=    80.00 Ry     beta= 0.70
     CG style diagonalization
     ethr =  4.69E-08,  avg # of iterations =  4.3

     negative rho (up, down):  1.585E-02 0.000E+00

     total cpu time spent up to now is       90.9 secs

     total energy              =    -380.57427997 Ry
     estimated scf accuracy    <       0.00001561 Ry

     iteration #  3     ecut=    80.00 Ry     beta= 0.70
     CG style diagonalization
     ethr =  3.55E-08,  avg # of iterations =  4.2

     negative rho (up, down):  1.584E-02 0.000E+00

     total cpu time spent up to now is       92.5 secs

     total energy              =    -380.57428410 Ry
     estimated scf accuracy    <       0.00001062 Ry

     iteration #  4     ecut=    80.00 Ry     beta= 0.70
     CG style diagonalization
     ethr =  2.41E-08,  avg # of iterations =  3.6

     negative rho (up, down):  1.584E-02 0.000E+00

     total cpu time spent up to now is       93.8 secs

     total energy              =    -380.57428574 Ry
     estimated scf accuracy    <       0.00000012 Ry

     iteration #  5     ecut=    80.00 Ry     beta= 0.70
     CG style diagonalization
     ethr =  2.79E-10,  avg # of iterations =  5.9

     negative rho (up, down):  1.584E-02 0.000E+00

     total cpu time spent up to now is       96.0 secs

     total energy              =    -380.57428599 Ry
     estimated scf accuracy    <       0.00000021 Ry

     iteration #  6     ecut=    80.00 Ry     beta= 0.70
     CG style diagonalization
     ethr =  2.79E-10,  avg # of iterations =  3.9

     negative rho (up, down):  1.584E-02 0.000E+00

     total cpu time spent up to now is       97.6 secs

     total energy              =    -380.57428602 Ry
     estimated scf accuracy    <       0.00000002 Ry

     iteration #  7     ecut=    80.00 Ry     beta= 0.70
     CG style diagonalization
     ethr =  5.60E-11,  avg # of iterations =  4.3

     negative rho (up, down):  1.584E-02 0.000E+00

     total cpu time spent up to now is       99.2 secs

     total energy              =    -380.57428603 Ry
     estimated scf accuracy    <          5.6E-09 Ry

     iteration #  8     ecut=    80.00 Ry     beta= 0.70
     CG style diagonalization
     ethr =  1.27E-11,  avg # of iterations =  5.0

     negative rho (up, down):  1.584E-02 0.000E+00

     total cpu time spent up to now is      101.1 secs

     total energy              =    -380.57428603 Ry
     estimated scf accuracy    <          4.9E-10 Ry

     iteration #  9     ecut=    80.00 Ry     beta= 0.70
     CG style diagonalization
     ethr =  1.11E-12,  avg # of iterations =  6.7

     negative rho (up, down):  1.584E-02 0.000E+00

     total cpu time spent up to now is      103.6 secs

     End of self-consistent calculation

          k = 0.0000 0.0000 0.0000 (  5115 PWs)   bands (ev):

   -45.7723 -22.4685 -22.3459 -22.3459  -7.5385  -6.4658  -6.2171  -5.0139
    -5.0139  -4.9783  -4.8799  -4.7225   4.2016   6.2860   6.2860   6.7606
     8.1010   8.1010   8.4744   8.6213   8.9195   8.9195

          k = 0.0000 0.0000 0.2378 (  5102 PWs)   bands (ev):

   -45.7720 -22.4882 -22.3451 -22.3451  -7.3456  -6.4103  -6.1611  -5.0289
    -5.0289  -4.9771  -4.8690  -4.7900   3.4409   6.3285   6.3285   6.8562
     7.8983   7.8983   8.3894   8.7788   9.0167   9.0167

          k = 0.0000 0.0000-0.4756 (  5102 PWs)   bands (ev):

   -45.7717 -22.5077 -22.3443 -22.3443  -7.1353  -6.3499  -6.1128  -5.0439
    -5.0439  -4.9758  -4.8626  -4.8591   2.9282   6.2011   6.3509   6.3509
     7.7721   7.7721   8.3083   9.0832   9.0832   9.9973

          k = 0.0000 0.1667 0.0000 (  5099 PWs)   bands (ev):

   -45.7720 -22.4678 -22.3632 -22.3452  -7.4046  -6.4389  -6.1948  -5.0358
    -5.0125  -4.9909  -4.8742  -4.7125   3.7868   6.3329   6.3957   6.7207
     8.1122   8.1254   8.4525   8.5500   8.5882   8.9733

          k = 0.0000 0.1667 0.2378 (  5086 PWs)   bands (ev):

   -45.7717 -22.4873 -22.3623 -22.3444  -7.2274  -6.3982  -6.1329  -5.0307
    -5.0280  -4.9902  -4.8712  -4.7478   3.2400   6.1177   6.4465   6.9266
     7.6000   7.8908   8.2390   8.6370   8.6899   9.3558

          k = 0.0000 0.1667-0.4756 (  5122 PWs)   bands (ev):

   -45.7714 -22.5067 -22.3615 -22.3436  -7.0436  -6.3523  -6.0696  -5.0434
    -5.0230  -4.9894  -4.8750  -4.7822   2.8142   5.8137   6.4719   6.5985
     7.4313   7.7709   8.3041   8.6911   8.7670   9.9511

          k = 0.0000 0.3333 0.0000 (  5077 PWs)   bands (ev):

   -45.7713 -22.4662 -22.3977 -22.3437  -7.1126  -6.3811  -6.1668  -5.0657
    -5.0161  -5.0095  -4.8500  -4.7231   3.2195   5.9733   6.6625   6.6834
     7.8199   7.8682   8.2148   8.3215   8.6664   9.6081

          k = 0.0000 0.3333 0.2378 (  5089 PWs)   bands (ev):

   -45.7710 -22.4855 -22.3966 -22.3429  -6.9976  -6.3445  -6.0825  -5.0338
    -5.0261  -5.0162  -4.8518  -4.6945   2.8993   5.8369   6.5491   6.7589
     7.2609   7.6858   7.8516   8.3164   8.8788   9.6835

          k = 0.0000 0.3333-0.4756 (  5100 PWs)   bands (ev):

   -45.7708 -22.5046 -22.3956 -22.3421  -6.9119  -6.2856  -5.9712  -5.0424
    -5.0164  -4.9927  -4.8863  -4.6496   2.6113   5.5085   6.3363   6.7793
     7.1467   7.3768   7.6385   8.3672   9.2410   9.5586

          k = 0.0000-0.5000 0.0000 (  5088 PWs)   bands (ev):

   -45.7710 -22.4653 -22.4149 -22.3430  -6.9505  -6.3340  -6.1810  -5.0773
    -5.0285  -5.0081  -4.7959  -4.7763   3.0127   5.6310   6.9009   6.9508
     7.3565   7.4666   8.2391   8.2443   8.6978  10.3443

          k = 0.0000-0.5000 0.2378 (  5082 PWs)   bands (ev):

   -45.7707 -22.4845 -22.4137 -22.3422  -6.8976  -6.2679  -6.0830  -5.0434
    -5.0291  -5.0251  -4.8144  -4.6916   2.7615   5.5901   6.5629   6.7948
     7.1421   7.2603   7.9573   8.2744   8.8912   9.8508

          k = 0.0000-0.5000-0.4756 (  5080 PWs)   bands (ev):

   -45.7705 -22.5035 -22.4125 -22.3413  -6.8813  -6.1976  -5.9257  -5.0419
    -5.0298  -5.0018  -4.8635  -4.5963   2.5290   5.3798   6.0295   6.8441
     7.0822   7.3489   7.4085   8.2922   9.1720   9.5782

          k = 0.1667 0.1667 0.0000 (  5087 PWs)   bands (ev):

   -45.7716 -22.4670 -22.3626 -22.3623  -7.2735  -6.4109  -6.1918  -5.0402
    -5.0266  -4.9924  -4.8477  -4.7029   3.4904   6.2866   6.5098   6.7243
     7.6391   7.8170   8.4541   8.5582   8.8609   9.1652

          k = 0.1667 0.1667 0.2378 (  5097 PWs)   bands (ev):

   -45.7714 -22.4864 -22.3617 -22.3614  -7.1075  -6.3880  -6.1296  -5.0419
    -5.0196  -4.9860  -4.8409  -4.7168   3.1278   6.0699   6.1493   6.8548
     7.5097   7.5198   8.2684   8.7098   8.9324   9.3177

          k = 0.1667 0.1667-0.4756 (  5090 PWs)   bands (ev):

   -45.7711 -22.5057 -22.3608 -22.3606  -6.9421  -6.3650  -6.0564  -5.0531
    -5.0014  -4.9612  -4.8490  -4.7352   2.7913   5.8618   5.8729   6.5930
     7.3940   7.4681   8.1956   8.7769   8.9856   9.6657

          k = 0.1667 0.3333 0.0000 (  5070 PWs)   bands (ev):

   -45.7710 -22.4654 -22.3968 -22.3609  -6.9907  -6.3544  -6.2006  -5.0588
    -5.0159  -4.9763  -4.8121  -4.7114   3.0200   5.9848   6.5115   6.8285
     7.1757   7.6798   8.0528   8.6671   8.8479   9.6566

          k = 0.1667 0.3333 0.2378 (  5093 PWs)   bands (ev):

   -45.7707 -22.4846 -22.3958 -22.3600  -6.8740  -6.3471  -6.1280  -5.0380
    -5.0146  -4.9563  -4.7964  -4.6717   2.8961   5.8050   5.9659   6.4831
     6.9049   7.5616   8.3475   8.6362   8.9739   9.4101

          k = 0.1667 0.3333-0.4756 (  5082 PWs)   bands (ev):

   -45.7705 -22.5037 -22.3948 -22.3592  -6.7920  -6.3272  -6.0193  -5.0373
    -4.9923  -4.9190  -4.8061  -4.6246   2.7328   5.4560   5.8775   6.2252
     6.4254   7.4306   8.4269   8.7048   8.9416   9.3951

          k = 0.1667-0.5000 0.0000 (  5062 PWs)   bands (ev):

   -45.7707 -22.4645 -22.4140 -22.3601  -6.8350  -6.3100  -6.2314  -5.0605
    -5.0083  -4.9575  -4.7682  -4.7618   2.8321   5.6486   6.6263   6.8534
     7.1964   7.4701   7.8133   8.7406   8.8090   9.9786

          k = 0.1667-0.5000 0.2378 (  5082 PWs)   bands (ev):

   -45.7704 -22.4836 -22.4128 -22.3593  -6.7738  -6.2808  -6.1513  -5.0362
    -5.0017  -4.9399  -4.7658  -4.6682   2.7888   5.5960   5.8708   6.2461
     6.8589   7.6950   8.1487   8.6239   8.9914   9.3677

          k = 0.1667-0.5000-0.4756 (  5112 PWs)   bands (ev):

   -45.7701 -22.5027 -22.4117 -22.3584  -6.7610  -6.2528  -6.0043  -5.0323
    -4.9635  -4.9215  -4.7786  -4.5733   2.7064   5.3432   5.7279   5.8828
     6.3050   7.5470   8.3077   8.5832   8.6532   9.5891

          k = 0.3333 0.3333 0.0000 (  5081 PWs)   bands (ev):

   -45.7704 -22.4638 -22.3952 -22.3949  -6.7470  -6.3023  -6.2554  -5.0395
    -4.9969  -4.9012  -4.7417  -4.7120   2.6411   5.9356   6.1153   6.8954
     7.0797   7.1604   7.9075   8.4828   9.3456   9.4028

          k = 0.3333 0.3333 0.2378 (  5082 PWs)   bands (ev):

   -45.7701 -22.4829 -22.3942 -22.3940  -6.6270  -6.3458  -6.2112  -5.0031
    -4.9922  -4.8535  -4.6950  -4.6393   2.8210   5.5653   5.6454   5.9314
     6.6260   7.0633   8.3903   8.9417   8.9600   9.3595

          k = 0.3333 0.3333-0.4756 (  5084 PWs)   bands (ev):

   -45.7698 -22.5019 -22.3933 -22.3931  -6.5677  -6.3864  -6.0953  -4.9871
    -4.9674  -4.8019  -4.6470  -4.5691   2.9861   5.1890   5.1912   5.6960
     6.3549   6.5535   7.6963   9.2749   9.3359   9.4642

          k = 0.3333-0.5000 0.0000 (  5070 PWs)   bands (ev):

   -45.7700 -22.4628 -22.4120 -22.3941  -6.6326  -6.2786  -6.2678  -5.0320
    -4.9750  -4.8316  -4.7510  -4.7072   2.4647   5.6196   6.1523   6.7179
     7.2122   7.4054   7.4917   8.4767   9.1061   9.5402

          k = 0.3333-0.5000 0.2378 (  5068 PWs)   bands (ev):

   -45.7698 -22.4819 -22.4111 -22.3933  -6.5195  -6.3102  -6.2661  -4.9954
    -4.9663  -4.7723  -4.6748  -4.6237   2.7507   5.4751   5.5717   5.6715
     6.4076   7.1322   7.9543   8.9361   8.9494   9.5165

          k = 0.3333-0.5000-0.4756 (  5072 PWs)   bands (ev):

   -45.7695 -22.5009 -22.4101 -22.3924  -6.5166  -6.3498  -6.1282  -4.9708
    -4.9466  -4.7266  -4.5985  -4.5260   3.1099   4.9345   5.1121   5.4710
     6.1535   6.5476   6.9599   9.3806   9.4904   9.6157

          k =-0.5000-0.5000 0.0000 (  5052 PWs)   bands (ev):

   -45.7697 -22.4619 -22.4111 -22.4111  -6.5747  -6.2498  -6.2498  -5.0223
    -4.9352  -4.7589  -4.7589  -4.6876   2.2821   5.4595   6.0148   6.9343
     6.9343   7.5087   7.5087   8.2400   8.6383   9.7962

          k =-0.5000-0.5000 0.2378 (  5080 PWs)   bands (ev):

   -45.7694 -22.4810 -22.4102 -22.4102  -6.3803  -6.3261  -6.3261  -4.9844
    -4.9334  -4.6599  -4.6309  -4.6309   2.6756   5.4179   5.5946   5.5946
     6.0211   7.0718   7.3339   8.9633   8.9633   9.7811

          k =-0.5000-0.5000-0.4756 (  5048 PWs)   bands (ev):

   -45.7692 -22.4999 -22.4093 -22.4093  -6.3933  -6.3933  -6.1801  -4.9465
    -4.9315  -4.6232  -4.5102  -4.5102   3.2904   4.9698   4.9698   5.3059
     6.0201   6.0275   6.2283   9.6298   9.6298   9.7660

     highest occupied level (ev):    10.3443

!    total energy              =    -380.57428603 Ry
     estimated scf accuracy    <          6.7E-11 Ry

     The total energy is the sum of the following terms:
     one-electron contribution =     -85.26566598 Ry
     hartree contribution      =      71.78235769 Ry
     xc contribution           =    -102.57928844 Ry
     ewald contribution        =    -264.51168932 Ry

     convergence has been achieved in   9 iterations

     negative rho (up, down):  1.584E-02 0.000E+00

     Forces acting on atoms (cartesian axes, Ry/au):

     atom    1 type  1   force =     0.00000000    0.00000000   -0.00489761
     atom    2 type  2   force =     0.00000000    0.00000000    0.00486863
     atom    3 type  3   force =     0.00000000    0.00000000   -0.00511568
     atom    4 type  3   force =     0.00000000    0.00000000    0.00257233
     atom    5 type  3   force =     0.00000000    0.00000000    0.00257233

     Total force =     0.009332     Total SCF correction =     0.000013


     Computing stress (Cartesian axis) and pressure


     negative rho (up, down):  1.584E-02 0.000E+00
          total   stress  (Ry/bohr**3)                   (kbar)     P=      -45.31
  -0.00036700   0.00000000   0.00000000          -53.99        0.00        0.00
   0.00000000  -0.00036700   0.00000000            0.00      -53.99        0.00
   0.00000000   0.00000000  -0.00019009            0.00        0.00      -27.96

     Energy error            =      1.3E-04 Ry
     Gradient error          =      5.1E-03 Ry/Bohr

     number of scf cycles    =   5
     number of bfgs steps    =   4

     energy             old  =    -380.5741567661 Ry
     energy             new  =    -380.5742860342 Ry

     CASE: energy            _new < energy            _old

     new trust radius        =       0.0314465670 bohr
     new conv_thr            =       0.0000000001 Ry


ATOMIC_POSITIONS (crystal)
Pb               0.0000000000        0.0000000000        0.9941542560
Ti               0.5000000000        0.5000000000        0.5382932486
O                0.5000000000        0.5000000000        0.1077086676
O                0.5000000000        0.0000000000        0.6135640579
O                0.0000000000        0.5000000000        0.6135640579



     Writing config-only to output data dir ./pto_80.save/ :
     XML data file
     NEW-OLD atomic charge density approx. for the potential

     Check: negative core charge=   -0.000002

     negative rho (up, down):  1.572E-02 0.000E+00

     total cpu time spent up to now is      105.9 secs

     Self-consistent Calculation

     iteration #  1     ecut=    80.00 Ry     beta= 0.70
     CG style diagonalization
     c_bands:  1 eigenvalues not converged
     c_bands:  1 eigenvalues not converged
     c_bands:  1 eigenvalues not converged
     c_bands:  1 eigenvalues not converged
     ethr =  1.00E-06,  avg # of iterations =  6.8

     negative rho (up, down):  1.568E-02 0.000E+00

     total cpu time spent up to now is      108.6 secs

     total energy              =    -380.57436826 Ry
     estimated scf accuracy    <       0.00004546 Ry

     iteration #  2     ecut=    80.00 Ry     beta= 0.70
     CG style diagonalization
     ethr =  1.03E-07,  avg # of iterations =  4.7

     negative rho (up, down):  1.566E-02 0.000E+00

     total cpu time spent up to now is      110.4 secs

     total energy              =    -380.57439249 Ry
     estimated scf accuracy    <       0.00003327 Ry

     iteration #  3     ecut=    80.00 Ry     beta= 0.70
     CG style diagonalization
     ethr =  7.56E-08,  avg # of iterations =  4.2

     negative rho (up, down):  1.565E-02 0.000E+00

     total cpu time spent up to now is      112.0 secs

     total energy              =    -380.57440217 Ry
     estimated scf accuracy    <       0.00001809 Ry

     iteration #  4     ecut=    80.00 Ry     beta= 0.70
     CG style diagonalization
     ethr =  4.11E-08,  avg # of iterations =  3.7

     negative rho (up, down):  1.565E-02 0.000E+00

     total cpu time spent up to now is      113.4 secs

     total energy              =    -380.57440586 Ry
     estimated scf accuracy    <       0.00000128 Ry

     iteration #  5     ecut=    80.00 Ry     beta= 0.70
     CG style diagonalization
     ethr =  2.92E-09,  avg # of iterations =  4.5

     negative rho (up, down):  1.564E-02 0.000E+00

     total cpu time spent up to now is      115.2 secs

     total energy              =    -380.57440664 Ry
     estimated scf accuracy    <       0.00000027 Ry

     iteration #  6     ecut=    80.00 Ry     beta= 0.70
     CG style diagonalization
     ethr =  6.13E-10,  avg # of iterations =  4.7

     negative rho (up, down):  1.565E-02 0.000E+00

     total cpu time spent up to now is      117.0 secs

     total energy              =    -380.57440681 Ry
     estimated scf accuracy    <       0.00000005 Ry

     iteration #  7     ecut=    80.00 Ry     beta= 0.70
     CG style diagonalization
     ethr =  1.07E-10,  avg # of iterations =  5.1

     negative rho (up, down):  1.565E-02 0.000E+00

     total cpu time spent up to now is      118.9 secs

     total energy              =    -380.57440687 Ry
     estimated scf accuracy    <          6.1E-09 Ry

     iteration #  8     ecut=    80.00 Ry     beta= 0.70
     CG style diagonalization
     ethr =  1.38E-11,  avg # of iterations =  6.0

     negative rho (up, down):  1.565E-02 0.000E+00

     total cpu time spent up to now is      121.2 secs

     total energy              =    -380.57440688 Ry
     estimated scf accuracy    <          9.5E-10 Ry

     iteration #  9     ecut=    80.00 Ry     beta= 0.70
     CG style diagonalization
     ethr =  2.16E-12,  avg # of iterations =  6.0

     negative rho (up, down):  1.565E-02 0.000E+00

     total cpu time spent up to now is      123.4 secs

     End of self-consistent calculation

          k = 0.0000 0.0000 0.0000 (  5115 PWs)   bands (ev):

   -45.7831 -22.4757 -22.3585 -22.3585  -7.5656  -6.5039  -6.2081  -4.9980
    -4.9980  -4.9580  -4.8711  -4.6922   4.2058   6.2601   6.2601   6.8007
     8.1085   8.1085   8.4572   8.6190   8.8847   8.8847

          k = 0.0000 0.0000 0.2378 (  5102 PWs)   bands (ev):

   -45.7828 -22.4953 -22.3577 -22.3577  -7.3783  -6.4512  -6.1487  -5.0130
    -5.0130  -4.9567  -4.8577  -4.7569   3.4553   6.3020   6.3020   6.8763
     7.9038   7.9038   8.3725   8.7799   8.9816   8.9816

          k = 0.0000 0.0000-0.4756 (  5102 PWs)   bands (ev):

   -45.7825 -22.5148 -22.3569 -22.3569  -7.1762  -6.3941  -6.0948  -5.0280
    -5.0280  -4.9555  -4.8451  -4.8259   2.9460   6.2139   6.3245   6.3245
     7.7766   7.7766   8.2916   9.0462   9.0462   9.9903

          k = 0.0000 0.1667 0.0000 (  5099 PWs)   bands (ev):

   -45.7828 -22.4749 -22.3758 -22.3577  -7.4315  -6.4777  -6.1887  -5.0196
    -4.9966  -4.9706  -4.8615  -4.6818   3.7908   6.3125   6.3688   6.7345
     8.1245   8.1331   8.4322   8.5170   8.5736   8.9664

          k = 0.0000 0.1667 0.2378 (  5086 PWs)   bands (ev):

   -45.7825 -22.4944 -22.3749 -22.3569  -7.2601  -6.4386  -6.1228  -5.0129
    -5.0121  -4.9698  -4.8575  -4.7161   3.2528   6.0979   6.4193   6.9315
     7.5989   7.8930   8.2180   8.6251   8.6600   9.3520

          k = 0.0000 0.1667-0.4756 (  5122 PWs)   bands (ev):

   -45.7822 -22.5138 -22.3741 -22.3561  -7.0839  -6.3950  -6.0536  -5.0275
    -5.0039  -4.9691  -4.8591  -4.7501   2.8312   5.8038   6.4452   6.5918
     7.4295   7.7716   8.2644   8.6812   8.7351   9.9557

          k = 0.0000 0.3333 0.0000 (  5077 PWs)   bands (ev):

   -45.7821 -22.4734 -22.4103 -22.3563  -7.1397  -6.4204  -6.1676  -5.0477
    -4.9959  -4.9935  -4.8293  -4.6927   3.2241   5.9509   6.6534   6.6635
     7.8033   7.8471   8.2127   8.2978   8.6576   9.6299

          k = 0.0000 0.3333 0.2378 (  5089 PWs)   bands (ev):

   -45.7818 -22.4926 -22.4093 -22.3555  -7.0307  -6.3839  -6.0774  -5.0146
    -5.0102  -4.9958  -4.8321  -4.6644   2.9107   5.8150   6.5428   6.7299
     7.2370   7.6696   7.8458   8.3056   8.8662   9.6983

          k = 0.0000 0.3333-0.4756 (  5100 PWs)   bands (ev):

   -45.7816 -22.5117 -22.4082 -22.3546  -6.9494  -6.3284  -5.9593  -5.0265
    -4.9961  -4.9722  -4.8644  -4.6225   2.6275   5.4932   6.3279   6.7541
     7.1119   7.3632   7.6195   8.3522   9.2457   9.5683

          k = 0.0000-0.5000 0.0000 (  5088 PWs)   bands (ev):

   -45.7818 -22.4725 -22.4276 -22.3556  -6.9787  -6.3729  -6.1853  -5.0582
    -5.0081  -4.9922  -4.7618  -4.7553   3.0182   5.6086   6.8986   6.9146
     7.3369   7.4492   8.2139   8.2436   8.6878  10.3626

          k = 0.0000-0.5000 0.2378 (  5082 PWs)   bands (ev):

   -45.7815 -22.4916 -22.4264 -22.3547  -6.9313  -6.3098  -6.0772  -5.0235
    -5.0091  -5.0088  -4.7913  -4.6625   2.7734   5.5676   6.5531   6.7686
     7.1028   7.2467   7.9476   8.2703   8.8777   9.8751

          k = 0.0000-0.5000-0.4756 (  5080 PWs)   bands (ev):

   -45.7812 -22.5106 -22.4252 -22.3539  -6.9168  -6.2432  -5.9144  -5.0260
    -5.0095  -4.9814  -4.8378  -4.5713   2.5457   5.3621   6.0182   6.7984
     7.0707   7.3059   7.4019   8.2862   9.2065   9.5686

          k = 0.1667 0.1667 0.0000 (  5087 PWs)   bands (ev):

   -45.7824 -22.4742 -22.3752 -22.3749  -7.2999  -6.4507  -6.1882  -5.0234
    -5.0099  -4.9727  -4.8322  -4.6719   3.4899   6.2630   6.4914   6.7293
     7.6457   7.7945   8.4595   8.5423   8.8277   9.1751

          k = 0.1667 0.1667 0.2378 (  5097 PWs)   bands (ev):

   -45.7822 -22.4936 -22.3743 -22.3740  -7.1400  -6.4286  -6.1207  -5.0246
    -5.0011  -4.9670  -4.8256  -4.6857   3.1364   6.0520   6.1291   6.8518
     7.4982   7.5095   8.2687   8.6866   8.9055   9.3251

          k = 0.1667 0.1667-0.4756 (  5090 PWs)   bands (ev):

   -45.7819 -22.5128 -22.3734 -22.3732  -6.9821  -6.4064  -6.0407  -5.0355
    -4.9815  -4.9438  -4.8328  -4.7037   2.8054   5.8481   5.8626   6.5757
     7.3616   7.4638   8.1999   8.7507   8.9600   9.6756

          k = 0.1667 0.3333 0.0000 (  5070 PWs)   bands (ev):

   -45.7818 -22.4726 -22.4094 -22.3735  -7.0156  -6.3950  -6.2034  -5.0405
    -4.9988  -4.9564  -4.7910  -4.6805   3.0146   5.9621   6.4969   6.8211
     7.1534   7.6920   8.0383   8.6542   8.8226   9.6736

          k = 0.1667 0.3333 0.2378 (  5093 PWs)   bands (ev):

   -45.7815 -22.4918 -22.4084 -22.3726  -6.9063  -6.3865  -6.1222  -5.0197
    -4.9964  -4.9377  -4.7765  -4.6423   2.8981   5.7860   5.9462   6.4689
     6.8976   7.5573   8.3313   8.6190   8.9574   9.4248

          k = 0.1667 0.3333-0.4756 (  5082 PWs)   bands (ev):

   -45.7812 -22.5108 -22.4074 -22.3718  -6.8296  -6.3677  -6.0051  -5.0198
    -4.9733  -4.9018  -4.7850  -4.5979   2.7417   5.4438   5.8482   6.2192
     6.4048   7.4176   8.4299   8.6694   8.9598   9.3870

          k = 0.1667-0.5000 0.0000 (  5062 PWs)   bands (ev):

   -45.7815 -22.4717 -22.4266 -22.3727  -6.8594  -6.3504  -6.2379  -5.0417
    -4.9910  -4.9379  -4.7384  -4.7360   2.8253   5.6267   6.6170   6.8278
     7.1811   7.4574   7.8268   8.7110   8.7975   9.9958

          k = 0.1667-0.5000 0.2378 (  5082 PWs)   bands (ev):

   -45.7812 -22.4908 -22.4255 -22.3719  -6.8066  -6.3220  -6.1442  -5.0179
    -4.9837  -4.9219  -4.7423  -4.6402   2.7886   5.5747   5.8475   6.2353
     6.8511   7.6912   8.1253   8.6143   8.9709   9.3920

          k = 0.1667-0.5000-0.4756 (  5112 PWs)   bands (ev):

   -45.7809 -22.5097 -22.4244 -22.3710  -6.7965  -6.2946  -5.9901  -5.0148
    -4.9453  -4.9045  -4.7542  -4.5491   2.7135   5.3289   5.6862   5.8706
     6.3014   7.5317   8.3170   8.5802   8.6432   9.5810

          k = 0.3333 0.3333 0.0000 (  5081 PWs)   bands (ev):

   -45.7811 -22.4709 -22.4078 -22.4075  -6.7620  -6.3455  -6.2682  -5.0210
    -4.9779  -4.8796  -4.7206  -4.6804   2.6196   5.9131   6.0944   6.8963
     7.0690   7.1830   7.8827   8.4846   9.3084   9.4227

          k = 0.3333 0.3333 0.2378 (  5082 PWs)   bands (ev):

   -45.7809 -22.4900 -22.4069 -22.4066  -6.6555  -6.3856  -6.2066  -4.9843
    -4.9738  -4.8359  -4.6746  -4.6113   2.8006   5.5543   5.6398   5.9105
     6.6201   7.0655   8.4069   8.9284   8.9634   9.3244

          k = 0.3333 0.3333-0.4756 (  5084 PWs)   bands (ev):

   -45.7806 -22.5090 -22.4059 -22.4057  -6.6049  -6.4232  -6.0784  -4.9690
    -4.9487  -4.7875  -4.6277  -4.5443   2.9706   5.1604   5.1921   5.6828
     6.3518   6.5414   7.7388   9.2684   9.2960   9.4565

          k = 0.3333-0.5000 0.0000 (  5070 PWs)   bands (ev):

   -45.7808 -22.4700 -22.4247 -22.4068  -6.6360  -6.3112  -6.3044  -5.0134
    -4.9556  -4.8082  -4.7224  -4.6831   2.4364   5.5978   6.1310   6.7308
     7.2350   7.3850   7.4737   8.4753   9.1271   9.5028

          k = 0.3333-0.5000 0.2378 (  5068 PWs)   bands (ev):

   -45.7805 -22.4890 -22.4237 -22.4059  -6.5460  -6.3500  -6.2625  -4.9768
    -4.9475  -4.7565  -4.6499  -4.5990   2.7189   5.4743   5.5530   5.6655
     6.3966   7.1357   7.9838   8.9323   8.9414   9.4787

          k = 0.3333-0.5000-0.4756 (  5072 PWs)   bands (ev):

   -45.7803 -22.5080 -22.4227 -22.4050  -6.5520  -6.3866  -6.1103  -4.9522
    -4.9279  -4.7139  -4.5772  -4.5044   3.0746   4.9206   5.1143   5.4545
     6.1442   6.5386   7.0164   9.3752   9.4498   9.6103

          k =-0.5000-0.5000 0.0000 (  5052 PWs)   bands (ev):

   -45.7805 -22.4691 -22.4237 -22.4237  -6.5584  -6.2947  -6.2947  -5.0037
    -4.9157  -4.7266  -4.7266  -4.6744   2.2445   5.4377   5.9961   6.9601
     6.9601   7.4839   7.4839   8.2467   8.6579   9.7557

          k =-0.5000-0.5000 0.2378 (  5080 PWs)   bands (ev):

   -45.7802 -22.4881 -22.4228 -22.4228  -6.3653  -6.3653  -6.3627  -4.9658
    -4.9139  -4.6478  -4.6052  -4.6052   2.6273   5.3969   5.6037   5.6037
     6.0024   7.0746   7.3738   8.9573   8.9573   9.7408

          k =-0.5000-0.5000-0.4756 (  5048 PWs)   bands (ev):

   -45.7800 -22.5070 -22.4219 -22.4219  -6.4283  -6.4283  -6.1609  -4.9278
    -4.9120  -4.6125  -4.4897  -4.4897   3.2121   4.9800   4.9800   5.2886
     6.0087   6.0949   6.2261   9.6257   9.6257   9.7260

     highest occupied level (ev):    10.3626

!    total energy              =    -380.57440688 Ry
     estimated scf accuracy    <          1.2E-10 Ry

     The total energy is the sum of the following terms:
     one-electron contribution =     -85.69396672 Ry
     hartree contribution      =      71.99353218 Ry
     xc contribution           =    -102.58605785 Ry
     ewald contribution        =    -264.28791448 Ry

     convergence has been achieved in   9 iterations

     negative rho (up, down):  1.565E-02 0.000E+00

     Forces acting on atoms (cartesian axes, Ry/au):

     atom    1 type  1   force =     0.00000000    0.00000000   -0.00075470
     atom    2 type  2   force =     0.00000000    0.00000000    0.00108737
     atom    3 type  3   force =     0.00000000    0.00000000   -0.00372015
     atom    4 type  3   force =     0.00000000    0.00000000    0.00169374
     atom    5 type  3   force =     0.00000000    0.00000000    0.00169374

     Total force =     0.004618     Total SCF correction =     0.000071


     Computing stress (Cartesian axis) and pressure


     negative rho (up, down):  1.565E-02 0.000E+00
          total   stress  (Ry/bohr**3)                   (kbar)     P=      -42.12
  -0.00034357   0.00000000   0.00000000          -50.54        0.00        0.00
   0.00000000  -0.00034357   0.00000000            0.00      -50.54        0.00
   0.00000000   0.00000000  -0.00017187            0.00        0.00      -25.28

     Energy error            =      1.2E-04 Ry
     Gradient error          =      3.7E-03 Ry/Bohr

     number of scf cycles    =   6
     number of bfgs steps    =   5

     energy             old  =    -380.5742860342 Ry
     energy             new  =    -380.5744068779 Ry

     CASE: energy            _new < energy            _old

     new trust radius        =       0.0058451181 bohr
     new conv_thr            =       0.0000000001 Ry


ATOMIC_POSITIONS (crystal)
Pb               0.0000000000        0.0000000000        0.9933998406
Ti               0.5000000000        0.5000000000        0.5385022611
O                0.5000000000        0.5000000000        0.1073788967
O                0.5000000000        0.0000000000        0.6140016448
O                0.0000000000        0.5000000000        0.6140016448



     Writing config-only to output data dir ./pto_80.save/ :
     XML data file
     NEW-OLD atomic charge density approx. for the potential

     Check: negative core charge=   -0.000002

     negative rho (up, down):  1.566E-02 0.000E+00

     total cpu time spent up to now is      125.7 secs

     Self-consistent Calculation

     iteration #  1     ecut=    80.00 Ry     beta= 0.70
     CG style diagonalization
     ethr =  1.00E-06,  avg # of iterations =  3.8

     Threshold (ethr) on eigenvalues was too large:
     Diagonalizing with lowered threshold

     CG style diagonalization
     c_bands:  1 eigenvalues not converged
     c_bands:  1 eigenvalues not converged
     c_bands:  1 eigenvalues not converged
     c_bands:  2 eigenvalues not converged
     c_bands:  1 eigenvalues not converged
     c_bands:  1 eigenvalues not converged
     c_bands:  1 eigenvalues not converged
     c_bands:  1 eigenvalues not converged
     c_bands:  2 eigenvalues not converged
     c_bands:  1 eigenvalues not converged
     ethr =  2.37E-08,  avg # of iterations =  6.3

     negative rho (up, down):  1.566E-02 0.000E+00

     total cpu time spent up to now is      129.8 secs

     total energy              =    -380.57441840 Ry
     estimated scf accuracy    <       0.00001127 Ry

     iteration #  2     ecut=    80.00 Ry     beta= 0.70
     CG style diagonalization
     ethr =  2.56E-08,  avg # of iterations =  4.7

     negative rho (up, down):  1.565E-02 0.000E+00

     total cpu time spent up to now is      131.6 secs

     total energy              =    -380.57441753 Ry
     estimated scf accuracy    <       0.00003130 Ry

     iteration #  3     ecut=    80.00 Ry     beta= 0.70
     CG style diagonalization
     ethr =  2.56E-08,  avg # of iterations =  4.2

     negative rho (up, down):  1.565E-02 0.000E+00

     total cpu time spent up to now is      133.2 secs

     total energy              =    -380.57442372 Ry
     estimated scf accuracy    <       0.00000264 Ry

     iteration #  4     ecut=    80.00 Ry     beta= 0.70
     CG style diagonalization
     ethr =  6.01E-09,  avg # of iterations =  3.6

     negative rho (up, down):  1.565E-02 0.000E+00

     total cpu time spent up to now is      134.6 secs

     total energy              =    -380.57442421 Ry
     estimated scf accuracy    <       0.00000026 Ry

     iteration #  5     ecut=    80.00 Ry     beta= 0.70
     CG style diagonalization
     ethr =  5.87E-10,  avg # of iterations =  4.2

     negative rho (up, down):  1.565E-02 0.000E+00

     total cpu time spent up to now is      136.2 secs

     total energy              =    -380.57442433 Ry
     estimated scf accuracy    <       0.00000005 Ry

     iteration #  6     ecut=    80.00 Ry     beta= 0.70
     CG style diagonalization
     ethr =  1.18E-10,  avg # of iterations =  4.3

     negative rho (up, down):  1.565E-02 0.000E+00

     total cpu time spent up to now is      137.8 secs

     total energy              =    -380.57442436 Ry
     estimated scf accuracy    <          8.3E-09 Ry

     iteration #  7     ecut=    80.00 Ry     beta= 0.70
     CG style diagonalization
     ethr =  1.89E-11,  avg # of iterations =  4.5

     negative rho (up, down):  1.565E-02 0.000E+00

     total cpu time spent up to now is      139.6 secs

     total energy              =    -380.57442436 Ry
     estimated scf accuracy    <          1.6E-09 Ry

     iteration #  8     ecut=    80.00 Ry     beta= 0.70
     CG style diagonalization
     ethr =  3.71E-12,  avg # of iterations =  4.9

     negative rho (up, down):  1.565E-02 0.000E+00

     total cpu time spent up to now is      141.4 secs

     total energy              =    -380.57442436 Ry
     estimated scf accuracy    <          3.5E-10 Ry

     iteration #  9     ecut=    80.00 Ry     beta= 0.70
     CG style diagonalization
     ethr =  7.89E-13,  avg # of iterations =  5.2

     negative rho (up, down):  1.565E-02 0.000E+00

     total cpu time spent up to now is      143.4 secs

     End of self-consistent calculation

          k = 0.0000 0.0000 0.0000 (  5115 PWs)   bands (ev):

   -45.7911 -22.4792 -22.3669 -22.3669  -7.5728  -6.5130  -6.2046  -4.9934
    -4.9934  -4.9519  -4.8674  -4.6843   4.2093   6.2525   6.2525   6.8049
     8.1178   8.1178   8.4518   8.6258   8.8751   8.8751

          k = 0.0000 0.0000 0.2378 (  5102 PWs)   bands (ev):

   -45.7908 -22.4988 -22.3661 -22.3661  -7.3869  -6.4609  -6.1442  -5.0084
    -5.0084  -4.9506  -4.8535  -4.7484   3.4614   6.2946   6.2946   6.8782
     7.9111   7.9111   8.3672   8.7828   8.9726   8.9726

          k = 0.0000 0.0000-0.4756 (  5102 PWs)   bands (ev):

   -45.7905 -22.5183 -22.3653 -22.3653  -7.1869  -6.4047  -6.0889  -5.0233
    -5.0233  -4.9494  -4.8402  -4.8166   2.9536   6.2147   6.3174   6.3174
     7.7827   7.7827   8.2864   9.0369   9.0369   9.9887

          k = 0.0000 0.1667 0.0000 (  5099 PWs)   bands (ev):

   -45.7907 -22.4785 -22.3842 -22.3661  -7.4386  -6.4870  -6.1856  -5.0147
    -4.9919  -4.9645  -4.8571  -4.6739   3.7929   6.3073   6.3610   6.7358
     8.1312   8.1427   8.4270   8.5075   8.5729   8.9680

          k = 0.0000 0.1667 0.2378 (  5086 PWs)   bands (ev):

   -45.7905 -22.4979 -22.3833 -22.3653  -7.2687  -6.4484  -6.1188  -5.0078
    -5.0074  -4.9638  -4.8529  -4.7080   3.2576   6.0930   6.4117   6.9309
     7.6020   7.8990   8.2139   8.6232   8.6527   9.3521

          k = 0.0000 0.1667-0.4756 (  5122 PWs)   bands (ev):

   -45.7902 -22.5173 -22.3825 -22.3645  -7.0944  -6.4053  -6.0481  -5.0228
    -4.9985  -4.9630  -4.8539  -4.7419   2.8378   5.8015   6.4382   6.5881
     7.4325   7.7764   8.2544   8.6799   8.7274   9.9572

          k = 0.0000 0.3333 0.0000 (  5077 PWs)   bands (ev):

   -45.7901 -22.4769 -22.4187 -22.3647  -7.1468  -6.4300  -6.1658  -5.0424
    -4.9900  -4.9886  -4.8236  -4.6848   3.2255   5.9454   6.6451   6.6657
     7.8018   7.8405   8.2202   8.2908   8.6597   9.6364

          k = 0.0000 0.3333 0.2378 (  5089 PWs)   bands (ev):

   -45.7898 -22.4961 -22.4176 -22.3639  -7.0392  -6.3936  -6.0742  -5.0091
    -5.0055  -4.9898  -4.8265  -4.6568   2.9142   5.8101   6.5422   6.7220
     7.2339   7.6672   7.8442   8.3074   8.8652   9.7027

          k = 0.0000 0.3333-0.4756 (  5100 PWs)   bands (ev):

   -45.7895 -22.5152 -22.4166 -22.3630  -6.9588  -6.3390  -5.9546  -5.0218
    -4.9900  -4.9664  -4.8582  -4.6155   2.6325   5.4908   6.3267   6.7476
     7.1050   7.3585   7.6170   8.3516   9.2506   9.5706

          k = 0.0000-0.5000 0.0000 (  5088 PWs)   bands (ev):

   -45.7898 -22.4760 -22.4359 -22.3640  -6.9859  -6.3828  -6.1839  -5.0528
    -5.0021  -4.9875  -4.7535  -4.7494   3.0196   5.6032   6.9039   6.9054
     7.3311   7.4427   8.2067   8.2520   8.6897  10.3687

          k = 0.0000-0.5000 0.2378 (  5082 PWs)   bands (ev):

   -45.7895 -22.4951 -22.4348 -22.3631  -6.9398  -6.3204  -6.0736  -5.0180
    -5.0045  -5.0028  -4.7850  -4.6552   2.7766   5.5623   6.5523   6.7654
     7.0929   7.2428   7.9451   8.2755   8.8761   9.8827

          k = 0.0000-0.5000-0.4756 (  5080 PWs)   bands (ev):

   -45.7892 -22.5140 -22.4336 -22.3623  -6.9256  -6.2546  -5.9097  -5.0213
    -5.0034  -4.9757  -4.8308  -4.5648   2.5503   5.3588   6.0175   6.7893
     7.0682   7.2952   7.3980   8.2896   9.2173   9.5686

          k = 0.1667 0.1667 0.0000 (  5087 PWs)   bands (ev):

   -45.7904 -22.4777 -22.3836 -22.3832  -7.3068  -6.4603  -6.1857  -5.0185
    -5.0049  -4.9669  -4.8273  -4.6639   3.4906   6.2554   6.4871   6.7297
     7.6534   7.7898   8.4650   8.5376   8.8201   9.1826

          k = 0.1667 0.1667 0.2378 (  5097 PWs)   bands (ev):

   -45.7901 -22.4971 -22.3827 -22.3824  -7.1485  -6.4384  -6.1168  -5.0195
    -4.9957  -4.9614  -4.8207  -4.6778   3.1398   6.0469   6.1247   6.8501
     7.4935   7.5130   8.2738   8.6806   8.9000   9.3284

          k = 0.1667 0.1667-0.4756 (  5090 PWs)   bands (ev):

   -45.7899 -22.5163 -22.3818 -22.3816  -6.9925  -6.4164  -6.0353  -5.0304
    -4.9756  -4.9388  -4.8276  -4.6956   2.8108   5.8448   5.8601   6.5710
     7.3540   7.4651   8.2055   8.7439   8.9549   9.6786

          k = 0.1667 0.3333 0.0000 (  5070 PWs)   bands (ev):

   -45.7898 -22.4761 -22.4178 -22.3819  -7.0222  -6.4049  -6.2023  -5.0353
    -4.9937  -4.9504  -4.7851  -4.6726   3.0136   5.9562   6.4933   6.8202
     7.1485   7.7019   8.0354   8.6523   8.8181   9.6803

          k = 0.1667 0.3333 0.2378 (  5093 PWs)   bands (ev):

   -45.7895 -22.4953 -22.4168 -22.3810  -6.9147  -6.3963  -6.1190  -5.0144
    -4.9912  -4.9320  -4.7708  -4.6348   2.8992   5.7818   5.9424   6.4646
     6.8973   7.5584   8.3303   8.6167   8.9550   9.4294

          k = 0.1667 0.3333-0.4756 (  5082 PWs)   bands (ev):

   -45.7892 -22.5143 -22.4158 -22.3802  -6.8392  -6.3778  -6.0001  -5.0146
    -4.9678  -4.8964  -4.7790  -4.5911   2.7449   5.4422   5.8416   6.2172
     6.4006   7.4150   8.4349   8.6610   8.9656   9.3866

          k = 0.1667-0.5000 0.0000 (  5062 PWs)   bands (ev):

   -45.7894 -22.4752 -22.4350 -22.3811  -6.8658  -6.3606  -6.2374  -5.0364
    -4.9859  -4.9319  -4.7321  -4.7279   2.8238   5.6213   6.6180   6.8190
     7.1789   7.4543   7.8381   8.7035   8.7977  10.0011

          k = 0.1667-0.5000 0.2378 (  5082 PWs)   bands (ev):

   -45.7892 -22.4943 -22.4339 -22.3802  -6.8149  -6.3324  -6.1406  -5.0126
    -4.9786  -4.9161  -4.7360  -4.6330   2.7889   5.5697   5.8436   6.2332
     6.8493   7.6932   8.1213   8.6152   8.9669   9.3991

          k = 0.1667-0.5000-0.4756 (  5112 PWs)   bands (ev):

   -45.7889 -22.5132 -22.4328 -22.3794  -6.8054  -6.3051  -5.9851  -5.0097
    -4.9401  -4.8988  -4.7478  -4.5428   2.7159   5.3269   5.6774   5.8681
     6.3004   7.5287   8.3195   8.5827   8.6420   9.5817

          k = 0.3333 0.3333 0.0000 (  5081 PWs)   bands (ev):

   -45.7891 -22.4745 -22.4161 -22.4159  -6.7662  -6.3561  -6.2697  -5.0158
    -4.9724  -4.8733  -4.7143  -4.6725   2.6148   5.9074   6.0876   6.8982
     7.0688   7.1944   7.8760   8.4880   9.2994   9.4289

          k = 0.3333 0.3333 0.2378 (  5082 PWs)   bands (ev):

   -45.7888 -22.4935 -22.4152 -22.4150  -6.6632  -6.3954  -6.2039  -4.9791
    -4.9683  -4.8303  -4.6686  -4.6042   2.7963   5.5533   5.6388   5.9047
     6.6200   7.0673   8.4134   8.9269   8.9665   9.3163

          k = 0.3333 0.3333-0.4756 (  5084 PWs)   bands (ev):

   -45.7886 -22.5124 -22.4142 -22.4141  -6.6143  -6.4324  -6.0731  -4.9636
    -4.9434  -4.7822  -4.6222  -4.5380   2.9678   5.1551   5.1934   5.6778
     6.3527   6.5387   7.7505   9.2700   9.2858   9.4573

          k = 0.3333-0.5000 0.0000 (  5070 PWs)   bands (ev):

   -45.7888 -22.4735 -22.4331 -22.4151  -6.6372  -6.3220  -6.3092  -5.0081
    -4.9500  -4.8016  -4.7151  -4.6761   2.4301   5.5925   6.1244   6.7370
     7.2450   7.3815   7.4708   8.4768   9.1324   9.4935

          k = 0.3333-0.5000 0.2378 (  5068 PWs)   bands (ev):

   -45.7885 -22.4925 -22.4321 -22.4142  -6.5532  -6.3599  -6.2599  -4.9715
    -4.9419  -4.7508  -4.6436  -4.5924   2.7119   5.4760   5.5483   5.6644
     6.3945   7.1385   7.9913   8.9337   8.9424   9.4695

          k = 0.3333-0.5000-0.4756 (  5072 PWs)   bands (ev):

   -45.7883 -22.5114 -22.4311 -22.4134  -6.5608  -6.3958  -6.1050  -4.9468
    -4.9226  -4.7086  -4.5718  -4.4987   3.0669   4.9187   5.1168   5.4484
     6.1428   6.5379   7.0300   9.3767   9.4397   9.6117

          k =-0.5000-0.5000 0.0000 (  5052 PWs)   bands (ev):

   -45.7885 -22.4726 -22.4321 -22.4321  -6.5534  -6.3057  -6.3057  -4.9984
    -4.9099  -4.7186  -4.7186  -4.6689   2.2361   5.4324   5.9908   6.9694
     6.9694   7.4796   7.4796   8.2498   8.6622   9.7455

          k =-0.5000-0.5000 0.2378 (  5080 PWs)   bands (ev):

   -45.7882 -22.4916 -22.4312 -22.4312  -6.3751  -6.3751  -6.3575  -4.9605
    -4.9081  -4.6424  -4.5988  -4.5988   2.6165   5.3912   5.6080   5.6080
     5.9971   7.0769   7.3827   8.9585   8.9585   9.7307

          k =-0.5000-0.5000-0.4756 (  5048 PWs)   bands (ev):

   -45.7879 -22.5105 -22.4303 -22.4303  -6.4371  -6.4371  -6.1555  -4.9226
    -4.9063  -4.6072  -4.4845  -4.4845   3.1949   4.9845   4.9845   5.2823
     6.0034   6.1114   6.2283   9.6274   9.6274   9.7159

     highest occupied level (ev):    10.3687

!    total energy              =    -380.57442436 Ry
     estimated scf accuracy    <          1.2E-11 Ry

     The total energy is the sum of the following terms:
     one-electron contribution =     -85.75224925 Ry
     hartree contribution      =      72.02080566 Ry
     xc contribution           =    -102.58600423 Ry
     ewald contribution        =    -264.25697655 Ry

     convergence has been achieved in   9 iterations

     negative rho (up, down):  1.565E-02 0.000E+00

     Forces acting on atoms (cartesian axes, Ry/au):

     atom    1 type  1   force =     0.00000000    0.00000000    0.00026480
     atom    2 type  2   force =     0.00000000    0.00000000   -0.00077782
     atom    3 type  3   force =     0.00000000    0.00000000   -0.00156847
     atom    4 type  3   force =     0.00000000    0.00000000    0.00104075
     atom    5 type  3   force =     0.00000000    0.00000000    0.00104075

     Total force =     0.002303     Total SCF correction =     0.000013


     Computing stress (Cartesian axis) and pressure


     negative rho (up, down):  1.565E-02 0.000E+00
          total   stress  (Ry/bohr**3)                   (kbar)     P=      -42.31
  -0.00034073   0.00000000   0.00000000          -50.12        0.00        0.00
   0.00000000  -0.00034073   0.00000000            0.00      -50.12        0.00
   0.00000000   0.00000000  -0.00018139            0.00        0.00      -26.68

     Energy error            =      1.7E-05 Ry
     Gradient error          =      1.6E-03 Ry/Bohr

     number of scf cycles    =   7
     number of bfgs steps    =   6

     energy             old  =    -380.5744068779 Ry
     energy             new  =    -380.5744243646 Ry

     CASE: energy            _new < energy            _old

     new trust radius        =       0.0032911391 bohr
     new conv_thr            =            1.0E-10 Ry


ATOMIC_POSITIONS (crystal)
Pb               0.0000000000        0.0000000000        0.9934087456
Ti               0.5000000000        0.5000000000        0.5384108984
O                0.5000000000        0.5000000000        0.1069541173
O                0.5000000000        0.0000000000        0.6142552633
O                0.0000000000        0.5000000000        0.6142552633



     Writing config-only to output data dir ./pto_80.save/ :
     XML data file
     NEW-OLD atomic charge density approx. for the potential

     Check: negative core charge=   -0.000002

     negative rho (up, down):  1.565E-02 0.000E+00

     total cpu time spent up to now is      145.7 secs

     Self-consistent Calculation

     iteration #  1     ecut=    80.00 Ry     beta= 0.70
     CG style diagonalization
     ethr =  1.00E-06,  avg # of iterations =  2.7

     Threshold (ethr) on eigenvalues was too large:
     Diagonalizing with lowered threshold

     CG style diagonalization
     c_bands:  1 eigenvalues not converged
     c_bands:  2 eigenvalues not converged
     c_bands:  1 eigenvalues not converged
     c_bands:  1 eigenvalues not converged
     c_bands:  1 eigenvalues not converged
     c_bands:  1 eigenvalues not converged
     c_bands:  1 eigenvalues not converged
     ethr =  5.78E-09,  avg # of iterations =  5.9

     negative rho (up, down):  1.566E-02 0.000E+00

     total cpu time spent up to now is      149.2 secs

     total energy              =    -380.57442917 Ry
     estimated scf accuracy    <       0.00000455 Ry

     iteration #  2     ecut=    80.00 Ry     beta= 0.70
     CG style diagonalization
     ethr =  1.03E-08,  avg # of iterations =  4.7

     negative rho (up, down):  1.565E-02 0.000E+00

     total cpu time spent up to now is      151.0 secs

     total energy              =    -380.57442825 Ry
     estimated scf accuracy    <       0.00001717 Ry

     iteration #  3     ecut=    80.00 Ry     beta= 0.70
     CG style diagonalization
     ethr =  1.03E-08,  avg # of iterations =  4.3

     negative rho (up, down):  1.565E-02 0.000E+00

     total cpu time spent up to now is      152.6 secs

     total energy              =    -380.57443137 Ry
     estimated scf accuracy    <       0.00000068 Ry

     iteration #  4     ecut=    80.00 Ry     beta= 0.70
     CG style diagonalization
     ethr =  1.54E-09,  avg # of iterations =  3.6

     negative rho (up, down):  1.565E-02 0.000E+00

     total cpu time spent up to now is      154.0 secs

     total energy              =    -380.57443138 Ry
     estimated scf accuracy    <       0.00000008 Ry

     iteration #  5     ecut=    80.00 Ry     beta= 0.70
     CG style diagonalization
     ethr =  1.74E-10,  avg # of iterations =  4.2

     negative rho (up, down):  1.565E-02 0.000E+00

     total cpu time spent up to now is      155.6 secs

     total energy              =    -380.57443141 Ry
     estimated scf accuracy    <       0.00000001 Ry

     iteration #  6     ecut=    80.00 Ry     beta= 0.70
     CG style diagonalization
     ethr =  2.99E-11,  avg # of iterations =  4.2

     negative rho (up, down):  1.565E-02 0.000E+00

     total cpu time spent up to now is      157.2 secs

     total energy              =    -380.57443142 Ry
     estimated scf accuracy    <          2.4E-09 Ry

     iteration #  7     ecut=    80.00 Ry     beta= 0.70
     CG style diagonalization
     ethr =  5.37E-12,  avg # of iterations =  4.3

     negative rho (up, down):  1.565E-02 0.000E+00

     total cpu time spent up to now is      158.9 secs

     total energy              =    -380.57443142 Ry
     estimated scf accuracy    <          4.3E-10 Ry

     iteration #  8     ecut=    80.00 Ry     beta= 0.70
     CG style diagonalization
     ethr =  9.68E-13,  avg # of iterations =  5.0

     negative rho (up, down):  1.565E-02 0.000E+00

     total cpu time spent up to now is      160.8 secs

     total energy              =    -380.57443142 Ry
     estimated scf accuracy    <          1.0E-10 Ry

     iteration #  9     ecut=    80.00 Ry     beta= 0.70
     CG style diagonalization
     ethr =  2.36E-13,  avg # of iterations =  5.0

     negative rho (up, down):  1.565E-02 0.000E+00

     total cpu time spent up to now is      162.7 secs

     End of self-consistent calculation

          k = 0.0000 0.0000 0.0000 (  5115 PWs)   bands (ev):

   -45.7952 -22.4809 -22.3709 -22.3709  -7.5743  -6.5139  -6.2032  -4.9916
    -4.9916  -4.9497  -4.8654  -4.6819   4.2121   6.2499   6.2499   6.8023
     8.1211   8.1211   8.4495   8.6298   8.8727   8.8727

          k = 0.0000 0.0000 0.2378 (  5102 PWs)   bands (ev):

   -45.7949 -22.5005 -22.3701 -22.3701  -7.3886  -6.4620  -6.1429  -5.0067
    -5.0067  -4.9484  -4.8514  -4.7458   3.4642   6.2913   6.2913   6.8766
     7.9149   7.9149   8.3649   8.7846   8.9709   8.9709

          k = 0.0000 0.0000-0.4756 (  5102 PWs)   bands (ev):

   -45.7946 -22.5200 -22.3693 -22.3693  -7.1888  -6.4058  -6.0875  -5.0216
    -5.0216  -4.9471  -4.8380  -4.8139   2.9568   6.2133   6.3134   6.3134
     7.7875   7.7875   8.2841   9.0352   9.0352   9.9890

          k = 0.0000 0.1667 0.0000 (  5099 PWs)   bands (ev):

   -45.7949 -22.4802 -22.3882 -22.3702  -7.4401  -6.4881  -6.1844  -5.0129
    -4.9902  -4.9623  -4.8553  -4.6715   3.7944   6.3064   6.3585   6.7342
     8.1339   8.1464   8.4253   8.5049   8.5735   8.9698

          k = 0.0000 0.1667 0.2378 (  5086 PWs)   bands (ev):

   -45.7946 -22.4997 -22.3874 -22.3694  -7.2704  -6.4495  -6.1174  -5.0059
    -5.0057  -4.9616  -4.8510  -4.7055   3.2596   6.0913   6.4085   6.9295
     7.6043   7.9023   8.2142   8.6225   8.6517   9.3530

          k = 0.0000 0.1667-0.4756 (  5122 PWs)   bands (ev):

   -45.7943 -22.5190 -22.3865 -22.3686  -7.0963  -6.4065  -6.0467  -5.0211
    -4.9966  -4.9608  -4.8518  -4.7394   2.8403   5.8000   6.4342   6.5860
     7.4358   7.7807   8.2527   8.6792   8.7264   9.9587

          k = 0.0000 0.3333 0.0000 (  5077 PWs)   bands (ev):

   -45.7942 -22.4786 -22.4227 -22.3688  -7.1482  -6.4315  -6.1646  -5.0406
    -4.9880  -4.9868  -4.8217  -4.6825   3.2261   5.9452   6.6431   6.6678
     7.8040   7.8386   8.2234   8.2885   8.6613   9.6377

          k = 0.0000 0.3333 0.2378 (  5089 PWs)   bands (ev):

   -45.7939 -22.4978 -22.4216 -22.3679  -7.0407  -6.3953  -6.0730  -5.0071
    -5.0038  -4.9876  -4.8246  -4.6546   2.9154   5.8097   6.5430   6.7193
     7.2358   7.6668   7.8437   8.3101   8.8659   9.7038

          k = 0.0000 0.3333-0.4756 (  5100 PWs)   bands (ev):

   -45.7937 -22.5169 -22.4206 -22.3671  -6.9602  -6.3410  -5.9533  -5.0201
    -4.9879  -4.9644  -4.8561  -4.6134   2.6342   5.4902   6.3287   6.7441
     7.1050   7.3569   7.6179   8.3541   9.2523   9.5722

          k = 0.0000-0.5000 0.0000 (  5088 PWs)   bands (ev):

   -45.7939 -22.4777 -22.4399 -22.3681  -6.9873  -6.3849  -6.1826  -5.0509
    -4.9999  -4.9858  -4.7512  -4.7475   3.0200   5.6039   6.9043   6.9094
     7.3302   7.4396   8.2044   8.2558   8.6913  10.3704

          k = 0.0000-0.5000 0.2378 (  5082 PWs)   bands (ev):

   -45.7936 -22.4968 -22.4387 -22.3672  -6.9410  -6.3226  -6.0723  -5.0161
    -5.0028  -5.0006  -4.7830  -4.6531   2.7776   5.5625   6.5535   6.7672
     7.0917   7.2397   7.9445   8.2797   8.8769   9.8846

          k = 0.0000-0.5000-0.4756 (  5080 PWs)   bands (ev):

   -45.7933 -22.5158 -22.4375 -22.3664  -6.9267  -6.2570  -5.9085  -5.0196
    -5.0013  -4.9738  -4.8286  -4.5628   2.5519   5.3584   6.0202   6.7890
     7.0652   7.2939   7.3964   8.2940   9.2210   9.5694

          k = 0.1667 0.1667 0.0000 (  5087 PWs)   bands (ev):

   -45.7945 -22.4794 -22.3876 -22.3873  -7.3084  -6.4615  -6.1844  -5.0166
    -5.0031  -4.9648  -4.8253  -4.6615   3.4915   6.2529   6.4871   6.7285
     7.6569   7.7893   8.4678   8.5357   8.8199   9.1855

          k = 0.1667 0.1667 0.2378 (  5097 PWs)   bands (ev):

   -45.7943 -22.4988 -22.3867 -22.3865  -7.1503  -6.4397  -6.1155  -5.0176
    -4.9938  -4.9594  -4.8187  -4.6754   3.1413   6.0446   6.1239   6.8486
     7.4931   7.5163   8.2769   8.6789   8.8995   9.3304

          k = 0.1667 0.1667-0.4756 (  5090 PWs)   bands (ev):

   -45.7940 -22.5180 -22.3858 -22.3856  -6.9944  -6.4177  -6.0339  -5.0285
    -4.9735  -4.9370  -4.8255  -4.6933   2.8130   5.8427   5.8586   6.5705
     7.3520   7.4683   8.2090   8.7423   8.9541   9.6806

          k = 0.1667 0.3333 0.0000 (  5070 PWs)   bands (ev):

   -45.7939 -22.4778 -22.4218 -22.3859  -7.0237  -6.4065  -6.2013  -5.0334
    -4.9919  -4.9482  -4.7831  -4.6703   3.0138   5.9557   6.4920   6.8215
     7.1478   7.7066   8.0363   8.6522   8.8182   9.6824

          k = 0.1667 0.3333 0.2378 (  5093 PWs)   bands (ev):

   -45.7936 -22.4970 -22.4208 -22.3850  -6.9163  -6.3979  -6.1179  -5.0125
    -4.9893  -4.9299  -4.7688  -4.6326   2.9000   5.7814   5.9424   6.4630
     6.8984   7.5606   8.3322   8.6168   8.9551   9.4308

          k = 0.1667 0.3333-0.4756 (  5082 PWs)   bands (ev):

   -45.7934 -22.5160 -22.4198 -22.3842  -6.8408  -6.3796  -5.9989  -5.0127
    -4.9658  -4.8944  -4.7770  -4.5890   2.7463   5.4418   5.8407   6.2162
     6.4016   7.4160   8.4379   8.6599   8.9676   9.3869

          k = 0.1667-0.5000 0.0000 (  5062 PWs)   bands (ev):

   -45.7936 -22.4769 -22.4389 -22.3851  -6.8671  -6.3627  -6.2365  -5.0346
    -4.9841  -4.9296  -4.7301  -4.7256   2.8238   5.6219   6.6198   6.8156
     7.1809   7.4548   7.8429   8.7019   8.7989  10.0025

          k = 0.1667-0.5000 0.2378 (  5082 PWs)   bands (ev):

   -45.7933 -22.4960 -22.4378 -22.3843  -6.8163  -6.3345  -6.1395  -5.0107
    -4.9767  -4.9138  -4.7340  -4.6309   2.7895   5.5699   5.8443   6.2327
     6.8489   7.6961   8.1225   8.6160   8.9668   9.4003

          k = 0.1667-0.5000-0.4756 (  5112 PWs)   bands (ev):

   -45.7930 -22.5149 -22.4367 -22.3834  -6.8066  -6.3073  -5.9840  -5.0078
    -4.9383  -4.8965  -4.7458  -4.5408   2.7170   5.3269   5.6770   5.8688
     6.3001   7.5300   8.3215   8.5841   8.6421   9.5826

          k = 0.3333 0.3333 0.0000 (  5081 PWs)   bands (ev):

   -45.7932 -22.4762 -22.4201 -22.4199  -6.7674  -6.3580  -6.2695  -5.0140
    -4.9704  -4.8711  -4.7121  -4.6702   2.6144   5.9067   6.0867   6.8988
     7.0711   7.1986   7.8763   8.4908   9.2980   9.4307

          k = 0.3333 0.3333 0.2378 (  5082 PWs)   bands (ev):

   -45.7930 -22.4952 -22.4192 -22.4190  -6.6649  -6.3971  -6.2031  -4.9773
    -4.9663  -4.8281  -4.6665  -4.6021   2.7961   5.5542   5.6387   5.9037
     6.6227   7.0690   8.4169   8.9274   8.9673   9.3151

          k = 0.3333 0.3333-0.4756 (  5084 PWs)   bands (ev):

   -45.7927 -22.5142 -22.4182 -22.4181  -6.6161  -6.4339  -6.0721  -4.9616
    -4.9415  -4.7800  -4.6202  -4.5362   2.9682   5.1554   5.1940   5.6751
     6.3552   6.5408   7.7541   9.2711   9.2841   9.4580

          k = 0.3333-0.5000 0.0000 (  5070 PWs)   bands (ev):

   -45.7929 -22.4753 -22.4370 -22.4191  -6.6377  -6.3241  -6.3097  -5.0063
    -4.9480  -4.7992  -4.7130  -4.6737   2.4295   5.5927   6.1238   6.7387
     7.2476   7.3834   7.4726   8.4785   9.1338   9.4921

          k = 0.3333-0.5000 0.2378 (  5068 PWs)   bands (ev):

   -45.7927 -22.4943 -22.4361 -22.4182  -6.5547  -6.3619  -6.2593  -4.9697
    -4.9399  -4.7484  -4.6417  -4.5903   2.7113   5.4775   5.5481   5.6645
     6.3963   7.1407   7.9936   8.9347   8.9436   9.4680

          k = 0.3333-0.5000-0.4756 (  5072 PWs)   bands (ev):

   -45.7924 -22.5132 -22.4351 -22.4174  -6.5624  -6.3976  -6.1041  -4.9448
    -4.9207  -4.7060  -4.5702  -4.4968   3.0664   4.9195   5.1183   5.4461
     6.1446   6.5407   7.0329   9.3776   9.4382   9.6127

          k =-0.5000-0.5000 0.0000 (  5052 PWs)   bands (ev):

   -45.7926 -22.4743 -22.4361 -22.4361  -6.5525  -6.3079  -6.3079  -4.9966
    -4.9078  -4.7165  -4.7165  -4.6663   2.2353   5.4326   5.9920   6.9710
     6.9710   7.4816   7.4816   8.2515   8.6638   9.7439

          k =-0.5000-0.5000 0.2378 (  5080 PWs)   bands (ev):

   -45.7923 -22.4933 -22.4352 -22.4352  -6.3770  -6.3770  -6.3567  -4.9587
    -4.9060  -4.6397  -4.5970  -4.5970   2.6154   5.3907   5.6101   5.6101
     5.9983   7.0787   7.3845   8.9599   8.9599   9.7291

          k =-0.5000-0.5000-0.4756 (  5048 PWs)   bands (ev):

   -45.7921 -22.5122 -22.4342 -22.4342  -6.4388  -6.4388  -6.1547  -4.9208
    -4.9042  -4.6043  -4.4830  -4.4830   3.1929   4.9867   4.9867   5.2801
     6.0046   6.1141   6.2314   9.6285   9.6285   9.7143

     highest occupied level (ev):    10.3704

!    total energy              =    -380.57443142 Ry
     estimated scf accuracy    <          1.9E-11 Ry

     The total energy is the sum of the following terms:
     one-electron contribution =     -85.73303211 Ry
     hartree contribution      =      72.01055719 Ry
     xc contribution           =    -102.58508323 Ry
     ewald contribution        =    -264.26687326 Ry

     convergence has been achieved in   9 iterations

     negative rho (up, down):  1.565E-02 0.000E+00

     Forces acting on atoms (cartesian axes, Ry/au):

     atom    1 type  1   force =     0.00000000    0.00000000    0.00032926
     atom    2 type  2   force =     0.00000000    0.00000000   -0.00126322
     atom    3 type  3   force =     0.00000000    0.00000000   -0.00013359
     atom    4 type  3   force =     0.00000000    0.00000000    0.00053377
     atom    5 type  3   force =     0.00000000    0.00000000    0.00053377

     Total force =     0.001514     Total SCF correction =     0.000013


     Computing stress (Cartesian axis) and pressure


     negative rho (up, down):  1.565E-02 0.000E+00
          total   stress  (Ry/bohr**3)                   (kbar)     P=      -42.88
  -0.00034259   0.00000000   0.00000000          -50.40        0.00        0.00
   0.00000000  -0.00034259   0.00000000            0.00      -50.40        0.00
   0.00000000   0.00000000  -0.00018939            0.00        0.00      -27.86

     Energy error            =      7.1E-06 Ry
     Gradient error          =      1.3E-03 Ry/Bohr

     number of scf cycles    =   8
     number of bfgs steps    =   7

     energy             old  =    -380.5744243646 Ry
     energy             new  =    -380.5744314169 Ry

     CASE: energy            _new < energy            _old

     new trust radius        =       0.0019529566 bohr
     new conv_thr            =            1.0E-10 Ry


ATOMIC_POSITIONS (crystal)
Pb               0.0000000000        0.0000000000        0.9934940230
Ti               0.5000000000        0.5000000000        0.5381748241
O                0.5000000000        0.5000000000        0.1067020538
O                0.5000000000        0.0000000000        0.6144566936
O                0.0000000000        0.5000000000        0.6144566936



     Writing config-only to output data dir ./pto_80.save/ :
     XML data file
     NEW-OLD atomic charge density approx. for the potential

     Check: negative core charge=   -0.000002

     negative rho (up, down):  1.566E-02 0.000E+00

     total cpu time spent up to now is      165.0 secs

     Self-consistent Calculation

     iteration #  1     ecut=    80.00 Ry     beta= 0.70
     CG style diagonalization
     ethr =  1.00E-06,  avg # of iterations =  3.1

     Threshold (ethr) on eigenvalues was too large:
     Diagonalizing with lowered threshold

     CG style diagonalization
     c_bands:  2 eigenvalues not converged
     c_bands:  1 eigenvalues not converged
     c_bands:  1 eigenvalues not converged
     c_bands:  3 eigenvalues not converged
     c_bands:  3 eigenvalues not converged
     c_bands:  1 eigenvalues not converged
     c_bands:  1 eigenvalues not converged
     c_bands:  2 eigenvalues not converged
     ethr =  2.20E-09,  avg # of iterations =  7.4

     negative rho (up, down):  1.566E-02 0.000E+00

     total cpu time spent up to now is      169.2 secs

     total energy              =    -380.57443416 Ry
     estimated scf accuracy    <       0.00000108 Ry

     iteration #  2     ecut=    80.00 Ry     beta= 0.70
     CG style diagonalization
     ethr =  2.45E-09,  avg # of iterations =  4.5

     negative rho (up, down):  1.566E-02 0.000E+00

     total cpu time spent up to now is      170.9 secs

     total energy              =    -380.57443395 Ry
     estimated scf accuracy    <       0.00000376 Ry

     iteration #  3     ecut=    80.00 Ry     beta= 0.70
     CG style diagonalization
     ethr =  2.45E-09,  avg # of iterations =  4.2

     negative rho (up, down):  1.566E-02 0.000E+00

     total cpu time spent up to now is      172.6 secs

     total energy              =    -380.57443466 Ry
     estimated scf accuracy    <       0.00000013 Ry

     iteration #  4     ecut=    80.00 Ry     beta= 0.70
     CG style diagonalization
     ethr =  2.93E-10,  avg # of iterations =  3.7

     negative rho (up, down):  1.566E-02 0.000E+00

     total cpu time spent up to now is      174.0 secs

     total energy              =    -380.57443468 Ry
     estimated scf accuracy    <       0.00000002 Ry

     iteration #  5     ecut=    80.00 Ry     beta= 0.70
     CG style diagonalization
     ethr =  3.44E-11,  avg # of iterations =  4.7

     negative rho (up, down):  1.566E-02 0.000E+00

     total cpu time spent up to now is      175.8 secs

     total energy              =    -380.57443469 Ry
     estimated scf accuracy    <          4.3E-09 Ry

     iteration #  6     ecut=    80.00 Ry     beta= 0.70
     CG style diagonalization
     ethr =  9.78E-12,  avg # of iterations =  4.2

     negative rho (up, down):  1.566E-02 0.000E+00

     total cpu time spent up to now is      177.4 secs

     total energy              =    -380.57443469 Ry
     estimated scf accuracy    <          8.3E-10 Ry

     iteration #  7     ecut=    80.00 Ry     beta= 0.70
     CG style diagonalization
     ethr =  1.88E-12,  avg # of iterations =  4.5

     negative rho (up, down):  1.566E-02 0.000E+00

     total cpu time spent up to now is      179.2 secs

     total energy              =    -380.57443469 Ry
     estimated scf accuracy    <          2.5E-10 Ry

     iteration #  8     ecut=    80.00 Ry     beta= 0.70
     CG style diagonalization
     ethr =  5.63E-13,  avg # of iterations =  4.6

     negative rho (up, down):  1.566E-02 0.000E+00

     total cpu time spent up to now is      180.9 secs

     End of self-consistent calculation

          k = 0.0000 0.0000 0.0000 (  5115 PWs)   bands (ev):

   -45.7959 -22.4815 -22.3714 -22.3714  -7.5745  -6.5129  -6.2031  -4.9907
    -4.9907  -4.9486  -4.8643  -4.6804   4.2140   6.2487   6.2487   6.8006
     8.1186   8.1186   8.4479   8.6293   8.8725   8.8725

          k = 0.0000 0.0000 0.2378 (  5102 PWs)   bands (ev):

   -45.7957 -22.5011 -22.3706 -22.3706  -7.3886  -6.4609  -6.1430  -5.0057
    -5.0057  -4.9473  -4.8503  -4.7443   3.4653   6.2886   6.2886   6.8753
     7.9150   7.9150   8.3633   8.7850   8.9710   8.9710

          k = 0.0000 0.0000-0.4756 (  5102 PWs)   bands (ev):

   -45.7954 -22.5206 -22.3699 -22.3699  -7.1884  -6.4048  -6.0880  -5.0206
    -5.0206  -4.9460  -4.8369  -4.8124   2.9576   6.2126   6.3090   6.3090
     7.7903   7.7903   8.2825   9.0355   9.0355   9.9898

          k = 0.0000 0.1667 0.0000 (  5099 PWs)   bands (ev):

   -45.7956 -22.4808 -22.3887 -22.3707  -7.4404  -6.4873  -6.1842  -5.0119
    -4.9892  -4.9612  -4.8543  -4.6701   3.7955   6.3067   6.3575   6.7326
     8.1338   8.1443   8.4240   8.5044   8.5727   8.9702

          k = 0.0000 0.1667 0.2378 (  5086 PWs)   bands (ev):

   -45.7953 -22.5002 -22.3879 -22.3699  -7.2704  -6.4487  -6.1176  -5.0049
    -5.0048  -4.9605  -4.8500  -4.7041   3.2604   6.0898   6.4061   6.9286
     7.6048   7.9022   8.2151   8.6209   8.6520   9.3538

          k = 0.0000 0.1667-0.4756 (  5122 PWs)   bands (ev):

   -45.7951 -22.5196 -22.3870 -22.3691  -7.0959  -6.4057  -6.0473  -5.0201
    -4.9956  -4.9597  -4.8507  -4.7380   2.8409   5.7978   6.4300   6.5851
     7.4380   7.7831   8.2531   8.6775   8.7271   9.9605

          k = 0.0000 0.3333 0.0000 (  5077 PWs)   bands (ev):

   -45.7950 -22.4792 -22.4231 -22.3693  -7.1484  -6.4312  -6.1646  -5.0396
    -4.9869  -4.9858  -4.8207  -4.6812   3.2264   5.9464   6.6428   6.6694
     7.8064   7.8382   8.2209   8.2875   8.6603   9.6373

          k = 0.0000 0.3333 0.2378 (  5089 PWs)   bands (ev):

   -45.7947 -22.4984 -22.4221 -22.3685  -7.0405  -6.3951  -6.0733  -5.0061
    -5.0028  -4.9865  -4.8236  -4.6533   2.9159   5.8101   6.5439   6.7175
     7.2380   7.6659   7.8434   8.3109   8.8657   9.7040

          k = 0.0000 0.3333-0.4756 (  5100 PWs)   bands (ev):

   -45.7944 -22.5175 -22.4210 -22.3676  -6.9596  -6.3410  -5.9540  -5.0191
    -4.9868  -4.9633  -4.8551  -4.6121   2.6349   5.4889   6.3319   6.7403
     7.1058   7.3569   7.6187   8.3563   9.2509   9.5745

          k = 0.0000-0.5000 0.0000 (  5088 PWs)   bands (ev):

   -45.7946 -22.4783 -22.4404 -22.3686  -6.9872  -6.3851  -6.1826  -5.0500
    -4.9989  -4.9849  -4.7501  -4.7464   3.0200   5.6067   6.9053   6.9131
     7.3311   7.4378   8.2032   8.2536   8.6902  10.3703

          k = 0.0000-0.5000 0.2378 (  5082 PWs)   bands (ev):

   -45.7944 -22.4974 -22.4392 -22.3677  -6.9405  -6.3230  -6.0728  -5.0151
    -5.0018  -4.9995  -4.7819  -4.6519   2.7781   5.5644   6.5547   6.7691
     7.0929   7.2359   7.9441   8.2807   8.8774   9.8844

          k = 0.0000-0.5000-0.4756 (  5080 PWs)   bands (ev):

   -45.7941 -22.5163 -22.4380 -22.3669  -6.9258  -6.2574  -5.9094  -5.0186
    -5.0002  -4.9728  -4.8275  -4.5616   2.5526   5.3580   6.0236   6.7900
     7.0604   7.2952   7.3963   8.2970   9.2226   9.5690

          k = 0.1667 0.1667 0.0000 (  5087 PWs)   bands (ev):

   -45.7953 -22.4800 -22.3881 -22.3878  -7.3088  -6.4608  -6.1843  -5.0157
    -5.0022  -4.9637  -4.8243  -4.6601   3.4922   6.2520   6.4879   6.7269
     7.6561   7.7894   8.4678   8.5347   8.8215   9.1847

          k = 0.1667 0.1667 0.2378 (  5097 PWs)   bands (ev):

   -45.7950 -22.4994 -22.3872 -22.3870  -7.1504  -6.4390  -6.1157  -5.0167
    -4.9928  -4.9583  -4.8177  -4.6740   3.1420   6.0425   6.1234   6.8473
     7.4936   7.5183   8.2768   8.6780   8.8997   9.3319

          k = 0.1667 0.1667-0.4756 (  5090 PWs)   bands (ev):

   -45.7947 -22.5186 -22.3863 -22.3861  -6.9942  -6.4170  -6.0345  -5.0275
    -4.9725  -4.9360  -4.8244  -4.6919   2.8136   5.8400   5.8568   6.5716
     7.3507   7.4717   8.2100   8.7417   8.9536   9.6827

          k = 0.1667 0.3333 0.0000 (  5070 PWs)   bands (ev):

   -45.7946 -22.4784 -22.4223 -22.3864  -7.0241  -6.4062  -6.2013  -5.0324
    -4.9909  -4.9471  -4.7821  -4.6690   3.0142   5.9570   6.4911   6.8234
     7.1476   7.7064   8.0383   8.6514   8.8185   9.6821

          k = 0.1667 0.3333 0.2378 (  5093 PWs)   bands (ev):

   -45.7944 -22.4976 -22.4212 -22.3855  -6.9163  -6.3977  -6.1182  -5.0115
    -4.9883  -4.9288  -4.7678  -4.6314   2.9005   5.7816   5.9428   6.4623
     6.8995   7.5627   8.3336   8.6163   8.9548   9.4311

          k = 0.1667 0.3333-0.4756 (  5082 PWs)   bands (ev):

   -45.7941 -22.5166 -22.4202 -22.3847  -6.8404  -6.3795  -5.9996  -5.0117
    -4.9648  -4.8933  -4.7759  -4.5877   2.7469   5.4406   5.8406   6.2157
     6.4041   7.4181   8.4382   8.6603   8.9685   9.3864

          k = 0.1667-0.5000 0.0000 (  5062 PWs)   bands (ev):

   -45.7943 -22.4775 -22.4394 -22.3856  -6.8674  -6.3630  -6.2364  -5.0336
    -4.9831  -4.9285  -4.7290  -4.7245   2.8241   5.6247   6.6203   6.8142
     7.1842   7.4566   7.8418   8.7013   8.7986  10.0027

          k = 0.1667-0.5000 0.2378 (  5082 PWs)   bands (ev):

   -45.7940 -22.4965 -22.4383 -22.3848  -6.8161  -6.3348  -6.1400  -5.0097
    -4.9758  -4.9127  -4.7330  -4.6297   2.7899   5.5718   5.8456   6.2321
     6.8486   7.6985   8.1246   8.6148   8.9673   9.3995

          k = 0.1667-0.5000-0.4756 (  5112 PWs)   bands (ev):

   -45.7938 -22.5155 -22.4372 -22.3839  -6.8060  -6.3076  -5.9848  -5.0069
    -4.9374  -4.8955  -4.7448  -4.5396   2.7178   5.3265   5.6781   5.8702
     6.2999   7.5327   8.3230   8.5832   8.6428   9.5820

          k = 0.3333 0.3333 0.0000 (  5081 PWs)   bands (ev):

   -45.7940 -22.4768 -22.4206 -22.4203  -6.7682  -6.3580  -6.2695  -5.0130
    -4.9694  -4.8700  -4.7110  -4.6690   2.6149   5.9074   6.0884   6.8981
     7.0736   7.1979   7.8793   8.4922   9.2982   9.4308

          k = 0.3333 0.3333 0.2378 (  5082 PWs)   bands (ev):

   -45.7937 -22.4958 -22.4197 -22.4194  -6.6653  -6.3970  -6.2035  -4.9763
    -4.9653  -4.8270  -4.6654  -4.6009   2.7966   5.5547   5.6386   5.9040
     6.6263   7.0703   8.4193   8.9275   8.9662   9.3152

          k = 0.3333 0.3333-0.4756 (  5084 PWs)   bands (ev):

   -45.7934 -22.5147 -22.4187 -22.4186  -6.6162  -6.4338  -6.0729  -4.9606
    -4.9406  -4.7790  -4.6192  -4.5351   2.9687   5.1563   5.1939   5.6732
     6.3581   6.5450   7.7557   9.2703   9.2844   9.4571

          k = 0.3333-0.5000 0.0000 (  5070 PWs)   bands (ev):

   -45.7937 -22.4758 -22.4375 -22.4196  -6.6386  -6.3244  -6.3097  -5.0054
    -4.9469  -4.7980  -4.7119  -4.6726   2.4299   5.5948   6.1259   6.7376
     7.2459   7.3868   7.4756   8.4797   9.1344   9.4925

          k = 0.3333-0.5000 0.2378 (  5068 PWs)   bands (ev):

   -45.7934 -22.4948 -22.4365 -22.4187  -6.5549  -6.3622  -6.2598  -4.9687
    -4.9389  -4.7473  -4.6407  -4.5892   2.7118   5.4785   5.5494   5.6648
     6.3994   7.1423   7.9952   8.9345   8.9433   9.4683

          k = 0.3333-0.5000-0.4756 (  5072 PWs)   bands (ev):

   -45.7931 -22.5137 -22.4355 -22.4178  -6.5623  -6.3978  -6.1049  -4.9438
    -4.9197  -4.7050  -4.5692  -4.4957   3.0670   4.9206   5.1185   5.4455
     6.1475   6.5448   7.0338   9.3766   9.4387   9.6121

          k =-0.5000-0.5000 0.0000 (  5052 PWs)   bands (ev):

   -45.7933 -22.4749 -22.4365 -22.4365  -6.5534  -6.3083  -6.3083  -4.9956
    -4.9067  -4.7153  -4.7153  -4.6651   2.2357   5.4345   5.9962   6.9687
     6.9687   7.4851   7.4851   8.2523   8.6656   9.7444

          k =-0.5000-0.5000 0.2378 (  5080 PWs)   bands (ev):

   -45.7931 -22.4939 -22.4356 -22.4356  -6.3772  -6.3772  -6.3575  -4.9577
    -4.9049  -4.6385  -4.5960  -4.5960   2.6158   5.3919   5.6108   5.6108
     6.0025   7.0799   7.3856   8.9600   8.9600   9.7295

          k =-0.5000-0.5000-0.4756 (  5048 PWs)   bands (ev):

   -45.7928 -22.5128 -22.4347 -22.4347  -6.4389  -6.4389  -6.1556  -4.9198
    -4.9031  -4.6032  -4.4821  -4.4821   3.1934   4.9878   4.9878   5.2798
     6.0088   6.1149   6.2341   9.6278   9.6278   9.7148

     highest occupied level (ev):    10.3703

!    total energy              =    -380.57443469 Ry
     estimated scf accuracy    <          8.0E-12 Ry

     The total energy is the sum of the following terms:
     one-electron contribution =     -85.71654586 Ry
     hartree contribution      =      72.00258876 Ry
     xc contribution           =    -102.58476628 Ry
     ewald contribution        =    -264.27571132 Ry

     convergence has been achieved in   8 iterations

     negative rho (up, down):  1.566E-02 0.000E+00

     Forces acting on atoms (cartesian axes, Ry/au):

     atom    1 type  1   force =     0.00000000    0.00000000    0.00014887
     atom    2 type  2   force =     0.00000000    0.00000000   -0.00084812
     atom    3 type  3   force =     0.00000000    0.00000000    0.00037846
     atom    4 type  3   force =     0.00000000    0.00000000    0.00016040
     atom    5 type  3   force =     0.00000000    0.00000000    0.00016040

     Total force =     0.000968     Total SCF correction =     0.000007


     Computing stress (Cartesian axis) and pressure


     negative rho (up, down):  1.566E-02 0.000E+00
          total   stress  (Ry/bohr**3)                   (kbar)     P=      -43.12
  -0.00034450   0.00000000   0.00000000          -50.68        0.00        0.00
   0.00000000  -0.00034450   0.00000000            0.00      -50.68        0.00
   0.00000000   0.00000000  -0.00019032            0.00        0.00      -28.00

     Energy error            =      3.3E-06 Ry
     Gradient error          =      8.5E-04 Ry/Bohr

     bfgs converged in   9 scf cycles and   8 bfgs steps
     (criteria: energy <  1.0E-04 Ry, force <  1.0E-03 Ry/Bohr)

     End of BFGS Geometry Optimization

     Final energy             =    -380.5744346947 Ry

     File ./pto_80.bfgs deleted, as requested
Begin final coordinates

ATOMIC_POSITIONS (crystal)
Pb               0.0000000000        0.0000000000        0.9934940230
Ti               0.5000000000        0.5000000000        0.5381748241
O                0.5000000000        0.5000000000        0.1067020538
O                0.5000000000        0.0000000000        0.6144566936
O                0.0000000000        0.5000000000        0.6144566936
End final coordinates



     Writing all to output data dir ./pto_80.save/ :
     XML data file, charge density, pseudopotentials, collected wavefunctions
 
     init_run     :      0.81s CPU      0.91s WALL (       1 calls)
     electrons    :    154.83s CPU    161.79s WALL (       9 calls)
     update_pot   :      0.05s CPU      0.06s WALL (       8 calls)
     forces       :      1.75s CPU      1.91s WALL (       9 calls)
     stress       :     16.95s CPU     17.26s WALL (       9 calls)

     Called by init_run:
     wfcinit      :      0.32s CPU      0.35s WALL (       1 calls)
     potinit      :      0.02s CPU      0.02s WALL (       1 calls)
     hinit0       :      0.13s CPU      0.16s WALL (       1 calls)

     Called by electrons:
     c_bands      :    129.76s CPU    134.34s WALL (      89 calls)
     sum_band     :     17.81s CPU     18.57s WALL (      89 calls)
     v_of_rho     :      0.27s CPU      0.27s WALL (      94 calls)
     newd         :      7.41s CPU      8.88s WALL (      94 calls)
     mix_rho      :      0.15s CPU      0.16s WALL (      89 calls)

     Called by c_bands:
     init_us_2    :      1.20s CPU      1.24s WALL (    5910 calls)
     init_us_2:cp :      1.19s CPU      1.23s WALL (    5910 calls)
     ccgdiagg     :    114.72s CPU    118.95s WALL (    2670 calls)
     wfcrot       :     14.51s CPU     14.84s WALL (    2310 calls)

     Called by *cgdiagg:
     h_psi        :     86.58s CPU     89.59s WALL (  228601 calls)
     s_psi        :     11.78s CPU     12.22s WALL (  454892 calls)

     Called by h_psi:
     h_psi:calbec :     10.82s CPU     11.19s WALL (  228601 calls)
     vloc_psi     :     67.19s CPU     69.55s WALL (  228601 calls)
     add_vuspsi   :      6.55s CPU      6.79s WALL (  228601 calls)
     hs_1psi      :     81.14s CPU     84.13s WALL (  226291 calls)
     s_1psi       :     14.71s CPU     15.21s WALL (  226291 calls)

     General routines
     calbec       :     18.66s CPU     19.36s WALL (  458912 calls)
     fft          :      0.32s CPU      0.34s WALL (     630 calls)
     ffts         :      0.03s CPU      0.04s WALL (     183 calls)
     fftw         :     58.73s CPU     60.70s WALL (  613502 calls)
     interpolate  :      0.07s CPU      0.07s WALL (      94 calls)
 
     Parallel routines
 
     PWSCF        :   2m55.30s CPU   3m 3.47s WALL

 
   This run was terminated on:   0:35:40  13Nov2025            

=------------------------------------------------------------------------------=
   JOB DONE.
=------------------------------------------------------------------------------=
TACC:  Shutdown complete. Exiting. 
