TACC:  Starting up job 2476661 
TACC:  Starting parallel tasks... 

     Program PWSCF v.7.3 starts on 18Oct2025 at 16:25: 0 

     This program is part of the open-source Quantum ESPRESSO suite
     for quantum simulation of materials; please cite
         "P. Giannozzi et al., J. Phys.:Condens. Matter 21 395502 (2009);
         "P. Giannozzi et al., J. Phys.:Condens. Matter 29 465901 (2017);
         "P. Giannozzi et al., J. Chem. Phys. 152 154105 (2020);
          URL http://www.quantum-espresso.org", 
     in publications or presentations arising from this work. More details at
     http://www.quantum-espresso.org/quote

     Parallel version (MPI & OpenMP), running on      10 processor cores
     Number of MPI processes:                10
     Threads/MPI process:                     1

     MPI processes distributed on     1 nodes
     187446 MiB available memory on the printing compute node when the environment starts
 
     Waiting for input...
     Reading input from standard input

     Current dimensions of program PWSCF are:
     Max number of different atomic species (ntypx) = 10
     Max number of k-points (npk) =  40000
     Max angular momentum in pseudopotentials (lmaxx) =  4
     Message from routine setup:
     using ibrav=0 with symmetry is DISCOURAGED, use correct ibrav instead
 
     R & G space division:  proc/nbgrp/npool/nimage =      10
     Subspace diagonalization in iterative solution of the eigenvalue problem:
     a serial algorithm will be used

 
     Parallelization info
     --------------------
     sticks:   dense  smooth     PW     G-vecs:    dense   smooth      PW
     Min         161      43     14                 4278      589     110
     Max         162      44     15                 4281      590     111
     Sum        1619     433    147                42799     5897    1107
 
     Using Slab Decomposition
 


     bravais-lattice index     =            0
     lattice parameter (alat)  =      10.2000  a.u.
     unit-cell volume          =     265.2893 (a.u.)^3
     number of atoms/cell      =            2
     number of atomic types    =            1
     number of electrons       =         8.00
     number of Kohn-Sham states=            8
     kinetic-energy cutoff     =      30.0000  Ry
     charge density cutoff     =     450.0000  Ry
     scf convergence threshold =      1.0E-08
     mixing beta               =       0.7000
     number of iterations used =            8  plain     mixing
     Exchange-correlation= SLA  PZ   NOGX NOGC
                           (   1   1   0   0   0   0   0)

     celldm(1)=  10.200000  celldm(2)=   0.000000  celldm(3)=   0.000000
     celldm(4)=   0.000000  celldm(5)=   0.000000  celldm(6)=   0.000000

     crystal axes: (cart. coord. in units of alat)
               a(1) = (  -0.498000   0.000000   0.504000 )  
               a(2) = (   0.000000   0.498000   0.504000 )  
               a(3) = (  -0.498000   0.498000   0.000000 )  

     reciprocal axes: (cart. coord. in units 2 pi/alat)
               b(1) = ( -1.004016 -1.004016  0.992063 )  
               b(2) = (  1.004016  1.004016  0.992063 )  
               b(3) = ( -1.004016  1.004016 -0.992063 )  


     PseudoPot. # 1 for Si read from file:
     /scratch/11018/zhc/Assisgnment2/Q1/1A/energy_cutoff_test/Si_LDA.UPF
     MD5 check sum: b5ade7b37ee992b02096e360e546dc2d
     Pseudo is Ultrasoft + core correction, Zval =  4.0
     Generated by new atomic code, or converted to UPF format
     Using radial grid of  899 points,  6 beta functions with: 
                l(1) =   0
                l(2) =   0
                l(3) =   1
                l(4) =   1
                l(5) =   2
                l(6) =   2
     Q(r) pseudized with  8 coefficients,  rinner =    0.900   0.900   0.900
                                                       0.900   0.900

     atomic species   valence    mass     pseudopotential
     Si                4.00    28.08550     Si( 1.00)

     16 Sym. Ops., with inversion, found ( 8 have fractional translation)



   Cartesian axes

     site n.     atom                  positions (alat units)
         1        Si     tau(   1) = (   0.0000000   0.0000000   0.0000000  )
         2        Si     tau(   2) = (  -0.2490000   0.2490000   0.2520000  )

     number of k points=   163

     Number of k-points >= 100: set verbosity='high' to print them.

     Dense  grid:    42799 G-vectors     FFT dimensions: (  50,  50,  50)

     Smooth grid:     5897 G-vectors     FFT dimensions: (  25,  25,  25)

     Estimated max dynamical RAM per process >      18.94 MB

     Estimated total dynamical RAM >     189.44 MB

     Initial potential from superposition of free atoms

     starting charge       7.9988, renormalised to       8.0000
     Starting wfcs are    8 randomized atomic wfcs

     total cpu time spent up to now is        0.4 secs

     Self-consistent Calculation

     iteration #  1     ecut=    30.00 Ry     beta= 0.70
     CG style diagonalization
     ethr =  1.00E-02,  avg # of iterations =  3.7

     Threshold (ethr) on eigenvalues was too large:
     Diagonalizing with lowered threshold

     CG style diagonalization
     ethr =  7.32E-04,  avg # of iterations =  2.0

     total cpu time spent up to now is        2.1 secs

     total energy              =     -19.25678889 Ry
     estimated scf accuracy    <       0.05936565 Ry

     iteration #  2     ecut=    30.00 Ry     beta= 0.70
     CG style diagonalization
     ethr =  7.42E-04,  avg # of iterations =  3.0

     total cpu time spent up to now is        2.8 secs

     total energy              =     -19.26020540 Ry
     estimated scf accuracy    <       0.00169703 Ry

     iteration #  3     ecut=    30.00 Ry     beta= 0.70
     CG style diagonalization
     ethr =  2.12E-05,  avg # of iterations =  3.8

     total cpu time spent up to now is        3.8 secs

     total energy              =     -19.26041805 Ry
     estimated scf accuracy    <       0.00003872 Ry

     iteration #  4     ecut=    30.00 Ry     beta= 0.70
     CG style diagonalization
     ethr =  4.84E-07,  avg # of iterations =  4.4

     total cpu time spent up to now is        4.9 secs

     total energy              =     -19.26045130 Ry
     estimated scf accuracy    <       0.00000012 Ry

     iteration #  5     ecut=    30.00 Ry     beta= 0.70
     CG style diagonalization
     ethr =  1.55E-09,  avg # of iterations =  4.2

     total cpu time spent up to now is        6.0 secs

     End of self-consistent calculation

     Number of k-points >= 100: set verbosity='high' to print the bands.

     highest occupied, lowest unoccupied level (ev):     6.2292    6.6080

!    total energy              =     -19.26045184 Ry
     estimated scf accuracy    <          1.3E-09 Ry

     The total energy is the sum of the following terms:
     one-electron contribution =       5.18480714 Ry
     hartree contribution      =       1.09807379 Ry
     xc contribution           =      -8.64293413 Ry
     ewald contribution        =     -16.90039863 Ry

     convergence has been achieved in   5 iterations

     Forces acting on atoms (cartesian axes, Ry/au):

     atom    1 type  1   force =     0.00000000    0.00000000   -0.00000000
     atom    2 type  1   force =    -0.00000000   -0.00000000    0.00000000

     Total force =     0.000000     Total SCF correction =     0.000000


     Computing stress (Cartesian axis) and pressure

          total   stress  (Ry/bohr**3)                   (kbar)     P=        1.47
   0.00003679  -0.00000000   0.00000000            5.41       -0.00        0.00
   0.00000000   0.00003679   0.00000000            0.00        5.41        0.00
   0.00000000  -0.00000000  -0.00004366            0.00       -0.00       -6.42


     Writing all to output data dir ./Si_tetragonal_etam0p004.save/ :
     XML data file, charge density, pseudopotentials, collected wavefunctions
 
     init_run     :      0.21s CPU      0.29s WALL (       1 calls)
     electrons    :      5.10s CPU      5.56s WALL (       1 calls)
     forces       :      0.06s CPU      0.06s WALL (       1 calls)
     stress       :      0.36s CPU      0.36s WALL (       1 calls)

     Called by init_run:
     wfcinit      :      0.14s CPU      0.16s WALL (       1 calls)
     potinit      :      0.00s CPU      0.01s WALL (       1 calls)
     hinit0       :      0.03s CPU      0.07s WALL (       1 calls)

     Called by electrons:
     c_bands      :      4.54s CPU      4.95s WALL (       6 calls)
     sum_band     :      0.49s CPU      0.52s WALL (       6 calls)
     v_of_rho     :      0.01s CPU      0.01s WALL (       6 calls)
     newd         :      0.06s CPU      0.07s WALL (       6 calls)
     mix_rho      :      0.00s CPU      0.01s WALL (       6 calls)

     Called by c_bands:
     init_us_2    :      0.06s CPU      0.07s WALL (    2445 calls)
     init_us_2:cp :      0.06s CPU      0.06s WALL (    2445 calls)
     ccgdiagg     :      4.02s CPU      4.39s WALL (     978 calls)
     wfcrot       :      0.58s CPU      0.64s WALL (     815 calls)

     Called by *cgdiagg:
     h_psi        :      2.64s CPU      2.87s WALL (   23235 calls)
     s_psi        :      0.19s CPU      0.21s WALL (   45655 calls)

     Called by h_psi:
     h_psi:calbec :      0.38s CPU      0.42s WALL (   23235 calls)
     vloc_psi     :      1.98s CPU      2.15s WALL (   23235 calls)
     add_vuspsi   :      0.11s CPU      0.12s WALL (   23235 calls)
     hs_1psi      :      2.39s CPU      2.61s WALL (   22420 calls)
     s_1psi       :      0.51s CPU      0.55s WALL (   22420 calls)

     General routines
     calbec       :      0.67s CPU      0.73s WALL (   47448 calls)
     fft          :      0.01s CPU      0.03s WALL (      43 calls)
     ffts         :      0.00s CPU      0.00s WALL (      12 calls)
     fftw         :      1.80s CPU      1.95s WALL (   65704 calls)
     interpolate  :      0.00s CPU      0.01s WALL (       6 calls)
 
     Parallel routines
 
     PWSCF        :      5.91s CPU      7.15s WALL

 
   This run was terminated on:  16:25: 7  18Oct2025            

=------------------------------------------------------------------------------=
   JOB DONE.
=------------------------------------------------------------------------------=
TACC:  Shutdown complete. Exiting. 
