TACC:  Starting up job 2552574 
TACC:  Starting parallel tasks... 

     Program PWSCF v.7.3 starts on 14Nov2025 at 20:27:26 

     This program is part of the open-source Quantum ESPRESSO suite
     for quantum simulation of materials; please cite
         "P. Giannozzi et al., J. Phys.:Condens. Matter 21 395502 (2009);
         "P. Giannozzi et al., J. Phys.:Condens. Matter 29 465901 (2017);
         "P. Giannozzi et al., J. Chem. Phys. 152 154105 (2020);
          URL http://www.quantum-espresso.org", 
     in publications or presentations arising from this work. More details at
     http://www.quantum-espresso.org/quote

     Parallel version (MPI & OpenMP), running on      10 processor cores
     Number of MPI processes:                10
     Threads/MPI process:                     1

     MPI processes distributed on     1 nodes
     186643 MiB available memory on the printing compute node when the environment starts
 
     Waiting for input...
     Reading input from standard input
Warning: card &CELL ignored
Warning: card  CELL_DYNAMICS = 'BFGS', ignored
Warning: card  PRESS=0.D0, ignored
Warning: card / ignored

     Current dimensions of program PWSCF are:
     Max number of different atomic species (ntypx) = 10
     Max number of k-points (npk) =  40000
     Max angular momentum in pseudopotentials (lmaxx) =  4
     Message from routine setup:
     using ibrav=0 with symmetry is DISCOURAGED, use correct ibrav instead
 
     R & G space division:  proc/nbgrp/npool/nimage =      10
     Subspace diagonalization in iterative solution of the eigenvalue problem:
     a serial algorithm will be used

 
     Parallelization info
     --------------------
     sticks:   dense  smooth     PW     G-vecs:    dense   smooth      PW
     Min         519     207     59                29554     7477    1129
     Max         520     208     60                29556     7480    1132
     Sum        5193    2077    593               295549    74795   11301
 
     Using Slab Decomposition
 


     bravais-lattice index     =            0
     lattice parameter (alat)  =       7.3699  a.u.
     unit-cell volume          =     420.8329 (a.u.)^3
     number of atoms/cell      =            5
     number of atomic types    =            3
     number of electrons       =        44.00
     number of Kohn-Sham states=           22
     kinetic-energy cutoff     =     120.0000  Ry
     charge density cutoff     =    1200.0000  Ry
     scf convergence threshold =      1.0E-08
     mixing beta               =       0.7000
     number of iterations used =            8  plain     mixing
     energy convergence thresh.=      1.0E-04
     force convergence thresh. =      1.0E-03
     Exchange-correlation= SLA  PZ   NOGX NOGC
                           (   1   1   0   0   0   0   0)
     nstep                     =           50


     celldm(1)=   7.369932  celldm(2)=   0.000000  celldm(3)=   0.000000
     celldm(4)=   0.000000  celldm(5)=   0.000000  celldm(6)=   0.000000

     crystal axes: (cart. coord. in units of alat)
               a(1) = (   1.000000   0.000000   0.000000 )  
               a(2) = (   0.000000   1.000000   0.000000 )  
               a(3) = (   0.000000   0.000000   1.051282 )  

     reciprocal axes: (cart. coord. in units 2 pi/alat)
               b(1) = (  1.000000  0.000000  0.000000 )  
               b(2) = (  0.000000  1.000000  0.000000 )  
               b(3) = (  0.000000  0.000000  0.951220 )  


     PseudoPot. # 1 for Pb read from file:
     /scratch/11018/zhc/assisgnment3/input_files/Pb_LDA.UPF
     MD5 check sum: 062a37469794d955244864f8fe2e5624
     Pseudo is Ultrasoft + core correction, Zval = 14.0
     Generated by new atomic code, or converted to UPF format
     Using radial grid of  899 points,  6 beta functions with: 
                l(1) =   0
                l(2) =   0
                l(3) =   1
                l(4) =   1
                l(5) =   2
                l(6) =   2
     Q(r) pseudized with  6 coefficients,  rinner =    1.000   1.000   1.000
                                                       1.000   1.000

     PseudoPot. # 2 for Ti read from file:
     /scratch/11018/zhc/assisgnment3/input_files/Ti_LDA.UPF
     MD5 check sum: 0d9f225c038fe889ca2a701dcc8d72cb
     Pseudo is Ultrasoft + core correction, Zval = 12.0
     Generated by new atomic code, or converted to UPF format
     Using radial grid of  851 points,  6 beta functions with: 
                l(1) =   0
                l(2) =   0
                l(3) =   1
                l(4) =   1
                l(5) =   2
                l(6) =   2
     Q(r) pseudized with  6 coefficients,  rinner =    1.000   1.000   1.000
                                                       1.000   1.000

     PseudoPot. # 3 for O  read from file:
     /scratch/11018/zhc/assisgnment3/input_files/O_LDA.UPF
     MD5 check sum: 194b818514d2a7dbb603bb78519a4f40
     Pseudo is Ultrasoft + core correction, Zval =  6.0
     Generated by new atomic code, or converted to UPF format
     Using radial grid of  737 points,  5 beta functions with: 
                l(1) =   0
                l(2) =   0
                l(3) =   1
                l(4) =   1
                l(5) =   2
     Q(r) pseudized with  8 coefficients,  rinner =    0.900   0.900   0.900
                                                       0.900   0.900

     atomic species   valence    mass     pseudopotential
     Pb               14.00   207.20000     Pb( 1.00)
     Ti               12.00    47.88000     Ti( 1.00)
     O                 6.00    16.00000     O ( 1.00)

      8 Sym. Ops. (no inversion) found



   Cartesian axes

     site n.     atom                  positions (alat units)
         1        Pb     tau(   1) = (   0.0000000   0.0000000   1.0580339  )
         2        Ti     tau(   2) = (   0.5000000   0.5000000   0.5681377  )
         3        O      tau(   3) = (   0.5000000   0.5000000   0.1036357  )
         4        O      tau(   4) = (   0.5000000   0.0000000   0.6422586  )
         5        O      tau(   5) = (   0.0000000   0.5000000   0.6422586  )

     number of k points=    30
                       cart. coord. in units 2pi/alat
        k(    1) = (   0.0000000   0.0000000   0.0000000), wk =   0.0138889
        k(    2) = (   0.0000000   0.0000000   0.2378049), wk =   0.0277778
        k(    3) = (   0.0000000   0.0000000  -0.4756098), wk =   0.0138889
        k(    4) = (   0.0000000   0.1666667   0.0000000), wk =   0.0555556
        k(    5) = (   0.0000000   0.1666667   0.2378049), wk =   0.1111111
        k(    6) = (   0.0000000   0.1666667  -0.4756098), wk =   0.0555556
        k(    7) = (   0.0000000   0.3333333   0.0000000), wk =   0.0555556
        k(    8) = (   0.0000000   0.3333333   0.2378049), wk =   0.1111111
        k(    9) = (   0.0000000   0.3333333  -0.4756098), wk =   0.0555556
        k(   10) = (   0.0000000  -0.5000000   0.0000000), wk =   0.0277778
        k(   11) = (   0.0000000  -0.5000000   0.2378049), wk =   0.0555556
        k(   12) = (   0.0000000  -0.5000000  -0.4756098), wk =   0.0277778
        k(   13) = (   0.1666667   0.1666667   0.0000000), wk =   0.0555556
        k(   14) = (   0.1666667   0.1666667   0.2378049), wk =   0.1111111
        k(   15) = (   0.1666667   0.1666667  -0.4756098), wk =   0.0555556
        k(   16) = (   0.1666667   0.3333333   0.0000000), wk =   0.1111111
        k(   17) = (   0.1666667   0.3333333   0.2378049), wk =   0.2222222
        k(   18) = (   0.1666667   0.3333333  -0.4756098), wk =   0.1111111
        k(   19) = (   0.1666667  -0.5000000   0.0000000), wk =   0.0555556
        k(   20) = (   0.1666667  -0.5000000   0.2378049), wk =   0.1111111
        k(   21) = (   0.1666667  -0.5000000  -0.4756098), wk =   0.0555556
        k(   22) = (   0.3333333   0.3333333   0.0000000), wk =   0.0555556
        k(   23) = (   0.3333333   0.3333333   0.2378049), wk =   0.1111111
        k(   24) = (   0.3333333   0.3333333  -0.4756098), wk =   0.0555556
        k(   25) = (   0.3333333  -0.5000000   0.0000000), wk =   0.0555556
        k(   26) = (   0.3333333  -0.5000000   0.2378049), wk =   0.1111111
        k(   27) = (   0.3333333  -0.5000000  -0.4756098), wk =   0.0555556
        k(   28) = (  -0.5000000  -0.5000000   0.0000000), wk =   0.0138889
        k(   29) = (  -0.5000000  -0.5000000   0.2378049), wk =   0.0277778
        k(   30) = (  -0.5000000  -0.5000000  -0.4756098), wk =   0.0138889

     Dense  grid:   295549 G-vectors     FFT dimensions: (  81,  81,  90)

     Smooth grid:    74795 G-vectors     FFT dimensions: (  54,  54,  60)

     Estimated max dynamical RAM per process >     127.75 MB

     Estimated total dynamical RAM >       1.25 GB

     Initial potential from superposition of free atoms

     starting charge      42.9982, renormalised to      44.0000

     negative rho (up, down):  1.693E-02 0.000E+00
     Starting wfcs are   31 randomized atomic wfcs

     total cpu time spent up to now is        1.3 secs

     Self-consistent Calculation

     iteration #  1     ecut=   120.00 Ry     beta= 0.70
     CG style diagonalization
     ethr =  1.00E-02,  avg # of iterations =  2.1

     negative rho (up, down):  1.414E-02 0.000E+00

     total cpu time spent up to now is        3.0 secs

     total energy              =    -380.04520684 Ry
     estimated scf accuracy    <       1.03890696 Ry

     iteration #  2     ecut=   120.00 Ry     beta= 0.70
     CG style diagonalization
     ethr =  2.36E-03,  avg # of iterations =  4.9

     negative rho (up, down):  1.450E-02 0.000E+00

     total cpu time spent up to now is        6.0 secs

     total energy              =    -379.59966043 Ry
     estimated scf accuracy    <       4.89371641 Ry

     iteration #  3     ecut=   120.00 Ry     beta= 0.70
     CG style diagonalization
     ethr =  2.36E-03,  avg # of iterations =  4.5

     negative rho (up, down):  1.520E-02 0.000E+00

     total cpu time spent up to now is        8.7 secs

     total energy              =    -380.53706468 Ry
     estimated scf accuracy    <       0.30409921 Ry

     iteration #  4     ecut=   120.00 Ry     beta= 0.70
     CG style diagonalization
     ethr =  6.91E-04,  avg # of iterations =  3.5

     negative rho (up, down):  1.529E-02 0.000E+00

     total cpu time spent up to now is       10.9 secs

     total energy              =    -380.55321215 Ry
     estimated scf accuracy    <       0.07540890 Ry

     iteration #  5     ecut=   120.00 Ry     beta= 0.70
     CG style diagonalization
     ethr =  1.71E-04,  avg # of iterations =  3.7

     negative rho (up, down):  1.529E-02 0.000E+00

     total cpu time spent up to now is       13.2 secs

     total energy              =    -380.57119373 Ry
     estimated scf accuracy    <       0.00417158 Ry

     iteration #  6     ecut=   120.00 Ry     beta= 0.70
     CG style diagonalization
     ethr =  9.48E-06,  avg # of iterations =  4.4

     negative rho (up, down):  1.527E-02 0.000E+00

     total cpu time spent up to now is       16.0 secs

     total energy              =    -380.57463555 Ry
     estimated scf accuracy    <       0.00886499 Ry

     iteration #  7     ecut=   120.00 Ry     beta= 0.70
     CG style diagonalization
     ethr =  9.48E-06,  avg # of iterations =  3.2

     negative rho (up, down):  1.526E-02 0.000E+00

     total cpu time spent up to now is       18.0 secs

     total energy              =    -380.57358804 Ry
     estimated scf accuracy    <       0.00435219 Ry

     iteration #  8     ecut=   120.00 Ry     beta= 0.70
     CG style diagonalization
     ethr =  9.48E-06,  avg # of iterations =  3.6

     negative rho (up, down):  1.528E-02 0.000E+00

     total cpu time spent up to now is       20.3 secs

     total energy              =    -380.57434292 Ry
     estimated scf accuracy    <       0.00001288 Ry

     iteration #  9     ecut=   120.00 Ry     beta= 0.70
     CG style diagonalization
     c_bands:  1 eigenvalues not converged
     c_bands:  1 eigenvalues not converged
     c_bands:  1 eigenvalues not converged
     ethr =  2.93E-08,  avg # of iterations =  7.6

     negative rho (up, down):  1.532E-02 0.000E+00

     total cpu time spent up to now is       24.8 secs

     total energy              =    -380.57441662 Ry
     estimated scf accuracy    <       0.00000973 Ry

     iteration # 10     ecut=   120.00 Ry     beta= 0.70
     CG style diagonalization
     ethr =  2.21E-08,  avg # of iterations =  3.5

     negative rho (up, down):  1.538E-02 0.000E+00

     total cpu time spent up to now is       27.0 secs

     total energy              =    -380.57441554 Ry
     estimated scf accuracy    <       0.00000648 Ry

     iteration # 11     ecut=   120.00 Ry     beta= 0.70
     CG style diagonalization
     ethr =  1.47E-08,  avg # of iterations =  4.0

     negative rho (up, down):  1.539E-02 0.000E+00

     total cpu time spent up to now is       29.5 secs

     total energy              =    -380.57441716 Ry
     estimated scf accuracy    <       0.00000017 Ry

     iteration # 12     ecut=   120.00 Ry     beta= 0.70
     CG style diagonalization
     c_bands:  1 eigenvalues not converged
     ethr =  3.95E-10,  avg # of iterations = 10.5

     negative rho (up, down):  1.540E-02 0.000E+00

     total cpu time spent up to now is       35.6 secs

     total energy              =    -380.57441858 Ry
     estimated scf accuracy    <       0.00000011 Ry

     iteration # 13     ecut=   120.00 Ry     beta= 0.70
     CG style diagonalization
     ethr =  2.41E-10,  avg # of iterations =  4.3

     negative rho (up, down):  1.540E-02 0.000E+00

     total cpu time spent up to now is       38.2 secs

     total energy              =    -380.57441861 Ry
     estimated scf accuracy    <       0.00000003 Ry

     iteration # 14     ecut=   120.00 Ry     beta= 0.70
     CG style diagonalization
     ethr =  7.40E-11,  avg # of iterations =  5.2

     negative rho (up, down):  1.540E-02 0.000E+00

     total cpu time spent up to now is       41.4 secs

     End of self-consistent calculation

          k = 0.0000 0.0000 0.0000 (  9359 PWs)   bands (ev):

   -45.8571 -22.4927 -22.4306 -22.4306  -7.5125  -6.4332  -6.2000  -5.0271
    -5.0271  -4.9922  -4.8706  -4.7661   4.2241   6.3075   6.3075   6.6260
     8.2743   8.2743   8.4909   8.7787   8.9394   8.9394

          k = 0.0000 0.0000 0.2378 (  9319 PWs)   bands (ev):

   -45.8568 -22.5122 -22.4298 -22.4298  -7.3197  -6.3743  -6.1422  -5.0423
    -5.0423  -4.9909  -4.8629  -4.8373   3.4623   6.3768   6.3768   6.7880
     8.0078   8.0078   8.4068   8.8273   9.0455   9.0455

          k = 0.0000 0.0000-0.4756 (  9332 PWs)   bands (ev):

   -45.8565 -22.5316 -22.4290 -22.4290  -7.1090  -6.3094  -6.0923  -5.0574
    -5.0574  -4.9896  -4.9144  -4.8571   2.9645   6.1478   6.4332   6.4332
     7.8240   7.8240   8.3265   9.1156   9.1156   9.9982

          k = 0.0000 0.1667 0.0000 (  9344 PWs)   bands (ev):

   -45.8568 -22.4921 -22.4477 -22.4299  -7.3776  -6.4038  -6.1710  -5.0478
    -5.0258  -5.0049  -4.8756  -4.7568   3.7956   6.3508   6.4164   6.6729
     8.1859   8.2980   8.4911   8.5693   8.6705   9.0378

          k = 0.0000 0.1667 0.2378 (  9346 PWs)   bands (ev):

   -45.8565 -22.5114 -22.4469 -22.4291  -7.2005  -6.3607  -6.1079  -5.0459
    -5.0414  -5.0041  -4.8728  -4.7934   3.2508   6.1627   6.4930   6.8883
     7.6640   7.9986   8.2716   8.6923   8.7196   9.3660

          k = 0.0000 0.1667-0.4756 (  9292 PWs)   bands (ev):

   -45.8562 -22.5306 -22.4460 -22.4283  -7.0165  -6.3117  -6.0437  -5.0570
    -5.0414  -5.0034  -4.8805  -4.8265   2.8359   5.8584   6.5524   6.5784
     7.4664   7.8268   8.3377   8.7468   8.7941   9.9272

          k = 0.0000 0.3333 0.0000 (  9336 PWs)   bands (ev):

   -45.8561 -22.4909 -22.4815 -22.4284  -7.0840  -6.3408  -6.1272  -5.0808
    -5.0304  -5.0230  -4.8734  -4.7650   3.2188   5.9803   6.6725   6.7022
     7.8543   7.8756   8.3454   8.4079   8.7754   9.6132

          k = 0.0000 0.3333 0.2378 (  9357 PWs)   bands (ev):

   -45.8559 -22.5097 -22.4809 -22.4276  -6.9697  -6.3019  -6.0444  -5.0510
    -5.0397  -5.0304  -4.8698  -4.7391   2.8950   5.8682   6.5586   6.7994
     7.3090   7.7474   7.8606   8.4049   8.9365   9.6815

          k = 0.0000 0.3333-0.4756 (  9342 PWs)   bands (ev):

   -45.8556 -22.5286 -22.4799 -22.4268  -6.8850  -6.2394  -5.9341  -5.0561
    -5.0306  -5.0129  -4.9064  -4.6900   2.6069   5.5743   6.3161   6.8543
     7.2006   7.3656   7.6887   8.4116   9.3278   9.5157

          k = 0.0000-0.5000 0.0000 (  9346 PWs)   bands (ev):

   -45.8558 -22.4991 -22.4896 -22.4277  -6.9214  -6.2941  -6.1286  -5.0962
    -5.0429  -5.0216  -4.8471  -4.7991   3.0107   5.6180   6.9600   6.9703
     7.3494   7.4682   8.2685   8.4483   8.8114  10.3557

          k = 0.0000-0.5000 0.2378 (  9340 PWs)   bands (ev):

   -45.8555 -22.5086 -22.4979 -22.4269  -6.8696  -6.2229  -6.0362  -5.0638
    -5.0435  -5.0387  -4.8401  -4.7352   2.7516   5.5902   6.5913   6.8578
     7.1643   7.3160   7.9698   8.3932   8.9297   9.8615

          k = 0.0000-0.5000-0.4756 (  9344 PWs)   bands (ev):

   -45.8553 -22.5275 -22.4968 -22.4261  -6.8549  -6.1465  -5.8820  -5.0556
    -5.0441  -5.0239  -4.8931  -4.6340   2.5125   5.4244   6.0395   6.9190
     7.1683   7.3704   7.3743   8.3568   9.1470   9.6527

          k = 0.1667 0.1667 0.0000 (  9350 PWs)   bands (ev):

   -45.8564 -22.4914 -22.4471 -22.4468  -7.2453  -6.3736  -6.1636  -5.0533
    -5.0399  -5.0071  -4.8543  -4.7480   3.4994   6.2923   6.5219   6.7210
     7.7668   7.8509   8.5440   8.5672   8.8866   9.2655

          k = 0.1667 0.1667 0.2378 (  9329 PWs)   bands (ev):

   -45.8562 -22.5106 -22.4462 -22.4460  -7.0792  -6.3497  -6.1011  -5.0558
    -5.0353  -5.0004  -4.8458  -4.7624   3.1378   6.1078   6.1884   6.8514
     7.5502   7.5526   8.3746   8.7464   8.9712   9.3174

          k = 0.1667 0.1667-0.4756 (  9310 PWs)   bands (ev):

   -45.8559 -22.5297 -22.4454 -22.4452  -6.9133  -6.3257  -6.0285  -5.0669
    -5.0166  -4.9774  -4.8533  -4.7818   2.8090   5.9084   5.9188   6.5852
     7.4559   7.4704   8.2674   8.8166   9.0313   9.6352

          k = 0.1667 0.3333 0.0000 (  9353 PWs)   bands (ev):

   -45.8558 -22.4902 -22.4806 -22.4454  -6.9607  -6.3119  -6.1629  -5.0756
    -5.0302  -4.9905  -4.8315  -4.7556   3.0304   5.9849   6.5403   6.8249
     7.2112   7.8042   8.0605   8.7212   8.8990   9.6941

          k = 0.1667 0.3333 0.2378 (  9346 PWs)   bands (ev):

   -45.8555 -22.5089 -22.4800 -22.4446  -6.8440  -6.3051  -6.0937  -5.0537
    -5.0307  -4.9670  -4.8136  -4.7151   2.9028   5.8351   6.0046   6.4891
     6.9293   7.5759   8.4100   8.7014   9.0258   9.4108

          k = 0.1667 0.3333-0.4756 (  9334 PWs)   bands (ev):

   -45.8553 -22.5278 -22.4791 -22.4438  -6.7623  -6.2849  -5.9892  -5.0506
    -5.0079  -4.9280  -4.8260  -4.6642   2.7381   5.5160   5.9213   6.2221
     6.4315   7.4286   8.5141   8.7396   8.9210   9.4491

          k = 0.1667-0.5000 0.0000 (  9358 PWs)   bands (ev):

   -45.8555 -22.4981 -22.4889 -22.4446  -6.8046  -6.2670  -6.1858  -5.0787
    -5.0231  -4.9686  -4.8122  -4.7902   2.8441   5.6345   6.6961   6.8503
     7.1890   7.4648   7.9754   8.7807   8.8787   9.9759

          k = 0.1667-0.5000 0.2378 (  9342 PWs)   bands (ev):

   -45.8552 -22.5078 -22.4971 -22.4438  -6.7434  -6.2360  -6.1145  -5.0526
    -5.0185  -4.9443  -4.7950  -4.7085   2.7939   5.5960   5.9119   6.2776
     6.8763   7.7192   8.1787   8.7162   9.0171   9.3825

          k = 0.1667-0.5000-0.4756 (  9332 PWs)   bands (ev):

   -45.8550 -22.5267 -22.4960 -22.4430  -6.7318  -6.2062  -5.9745  -5.0459
    -4.9812  -4.9208  -4.8104  -4.6088   2.7035   5.3939   5.7822   5.8873
     6.3057   7.5400   8.3015   8.6575   8.6650   9.6607

          k = 0.3333 0.3333 0.0000 (  9348 PWs)   bands (ev):

   -45.8552 -22.4890 -22.4792 -22.4786  -6.7169  -6.2545  -6.2163  -5.0581
    -5.0124  -4.9222  -4.7589  -4.7525   2.6716   5.9489   6.0847   6.9496
     7.0869   7.2643   7.8799   8.5180   9.3845   9.4056

          k = 0.3333 0.3333 0.2378 (  9342 PWs)   bands (ev):

   -45.8549 -22.5073 -22.4783 -22.4783  -6.5942  -6.3031  -6.1821  -5.0218
    -5.0058  -4.8623  -4.7082  -4.6818   2.8538   5.5995   5.6627   5.9392
     6.6059   7.0668   8.3840   8.9905   9.0195   9.4007

          k = 0.3333 0.3333-0.4756 (  9328 PWs)   bands (ev):

   -45.8546 -22.5260 -22.4775 -22.4775  -6.5326  -6.3479  -6.0764  -4.9995
    -4.9855  -4.7974  -4.6634  -4.6074   3.0204   5.2160   5.2355   5.7012
     6.3518   6.5130   7.6501   9.3556   9.3696   9.5311

          k = 0.3333-0.5000 0.0000 (  9354 PWs)   bands (ev):

   -45.8549 -22.4962 -22.4876 -22.4780  -6.6066  -6.2327  -6.2179  -5.0508
    -4.9909  -4.8604  -4.7918  -4.7186   2.5045   5.6143   6.1200   6.7798
     7.3016   7.4044   7.4992   8.4934   9.0784   9.5722

          k = 0.3333-0.5000 0.2378 (  9346 PWs)   bands (ev):

   -45.8546 -22.5062 -22.4953 -22.4775  -6.4872  -6.2654  -6.2382  -5.0138
    -4.9805  -4.7723  -4.7110  -4.6492   2.7973   5.4972   5.5740   5.6824
     6.3892   7.1407   7.9042   8.9870   9.0179   9.5529

          k = 0.3333-0.5000-0.4756 (  9356 PWs)   bands (ev):

   -45.8543 -22.5250 -22.4943 -22.4767  -6.4814  -6.3092  -6.1144  -4.9857
    -4.9629  -4.7091  -4.6300  -4.5547   3.1662   4.9602   5.1462   5.4568
     6.1408   6.5282   6.8808   9.4554   9.5248   9.6825

          k =-0.5000-0.5000 0.0000 (  9348 PWs)   bands (ev):

   -45.8545 -22.4953 -22.4953 -22.4863  -6.5564  -6.1961  -6.1961  -5.0412
    -4.9491  -4.8093  -4.8093  -4.6714   2.3353   5.4593   5.9625   6.9989
     6.9989   7.5183   7.5183   8.2479   8.5810   9.8296

          k =-0.5000-0.5000 0.2378 (  9344 PWs)   bands (ev):

   -45.8543 -22.5052 -22.4944 -22.4944  -6.3664  -6.2812  -6.2812  -5.0031
    -4.9473  -4.6709  -4.6709  -4.6375   2.7452   5.4128   5.6164   5.6164
     5.9686   7.0815   7.2557   9.0188   9.0188   9.8141

          k =-0.5000-0.5000-0.4756 (  9376 PWs)   bands (ev):

   -45.8540 -22.5240 -22.4935 -22.4935  -6.3547  -6.3547  -6.1723  -4.9649
    -4.9454  -4.5925  -4.5419  -4.5419   3.4109   4.9825   4.9825   5.2900
     5.8876   5.9748   6.2462   9.6933   9.6933   9.7987

     highest occupied level (ev):    10.3557

!    total energy              =    -380.57441863 Ry
     estimated scf accuracy    <          3.1E-09 Ry

     The total energy is the sum of the following terms:
     one-electron contribution =     -84.08975932 Ry
     hartree contribution      =      71.17240078 Ry
     xc contribution           =    -102.54290065 Ry
     ewald contribution        =    -265.11415945 Ry

     convergence has been achieved in  14 iterations

     negative rho (up, down):  1.540E-02 0.000E+00

     Forces acting on atoms (cartesian axes, Ry/au):

     atom    1 type  1   force =     0.00000000    0.00000000   -0.00785465
     atom    2 type  2   force =     0.00000000    0.00000000   -0.01233477
     atom    3 type  3   force =     0.00000000    0.00000000    0.02045241
     atom    4 type  3   force =     0.00000000    0.00000000   -0.00013150
     atom    5 type  3   force =     0.00000000    0.00000000   -0.00013150

     Total force =     0.025143     Total SCF correction =     0.000144


     Computing stress (Cartesian axis) and pressure


     negative rho (up, down):  1.540E-02 0.000E+00
          total   stress  (Ry/bohr**3)                   (kbar)     P=      -63.68
  -0.00042147   0.00000000   0.00000000          -62.00        0.00        0.00
   0.00000000  -0.00042147   0.00000000            0.00      -62.00        0.00
   0.00000000   0.00000000  -0.00045568            0.00        0.00      -67.03


     BFGS Geometry Optimization
     Energy error            =      0.0E+00 Ry
     Gradient error          =      2.0E-02 Ry/Bohr

     number of scf cycles    =   1
     number of bfgs steps    =   0

     energy             new  =    -380.5744186337 Ry

     new trust radius        =       0.0204524063 bohr
     new conv_thr            =       0.0000000100 Ry


ATOMIC_POSITIONS (crystal)
Pb               0.0000000000        0.0000000000        1.0054087276
Ti               0.5000000000        0.5000000000        0.5388316782
O                0.5000000000        0.5000000000        0.1012200443
O                0.5000000000        0.0000000000        0.6109119189
O                0.0000000000        0.5000000000        0.6109119189



     Writing config-only to output data dir ./pto_120.save/ :
     XML data file
     NEW-OLD atomic charge density approx. for the potential

     negative rho (up, down):  1.542E-02 0.000E+00

     total cpu time spent up to now is       45.6 secs

     Self-consistent Calculation

     iteration #  1     ecut=   120.00 Ry     beta= 0.70
     CG style diagonalization
     c_bands:  3 eigenvalues not converged
     c_bands:  1 eigenvalues not converged
     c_bands:  1 eigenvalues not converged
     c_bands:  1 eigenvalues not converged
     ethr =  1.00E-06,  avg # of iterations =  6.8

     negative rho (up, down):  1.540E-02 0.000E+00

     total cpu time spent up to now is       50.0 secs

     total energy              =    -380.57478332 Ry
     estimated scf accuracy    <       0.00024132 Ry

     iteration #  2     ecut=   120.00 Ry     beta= 0.70
     CG style diagonalization
     ethr =  5.48E-07,  avg # of iterations =  4.7

     negative rho (up, down):  1.540E-02 0.000E+00

     total cpu time spent up to now is       52.8 secs

     total energy              =    -380.57477578 Ry
     estimated scf accuracy    <       0.00065574 Ry

     iteration #  3     ecut=   120.00 Ry     beta= 0.70
     CG style diagonalization
     ethr =  5.48E-07,  avg # of iterations =  4.4

     negative rho (up, down):  1.540E-02 0.000E+00

     total cpu time spent up to now is       55.5 secs

     total energy              =    -380.57490487 Ry
     estimated scf accuracy    <       0.00004585 Ry

     iteration #  4     ecut=   120.00 Ry     beta= 0.70
     CG style diagonalization
     ethr =  1.04E-07,  avg # of iterations =  3.8

     negative rho (up, down):  1.540E-02 0.000E+00

     total cpu time spent up to now is       57.9 secs

     total energy              =    -380.57491561 Ry
     estimated scf accuracy    <       0.00000622 Ry

     iteration #  5     ecut=   120.00 Ry     beta= 0.70
     CG style diagonalization
     ethr =  1.41E-08,  avg # of iterations =  4.3

     negative rho (up, down):  1.540E-02 0.000E+00

     total cpu time spent up to now is       60.6 secs

     total energy              =    -380.57491898 Ry
     estimated scf accuracy    <       0.00000078 Ry

     iteration #  6     ecut=   120.00 Ry     beta= 0.70
     CG style diagonalization
     ethr =  1.77E-09,  avg # of iterations =  4.4

     negative rho (up, down):  1.540E-02 0.000E+00

     total cpu time spent up to now is       63.3 secs

     total energy              =    -380.57491934 Ry
     estimated scf accuracy    <       0.00000030 Ry

     iteration #  7     ecut=   120.00 Ry     beta= 0.70
     CG style diagonalization
     ethr =  6.92E-10,  avg # of iterations =  4.1

     negative rho (up, down):  1.540E-02 0.000E+00

     total cpu time spent up to now is       65.8 secs

     total energy              =    -380.57491943 Ry
     estimated scf accuracy    <       0.00000007 Ry

     iteration #  8     ecut=   120.00 Ry     beta= 0.70
     CG style diagonalization
     ethr =  1.58E-10,  avg # of iterations =  4.6

     negative rho (up, down):  1.540E-02 0.000E+00

     total cpu time spent up to now is       68.7 secs

     End of self-consistent calculation

          k = 0.0000 0.0000 0.0000 (  9359 PWs)   bands (ev):

   -45.8217 -22.4797 -22.3946 -22.3946  -7.5096  -6.4269  -6.2107  -5.0298
    -5.0298  -4.9967  -4.8781  -4.7639   4.2143   6.3112   6.3112   6.6560
     8.2062   8.2062   8.4923   8.7214   8.9482   8.9482

          k = 0.0000 0.0000 0.2378 (  9319 PWs)   bands (ev):

   -45.8214 -22.4993 -22.3938 -22.3938  -7.3139  -6.3679  -6.1553  -5.0450
    -5.0450  -4.9954  -4.8704  -4.8353   3.4480   6.3709   6.3709   6.8033
     7.9650   7.9650   8.4078   8.8089   9.0511   9.0511

          k = 0.0000 0.0000-0.4756 (  9332 PWs)   bands (ev):

   -45.8211 -22.5188 -22.3930 -22.3930  -7.0991  -6.3028  -6.1090  -5.0600
    -5.0600  -4.9942  -4.9126  -4.8645   2.9430   6.1611   6.4144   6.4144
     7.8036   7.8036   8.3271   9.1211   9.1211  10.0014

          k = 0.0000 0.1667 0.0000 (  9344 PWs)   bands (ev):

   -45.8214 -22.4790 -22.4118 -22.3939  -7.3752  -6.3982  -6.1828  -5.0510
    -5.0285  -5.0094  -4.8811  -4.7547   3.7906   6.3531   6.4209   6.6851
     8.1540   8.2313   8.4837   8.5763   8.6506   9.0147

          k = 0.0000 0.1667 0.2378 (  9346 PWs)   bands (ev):

   -45.8211 -22.4985 -22.4109 -22.3931  -7.1951  -6.3551  -6.1221  -5.0487
    -5.0441  -5.0086  -4.8787  -4.7913   3.2410   6.1546   6.4883   6.9006
     7.6416   7.9585   8.2699   8.6763   8.7221   9.3648

          k = 0.0000 0.1667-0.4756 (  9292 PWs)   bands (ev):

   -45.8208 -22.5178 -22.4101 -22.3923  -7.0072  -6.3061  -6.0613  -5.0596
    -5.0439  -5.0079  -4.8861  -4.8250   2.8201   5.8456   6.5345   6.5892
     7.4555   7.8067   8.3443   8.7303   8.7992   9.9346

          k = 0.0000 0.3333 0.0000 (  9336 PWs)   bands (ev):

   -45.8207 -22.4775 -22.4460 -22.3924  -7.0822  -6.3370  -6.1414  -5.0838
    -5.0348  -5.0256  -4.8748  -4.7636   3.2166   5.9886   6.6704   6.7091
     7.8507   7.8834   8.3361   8.3463   8.7399   9.6006

          k = 0.0000 0.3333 0.2378 (  9357 PWs)   bands (ev):

   -45.8204 -22.4967 -22.4450 -22.3916  -6.9645  -6.2991  -6.0610  -5.0537
    -5.0423  -5.0348  -4.8724  -4.7367   2.8911   5.8673   6.5587   6.7979
     7.3040   7.7340   7.8598   8.3755   8.9217   9.6750

          k = 0.0000 0.3333-0.4756 (  9342 PWs)   bands (ev):

   -45.8202 -22.5158 -22.4440 -22.3908  -6.8769  -6.2363  -5.9539  -5.0587
    -5.0350  -5.0153  -4.9094  -4.6876   2.6010   5.5568   6.3286   6.8382
     7.1966   7.3777   7.6796   8.4025   9.2930   9.5284

          k = 0.0000-0.5000 0.0000 (  9346 PWs)   bands (ev):

   -45.8204 -22.4766 -22.4632 -22.3917  -6.9194  -6.2907  -6.1455  -5.0983
    -5.0473  -5.0243  -4.8445  -4.8005   3.0084   5.6343   6.9430   6.9805
     7.3609   7.4751   8.2682   8.3726   8.7745  10.3431

          k = 0.0000-0.5000 0.2378 (  9340 PWs)   bands (ev):

   -45.8201 -22.4957 -22.4620 -22.3909  -6.8640  -6.2198  -6.0566  -5.0657
    -5.0479  -5.0413  -4.8414  -4.7328   2.7496   5.6018   6.5855   6.8488
     7.1749   7.3022   7.9696   8.3505   8.9234   9.8451

          k = 0.0000-0.5000-0.4756 (  9344 PWs)   bands (ev):

   -45.8199 -22.5146 -22.4609 -22.3901  -6.8475  -6.1438  -5.9043  -5.0582
    -5.0485  -5.0255  -4.8944  -4.6317   2.5108   5.4174   6.0407   6.9143
     7.1417   7.3855   7.3877   8.3363   9.1440   9.6268

          k = 0.1667 0.1667 0.0000 (  9350 PWs)   bands (ev):

   -45.8210 -22.4783 -22.4112 -22.4109  -7.2437  -6.3683  -6.1757  -5.0564
    -5.0429  -5.0110  -4.8593  -4.7458   3.4962   6.3008   6.5254   6.7212
     7.7170   7.8501   8.5068   8.5717   8.8928   9.2240

          k = 0.1667 0.1667 0.2378 (  9329 PWs)   bands (ev):

   -45.8208 -22.4976 -22.4103 -22.4101  -7.0745  -6.3444  -6.1161  -5.0590
    -5.0383  -5.0040  -4.8513  -4.7600   3.1301   6.1020   6.1829   6.8544
     7.5381   7.5502   8.3348   8.7434   8.9695   9.3149

          k = 0.1667 0.1667-0.4756 (  9310 PWs)   bands (ev):

   -45.8205 -22.5169 -22.4094 -22.4092  -6.9048  -6.3203  -6.0468  -5.0703
    -5.0204  -4.9795  -4.8595  -4.7792   2.7960   5.8988   5.9038   6.5973
     7.4494   7.4730   8.2388   8.8138   9.0266   9.6427

          k = 0.1667 0.3333 0.0000 (  9353 PWs)   bands (ev):

   -45.8204 -22.4768 -22.4451 -22.4095  -6.9608  -6.3082  -6.1751  -5.0780
    -5.0331  -4.9947  -4.8345  -4.7537   3.0288   5.9960   6.5370   6.8311
     7.2082   7.7551   8.0634   8.7069   8.8927   9.6720

          k = 0.1667 0.3333 0.2378 (  9346 PWs)   bands (ev):

   -45.8201 -22.4959 -22.4442 -22.4086  -6.8401  -6.3020  -6.1090  -5.0567
    -5.0334  -4.9718  -4.8168  -4.7128   2.8992   5.8335   6.0003   6.4935
     6.9242   7.5743   8.3975   8.6828   9.0152   9.4032

          k = 0.1667 0.3333-0.4756 (  9334 PWs)   bands (ev):

   -45.8199 -22.5149 -22.4432 -22.4078  -6.7553  -6.2814  -6.0076  -5.0542
    -5.0111  -4.9327  -4.8289  -4.6619   2.7319   5.4992   5.9189   6.2267
     6.4403   7.4366   8.4809   8.7429   8.9227   9.4317

          k = 0.1667-0.5000 0.0000 (  9358 PWs)   bands (ev):

   -45.8201 -22.4758 -22.4623 -22.4087  -6.8053  -6.2640  -6.1986  -5.0809
    -5.0259  -4.9738  -4.8114  -4.7907   2.8424   5.6510   6.6767   6.8628
     7.2000   7.4731   7.9088   8.7792   8.8598   9.9691

          k = 0.1667-0.5000 0.2378 (  9342 PWs)   bands (ev):

   -45.8198 -22.4949 -22.4612 -22.4079  -6.7393  -6.2332  -6.1315  -5.0553
    -5.0209  -4.9512  -4.7952  -4.7069   2.7917   5.6073   5.9092   6.2710
     6.8730   7.7140   8.1800   8.6856   9.0191   9.3638

          k = 0.1667-0.5000-0.4756 (  9332 PWs)   bands (ev):

   -45.8195 -22.5138 -22.4601 -22.4070  -6.7255  -6.2038  -5.9930  -5.0493
    -4.9832  -4.9291  -4.8101  -4.6069   2.7011   5.3831   5.7832   5.8903
     6.3078   7.5511   8.2966   8.6359   8.6654   9.6376

          k = 0.3333 0.3333 0.0000 (  9348 PWs)   bands (ev):

   -45.8198 -22.4752 -22.4434 -22.4433  -6.7227  -6.2514  -6.2234  -5.0599
    -5.0157  -4.9247  -4.7587  -4.7566   2.6701   5.9550   6.1062   6.9331
     7.0873   7.2158   7.9030   8.5052   9.3877   9.3955

          k = 0.3333 0.3333 0.2378 (  9342 PWs)   bands (ev):

   -45.8195 -22.4942 -22.4426 -22.4424  -6.5941  -6.3000  -6.1943  -5.0237
    -5.0096  -4.8672  -4.7133  -4.6792   2.8508   5.5932   5.6597   5.9459
     6.6173   7.0655   8.3806   8.9788   8.9950   9.4021

          k = 0.3333 0.3333-0.4756 (  9328 PWs)   bands (ev):

   -45.8192 -22.5131 -22.4416 -22.4415  -6.5280  -6.3448  -6.0920  -5.0037
    -4.9876  -4.8055  -4.6669  -4.6047   3.0144   5.2069   5.2336   5.7044
     6.3556   6.5350   7.6486   9.3286   9.3758   9.5104

          k = 0.3333-0.5000 0.0000 (  9354 PWs)   bands (ev):

   -45.8194 -22.4743 -22.4604 -22.4425  -6.6169  -6.2355  -6.2157  -5.0526
    -4.9943  -4.8612  -4.7904  -4.7257   2.5026   5.6273   6.1423   6.7529
     7.2617   7.4147   7.5019   8.4893   9.0786   9.5784

          k = 0.3333-0.5000 0.2378 (  9346 PWs)   bands (ev):

   -45.8192 -22.4932 -22.4594 -22.4416  -6.4889  -6.2632  -6.2485  -5.0158
    -4.9842  -4.7794  -4.7093  -4.6519   2.7945   5.4909   5.5836   5.6809
     6.4016   7.1371   7.9098   8.9700   8.9965   9.5574

          k = 0.3333-0.5000-0.4756 (  9356 PWs)   bands (ev):

   -45.8189 -22.5121 -22.4584 -22.4408  -6.4777  -6.3070  -6.1287  -4.9890
    -4.9658  -4.7214  -4.6282  -4.5544   3.1613   4.9596   5.1332   5.4694
     6.1511   6.5410   6.8835   9.4305   9.5316   9.6605

          k =-0.5000-0.5000 0.0000 (  9348 PWs)   bands (ev):

   -45.8191 -22.4733 -22.4594 -22.4594  -6.5716  -6.1945  -6.1945  -5.0430
    -4.9533  -4.8062  -4.8062  -4.6838   2.3329   5.4702   5.9918   6.9654
     6.9654   7.5253   7.5253   8.2425   8.5940   9.8365

          k =-0.5000-0.5000 0.2378 (  9344 PWs)   bands (ev):

   -45.8189 -22.4923 -22.4585 -22.4585  -6.3805  -6.2793  -6.2793  -5.0050
    -4.9514  -4.6682  -4.6682  -4.6516   2.7419   5.4249   5.6052   5.6052
     5.9980   7.0773   7.2665   9.0014   9.0014   9.8211

          k =-0.5000-0.5000-0.4756 (  9376 PWs)   bands (ev):

   -45.8186 -22.5112 -22.4576 -22.4576  -6.3526  -6.3526  -6.1849  -4.9669
    -4.9496  -4.6090  -4.5397  -4.5397   3.4044   4.9740   4.9740   5.3035
     5.9005   6.0043   6.2420   9.6721   9.6721   9.8057

     highest occupied level (ev):    10.3431

!    total energy              =    -380.57491947 Ry
     estimated scf accuracy    <          5.9E-09 Ry

     The total energy is the sum of the following terms:
     one-electron contribution =     -84.30713668 Ry
     hartree contribution      =      71.29037582 Ry
     xc contribution           =    -102.55272217 Ry
     ewald contribution        =    -265.00543644 Ry

     convergence has been achieved in   8 iterations

     negative rho (up, down):  1.540E-02 0.000E+00

     Forces acting on atoms (cartesian axes, Ry/au):

     atom    1 type  1   force =     0.00000000    0.00000000   -0.00860025
     atom    2 type  2   force =     0.00000000    0.00000000   -0.00506300
     atom    3 type  3   force =     0.00000000    0.00000000    0.01143505
     atom    4 type  3   force =     0.00000000    0.00000000    0.00111410
     atom    5 type  3   force =     0.00000000    0.00000000    0.00111410

     Total force =     0.015259     Total SCF correction =     0.000159


     Computing stress (Cartesian axis) and pressure


     negative rho (up, down):  1.540E-02 0.000E+00
          total   stress  (Ry/bohr**3)                   (kbar)     P=      -58.34
  -0.00041016   0.00000000   0.00000000          -60.34        0.00        0.00
   0.00000000  -0.00041016   0.00000000            0.00      -60.34        0.00
   0.00000000   0.00000000  -0.00036951            0.00        0.00      -54.36

     Energy error            =      5.0E-04 Ry
     Gradient error          =      1.1E-02 Ry/Bohr

     number of scf cycles    =   2
     number of bfgs steps    =   1

     energy             old  =    -380.5744186337 Ry
     energy             new  =    -380.5749194666 Ry

     CASE: energy            _new < energy            _old

     new trust radius        =       0.0224976470 bohr
     new conv_thr            =       0.0000000005 Ry


ATOMIC_POSITIONS (crystal)
Pb               0.0000000000        0.0000000000        1.0033707019
Ti               0.5000000000        0.5000000000        0.5374824870
O                0.5000000000        0.5000000000        0.1041237618
O                0.5000000000        0.0000000000        0.6111536686
O                0.0000000000        0.5000000000        0.6111536686



     Writing config-only to output data dir ./pto_120.save/ :
     XML data file
     NEW-OLD atomic charge density approx. for the potential

     negative rho (up, down):  1.552E-02 0.000E+00

     total cpu time spent up to now is       72.8 secs

     Self-consistent Calculation

     iteration #  1     ecut=   120.00 Ry     beta= 0.70
     CG style diagonalization
     c_bands:  1 eigenvalues not converged
     c_bands:  1 eigenvalues not converged
     c_bands:  1 eigenvalues not converged
     c_bands:  1 eigenvalues not converged
     ethr =  1.00E-06,  avg # of iterations =  7.0

     negative rho (up, down):  1.548E-02 0.000E+00

     total cpu time spent up to now is       77.3 secs

     total energy              =    -380.57507360 Ry
     estimated scf accuracy    <       0.00024080 Ry

     iteration #  2     ecut=   120.00 Ry     beta= 0.70
     CG style diagonalization
     ethr =  5.47E-07,  avg # of iterations =  4.7

     negative rho (up, down):  1.549E-02 0.000E+00

     total cpu time spent up to now is       80.1 secs

     total energy              =    -380.57507694 Ry
     estimated scf accuracy    <       0.00062047 Ry

     iteration #  3     ecut=   120.00 Ry     beta= 0.70
     CG style diagonalization
     ethr =  5.47E-07,  avg # of iterations =  4.3

     negative rho (up, down):  1.548E-02 0.000E+00

     total cpu time spent up to now is       82.8 secs

     total energy              =    -380.57520314 Ry
     estimated scf accuracy    <       0.00005062 Ry

     iteration #  4     ecut=   120.00 Ry     beta= 0.70
     CG style diagonalization
     ethr =  1.15E-07,  avg # of iterations =  3.7

     negative rho (up, down):  1.548E-02 0.000E+00

     total cpu time spent up to now is       85.2 secs

     total energy              =    -380.57521390 Ry
     estimated scf accuracy    <       0.00000622 Ry

     iteration #  5     ecut=   120.00 Ry     beta= 0.70
     CG style diagonalization
     ethr =  1.41E-08,  avg # of iterations =  4.3

     negative rho (up, down):  1.548E-02 0.000E+00

     total cpu time spent up to now is       87.8 secs

     total energy              =    -380.57521747 Ry
     estimated scf accuracy    <       0.00000087 Ry

     iteration #  6     ecut=   120.00 Ry     beta= 0.70
     CG style diagonalization
     ethr =  1.98E-09,  avg # of iterations =  4.4

     negative rho (up, down):  1.548E-02 0.000E+00

     total cpu time spent up to now is       90.6 secs

     total energy              =    -380.57521790 Ry
     estimated scf accuracy    <       0.00000032 Ry

     iteration #  7     ecut=   120.00 Ry     beta= 0.70
     CG style diagonalization
     ethr =  7.29E-10,  avg # of iterations =  4.2

     negative rho (up, down):  1.548E-02 0.000E+00

     total cpu time spent up to now is       93.2 secs

     total energy              =    -380.57521801 Ry
     estimated scf accuracy    <       0.00000007 Ry

     iteration #  8     ecut=   120.00 Ry     beta= 0.70
     CG style diagonalization
     ethr =  1.60E-10,  avg # of iterations =  4.7

     negative rho (up, down):  1.548E-02 0.000E+00

     total cpu time spent up to now is       96.1 secs

     total energy              =    -380.57521805 Ry
     estimated scf accuracy    <          5.0E-09 Ry

     iteration #  9     ecut=   120.00 Ry     beta= 0.70
     CG style diagonalization
     ethr =  1.13E-11,  avg # of iterations =  6.5

     negative rho (up, down):  1.548E-02 0.000E+00

     total cpu time spent up to now is      100.0 secs

     total energy              =    -380.57521807 Ry
     estimated scf accuracy    <          5.7E-10 Ry

     iteration # 10     ecut=   120.00 Ry     beta= 0.70
     CG style diagonalization
     ethr =  1.29E-12,  avg # of iterations =  6.6

     negative rho (up, down):  1.548E-02 0.000E+00

     total cpu time spent up to now is      103.9 secs

     End of self-consistent calculation

          k = 0.0000 0.0000 0.0000 (  9359 PWs)   bands (ev):

   -45.7863 -22.4688 -22.3588 -22.3588  -7.5126  -6.4293  -6.2192  -5.0289
    -5.0289  -4.9967  -4.8838  -4.7550   4.2049   6.3092   6.3092   6.6964
     8.1378   8.1378   8.4901   8.6619   8.9494   8.9494

          k = 0.0000 0.0000 0.2378 (  9319 PWs)   bands (ev):

   -45.7860 -22.4884 -22.3581 -22.3581  -7.3153  -6.3708  -6.1654  -5.0440
    -5.0440  -4.9954  -4.8755  -4.8257   3.4363   6.3585   6.3585   6.8236
     7.9218   7.9218   8.4052   8.7902   9.0492   9.0492

          k = 0.0000 0.0000-0.4756 (  9332 PWs)   bands (ev):

   -45.7858 -22.5079 -22.3573 -22.3573  -7.0983  -6.3065  -6.1215  -5.0590
    -5.0590  -4.9941  -4.9022  -4.8688   2.9248   6.1778   6.3886   6.3886
     7.7832   7.7832   8.3242   9.1183   9.1183  10.0030

          k = 0.0000 0.1667 0.0000 (  9344 PWs)   bands (ev):

   -45.7860 -22.4680 -22.3761 -22.3581  -7.3786  -6.4013  -6.1930  -5.0506
    -5.0275  -5.0093  -4.8837  -4.7455   3.7862   6.3514   6.4196   6.6995
     8.1215   8.1629   8.4746   8.5777   8.6216   8.9934

          k = 0.0000 0.1667 0.2378 (  9346 PWs)   bands (ev):

   -45.7857 -22.4875 -22.3752 -22.3573  -7.1969  -6.3588  -6.1339  -5.0475
    -5.0431  -5.0086  -4.8815  -4.7820   3.2336   6.1421   6.4767   6.9137
     7.6170   7.9166   8.2628   8.6582   8.7188   9.3622

          k = 0.0000 0.1667-0.4756 (  9292 PWs)   bands (ev):

   -45.7854 -22.5069 -22.3744 -22.3565  -7.0070  -6.3104  -6.0752  -5.0585
    -5.0419  -5.0078  -4.8881  -4.8162   2.8075   5.8306   6.5094   6.5982
     7.4427   7.7857   8.3419   8.7114   8.7974   9.9426

          k = 0.0000 0.3333 0.0000 (  9336 PWs)   bands (ev):

   -45.7853 -22.4665 -22.4105 -22.3567  -7.0863  -6.3420  -6.1557  -5.0826
    -5.0346  -5.0246  -4.8713  -4.7553   3.2154   5.9919   6.6665   6.7095
     7.8419   7.8852   8.2634   8.3430   8.7004   9.5930

          k = 0.0000 0.3333 0.2378 (  9357 PWs)   bands (ev):

   -45.7851 -22.4857 -22.4094 -22.3559  -6.9666  -6.3052  -6.0763  -5.0521
    -5.0413  -5.0346  -4.8706  -4.7273   2.8896   5.8610   6.5568   6.7892
     7.2920   7.7138   7.8577   8.3456   8.9028   9.6721

          k = 0.0000 0.3333-0.4756 (  9342 PWs)   bands (ev):

   -45.7848 -22.5049 -22.4084 -22.3551  -6.8773  -6.2428  -5.9709  -5.0576
    -5.0349  -5.0129  -4.9073  -4.6791   2.5983   5.5353   6.3391   6.8148
     7.1846   7.3859   7.6654   8.3902   9.2579   9.5428

          k = 0.0000-0.5000 0.0000 (  9346 PWs)   bands (ev):

   -45.7850 -22.4656 -22.4276 -22.3560  -6.9235  -6.2958  -6.1636  -5.0961
    -5.0470  -5.0233  -4.8339  -4.7972   3.0074   5.6454   6.9216   6.9825
     7.3688   7.4782   8.2632   8.2950   8.7335  10.3338

          k = 0.0000-0.5000 0.2378 (  9340 PWs)   bands (ev):

   -45.7847 -22.4847 -22.4265 -22.3551  -6.8659  -6.2261  -6.0756  -5.0631
    -5.0477  -5.0403  -4.8375  -4.7237   2.7501   5.6077   6.5774   6.8318
     7.1767   7.2832   7.9672   8.3069   8.9120   9.8347

          k = 0.0000-0.5000-0.4756 (  9344 PWs)   bands (ev):

   -45.7845 -22.5038 -22.4253 -22.3543  -6.8482  -6.1515  -5.9238  -5.0571
    -5.0483  -5.0224  -4.8898  -4.6237   2.5125   5.4045   6.0408   6.8978
     7.1104   7.3870   7.4037   8.3139   9.1439   9.6013

          k = 0.1667 0.1667 0.0000 (  9350 PWs)   bands (ev):

   -45.7857 -22.4673 -22.3755 -22.3752  -7.2479  -6.3721  -6.1870  -5.0557
    -5.0422  -5.0104  -4.8608  -4.7364   3.4928   6.3044   6.5254   6.7210
     7.6661   7.8426   8.4714   8.5721   8.8919   9.1829

          k = 0.1667 0.1667 0.2378 (  9329 PWs)   bands (ev):

   -45.7854 -22.4867 -22.3746 -22.3743  -7.0770  -6.3483  -6.1290  -5.0582
    -5.0371  -5.0033  -4.8533  -4.7505   3.1240   6.0913   6.1729   6.8561
     7.5219   7.5441   8.2942   8.7346   8.9624   9.3133

          k = 0.1667 0.1667-0.4756 (  9310 PWs)   bands (ev):

   -45.7851 -22.5060 -22.3737 -22.3735  -6.9053  -6.3243  -6.0615  -5.0697
    -5.0198  -4.9778  -4.8620  -4.7694   2.7855   5.8847   5.8874   6.6049
     7.4336   7.4737   8.2106   8.8044   9.0166   9.6520

          k = 0.1667 0.3333 0.0000 (  9353 PWs)   bands (ev):

   -45.7850 -22.4657 -22.4096 -22.3738  -6.9662  -6.3139  -6.1881  -5.0764
    -5.0321  -4.9944  -4.8326  -4.7448   3.0260   6.0020   6.5291   6.8345
     7.2007   7.7035   8.0651   8.6893   8.8800   9.6532

          k = 0.1667 0.3333 0.2378 (  9346 PWs)   bands (ev):

   -45.7848 -22.4849 -22.4086 -22.3729  -6.8434  -6.3078  -6.1230  -5.0555
    -5.0320  -4.9725  -4.8153  -4.7038   2.8959   5.8267   5.9906   6.4944
     6.9170   7.5701   8.3769   8.6631   8.9995   9.3995

          k = 0.1667 0.3333-0.4756 (  9334 PWs)   bands (ev):

   -45.7845 -22.5040 -22.4076 -22.3721  -6.7568  -6.2870  -6.0227  -5.0537
    -5.0101  -4.9337  -4.8267  -4.6536   2.7274   5.4791   5.9095   6.2292
     6.4439   7.4409   8.4461   8.7389   8.9261   9.4133

          k = 0.1667-0.5000 0.0000 (  9358 PWs)   bands (ev):

   -45.7847 -22.4648 -22.4267 -22.3730  -6.8112  -6.2699  -6.2134  -5.0788
    -5.0247  -4.9746  -4.8029  -4.7859   2.8393   5.6623   6.6521   6.8702
     7.2076   7.4784   7.8435   8.7712   8.8359   9.9657

          k = 0.1667-0.5000 0.2378 (  9342 PWs)   bands (ev):

   -45.7844 -22.4839 -22.4256 -22.3722  -6.7426  -6.2396  -6.1470  -5.0538
    -5.0191  -4.9541  -4.7901  -4.6987   2.7895   5.6129   5.8998   6.2615
     6.8682   7.7059   8.1746   8.6529   9.0145   9.3519

          k = 0.1667-0.5000-0.4756 (  9332 PWs)   bands (ev):

   -45.7842 -22.5029 -22.4245 -22.3713  -6.7273  -6.2106  -6.0080  -5.0487
    -4.9812  -4.9337  -4.8042  -4.5995   2.7001   5.3669   5.7736   5.8924
     6.3082   7.5580   8.2946   8.6053   8.6680   9.6123

          k = 0.3333 0.3333 0.0000 (  9348 PWs)   bands (ev):

   -45.7844 -22.4641 -22.4079 -22.4077  -6.7311  -6.2584  -6.2340  -5.0576
    -5.0147  -4.9223  -4.7599  -4.7468   2.6638   5.9557   6.1234   6.9098
     7.0897   7.1699   7.9204   8.4914   9.3825   9.3892

          k = 0.3333 0.3333 0.2378 (  9342 PWs)   bands (ev):

   -45.7841 -22.4832 -22.4070 -22.4068  -6.5998  -6.3059  -6.2060  -5.0214
    -5.0093  -4.8684  -4.7134  -4.6701   2.8433   5.5830   5.6540   5.9484
     6.6271   7.0637   8.3785   8.9634   8.9717   9.3956

          k = 0.3333 0.3333-0.4756 (  9328 PWs)   bands (ev):

   -45.7838 -22.5022 -22.4060 -22.4059  -6.5317  -6.3498  -6.1037  -5.0037
    -4.9856  -4.8109  -4.6654  -4.5963   3.0049   5.1968   5.2237   5.7053
     6.3580   6.5542   7.6551   9.2992   9.3730   9.4869

          k = 0.3333-0.5000 0.0000 (  9354 PWs)   bands (ev):

   -45.7841 -22.4632 -22.4248 -22.4069  -6.6270  -6.2451  -6.2234  -5.0503
    -4.9933  -4.8564  -4.7822  -4.7274   2.4946   5.6352   6.1604   6.7250
     7.2193   7.4214   7.5060   8.4833   9.0839   9.5759

          k = 0.3333-0.5000 0.2378 (  9346 PWs)   bands (ev):

   -45.7838 -22.4822 -22.4238 -22.4060  -6.4955  -6.2699  -6.2589  -5.0136
    -4.9837  -4.7835  -4.7018  -4.6483   2.7848   5.4826   5.5871   5.6783
     6.4121   7.1330   7.9212   8.9516   8.9724   9.5533

          k = 0.3333-0.5000-0.4756 (  9356 PWs)   bands (ev):

   -45.7835 -22.5012 -22.4228 -22.4052  -6.4819  -6.3129  -6.1386  -4.9881
    -4.9644  -4.7313  -4.6216  -4.5489   3.1486   4.9539   5.1193   5.4788
     6.1587   6.5514   6.8988   9.4031   9.5289   9.6362

          k =-0.5000-0.5000 0.0000 (  9348 PWs)   bands (ev):

   -45.7837 -22.4622 -22.4238 -22.4238  -6.5828  -6.2032  -6.2032  -5.0406
    -4.9530  -4.7953  -4.7953  -4.6932   2.3222   5.4762   6.0172   6.9323
     6.9323   7.5297   7.5297   8.2376   8.6111   9.8342

          k =-0.5000-0.5000 0.2378 (  9344 PWs)   bands (ev):

   -45.7835 -22.4813 -22.4229 -22.4229  -6.3904  -6.2862  -6.2862  -5.0026
    -4.9512  -4.6631  -4.6595  -4.6595   2.7278   5.4323   5.5942   5.5942
     6.0235   7.0729   7.2862   8.9818   8.9818   9.8188

          k =-0.5000-0.5000-0.4756 (  9376 PWs)   bands (ev):

   -45.7832 -22.5002 -22.4220 -22.4220  -6.3583  -6.3583  -6.1930  -4.9647
    -4.9494  -4.6232  -4.5328  -4.5328   3.3789   4.9664   4.9664   5.3139
     5.9314   6.0298   6.2362   9.6486   9.6486   9.8035

     highest occupied level (ev):    10.3338

!    total energy              =    -380.57521807 Ry
     estimated scf accuracy    <          9.5E-11 Ry

     The total energy is the sum of the following terms:
     one-electron contribution =     -84.64715223 Ry
     hartree contribution      =      71.46960536 Ry
     xc contribution           =    -102.56499776 Ry
     ewald contribution        =    -264.83267344 Ry

     convergence has been achieved in  10 iterations

     negative rho (up, down):  1.548E-02 0.000E+00

     Forces acting on atoms (cartesian axes, Ry/au):

     atom    1 type  1   force =     0.00000000    0.00000000   -0.00857765
     atom    2 type  2   force =     0.00000000    0.00000000    0.00276277
     atom    3 type  3   force =     0.00000000    0.00000000    0.00127052
     atom    4 type  3   force =     0.00000000    0.00000000    0.00227218
     atom    5 type  3   force =     0.00000000    0.00000000    0.00227218

     Total force =     0.009651     Total SCF correction =     0.000007


     Computing stress (Cartesian axis) and pressure


     negative rho (up, down):  1.548E-02 0.000E+00
          total   stress  (Ry/bohr**3)                   (kbar)     P=      -51.93
  -0.00039411   0.00000000   0.00000000          -57.97        0.00        0.00
   0.00000000  -0.00039411   0.00000000            0.00      -57.97        0.00
   0.00000000   0.00000000  -0.00027087            0.00        0.00      -39.85

     Energy error            =      3.0E-04 Ry
     Gradient error          =      8.6E-03 Ry/Bohr

     number of scf cycles    =   3
     number of bfgs steps    =   2

     energy             old  =    -380.5749194666 Ry
     energy             new  =    -380.5752180690 Ry

     CASE: energy            _new < energy            _old

     new trust radius        =       0.0190822664 bohr
     new conv_thr            =       0.0000000003 Ry


ATOMIC_POSITIONS (crystal)
Pb               0.0000000000        0.0000000000        1.0009077994
Ti               0.5000000000        0.5000000000        0.5372224339
O                0.5000000000        0.5000000000        0.1058552001
O                0.5000000000        0.0000000000        0.6116494273
O                0.0000000000        0.5000000000        0.6116494273



     Writing config-only to output data dir ./pto_120.save/ :
     XML data file
     NEW-OLD atomic charge density approx. for the potential

     negative rho (up, down):  1.565E-02 0.000E+00

     total cpu time spent up to now is      108.0 secs

     Self-consistent Calculation

     iteration #  1     ecut=   120.00 Ry     beta= 0.70
     CG style diagonalization
     c_bands:  1 eigenvalues not converged
     ethr =  1.00E-06,  avg # of iterations =  5.6

     negative rho (up, down):  1.562E-02 0.000E+00

     total cpu time spent up to now is      111.7 secs

     total energy              =    -380.57530507 Ry
     estimated scf accuracy    <       0.00005652 Ry

     iteration #  2     ecut=   120.00 Ry     beta= 0.70
     CG style diagonalization
     ethr =  1.28E-07,  avg # of iterations =  4.8

     negative rho (up, down):  1.561E-02 0.000E+00

     total cpu time spent up to now is      114.7 secs

     total energy              =    -380.57533151 Ry
     estimated scf accuracy    <       0.00011947 Ry

     iteration #  3     ecut=   120.00 Ry     beta= 0.70
     CG style diagonalization
     ethr =  1.28E-07,  avg # of iterations =  4.4

     negative rho (up, down):  1.561E-02 0.000E+00

     total cpu time spent up to now is      117.3 secs

     total energy              =    -380.57535918 Ry
     estimated scf accuracy    <       0.00001692 Ry

     iteration #  4     ecut=   120.00 Ry     beta= 0.70
     CG style diagonalization
     ethr =  3.85E-08,  avg # of iterations =  3.7

     negative rho (up, down):  1.560E-02 0.000E+00

     total cpu time spent up to now is      119.7 secs

     total energy              =    -380.57536276 Ry
     estimated scf accuracy    <       0.00000189 Ry

     iteration #  5     ecut=   120.00 Ry     beta= 0.70
     CG style diagonalization
     ethr =  4.30E-09,  avg # of iterations =  4.4

     negative rho (up, down):  1.560E-02 0.000E+00

     total cpu time spent up to now is      122.4 secs

     total energy              =    -380.57536398 Ry
     estimated scf accuracy    <       0.00000015 Ry

     iteration #  6     ecut=   120.00 Ry     beta= 0.70
     CG style diagonalization
     ethr =  3.32E-10,  avg # of iterations =  5.2

     negative rho (up, down):  1.560E-02 0.000E+00

     total cpu time spent up to now is      125.6 secs

     total energy              =    -380.57536411 Ry
     estimated scf accuracy    <       0.00000015 Ry

     iteration #  7     ecut=   120.00 Ry     beta= 0.70
     CG style diagonalization
     ethr =  3.32E-10,  avg # of iterations =  3.9

     negative rho (up, down):  1.560E-02 0.000E+00

     total cpu time spent up to now is      128.0 secs

     total energy              =    -380.57536413 Ry
     estimated scf accuracy    <       0.00000004 Ry

     iteration #  8     ecut=   120.00 Ry     beta= 0.70
     CG style diagonalization
     ethr =  8.50E-11,  avg # of iterations =  4.3

     negative rho (up, down):  1.560E-02 0.000E+00

     total cpu time spent up to now is      130.6 secs

     total energy              =    -380.57536415 Ry
     estimated scf accuracy    <          1.6E-09 Ry

     iteration #  9     ecut=   120.00 Ry     beta= 0.70
     CG style diagonalization
     ethr =  3.57E-12,  avg # of iterations =  7.3

     negative rho (up, down):  1.561E-02 0.000E+00

     total cpu time spent up to now is      134.9 secs

     total energy              =    -380.57536416 Ry
     estimated scf accuracy    <          6.9E-10 Ry

     iteration # 10     ecut=   120.00 Ry     beta= 0.70
     CG style diagonalization
     ethr =  1.56E-12,  avg # of iterations =  4.4

     negative rho (up, down):  1.561E-02 0.000E+00

     total cpu time spent up to now is      137.6 secs

     End of self-consistent calculation

          k = 0.0000 0.0000 0.0000 (  9359 PWs)   bands (ev):

   -45.7730 -22.4665 -22.3459 -22.3459  -7.5230  -6.4438  -6.2200  -5.0230
    -5.0230  -4.9897  -4.8836  -4.7405   4.2015   6.2999   6.2999   6.7302
     8.1086   8.1086   8.4836   8.6331   8.9381   8.9381

          k = 0.0000 0.0000 0.2378 (  9319 PWs)   bands (ev):

   -45.7727 -22.4862 -22.3451 -22.3451  -7.3270  -6.3866  -6.1657  -5.0380
    -5.0380  -4.9884  -4.8741  -4.8099   3.4354   6.3442   6.3442   6.8407
     7.9031   7.9031   8.3986   8.7816   9.0362   9.0362

          k = 0.0000 0.0000-0.4756 (  9332 PWs)   bands (ev):

   -45.7724 -22.5057 -22.3444 -22.3444  -7.1122  -6.3240  -6.1205  -5.0530
    -5.0530  -4.9871  -4.8847  -4.8661   2.9220   6.1905   6.3685   6.3685
     7.7741   7.7741   8.3175   9.1041   9.1041  10.0010

          k = 0.0000 0.1667 0.0000 (  9344 PWs)   bands (ev):

   -45.7727 -22.4658 -22.3632 -22.3452  -7.3891  -6.4164  -6.1957  -5.0448
    -5.0216  -5.0023  -4.8807  -4.7308   3.7854   6.3439   6.4101   6.7106
     8.1106   8.1332   8.4645   8.5674   8.6016   8.9813

          k = 0.0000 0.1667 0.2378 (  9346 PWs)   bands (ev):

   -45.7724 -22.4853 -22.3624 -22.3444  -7.2088  -6.3747  -6.1359  -5.0408
    -5.0371  -5.0015  -4.8781  -4.7668   3.2343   6.1300   6.4626   6.9214
     7.6049   7.8973   8.2519   8.6462   8.7069   9.3589

          k = 0.0000 0.1667-0.4756 (  9292 PWs)   bands (ev):

   -45.7721 -22.5047 -22.3615 -22.3436  -7.0208  -6.3273  -6.0757  -5.0525
    -5.0342  -5.0008  -4.8835  -4.8012   2.8072   5.8209   6.4895   6.6002
     7.4352   7.7751   8.3266   8.6995   8.7852   9.9474

          k = 0.0000 0.3333 0.0000 (  9336 PWs)   bands (ev):

   -45.7720 -22.4642 -22.3977 -22.3438  -7.0970  -6.3581  -6.1629  -5.0759
    -5.0275  -5.0186  -4.8623  -4.7412   3.2168   5.9852   6.6636   6.6995
     7.8311   7.8788   8.2289   8.3342   8.6784   9.5971

          k = 0.0000 0.3333 0.2378 (  9357 PWs)   bands (ev):

   -45.7718 -22.4835 -22.3966 -22.3430  -6.9788  -6.3215  -6.0819  -5.0447
    -5.0353  -5.0275  -4.8630  -4.7126   2.8930   5.8501   6.5532   6.7755
     7.2770   7.6981   7.8548   8.3280   8.8891   9.6758

          k = 0.0000 0.3333-0.4756 (  9342 PWs)   bands (ev):

   -45.7715 -22.5027 -22.3955 -22.3421  -6.8906  -6.2605  -5.9744  -5.0516
    -5.0278  -5.0046  -4.8988  -4.6659   2.6027   5.5203   6.3401   6.7959
     7.1674   7.3837   7.6517   8.3785   9.2437   9.5518

          k = 0.0000-0.5000 0.0000 (  9346 PWs)   bands (ev):

   -45.7717 -22.4633 -22.4149 -22.3431  -6.9345  -6.3114  -6.1742  -5.0884
    -5.0399  -5.0173  -4.8169  -4.7885   3.0093   5.6420   6.9081   6.9706
     7.3657   7.4745   8.2529   8.2584   8.7106  10.3357

          k = 0.0000-0.5000 0.2378 (  9340 PWs)   bands (ev):

   -45.7714 -22.4825 -22.4137 -22.3422  -6.8783  -6.2434  -6.0823  -5.0550
    -5.0405  -5.0342  -4.8278  -4.7093   2.7546   5.6020   6.5700   6.8133
     7.1636   7.2700   7.9628   8.2848   8.9011   9.8387

          k = 0.0000-0.5000-0.4756 (  9344 PWs)   bands (ev):

   -45.7712 -22.5015 -22.4125 -22.3414  -6.8610  -6.1708  -5.9284  -5.0511
    -5.0412  -5.0138  -4.8787  -4.6114   2.5192   5.3919   6.0364   6.8731
     7.0926   7.3725   7.4090   8.3004   9.1540   9.5872

          k = 0.1667 0.1667 0.0000 (  9350 PWs)   bands (ev):

   -45.7724 -22.4650 -22.3627 -22.3623  -7.2583  -6.3877  -6.1911  -5.0497
    -5.0361  -5.0034  -4.8561  -4.7215   3.4911   6.2983   6.5195   6.7219
     7.6444   7.8308   8.4571   8.5667   8.8797   9.1669

          k = 0.1667 0.1667 0.2378 (  9329 PWs)   bands (ev):

   -45.7721 -22.4845 -22.3617 -22.3615  -7.0890  -6.3644  -6.1318  -5.0518
    -5.0301  -4.9966  -4.8489  -4.7355   3.1241   6.0807   6.1616   6.8558
     7.5133   7.5331   8.2753   8.7231   8.9491   9.3144

          k = 0.1667 0.1667-0.4756 (  9310 PWs)   bands (ev):

   -45.7718 -22.5038 -22.3608 -22.3606  -6.9194  -6.3408  -6.0624  -5.0632
    -5.0127  -4.9711  -4.8575  -4.7541   2.7854   5.8718   5.8795   6.6017
     7.4146   7.4713   8.1985   8.7918   9.0023   9.6591

          k = 0.1667 0.3333 0.0000 (  9353 PWs)   bands (ev):

   -45.7717 -22.4634 -22.3968 -22.3609  -6.9764  -6.3306  -6.1956  -5.0693
    -5.0257  -4.9874  -4.8242  -4.7300   3.0231   5.9965   6.5204   6.8326
     7.1894   7.6826   8.0606   8.6769   8.8646   9.6503

          k = 0.1667 0.3333 0.2378 (  9346 PWs)   bands (ev):

   -45.7714 -22.4827 -22.3958 -22.3601  -6.8556  -6.3240  -6.1278  -5.0486
    -5.0250  -4.9664  -4.8077  -4.6895   2.8953   5.8167   5.9787   6.4902
     6.9106   7.5655   8.3604   8.6488   8.9860   9.4028

          k = 0.1667 0.3333-0.4756 (  9334 PWs)   bands (ev):

   -45.7712 -22.5018 -22.3947 -22.3592  -6.7706  -6.3036  -6.0244  -5.0473
    -5.0031  -4.9283  -4.8183  -4.6406   2.7284   5.4658   5.8950   6.2280
     6.4372   7.4376   8.4309   8.7249   8.9322   9.4023

          k = 0.1667-0.5000 0.0000 (  9358 PWs)   bands (ev):

   -45.7714 -22.4626 -22.4139 -22.3601  -6.8212  -6.2865  -6.2236  -5.0713
    -5.0182  -4.9682  -4.7876  -4.7755   2.8359   5.6593   6.6363   6.8654
     7.2046   7.4762   7.8174   8.7578   8.8200   9.9697

          k = 0.1667-0.5000 0.2378 (  9342 PWs)   bands (ev):

   -45.7711 -22.4817 -22.4128 -22.3593  -6.7550  -6.2567  -6.1518  -5.0468
    -5.0121  -4.9493  -4.7796  -4.6852   2.7888   5.6073   5.8862   6.2534
     6.8636   7.6995   8.1631   8.6347   9.0042   9.3557

          k = 0.1667-0.5000-0.4756 (  9332 PWs)   bands (ev):

   -45.7708 -22.5007 -22.4117 -22.3584  -6.7405  -6.2282  -6.0095  -5.0423
    -4.9740  -4.9300  -4.7930  -4.5878   2.7023   5.3539   5.7535   5.8892
     6.3068   7.5549   8.2996   8.5901   8.6620   9.5978

          k = 0.3333 0.3333 0.0000 (  9348 PWs)   bands (ev):

   -45.7711 -22.4618 -22.3952 -22.3948  -6.7385  -6.2767  -6.2447  -5.0502
    -5.0077  -4.9137  -4.7532  -4.7312   2.6538   5.9480   6.1239   6.8986
     7.0865   7.1560   7.9189   8.4848   9.3670   9.3929

          k = 0.3333 0.3333 0.2378 (  9342 PWs)   bands (ev):

   -45.7708 -22.4809 -22.3942 -22.3940  -6.6110  -6.3224  -6.2105  -5.0139
    -5.0027  -4.8630  -4.7063  -4.6562   2.8332   5.5736   5.6492   5.9423
     6.6285   7.0629   8.3821   8.9515   8.9622   9.3801

          k = 0.3333 0.3333-0.4756 (  9328 PWs)   bands (ev):

   -45.7705 -22.4999 -22.3932 -22.3931  -6.5462  -6.3649  -6.1027  -4.9973
    -4.9782  -4.8087  -4.6580  -4.5840   2.9956   5.1923   5.2077   5.7021
     6.3571   6.5577   7.6721   9.2834   9.3580   9.4727

          k = 0.3333-0.5000 0.0000 (  9354 PWs)   bands (ev):

   -45.7707 -22.4609 -22.4120 -22.3941  -6.6307  -6.2603  -6.2421  -5.0428
    -4.9860  -4.8457  -4.7684  -4.7200   2.4813   5.6307   6.1611   6.7157
     7.2068   7.4165   7.5015   8.4791   9.0935   9.5614

          k = 0.3333-0.5000 0.2378 (  9346 PWs)   bands (ev):

   -45.7705 -22.4800 -22.4110 -22.3932  -6.5054  -6.2867  -6.2642  -5.0062
    -4.9769  -4.7801  -4.6897  -4.6380   2.7696   5.4776   5.5815   5.6752
     6.4125   7.1315   7.9362   8.9415   8.9582   9.5381

          k = 0.3333-0.5000-0.4756 (  9356 PWs)   bands (ev):

   -45.7702 -22.4989 -22.4100 -22.3923  -6.4961  -6.3282  -6.1364  -4.9813
    -4.9572  -4.7317  -4.6113  -4.5388   3.1310   4.9446   5.1133   5.4779
     6.1580   6.5519   6.9257   9.3883   9.5133   9.6228

          k =-0.5000-0.5000 0.0000 (  9348 PWs)   bands (ev):

   -45.7704 -22.4600 -22.4110 -22.4110  -6.5818  -6.2230  -6.2230  -5.0331
    -4.9461  -4.7788  -4.7788  -4.6932   2.3044   5.4708   6.0215   6.9254
     6.9254   7.5226   7.5226   8.2372   8.6251   9.8189

          k =-0.5000-0.5000 0.2378 (  9344 PWs)   bands (ev):

   -45.7701 -22.4791 -22.4101 -22.4101  -6.3883  -6.3029  -6.3029  -4.9952
    -4.9443  -4.6644  -4.6466  -4.6466   2.7045   5.4283   5.5917   5.5917
     6.0278   7.0713   7.3088   8.9702   8.9702   9.8036

          k =-0.5000-0.5000-0.4756 (  9376 PWs)   bands (ev):

   -45.7699 -22.4980 -22.4092 -22.4092  -6.3728  -6.3728  -6.1895  -4.9572
    -4.9425  -4.6263  -4.5226  -4.5226   3.3389   4.9658   4.9658   5.3132
     5.9726   6.0342   6.2315   9.6361   9.6361   9.7884

     highest occupied level (ev):    10.3357

!    total energy              =    -380.57536416 Ry
     estimated scf accuracy    <          6.6E-11 Ry

     The total energy is the sum of the following terms:
     one-electron contribution =     -84.96451493 Ry
     hartree contribution      =      71.63176753 Ry
     xc contribution           =    -102.57341451 Ry
     ewald contribution        =    -264.66920224 Ry

     convergence has been achieved in  10 iterations

     negative rho (up, down):  1.561E-02 0.000E+00

     Forces acting on atoms (cartesian axes, Ry/au):

     atom    1 type  1   force =     0.00000000    0.00000000   -0.00715709
     atom    2 type  2   force =     0.00000000    0.00000000    0.00541065
     atom    3 type  3   force =     0.00000000    0.00000000   -0.00361237
     atom    4 type  3   force =     0.00000000    0.00000000    0.00267941
     atom    5 type  3   force =     0.00000000    0.00000000    0.00267941

     Total force =     0.010388     Total SCF correction =     0.000015


     Computing stress (Cartesian axis) and pressure


     negative rho (up, down):  1.561E-02 0.000E+00
          total   stress  (Ry/bohr**3)                   (kbar)     P=      -47.56
  -0.00037765   0.00000000   0.00000000          -55.55        0.00        0.00
   0.00000000  -0.00037765   0.00000000            0.00      -55.55        0.00
   0.00000000   0.00000000  -0.00021455            0.00        0.00      -31.56

     Energy error            =      1.5E-04 Ry
     Gradient error          =      7.2E-03 Ry/Bohr

     number of scf cycles    =   4
     number of bfgs steps    =   3

     energy             old  =    -380.5752180690 Ry
     energy             new  =    -380.5753641563 Ry

     CASE: energy            _new < energy            _old

     new trust radius        =       0.0209904931 bohr
     new conv_thr            =       0.0000000001 Ry


ATOMIC_POSITIONS (crystal)
Pb               0.0000000000        0.0000000000        0.9981986065
Ti               0.5000000000        0.5000000000        0.5375035877
O                0.5000000000        0.5000000000        0.1069203405
O                0.5000000000        0.0000000000        0.6123308766
O                0.0000000000        0.5000000000        0.6123308766



     Writing config-only to output data dir ./pto_120.save/ :
     XML data file
     NEW-OLD atomic charge density approx. for the potential

     negative rho (up, down):  1.560E-02 0.000E+00

     total cpu time spent up to now is      141.8 secs

     Self-consistent Calculation

     iteration #  1     ecut=   120.00 Ry     beta= 0.70
     CG style diagonalization
     ethr =  1.00E-06,  avg # of iterations =  5.5

     Threshold (ethr) on eigenvalues was too large:
     Diagonalizing with lowered threshold

     CG style diagonalization
     c_bands:  1 eigenvalues not converged
     c_bands:  2 eigenvalues not converged
     c_bands:  1 eigenvalues not converged
     c_bands:  2 eigenvalues not converged
     c_bands:  1 eigenvalues not converged
     c_bands:  1 eigenvalues not converged
     ethr =  4.30E-08,  avg # of iterations =  6.1

     negative rho (up, down):  1.557E-02 0.000E+00

     total cpu time spent up to now is      149.1 secs

     total energy              =    -380.57546667 Ry
     estimated scf accuracy    <       0.00002059 Ry

     iteration #  2     ecut=   120.00 Ry     beta= 0.70
     CG style diagonalization
     ethr =  4.68E-08,  avg # of iterations =  4.3

     negative rho (up, down):  1.556E-02 0.000E+00

     total cpu time spent up to now is      151.8 secs

     total energy              =    -380.57548557 Ry
     estimated scf accuracy    <       0.00001427 Ry

     iteration #  3     ecut=   120.00 Ry     beta= 0.70
     CG style diagonalization
     ethr =  3.24E-08,  avg # of iterations =  4.2

     negative rho (up, down):  1.556E-02 0.000E+00

     total cpu time spent up to now is      154.4 secs

     total energy              =    -380.57549116 Ry
     estimated scf accuracy    <       0.00001030 Ry

     iteration #  4     ecut=   120.00 Ry     beta= 0.70
     CG style diagonalization
     ethr =  2.34E-08,  avg # of iterations =  3.5

     negative rho (up, down):  1.555E-02 0.000E+00

     total cpu time spent up to now is      156.6 secs

     total energy              =    -380.57549286 Ry
     estimated scf accuracy    <       0.00000014 Ry

     iteration #  5     ecut=   120.00 Ry     beta= 0.70
     CG style diagonalization
     ethr =  3.08E-10,  avg # of iterations =  5.8

     negative rho (up, down):  1.555E-02 0.000E+00

     total cpu time spent up to now is      160.1 secs

     total energy              =    -380.57549315 Ry
     estimated scf accuracy    <       0.00000024 Ry

     iteration #  6     ecut=   120.00 Ry     beta= 0.70
     CG style diagonalization
     ethr =  3.08E-10,  avg # of iterations =  3.9

     negative rho (up, down):  1.555E-02 0.000E+00

     total cpu time spent up to now is      162.6 secs

     total energy              =    -380.57549319 Ry
     estimated scf accuracy    <       0.00000003 Ry

     iteration #  7     ecut=   120.00 Ry     beta= 0.70
     CG style diagonalization
     ethr =  6.14E-11,  avg # of iterations =  4.4

     negative rho (up, down):  1.556E-02 0.000E+00

     total cpu time spent up to now is      165.3 secs

     total energy              =    -380.57549320 Ry
     estimated scf accuracy    <          6.5E-09 Ry

     iteration #  8     ecut=   120.00 Ry     beta= 0.70
     CG style diagonalization
     ethr =  1.48E-11,  avg # of iterations =  4.9

     negative rho (up, down):  1.556E-02 0.000E+00

     total cpu time spent up to now is      168.3 secs

     total energy              =    -380.57549320 Ry
     estimated scf accuracy    <          5.4E-10 Ry

     iteration #  9     ecut=   120.00 Ry     beta= 0.70
     CG style diagonalization
     c_bands:  1 eigenvalues not converged
     ethr =  1.22E-12,  avg # of iterations =  6.8

     negative rho (up, down):  1.556E-02 0.000E+00

     total cpu time spent up to now is      172.3 secs

     End of self-consistent calculation

          k = 0.0000 0.0000 0.0000 (  9359 PWs)   bands (ev):

   -45.7720 -22.4686 -22.3459 -22.3459  -7.5381  -6.4654  -6.2166  -5.0140
    -5.0140  -4.9784  -4.8800  -4.7224   4.2015   6.2858   6.2858   6.7606
     8.1006   8.1006   8.4741   8.6208   8.9192   8.9192

          k = 0.0000 0.0000 0.2378 (  9319 PWs)   bands (ev):

   -45.7718 -22.4883 -22.3451 -22.3451  -7.3452  -6.4100  -6.1606  -5.0291
    -5.0291  -4.9772  -4.8690  -4.7900   3.4409   6.3283   6.3283   6.8561
     7.8980   7.8980   8.3891   8.7786   9.0164   9.0164

          k = 0.0000 0.0000-0.4756 (  9332 PWs)   bands (ev):

   -45.7715 -22.5078 -22.3443 -22.3443  -7.1348  -6.3496  -6.1124  -5.0440
    -5.0440  -4.9759  -4.8625  -4.8592   2.9281   6.2011   6.3506   6.3506
     7.7718   7.7718   8.3080   9.0829   9.0829   9.9971

          k = 0.0000 0.1667 0.0000 (  9344 PWs)   bands (ev):

   -45.7717 -22.4678 -22.3632 -22.3452  -7.4042  -6.4385  -6.1943  -5.0359
    -5.0126  -4.9911  -4.8742  -4.7124   3.7867   6.3327   6.3955   6.7206
     8.1120   8.1250   8.4522   8.5497   8.5878   8.9730

          k = 0.0000 0.1667 0.2378 (  9346 PWs)   bands (ev):

   -45.7714 -22.4874 -22.3624 -22.3444  -7.2270  -6.3979  -6.1324  -5.0308
    -5.0281  -4.9903  -4.8712  -4.7478   3.2399   6.1174   6.4463   6.9265
     7.5997   7.8905   8.2388   8.6367   8.6896   9.3556

          k = 0.0000 0.1667-0.4756 (  9292 PWs)   bands (ev):

   -45.7712 -22.5068 -22.3615 -22.3436  -7.0432  -6.3519  -6.0691  -5.0435
    -5.0231  -4.9895  -4.8751  -4.7821   2.8142   5.8135   6.4716   6.5983
     7.4311   7.7707   8.3039   8.6909   8.7668   9.9509

          k = 0.0000 0.3333 0.0000 (  9336 PWs)   bands (ev):

   -45.7711 -22.4663 -22.3977 -22.3437  -7.1122  -6.3808  -6.1664  -5.0658
    -5.0162  -5.0096  -4.8501  -4.7230   3.2194   5.9731   6.6623   6.6832
     7.8196   7.8680   8.2144   8.3212   8.6660   9.6079

          k = 0.0000 0.3333 0.2378 (  9357 PWs)   bands (ev):

   -45.7708 -22.4855 -22.3967 -22.3429  -6.9972  -6.3441  -6.0821  -5.0339
    -5.0263  -5.0163  -4.8518  -4.6944   2.8992   5.8367   6.5489   6.7586
     7.2606   7.6855   7.8514   8.3161   8.8784   9.6833

          k = 0.0000 0.3333-0.4756 (  9342 PWs)   bands (ev):

   -45.7705 -22.5047 -22.3956 -22.3421  -6.9116  -6.2853  -5.9707  -5.0425
    -5.0165  -4.9928  -4.8863  -4.6496   2.6112   5.5083   6.3362   6.7790
     7.1464   7.3766   7.6383   8.3669   9.2406   9.5585

          k = 0.0000-0.5000 0.0000 (  9346 PWs)   bands (ev):

   -45.7707 -22.4654 -22.4149 -22.3430  -6.9501  -6.3337  -6.1806  -5.0775
    -5.0286  -5.0083  -4.7959  -4.7764   3.0126   5.6309   6.9007   6.9506
     7.3563   7.4663   8.2388   8.2439   8.6974  10.3440

          k = 0.0000-0.5000 0.2378 (  9340 PWs)   bands (ev):

   -45.7705 -22.4845 -22.4138 -22.3422  -6.8972  -6.2676  -6.0826  -5.0435
    -5.0293  -5.0252  -4.8144  -4.6916   2.7615   5.5899   6.5627   6.7945
     7.1418   7.2600   7.9570   8.2741   8.8909   9.8506

          k = 0.0000-0.5000-0.4756 (  9344 PWs)   bands (ev):

   -45.7702 -22.5036 -22.4126 -22.3413  -6.8810  -6.1973  -5.9252  -5.0420
    -5.0299  -5.0019  -4.8636  -4.5962   2.5289   5.3797   6.0293   6.8438
     7.0819   7.3486   7.4083   8.2919   9.1719   9.5778

          k = 0.1667 0.1667 0.0000 (  9350 PWs)   bands (ev):

   -45.7714 -22.4671 -22.3627 -22.3623  -7.2731  -6.4106  -6.1914  -5.0403
    -5.0267  -4.9925  -4.8478  -4.7028   3.4903   6.2864   6.5096   6.7242
     7.6388   7.8167   8.4538   8.5579   8.8606   9.1648

          k = 0.1667 0.1667 0.2378 (  9329 PWs)   bands (ev):

   -45.7711 -22.4865 -22.3617 -22.3615  -7.1071  -6.3877  -6.1292  -5.0420
    -5.0197  -4.9861  -4.8409  -4.7168   3.1278   6.0696   6.1490   6.8546
     7.5094   7.5196   8.2681   8.7095   8.9320   9.3175

          k = 0.1667 0.1667-0.4756 (  9310 PWs)   bands (ev):

   -45.7708 -22.5058 -22.3608 -22.3606  -6.9417  -6.3647  -6.0560  -5.0533
    -5.0015  -4.9613  -4.8491  -4.7351   2.7912   5.8616   5.8727   6.5928
     7.3937   7.4679   8.1953   8.7766   8.9853   9.6655

          k = 0.1667 0.3333 0.0000 (  9353 PWs)   bands (ev):

   -45.7707 -22.4655 -22.3968 -22.3609  -6.9903  -6.3541  -6.2002  -5.0589
    -5.0161  -4.9764  -4.8121  -4.7114   3.0199   5.9846   6.5113   6.8283
     7.1755   7.6795   8.0525   8.6668   8.8476   9.6563

          k = 0.1667 0.3333 0.2378 (  9346 PWs)   bands (ev):

   -45.7705 -22.4847 -22.3958 -22.3601  -6.8736  -6.3467  -6.1275  -5.0382
    -5.0148  -4.9564  -4.7964  -4.6717   2.8960   5.8048   5.9657   6.4829
     6.9047   7.5613   8.3472   8.6359   8.9736   9.4099

          k = 0.1667 0.3333-0.4756 (  9334 PWs)   bands (ev):

   -45.7702 -22.5038 -22.3948 -22.3592  -6.7917  -6.3269  -6.0189  -5.0374
    -4.9924  -4.9191  -4.8061  -4.6245   2.7327   5.4558   5.8773   6.2250
     6.4252   7.4304   8.4266   8.7045   8.9414   9.3947

          k = 0.1667-0.5000 0.0000 (  9358 PWs)   bands (ev):

   -45.7704 -22.4646 -22.4140 -22.3601  -6.8346  -6.3097  -6.2310  -5.0606
    -5.0084  -4.9576  -4.7681  -4.7618   2.8320   5.6484   6.6260   6.8531
     7.1962   7.4699   7.8129   8.7403   8.8087   9.9783

          k = 0.1667-0.5000 0.2378 (  9342 PWs)   bands (ev):

   -45.7702 -22.4837 -22.4129 -22.3593  -6.7734  -6.2805  -6.1508  -5.0364
    -5.0018  -4.9400  -4.7658  -4.6682   2.7887   5.5958   5.8706   6.2459
     6.8587   7.6948   8.1485   8.6236   8.9911   9.3675

          k = 0.1667-0.5000-0.4756 (  9332 PWs)   bands (ev):

   -45.7699 -22.5027 -22.4118 -22.3584  -6.7606  -6.2525  -6.0039  -5.0324
    -4.9637  -4.9216  -4.7785  -4.5732   2.7063   5.3430   5.7276   5.8827
     6.3048   7.5468   8.3075   8.5829   8.6530   9.5888

          k = 0.3333 0.3333 0.0000 (  9348 PWs)   bands (ev):

   -45.7701 -22.4639 -22.3952 -22.3949  -6.7466  -6.3020  -6.2551  -5.0396
    -4.9970  -4.9012  -4.7417  -4.7120   2.6410   5.9354   6.1151   6.8952
     7.0795   7.1602   7.9073   8.4826   9.3452   9.4026

          k = 0.3333 0.3333 0.2378 (  9342 PWs)   bands (ev):

   -45.7698 -22.4830 -22.3942 -22.3940  -6.6266  -6.3455  -6.2109  -5.0032
    -4.9923  -4.8536  -4.6950  -4.6392   2.8209   5.5651   5.6452   5.9312
     6.6259   7.0631   8.3902   8.9414   8.9597   9.3591

          k = 0.3333 0.3333-0.4756 (  9328 PWs)   bands (ev):

   -45.7696 -22.5019 -22.3933 -22.3931  -6.5674  -6.3861  -6.0949  -4.9873
    -4.9675  -4.8020  -4.6470  -4.5690   2.9859   5.1888   5.1911   5.6958
     6.3547   6.5533   7.6963   9.2745   9.3356   9.4638

          k = 0.3333-0.5000 0.0000 (  9354 PWs)   bands (ev):

   -45.7698 -22.4629 -22.4121 -22.3941  -6.6322  -6.2783  -6.2675  -5.0321
    -4.9751  -4.8316  -4.7510  -4.7072   2.4645   5.6194   6.1521   6.7177
     7.2120   7.4052   7.4915   8.4764   9.1060   9.5398

          k = 0.3333-0.5000 0.2378 (  9346 PWs)   bands (ev):

   -45.7695 -22.4820 -22.4111 -22.3933  -6.5191  -6.3099  -6.2658  -4.9956
    -4.9664  -4.7723  -4.6747  -4.6236   2.7506   5.4750   5.5715   5.6713
     6.4074   7.1320   7.9542   8.9358   8.9491   9.5161

          k = 0.3333-0.5000-0.4756 (  9356 PWs)   bands (ev):

   -45.7692 -22.5010 -22.4101 -22.3924  -6.5163  -6.3495  -6.1278  -4.9709
    -4.9467  -4.7266  -4.5985  -4.5260   3.1097   4.9343   5.1120   5.4709
     6.1534   6.5474   6.9599   9.3803   9.4900   9.6153

          k =-0.5000-0.5000 0.0000 (  9348 PWs)   bands (ev):

   -45.7695 -22.4620 -22.4111 -22.4111  -6.5743  -6.2495  -6.2495  -5.0224
    -4.9353  -4.7588  -4.7588  -4.6877   2.2819   5.4593   6.0147   6.9341
     6.9341   7.5085   7.5085   8.2397   8.6382   9.7958

          k =-0.5000-0.5000 0.2378 (  9344 PWs)   bands (ev):

   -45.7692 -22.4811 -22.4102 -22.4102  -6.3799  -6.3258  -6.3258  -4.9845
    -4.9335  -4.6599  -4.6309  -4.6309   2.6753   5.4177   5.5944   5.5944
     6.0210   7.0716   7.3339   8.9630   8.9630   9.7807

          k =-0.5000-0.5000-0.4756 (  9376 PWs)   bands (ev):

   -45.7689 -22.5000 -22.4093 -22.4093  -6.3930  -6.3930  -6.1797  -4.9466
    -4.9317  -4.6232  -4.5101  -4.5101   3.2900   4.9697   4.9697   5.3058
     6.0202   6.0273   6.2282   9.6295   9.6295   9.7656

     highest occupied level (ev):    10.3440

!    total energy              =    -380.57549320 Ry
     estimated scf accuracy    <          8.4E-11 Ry

     The total energy is the sum of the following terms:
     one-electron contribution =     -85.26955915 Ry
     hartree contribution      =      71.78440938 Ry
     xc contribution           =    -102.57961928 Ry
     ewald contribution        =    -264.51072414 Ry

     convergence has been achieved in   9 iterations

     negative rho (up, down):  1.556E-02 0.000E+00

     Forces acting on atoms (cartesian axes, Ry/au):

     atom    1 type  1   force =     0.00000000    0.00000000   -0.00488616
     atom    2 type  2   force =     0.00000000    0.00000000    0.00485481
     atom    3 type  3   force =     0.00000000    0.00000000   -0.00511101
     atom    4 type  3   force =     0.00000000    0.00000000    0.00257118
     atom    5 type  3   force =     0.00000000    0.00000000    0.00257118

     Total force =     0.009316     Total SCF correction =     0.000012


     Computing stress (Cartesian axis) and pressure


     negative rho (up, down):  1.556E-02 0.000E+00
          total   stress  (Ry/bohr**3)                   (kbar)     P=      -44.49
  -0.00036150   0.00000000   0.00000000          -53.18        0.00        0.00
   0.00000000  -0.00036150   0.00000000            0.00      -53.18        0.00
   0.00000000   0.00000000  -0.00018433            0.00        0.00      -27.12

     Energy error            =      1.3E-04 Ry
     Gradient error          =      5.1E-03 Ry/Bohr

     number of scf cycles    =   5
     number of bfgs steps    =   4

     energy             old  =    -380.5753641563 Ry
     energy             new  =    -380.5754932038 Ry

     CASE: energy            _new < energy            _old

     new trust radius        =       0.0314857396 bohr
     new conv_thr            =       0.0000000001 Ry


ATOMIC_POSITIONS (crystal)
Pb               0.0000000000        0.0000000000        0.9941348173
Ti               0.5000000000        0.5000000000        0.5382926230
O                0.5000000000        0.5000000000        0.1077154391
O                0.5000000000        0.0000000000        0.6135707043
O                0.0000000000        0.5000000000        0.6135707043



     Writing config-only to output data dir ./pto_120.save/ :
     XML data file
     NEW-OLD atomic charge density approx. for the potential

     negative rho (up, down):  1.555E-02 0.000E+00

     total cpu time spent up to now is      176.5 secs

     Self-consistent Calculation

     iteration #  1     ecut=   120.00 Ry     beta= 0.70
     CG style diagonalization
     c_bands:  1 eigenvalues not converged
     c_bands:  1 eigenvalues not converged
     c_bands:  1 eigenvalues not converged
     ethr =  1.00E-06,  avg # of iterations =  6.9

     negative rho (up, down):  1.550E-02 0.000E+00

     total cpu time spent up to now is      180.8 secs

     total energy              =    -380.57553378 Ry
     estimated scf accuracy    <       0.00004583 Ry

     iteration #  2     ecut=   120.00 Ry     beta= 0.70
     CG style diagonalization
     ethr =  1.04E-07,  avg # of iterations =  4.6

     negative rho (up, down):  1.548E-02 0.000E+00

     total cpu time spent up to now is      183.6 secs

     total energy              =    -380.57559674 Ry
     estimated scf accuracy    <       0.00003474 Ry

     iteration #  3     ecut=   120.00 Ry     beta= 0.70
     CG style diagonalization
     ethr =  7.90E-08,  avg # of iterations =  4.2

     negative rho (up, down):  1.547E-02 0.000E+00

     total cpu time spent up to now is      186.3 secs

     total energy              =    -380.57561073 Ry
     estimated scf accuracy    <       0.00001815 Ry

     iteration #  4     ecut=   120.00 Ry     beta= 0.70
     CG style diagonalization
     ethr =  4.13E-08,  avg # of iterations =  3.6

     negative rho (up, down):  1.547E-02 0.000E+00

     total cpu time spent up to now is      188.6 secs

     total energy              =    -380.57561460 Ry
     estimated scf accuracy    <       0.00000112 Ry

     iteration #  5     ecut=   120.00 Ry     beta= 0.70
     CG style diagonalization
     ethr =  2.54E-09,  avg # of iterations =  4.7

     negative rho (up, down):  1.547E-02 0.000E+00

     total cpu time spent up to now is      191.5 secs

     total energy              =    -380.57561551 Ry
     estimated scf accuracy    <       0.00000029 Ry

     iteration #  6     ecut=   120.00 Ry     beta= 0.70
     CG style diagonalization
     ethr =  6.48E-10,  avg # of iterations =  4.6

     negative rho (up, down):  1.547E-02 0.000E+00

     total cpu time spent up to now is      194.3 secs

     total energy              =    -380.57561568 Ry
     estimated scf accuracy    <       0.00000005 Ry

     iteration #  7     ecut=   120.00 Ry     beta= 0.70
     CG style diagonalization
     ethr =  1.21E-10,  avg # of iterations =  5.1

     negative rho (up, down):  1.547E-02 0.000E+00

     total cpu time spent up to now is      197.4 secs

     total energy              =    -380.57561573 Ry
     estimated scf accuracy    <          7.5E-09 Ry

     iteration #  8     ecut=   120.00 Ry     beta= 0.70
     CG style diagonalization
     ethr =  1.70E-11,  avg # of iterations =  6.1

     negative rho (up, down):  1.547E-02 0.000E+00

     total cpu time spent up to now is      201.1 secs

     total energy              =    -380.57561574 Ry
     estimated scf accuracy    <          1.8E-09 Ry

     iteration #  9     ecut=   120.00 Ry     beta= 0.70
     CG style diagonalization
     ethr =  4.17E-12,  avg # of iterations =  5.3

     negative rho (up, down):  1.547E-02 0.000E+00

     total cpu time spent up to now is      204.2 secs

     End of self-consistent calculation

          k = 0.0000 0.0000 0.0000 (  9359 PWs)   bands (ev):

   -45.7829 -22.4758 -22.3585 -22.3585  -7.5653  -6.5036  -6.2077  -4.9981
    -4.9981  -4.9581  -4.8711  -4.6921   4.2058   6.2598   6.2598   6.8008
     8.1082   8.1082   8.4569   8.6187   8.8843   8.8843

          k = 0.0000 0.0000 0.2378 (  9319 PWs)   bands (ev):

   -45.7826 -22.4954 -22.3577 -22.3577  -7.3780  -6.4509  -6.1482  -5.0131
    -5.0131  -4.9568  -4.8578  -4.7568   3.4553   6.3017   6.3017   6.8762
     7.9036   7.9036   8.3722   8.7797   8.9813   8.9813

          k = 0.0000 0.0000-0.4756 (  9332 PWs)   bands (ev):

   -45.7823 -22.5149 -22.3570 -22.3570  -7.1759  -6.3939  -6.0943  -5.0281
    -5.0281  -4.9555  -4.8451  -4.8258   2.9460   6.2139   6.3241   6.3241
     7.7764   7.7764   8.2912   9.0458   9.0458   9.9900

          k = 0.0000 0.1667 0.0000 (  9344 PWs)   bands (ev):

   -45.7825 -22.4750 -22.3759 -22.3578  -7.4312  -6.4774  -6.1882  -5.0197
    -4.9967  -4.9707  -4.8615  -4.6817   3.7907   6.3122   6.3685   6.7344
     8.1243   8.1328   8.4318   8.5166   8.5732   8.9661

          k = 0.0000 0.1667 0.2378 (  9346 PWs)   bands (ev):

   -45.7823 -22.4945 -22.3750 -22.3570  -7.2598  -6.4384  -6.1223  -5.0130
    -5.0122  -4.9699  -4.8576  -4.7160   3.2528   6.0976   6.4190   6.9314
     7.5987   7.8927   8.2177   8.6248   8.6596   9.3517

          k = 0.0000 0.1667-0.4756 (  9292 PWs)   bands (ev):

   -45.7820 -22.5139 -22.3741 -22.3562  -7.0836  -6.3947  -6.0531  -5.0276
    -5.0040  -4.9692  -4.8591  -4.7500   2.8312   5.8036   6.4449   6.5916
     7.4293   7.7714   8.2641   8.6809   8.7347   9.9555

          k = 0.0000 0.3333 0.0000 (  9336 PWs)   bands (ev):

   -45.7819 -22.4735 -22.4104 -22.3564  -7.1393  -6.4202  -6.1671  -5.0478
    -4.9960  -4.9936  -4.8293  -4.6926   3.2241   5.9506   6.6531   6.6633
     7.8030   7.8468   8.2123   8.2974   8.6572   9.6297

          k = 0.0000 0.3333 0.2378 (  9357 PWs)   bands (ev):

   -45.7816 -22.4927 -22.4093 -22.3555  -7.0304  -6.3837  -6.0769  -5.0146
    -5.0103  -4.9959  -4.8322  -4.6643   2.9107   5.8147   6.5427   6.7296
     7.2368   7.6693   7.8456   8.3053   8.8658   9.6981

          k = 0.0000 0.3333-0.4756 (  9342 PWs)   bands (ev):

   -45.7814 -22.5118 -22.4083 -22.3547  -6.9491  -6.3282  -5.9588  -5.0266
    -4.9962  -4.9722  -4.8645  -4.6224   2.6275   5.4930   6.3277   6.7538
     7.1116   7.3631   7.6193   8.3519   9.2454   9.5681

          k = 0.0000-0.5000 0.0000 (  9346 PWs)   bands (ev):

   -45.7816 -22.4726 -22.4276 -22.3557  -6.9783  -6.3727  -6.1849  -5.0582
    -5.0082  -4.9923  -4.7617  -4.7553   3.0182   5.6084   6.8984   6.9143
     7.3366   7.4489   8.2135   8.2432   8.6874  10.3624

          k = 0.0000-0.5000 0.2378 (  9340 PWs)   bands (ev):

   -45.7813 -22.4917 -22.4265 -22.3548  -6.9310  -6.3096  -6.0767  -5.0236
    -5.0092  -5.0089  -4.7913  -4.6624   2.7734   5.5674   6.5529   6.7683
     7.1025   7.2464   7.9473   8.2699   8.8774   9.8750

          k = 0.0000-0.5000-0.4756 (  9344 PWs)   bands (ev):

   -45.7810 -22.5107 -22.4253 -22.3540  -6.9165  -6.2429  -5.9138  -5.0261
    -5.0096  -4.9814  -4.8378  -4.5712   2.5457   5.3619   6.0180   6.7980
     7.0704   7.3056   7.4017   8.2859   9.2064   9.5683

          k = 0.1667 0.1667 0.0000 (  9350 PWs)   bands (ev):

   -45.7822 -22.4743 -22.3753 -22.3749  -7.2995  -6.4504  -6.1877  -5.0235
    -5.0100  -4.9728  -4.8322  -4.6718   3.4898   6.2627   6.4911   6.7291
     7.6454   7.7942   8.4592   8.5420   8.8274   9.1749

          k = 0.1667 0.1667 0.2378 (  9329 PWs)   bands (ev):

   -45.7819 -22.4937 -22.3744 -22.3741  -7.1397  -6.4283  -6.1202  -5.0247
    -5.0012  -4.9671  -4.8256  -4.6856   3.1364   6.0517   6.1288   6.8516
     7.4979   7.5092   8.2684   8.6863   8.9051   9.3249

          k = 0.1667 0.1667-0.4756 (  9310 PWs)   bands (ev):

   -45.7817 -22.5129 -22.3734 -22.3733  -6.9818  -6.4061  -6.0402  -5.0356
    -4.9816  -4.9439  -4.8328  -4.7035   2.8054   5.8478   5.8624   6.5755
     7.3612   7.4636   8.1997   8.7503   8.9596   9.6755

          k = 0.1667 0.3333 0.0000 (  9353 PWs)   bands (ev):

   -45.7816 -22.4727 -22.4095 -22.3735  -7.0153  -6.3947  -6.2030  -5.0406
    -4.9989  -4.9565  -4.7910  -4.6804   3.0145   5.9619   6.4967   6.8209
     7.1531   7.6918   8.0380   8.6538   8.8222   9.6734

          k = 0.1667 0.3333 0.2378 (  9346 PWs)   bands (ev):

   -45.7813 -22.4919 -22.4085 -22.3727  -6.9060  -6.3863  -6.1217  -5.0198
    -4.9965  -4.9378  -4.7765  -4.6422   2.8980   5.7858   5.9459   6.4687
     6.8974   7.5571   8.3310   8.6186   8.9570   9.4246

          k = 0.1667 0.3333-0.4756 (  9334 PWs)   bands (ev):

   -45.7810 -22.5109 -22.4075 -22.3718  -6.8294  -6.3675  -6.0046  -5.0198
    -4.9734  -4.9018  -4.7850  -4.5978   2.7417   5.4436   5.8479   6.2190
     6.4045   7.4173   8.4296   8.6690   8.9597   9.3866

          k = 0.1667-0.5000 0.0000 (  9358 PWs)   bands (ev):

   -45.7812 -22.4718 -22.4267 -22.3728  -6.8590  -6.3502  -6.2375  -5.0418
    -4.9911  -4.9380  -4.7383  -4.7359   2.8252   5.6265   6.6168   6.8275
     7.1809   7.4571   7.8265   8.7106   8.7972   9.9956

          k = 0.1667-0.5000 0.2378 (  9342 PWs)   bands (ev):

   -45.7810 -22.4909 -22.4256 -22.3719  -6.8063  -6.3218  -6.1437  -5.0180
    -4.9838  -4.9220  -4.7422  -4.6401   2.7885   5.5745   5.8473   6.2351
     6.8508   7.6910   8.1250   8.6140   8.9706   9.3918

          k = 0.1667-0.5000-0.4756 (  9332 PWs)   bands (ev):

   -45.7807 -22.5098 -22.4245 -22.3711  -6.7963  -6.2944  -5.9896  -5.0149
    -4.9454  -4.9046  -4.7542  -4.5490   2.7135   5.3287   5.6859   5.8705
     6.3013   7.5315   8.3168   8.5799   8.6430   9.5806

          k = 0.3333 0.3333 0.0000 (  9348 PWs)   bands (ev):

   -45.7809 -22.4711 -22.4079 -22.4076  -6.7616  -6.3453  -6.2678  -5.0211
    -4.9780  -4.8796  -4.7206  -4.6803   2.6194   5.9128   6.0942   6.8961
     7.0688   7.1828   7.8824   8.4844   9.3080   9.4225

          k = 0.3333 0.3333 0.2378 (  9342 PWs)   bands (ev):

   -45.7807 -22.4901 -22.4069 -22.4067  -6.6552  -6.3854  -6.2062  -4.9844
    -4.9738  -4.8360  -4.6745  -4.6111   2.8004   5.5541   5.6396   5.9102
     6.6200   7.0653   8.4068   8.9281   8.9631   9.3240

          k = 0.3333 0.3333-0.4756 (  9328 PWs)   bands (ev):

   -45.7804 -22.5090 -22.4059 -22.4058  -6.6046  -6.4230  -6.0779  -4.9691
    -4.9488  -4.7875  -4.6277  -4.5442   2.9705   5.1601   5.1920   5.6827
     6.3516   6.5412   7.7388   9.2681   9.2955   9.4562

          k = 0.3333-0.5000 0.0000 (  9354 PWs)   bands (ev):

   -45.7806 -22.4701 -22.4248 -22.4068  -6.6356  -6.3110  -6.3041  -5.0135
    -4.9557  -4.8082  -4.7223  -4.6830   2.4362   5.5976   6.1308   6.7306
     7.2349   7.3848   7.4734   8.4750   9.1269   9.5024

          k = 0.3333-0.5000 0.2378 (  9346 PWs)   bands (ev):

   -45.7803 -22.4891 -22.4238 -22.4059  -6.5457  -6.3498  -6.2621  -4.9769
    -4.9476  -4.7565  -4.6498  -4.5989   2.7187   5.4742   5.5528   5.6654
     6.3964   7.1356   7.9837   8.9320   8.9410   9.4783

          k = 0.3333-0.5000-0.4756 (  9356 PWs)   bands (ev):

   -45.7801 -22.5081 -22.4228 -22.4051  -6.5518  -6.3864  -6.1098  -4.9523
    -4.9280  -4.7139  -4.5772  -4.5043   3.0743   4.9204   5.1142   5.4543
     6.1440   6.5384   7.0165   9.3748   9.4493   9.6099

          k =-0.5000-0.5000 0.0000 (  9348 PWs)   bands (ev):

   -45.7803 -22.4692 -22.4238 -22.4238  -6.5579  -6.2945  -6.2945  -5.0037
    -4.9158  -4.7265  -4.7265  -4.6744   2.2442   5.4375   5.9960   6.9600
     6.9600   7.4837   7.4837   8.2464   8.6578   9.7552

          k =-0.5000-0.5000 0.2378 (  9344 PWs)   bands (ev):

   -45.7800 -22.4882 -22.4229 -22.4229  -6.3651  -6.3651  -6.3622  -4.9658
    -4.9140  -4.6478  -4.6051  -4.6051   2.6270   5.3967   5.6036   5.6036
     6.0022   7.0745   7.3738   8.9570   8.9570   9.7403

          k =-0.5000-0.5000-0.4756 (  9376 PWs)   bands (ev):

   -45.7797 -22.5071 -22.4220 -22.4220  -6.4281  -6.4281  -6.1605  -4.9279
    -4.9121  -4.6125  -4.4896  -4.4896   3.2117   4.9800   4.9800   5.2884
     6.0085   6.0951   6.2259   9.6254   9.6254   9.7255

     highest occupied level (ev):    10.3624

!    total energy              =    -380.57561575 Ry
     estimated scf accuracy    <          1.1E-10 Ry

     The total energy is the sum of the following terms:
     one-electron contribution =     -85.69832216 Ry
     hartree contribution      =      71.99580218 Ry
     xc contribution           =    -102.58639422 Ry
     ewald contribution        =    -264.28670154 Ry

     convergence has been achieved in   9 iterations

     negative rho (up, down):  1.547E-02 0.000E+00

     Forces acting on atoms (cartesian axes, Ry/au):

     atom    1 type  1   force =     0.00000000    0.00000000   -0.00072476
     atom    2 type  2   force =     0.00000000    0.00000000    0.00106015
     atom    3 type  3   force =     0.00000000    0.00000000   -0.00370421
     atom    4 type  3   force =     0.00000000    0.00000000    0.00168441
     atom    5 type  3   force =     0.00000000    0.00000000    0.00168441

     Total force =     0.004587     Total SCF correction =     0.000070


     Computing stress (Cartesian axis) and pressure


     negative rho (up, down):  1.547E-02 0.000E+00
          total   stress  (Ry/bohr**3)                   (kbar)     P=      -41.30
  -0.00033803   0.00000000   0.00000000          -49.73        0.00        0.00
   0.00000000  -0.00033803   0.00000000            0.00      -49.73        0.00
   0.00000000   0.00000000  -0.00016618            0.00        0.00      -24.45

     Energy error            =      1.2E-04 Ry
     Gradient error          =      3.7E-03 Ry/Bohr

     number of scf cycles    =   6
     number of bfgs steps    =   5

     energy             old  =    -380.5754932038 Ry
     energy             new  =    -380.5756157459 Ry

     CASE: energy            _new < energy            _old

     new trust radius        =       0.0056037253 bohr
     new conv_thr            =       0.0000000001 Ry


ATOMIC_POSITIONS (crystal)
Pb               0.0000000000        0.0000000000        0.9934115579
Ti               0.5000000000        0.5000000000        0.5384960671
O                0.5000000000        0.5000000000        0.1073794652
O                0.5000000000        0.0000000000        0.6139985989
O                0.0000000000        0.5000000000        0.6139985989



     Writing config-only to output data dir ./pto_120.save/ :
     XML data file
     NEW-OLD atomic charge density approx. for the potential

     negative rho (up, down):  1.551E-02 0.000E+00

     total cpu time spent up to now is      208.4 secs

     Self-consistent Calculation

     iteration #  1     ecut=   120.00 Ry     beta= 0.70
     CG style diagonalization
     ethr =  1.00E-06,  avg # of iterations =  3.7

     Threshold (ethr) on eigenvalues was too large:
     Diagonalizing with lowered threshold

     CG style diagonalization
     c_bands:  1 eigenvalues not converged
     c_bands:  2 eigenvalues not converged
     c_bands:  1 eigenvalues not converged
     c_bands:  1 eigenvalues not converged
     c_bands:  2 eigenvalues not converged
     c_bands:  1 eigenvalues not converged
     c_bands:  1 eigenvalues not converged
     c_bands:  2 eigenvalues not converged
     c_bands:  2 eigenvalues not converged
     ethr =  2.33E-08,  avg # of iterations =  6.4

     negative rho (up, down):  1.550E-02 0.000E+00

     total cpu time spent up to now is      214.9 secs

     total energy              =    -380.57562633 Ry
     estimated scf accuracy    <       0.00001107 Ry

     iteration #  2     ecut=   120.00 Ry     beta= 0.70
     CG style diagonalization
     ethr =  2.51E-08,  avg # of iterations =  4.6

     negative rho (up, down):  1.550E-02 0.000E+00

     total cpu time spent up to now is      217.8 secs

     total energy              =    -380.57562706 Ry
     estimated scf accuracy    <       0.00002990 Ry

     iteration #  3     ecut=   120.00 Ry     beta= 0.70
     CG style diagonalization
     ethr =  2.51E-08,  avg # of iterations =  4.2

     negative rho (up, down):  1.550E-02 0.000E+00

     total cpu time spent up to now is      220.4 secs

     total energy              =    -380.57563299 Ry
     estimated scf accuracy    <       0.00000202 Ry

     iteration #  4     ecut=   120.00 Ry     beta= 0.70
     CG style diagonalization
     ethr =  4.58E-09,  avg # of iterations =  3.6

     negative rho (up, down):  1.550E-02 0.000E+00

     total cpu time spent up to now is      222.7 secs

     total energy              =    -380.57563340 Ry
     estimated scf accuracy    <       0.00000026 Ry

     iteration #  5     ecut=   120.00 Ry     beta= 0.70
     CG style diagonalization
     ethr =  5.80E-10,  avg # of iterations =  4.2

     negative rho (up, down):  1.550E-02 0.000E+00

     total cpu time spent up to now is      225.3 secs

     total energy              =    -380.57563352 Ry
     estimated scf accuracy    <       0.00000004 Ry

     iteration #  6     ecut=   120.00 Ry     beta= 0.70
     CG style diagonalization
     ethr =  9.40E-11,  avg # of iterations =  4.5

     negative rho (up, down):  1.550E-02 0.000E+00

     total cpu time spent up to now is      228.1 secs

     total energy              =    -380.57563355 Ry
     estimated scf accuracy    <          7.1E-09 Ry

     iteration #  7     ecut=   120.00 Ry     beta= 0.70
     CG style diagonalization
     ethr =  1.62E-11,  avg # of iterations =  4.6

     negative rho (up, down):  1.550E-02 0.000E+00

     total cpu time spent up to now is      230.9 secs

     total energy              =    -380.57563355 Ry
     estimated scf accuracy    <          1.4E-09 Ry

     iteration #  8     ecut=   120.00 Ry     beta= 0.70
     CG style diagonalization
     ethr =  3.08E-12,  avg # of iterations =  5.2

     negative rho (up, down):  1.550E-02 0.000E+00

     total cpu time spent up to now is      234.0 secs

     total energy              =    -380.57563355 Ry
     estimated scf accuracy    <          3.4E-10 Ry

     iteration #  9     ecut=   120.00 Ry     beta= 0.70
     CG style diagonalization
     ethr =  7.66E-13,  avg # of iterations =  4.9

     negative rho (up, down):  1.550E-02 0.000E+00

     total cpu time spent up to now is      237.0 secs

     End of self-consistent calculation

          k = 0.0000 0.0000 0.0000 (  9359 PWs)   bands (ev):

   -45.7908 -22.4793 -22.3668 -22.3668  -7.5722  -6.5125  -6.2041  -4.9936
    -4.9936  -4.9521  -4.8675  -4.6844   4.2093   6.2524   6.2524   6.8047
     8.1174   8.1174   8.4516   8.6254   8.8750   8.8750

          k = 0.0000 0.0000 0.2378 (  9319 PWs)   bands (ev):

   -45.7905 -22.4989 -22.3660 -22.3660  -7.3863  -6.4603  -6.1438  -5.0086
    -5.0086  -4.9509  -4.8536  -4.7485   3.4612   6.2944   6.2944   6.8780
     7.9108   7.9108   8.3670   8.7826   8.9725   8.9725

          k = 0.0000 0.0000-0.4756 (  9332 PWs)   bands (ev):

   -45.7902 -22.5183 -22.3653 -22.3653  -7.1862  -6.4041  -6.0885  -5.0235
    -5.0235  -4.9496  -4.8403  -4.8167   2.9535   6.2145   6.3173   6.3173
     7.7825   7.7825   8.2862   9.0368   9.0368   9.9885

          k = 0.0000 0.1667 0.0000 (  9344 PWs)   bands (ev):

   -45.7905 -22.4785 -22.3842 -22.3661  -7.4380  -6.4865  -6.1852  -5.0149
    -4.9921  -4.9648  -4.8573  -4.6740   3.7929   6.3072   6.3609   6.7356
     8.1309   8.1423   8.4268   8.5073   8.5727   8.9678

          k = 0.0000 0.1667 0.2378 (  9346 PWs)   bands (ev):

   -45.7902 -22.4980 -22.3833 -22.3653  -7.2681  -6.4478  -6.1183  -5.0080
    -5.0076  -4.9640  -4.8531  -4.7081   3.2575   6.0929   6.4116   6.9307
     7.6018   7.8987   8.2138   8.6230   8.6526   9.3519

          k = 0.0000 0.1667-0.4756 (  9292 PWs)   bands (ev):

   -45.7899 -22.5173 -22.3824 -22.3645  -7.0938  -6.4047  -6.0477  -5.0230
    -4.9987  -4.9632  -4.8541  -4.7420   2.8376   5.8014   6.4380   6.5880
     7.4323   7.7762   8.2544   8.6797   8.7273   9.9569

          k = 0.0000 0.3333 0.0000 (  9336 PWs)   bands (ev):

   -45.7898 -22.4769 -22.4187 -22.3647  -7.1462  -6.4295  -6.1653  -5.0427
    -4.9902  -4.9889  -4.8237  -4.6850   3.2254   5.9453   6.6450   6.6655
     7.8016   7.8404   8.2199   8.2907   8.6594   9.6360

          k = 0.0000 0.3333 0.2378 (  9357 PWs)   bands (ev):

   -45.7895 -22.4961 -22.4176 -22.3639  -7.0386  -6.3931  -6.0737  -5.0093
    -5.0057  -4.9900  -4.8267  -4.6569   2.9141   5.8101   6.5421   6.7219
     7.2338   7.6670   7.8441   8.3072   8.8650   9.7023

          k = 0.0000 0.3333-0.4756 (  9342 PWs)   bands (ev):

   -45.7893 -22.5152 -22.4166 -22.3630  -6.9582  -6.3385  -5.9541  -5.0220
    -4.9903  -4.9666  -4.8584  -4.6156   2.6324   5.4907   6.3265   6.7474
     7.1049   7.3585   7.6168   8.3514   9.2503   9.5704

          k = 0.0000-0.5000 0.0000 (  9346 PWs)   bands (ev):

   -45.7895 -22.4760 -22.4359 -22.3640  -6.9853  -6.3823  -6.1834  -5.0530
    -5.0023  -4.9878  -4.7536  -4.7496   3.0196   5.6032   6.9037   6.9054
     7.3310   7.4425   8.2066   8.2517   8.6894  10.3683

          k = 0.0000-0.5000 0.2378 (  9340 PWs)   bands (ev):

   -45.7892 -22.4951 -22.4347 -22.3631  -6.9392  -6.3199  -6.0732  -5.0182
    -5.0047  -5.0030  -4.7852  -4.6553   2.7765   5.5622   6.5521   6.7653
     7.0929   7.2426   7.9449   8.2753   8.8759   9.8823

          k = 0.0000-0.5000-0.4756 (  9344 PWs)   bands (ev):

   -45.7890 -22.5141 -22.4336 -22.3623  -6.9250  -6.2540  -5.9092  -5.0215
    -5.0037  -4.9760  -4.8310  -4.5649   2.5502   5.3588   6.0173   6.7892
     7.0680   7.2952   7.3979   8.2894   9.2169   9.5683

          k = 0.1667 0.1667 0.0000 (  9350 PWs)   bands (ev):

   -45.7901 -22.4778 -22.3836 -22.3832  -7.3063  -6.4597  -6.1852  -5.0187
    -5.0052  -4.9671  -4.8274  -4.6641   3.4905   6.2553   6.4870   6.7295
     7.6531   7.7896   8.4647   8.5374   8.8200   9.1823

          k = 0.1667 0.1667 0.2378 (  9329 PWs)   bands (ev):

   -45.7899 -22.4971 -22.3827 -22.3824  -7.1479  -6.4378  -6.1164  -5.0197
    -4.9959  -4.9617  -4.8208  -4.6779   3.1397   6.0468   6.1246   6.8499
     7.4934   7.5128   8.2736   8.6804   8.8998   9.3281

          k = 0.1667 0.1667-0.4756 (  9310 PWs)   bands (ev):

   -45.7896 -22.5164 -22.3817 -22.3816  -6.9919  -6.4158  -6.0349  -5.0306
    -4.9759  -4.9390  -4.8277  -4.6958   2.8107   5.8447   5.8600   6.5709
     7.3539   7.4649   8.2053   8.7437   8.9547   9.6783

          k = 0.1667 0.3333 0.0000 (  9353 PWs)   bands (ev):

   -45.7895 -22.4762 -22.4178 -22.3819  -7.0217  -6.4043  -6.2018  -5.0355
    -4.9940  -4.9507  -4.7852  -4.6728   3.0135   5.9561   6.4931   6.8201
     7.1484   7.7016   8.0353   8.6521   8.8179   9.6800

          k = 0.1667 0.3333 0.2378 (  9346 PWs)   bands (ev):

   -45.7892 -22.4953 -22.4168 -22.3810  -6.9141  -6.3957  -6.1186  -5.0146
    -4.9914  -4.9322  -4.7710  -4.6350   2.8991   5.7818   5.9423   6.4645
     6.8971   7.5582   8.3302   8.6165   8.9548   9.4291

          k = 0.1667 0.3333-0.4756 (  9334 PWs)   bands (ev):

   -45.7890 -22.5143 -22.4158 -22.3801  -6.8386  -6.3772  -5.9997  -5.0148
    -4.9680  -4.8966  -4.7792  -4.5912   2.7448   5.4421   5.8415   6.2171
     6.4005   7.4149   8.4346   8.6609   8.9653   9.3863

          k = 0.1667-0.5000 0.0000 (  9358 PWs)   bands (ev):

   -45.7892 -22.4752 -22.4350 -22.3811  -6.8652  -6.3601  -6.2369  -5.0366
    -4.9862  -4.9321  -4.7322  -4.7280   2.8238   5.6212   6.6179   6.8189
     7.1788   7.4541   7.8378   8.7034   8.7975  10.0007

          k = 0.1667-0.5000 0.2378 (  9342 PWs)   bands (ev):

   -45.7889 -22.4943 -22.4339 -22.3802  -6.8144  -6.3318  -6.1402  -5.0128
    -4.9788  -4.9163  -4.7362  -4.6331   2.7888   5.5696   5.8435   6.2331
     6.8491   7.6930   8.1212   8.6149   8.9667   9.3987

          k = 0.1667-0.5000-0.4756 (  9332 PWs)   bands (ev):

   -45.7886 -22.5133 -22.4327 -22.3794  -6.8048  -6.3046  -5.9847  -5.0099
    -4.9404  -4.8990  -4.7479  -4.5429   2.7157   5.3268   5.6774   5.8680
     6.3003   7.5286   8.3193   8.5825   8.6418   9.5814

          k = 0.3333 0.3333 0.0000 (  9348 PWs)   bands (ev):

   -45.7888 -22.4745 -22.4161 -22.4158  -6.7657  -6.3556  -6.2692  -5.0160
    -4.9726  -4.8735  -4.7144  -4.6726   2.6148   5.9073   6.0876   6.8980
     7.0686   7.1941   7.8759   8.4878   9.2993   9.4286

          k = 0.3333 0.3333 0.2378 (  9342 PWs)   bands (ev):

   -45.7886 -22.4936 -22.4152 -22.4150  -6.6626  -6.3949  -6.2035  -4.9793
    -4.9685  -4.8305  -4.6687  -4.6043   2.7963   5.5532   5.6387   5.9047
     6.6199   7.0672   8.4132   8.9267   8.9662   9.3161

          k = 0.3333 0.3333-0.4756 (  9328 PWs)   bands (ev):

   -45.7883 -22.5125 -22.4142 -22.4141  -6.6138  -6.4319  -6.0728  -4.9638
    -4.9436  -4.7824  -4.6223  -4.5381   2.9678   5.1551   5.1933   5.6777
     6.3526   6.5386   7.7502   9.2697   9.2857   9.4570

          k = 0.3333-0.5000 0.0000 (  9354 PWs)   bands (ev):

   -45.7885 -22.4736 -22.4330 -22.4151  -6.6367  -6.3214  -6.3087  -5.0084
    -4.9502  -4.8017  -4.7153  -4.6762   2.4301   5.5924   6.1243   6.7367
     7.2447   7.3814   7.4706   8.4765   9.1321   9.4934

          k = 0.3333-0.5000 0.2378 (  9346 PWs)   bands (ev):

   -45.7883 -22.4926 -22.4321 -22.4142  -6.5527  -6.3594  -6.2596  -4.9717
    -4.9422  -4.7510  -4.6437  -4.5925   2.7119   5.4758   5.5482   5.6643
     6.3944   7.1383   7.9910   8.9334   8.9421   9.4694

          k = 0.3333-0.5000-0.4756 (  9356 PWs)   bands (ev):

   -45.7880 -22.5115 -22.4311 -22.4133  -6.5603  -6.3953  -6.1046  -4.9470
    -4.9228  -4.7086  -4.5719  -4.4987   3.0669   4.9187   5.1167   5.4483
     6.1427   6.5378   7.0297   9.3764   9.4396   9.6114

          k =-0.5000-0.5000 0.0000 (  9348 PWs)   bands (ev):

   -45.7882 -22.4726 -22.4321 -22.4321  -6.5530  -6.3052  -6.3052  -4.9986
    -4.9101  -4.7188  -4.7188  -4.6690   2.2361   5.4324   5.9908   6.9691
     6.9691   7.4795   7.4795   8.2495   8.6620   9.7454

          k =-0.5000-0.5000 0.2378 (  9344 PWs)   bands (ev):

   -45.7879 -22.4916 -22.4312 -22.4312  -6.3746  -6.3746  -6.3572  -4.9607
    -4.9083  -4.6425  -4.5989  -4.5989   2.6166   5.3911   5.6078   5.6078
     5.9970   7.0767   7.3824   8.9583   8.9583   9.7305

          k =-0.5000-0.5000-0.4756 (  9376 PWs)   bands (ev):

   -45.7877 -22.5105 -22.4303 -22.4303  -6.4366  -6.4366  -6.1552  -4.9228
    -4.9065  -4.6072  -4.4846  -4.4846   3.1950   4.9843   4.9843   5.2822
     6.0033   6.1110   6.2281   9.6271   9.6271   9.7157

     highest occupied level (ev):    10.3683

!    total energy              =    -380.57563355 Ry
     estimated scf accuracy    <          5.9E-12 Ry

     The total energy is the sum of the following terms:
     one-electron contribution =     -85.75319983 Ry
     hartree contribution      =      72.02140110 Ry
     xc contribution           =    -102.58628403 Ry
     ewald contribution        =    -264.25755079 Ry

     convergence has been achieved in   9 iterations

     negative rho (up, down):  1.550E-02 0.000E+00

     Forces acting on atoms (cartesian axes, Ry/au):

     atom    1 type  1   force =     0.00000000    0.00000000    0.00025147
     atom    2 type  2   force =     0.00000000    0.00000000   -0.00077629
     atom    3 type  3   force =     0.00000000    0.00000000   -0.00156060
     atom    4 type  3   force =     0.00000000    0.00000000    0.00104271
     atom    5 type  3   force =     0.00000000    0.00000000    0.00104271

     Total force =     0.002297     Total SCF correction =     0.000010


     Computing stress (Cartesian axis) and pressure


     negative rho (up, down):  1.550E-02 0.000E+00
          total   stress  (Ry/bohr**3)                   (kbar)     P=      -41.51
  -0.00033536   0.00000000   0.00000000          -49.33        0.00        0.00
   0.00000000  -0.00033536   0.00000000            0.00      -49.33        0.00
   0.00000000   0.00000000  -0.00017581            0.00        0.00      -25.86

     Energy error            =      1.8E-05 Ry
     Gradient error          =      1.6E-03 Ry/Bohr

     number of scf cycles    =   7
     number of bfgs steps    =   6

     energy             old  =    -380.5756157459 Ry
     energy             new  =    -380.5756335519 Ry

     CASE: energy            _new < energy            _old

     new trust radius        =       0.0032869059 bohr
     new conv_thr            =            1.0E-10 Ry


ATOMIC_POSITIONS (crystal)
Pb               0.0000000000        0.0000000000        0.9934079155
Ti               0.5000000000        0.5000000000        0.5384034369
O                0.5000000000        0.5000000000        0.1069552321
O                0.5000000000        0.0000000000        0.6142588517
O                0.0000000000        0.5000000000        0.6142588517



     Writing config-only to output data dir ./pto_120.save/ :
     XML data file
     NEW-OLD atomic charge density approx. for the potential

     negative rho (up, down):  1.550E-02 0.000E+00

     total cpu time spent up to now is      241.2 secs

     Self-consistent Calculation

     iteration #  1     ecut=   120.00 Ry     beta= 0.70
     CG style diagonalization
     ethr =  1.00E-06,  avg # of iterations =  2.7

     Threshold (ethr) on eigenvalues was too large:
     Diagonalizing with lowered threshold

     CG style diagonalization
     c_bands:  2 eigenvalues not converged
     c_bands:  1 eigenvalues not converged
     c_bands:  1 eigenvalues not converged
     c_bands:  1 eigenvalues not converged
     c_bands:  1 eigenvalues not converged
     ethr =  6.04E-09,  avg # of iterations =  5.9

     negative rho (up, down):  1.550E-02 0.000E+00

     total cpu time spent up to now is      246.9 secs

     total energy              =    -380.57563771 Ry
     estimated scf accuracy    <       0.00000464 Ry

     iteration #  2     ecut=   120.00 Ry     beta= 0.70
     CG style diagonalization
     ethr =  1.05E-08,  avg # of iterations =  4.7

     negative rho (up, down):  1.550E-02 0.000E+00

     total cpu time spent up to now is      249.7 secs

     total energy              =    -380.57563699 Ry
     estimated scf accuracy    <       0.00001671 Ry

     iteration #  3     ecut=   120.00 Ry     beta= 0.70
     CG style diagonalization
     ethr =  1.05E-08,  avg # of iterations =  4.3

     negative rho (up, down):  1.550E-02 0.000E+00

     total cpu time spent up to now is      252.4 secs

     total energy              =    -380.57564000 Ry
     estimated scf accuracy    <       0.00000057 Ry

     iteration #  4     ecut=   120.00 Ry     beta= 0.70
     CG style diagonalization
     ethr =  1.30E-09,  avg # of iterations =  3.6

     negative rho (up, down):  1.550E-02 0.000E+00

     total cpu time spent up to now is      254.7 secs

     total energy              =    -380.57564013 Ry
     estimated scf accuracy    <       0.00000009 Ry

     iteration #  5     ecut=   120.00 Ry     beta= 0.70
     CG style diagonalization
     ethr =  2.07E-10,  avg # of iterations =  4.0

     negative rho (up, down):  1.550E-02 0.000E+00

     total cpu time spent up to now is      257.2 secs

     total energy              =    -380.57564024 Ry
     estimated scf accuracy    <       0.00000001 Ry

     iteration #  6     ecut=   120.00 Ry     beta= 0.70
     CG style diagonalization
     ethr =  2.64E-11,  avg # of iterations =  4.0

     negative rho (up, down):  1.550E-02 0.000E+00

     total cpu time spent up to now is      259.7 secs

     total energy              =    -380.57564025 Ry
     estimated scf accuracy    <          1.1E-09 Ry

     iteration #  7     ecut=   120.00 Ry     beta= 0.70
     CG style diagonalization
     ethr =  2.40E-12,  avg # of iterations =  4.8

     negative rho (up, down):  1.550E-02 0.000E+00

     total cpu time spent up to now is      262.6 secs

     total energy              =    -380.57564025 Ry
     estimated scf accuracy    <          3.3E-10 Ry

     iteration #  8     ecut=   120.00 Ry     beta= 0.70
     CG style diagonalization
     ethr =  7.60E-13,  avg # of iterations =  4.4

     negative rho (up, down):  1.550E-02 0.000E+00

     total cpu time spent up to now is      265.3 secs

     End of self-consistent calculation

          k = 0.0000 0.0000 0.0000 (  9359 PWs)   bands (ev):

   -45.7949 -22.4810 -22.3709 -22.3709  -7.5738  -6.5135  -6.2028  -4.9918
    -4.9918  -4.9498  -4.8655  -4.6819   4.2121   6.2497   6.2497   6.8022
     8.1207   8.1207   8.4492   8.6294   8.8725   8.8725

          k = 0.0000 0.0000 0.2378 (  9319 PWs)   bands (ev):

   -45.7947 -22.5006 -22.3701 -22.3701  -7.3882  -6.4615  -6.1424  -5.0068
    -5.0068  -4.9486  -4.8515  -4.7458   3.4641   6.2910   6.2910   6.8764
     7.9146   7.9146   8.3646   8.7844   8.9707   8.9707

          k = 0.0000 0.0000-0.4756 (  9332 PWs)   bands (ev):

   -45.7944 -22.5201 -22.3693 -22.3693  -7.1883  -6.4054  -6.0870  -5.0217
    -5.0217  -4.9473  -4.8381  -4.8139   2.9567   6.2132   6.3131   6.3131
     7.7873   7.7873   8.2838   9.0350   9.0350   9.9888

          k = 0.0000 0.1667 0.0000 (  9344 PWs)   bands (ev):

   -45.7946 -22.4803 -22.3882 -22.3702  -7.4397  -6.4877  -6.1839  -5.0130
    -4.9903  -4.9625  -4.8554  -4.6715   3.7944   6.3063   6.3583   6.7340
     8.1336   8.1460   8.4250   8.5047   8.5732   8.9696

          k = 0.0000 0.1667 0.2378 (  9346 PWs)   bands (ev):

   -45.7943 -22.4997 -22.3873 -22.3694  -7.2699  -6.4491  -6.1170  -5.0061
    -5.0058  -4.9617  -4.8511  -4.7055   3.2596   6.0911   6.4083   6.9293
     7.6040   7.9020   8.2140   8.6222   8.6514   9.3528

          k = 0.0000 0.1667-0.4756 (  9292 PWs)   bands (ev):

   -45.7941 -22.5190 -22.3865 -22.3686  -7.0958  -6.4061  -6.0463  -5.0212
    -4.9967  -4.9609  -4.8519  -4.7394   2.8402   5.7998   6.4340   6.5859
     7.4356   7.7805   8.2526   8.6789   8.7262   9.9585

          k = 0.0000 0.3333 0.0000 (  9336 PWs)   bands (ev):

   -45.7940 -22.4787 -22.4227 -22.3688  -7.1478  -6.4311  -6.1642  -5.0407
    -4.9881  -4.9869  -4.8218  -4.6826   3.2260   5.9450   6.6429   6.6677
     7.8038   7.8384   8.2230   8.2883   8.6609   9.6375

          k = 0.0000 0.3333 0.2378 (  9357 PWs)   bands (ev):

   -45.7937 -22.4979 -22.4216 -22.3679  -7.0402  -6.3948  -6.0725  -5.0073
    -5.0039  -4.9878  -4.8246  -4.6546   2.9153   5.8096   6.5429   6.7191
     7.2356   7.6666   7.8435   8.3098   8.8656   9.7036

          k = 0.0000 0.3333-0.4756 (  9342 PWs)   bands (ev):

   -45.7934 -22.5170 -22.4206 -22.3671  -6.9598  -6.3405  -5.9529  -5.0202
    -4.9880  -4.9645  -4.8562  -4.6134   2.6342   5.4900   6.3286   6.7438
     7.1048   7.3568   7.6177   8.3538   9.2520   9.5721

          k = 0.0000-0.5000 0.0000 (  9346 PWs)   bands (ev):

   -45.7936 -22.4778 -22.4399 -22.3680  -6.9868  -6.3845  -6.1822  -5.0511
    -5.0001  -4.9859  -4.7513  -4.7475   3.0199   5.6038   6.9042   6.9093
     7.3301   7.4393   8.2041   8.2554   8.6909  10.3701

          k = 0.0000-0.5000 0.2378 (  9340 PWs)   bands (ev):

   -45.7934 -22.4969 -22.4387 -22.3672  -6.9406  -6.3222  -6.0719  -5.0162
    -5.0029  -5.0008  -4.7830  -4.6531   2.7776   5.5624   6.5534   6.7671
     7.0916   7.2394   7.9442   8.2794   8.8766   9.8843

          k = 0.0000-0.5000-0.4756 (  9344 PWs)   bands (ev):

   -45.7931 -22.5158 -22.4376 -22.3664  -6.9262  -6.2565  -5.9081  -5.0197
    -5.0014  -4.9740  -4.8287  -4.5628   2.5518   5.3583   6.0201   6.7889
     7.0648   7.2938   7.3963   8.2938   9.2208   9.5691

          k = 0.1667 0.1667 0.0000 (  9350 PWs)   bands (ev):

   -45.7943 -22.4795 -22.3876 -22.3873  -7.3079  -6.4611  -6.1840  -5.0168
    -5.0033  -4.9649  -4.8254  -4.6615   3.4914   6.2527   6.4869   6.7283
     7.6566   7.7891   8.4675   8.5355   8.8198   9.1852

          k = 0.1667 0.1667 0.2378 (  9329 PWs)   bands (ev):

   -45.7940 -22.4989 -22.3867 -22.3864  -7.1498  -6.4392  -6.1151  -5.0178
    -4.9939  -4.9595  -4.8188  -4.6754   3.1413   6.0444   6.1237   6.8484
     7.4930   7.5161   8.2766   8.6786   8.8992   9.3302

          k = 0.1667 0.1667-0.4756 (  9310 PWs)   bands (ev):

   -45.7937 -22.5181 -22.3858 -22.3856  -6.9939  -6.4173  -6.0335  -5.0286
    -4.9737  -4.9371  -4.8255  -4.6933   2.8129   5.8425   5.8585   6.5704
     7.3518   7.4682   8.2088   8.7421   8.9538   9.6804

          k = 0.1667 0.3333 0.0000 (  9353 PWs)   bands (ev):

   -45.7936 -22.4779 -22.4218 -22.3859  -7.0233  -6.4061  -6.2009  -5.0336
    -4.9920  -4.9484  -4.7831  -4.6703   3.0138   5.9556   6.4918   6.8213
     7.1476   7.7063   8.0362   8.6518   8.8179   9.6821

          k = 0.1667 0.3333 0.2378 (  9346 PWs)   bands (ev):

   -45.7934 -22.4971 -22.4208 -22.3850  -6.9159  -6.3975  -6.1175  -5.0126
    -4.9895  -4.9300  -4.7689  -4.6326   2.8999   5.7813   5.9423   6.4629
     6.8983   7.5605   8.3320   8.6166   8.9548   9.4306

          k = 0.1667 0.3333-0.4756 (  9334 PWs)   bands (ev):

   -45.7931 -22.5161 -22.4198 -22.3842  -6.8403  -6.3791  -5.9985  -5.0128
    -4.9660  -4.8945  -4.7770  -4.5890   2.7462   5.4416   5.8405   6.2161
     6.4015   7.4159   8.4376   8.6597   8.9673   9.3866

          k = 0.1667-0.5000 0.0000 (  9358 PWs)   bands (ev):

   -45.7933 -22.4770 -22.4389 -22.3851  -6.8666  -6.3623  -6.2360  -5.0347
    -4.9843  -4.9297  -4.7301  -4.7256   2.8238   5.6219   6.6197   6.8153
     7.1808   7.4546   7.8425   8.7016   8.7985  10.0023

          k = 0.1667-0.5000 0.2378 (  9342 PWs)   bands (ev):

   -45.7930 -22.4960 -22.4378 -22.3843  -6.8159  -6.3341  -6.1391  -5.0109
    -4.9769  -4.9139  -4.7341  -4.6309   2.7894   5.5698   5.8442   6.2325
     6.8487   7.6959   8.1224   8.6157   8.9665   9.4000

          k = 0.1667-0.5000-0.4756 (  9332 PWs)   bands (ev):

   -45.7928 -22.5150 -22.4367 -22.3834  -6.8062  -6.3069  -5.9836  -5.0080
    -4.9385  -4.8966  -4.7459  -4.5408   2.7169   5.3268   5.6769   5.8686
     6.2999   7.5299   8.3213   8.5838   8.6420   9.5823

          k = 0.3333 0.3333 0.0000 (  9348 PWs)   bands (ev):

   -45.7930 -22.4763 -22.4201 -22.4199  -6.7670  -6.3576  -6.2691  -5.0142
    -4.9705  -4.8712  -4.7121  -4.6702   2.6144   5.9066   6.0866   6.8986
     7.0709   7.1983   7.8762   8.4905   9.2978   9.4304

          k = 0.3333 0.3333 0.2378 (  9342 PWs)   bands (ev):

   -45.7927 -22.4953 -22.4192 -22.4190  -6.6644  -6.3967  -6.2027  -4.9774
    -4.9664  -4.8282  -4.6665  -4.6021   2.7961   5.5540   5.6386   5.9035
     6.6226   7.0688   8.4168   8.9272   8.9670   9.3148

          k = 0.3333 0.3333-0.4756 (  9328 PWs)   bands (ev):

   -45.7924 -22.5142 -22.4182 -22.4181  -6.6157  -6.4336  -6.0717  -4.9617
    -4.9417  -4.7800  -4.6202  -4.5362   2.9681   5.1553   5.1939   5.6749
     6.3551   6.5407   7.7539   9.2708   9.2838   9.4577

          k = 0.3333-0.5000 0.0000 (  9354 PWs)   bands (ev):

   -45.7927 -22.4753 -22.4370 -22.4191  -6.6373  -6.3237  -6.3093  -5.0065
    -4.9481  -4.7993  -4.7130  -4.6737   2.4294   5.5926   6.1237   6.7385
     7.2474   7.3833   7.4725   8.4783   9.1336   9.4918

          k = 0.3333-0.5000 0.2378 (  9346 PWs)   bands (ev):

   -45.7924 -22.4943 -22.4361 -22.4182  -6.5543  -6.3615  -6.2589  -4.9698
    -4.9401  -4.7485  -4.6418  -4.5903   2.7112   5.4774   5.5480   5.6644
     6.3962   7.1406   7.9935   8.9344   8.9433   9.4678

          k = 0.3333-0.5000-0.4756 (  9356 PWs)   bands (ev):

   -45.7921 -22.5132 -22.4351 -22.4174  -6.5620  -6.3973  -6.1037  -4.9450
    -4.9208  -4.7060  -4.5701  -4.4968   3.0663   4.9194   5.1181   5.4460
     6.1445   6.5406   7.0328   9.3773   9.4379   9.6124

          k =-0.5000-0.5000 0.0000 (  9348 PWs)   bands (ev):

   -45.7923 -22.4744 -22.4361 -22.4361  -6.5522  -6.3075  -6.3075  -4.9968
    -4.9079  -4.7165  -4.7165  -4.6663   2.2352   5.4325   5.9919   6.9707
     6.9707   7.4815   7.4815   8.2512   8.6636   9.7436

          k =-0.5000-0.5000 0.2378 (  9344 PWs)   bands (ev):

   -45.7921 -22.4934 -22.4352 -22.4352  -6.3766  -6.3766  -6.3563  -4.9588
    -4.9061  -4.6397  -4.5970  -4.5970   2.6153   5.3906   5.6099   5.6099
     5.9982   7.0785   7.3844   8.9597   8.9597   9.7288

          k =-0.5000-0.5000-0.4756 (  9376 PWs)   bands (ev):

   -45.7918 -22.5123 -22.4343 -22.4343  -6.4384  -6.4384  -6.1544  -4.9209
    -4.9043  -4.6043  -4.4830  -4.4830   3.1928   4.9866   4.9866   5.2800
     6.0045   6.1140   6.2313   9.6281   9.6281   9.7140

     highest occupied level (ev):    10.3701

!    total energy              =    -380.57564025 Ry
     estimated scf accuracy    <          6.9E-12 Ry

     The total energy is the sum of the following terms:
     one-electron contribution =     -85.73533396 Ry
     hartree contribution      =      72.01182809 Ry
     xc contribution           =    -102.58538876 Ry
     ewald contribution        =    -264.26674562 Ry

     convergence has been achieved in   8 iterations

     negative rho (up, down):  1.550E-02 0.000E+00

     Forces acting on atoms (cartesian axes, Ry/au):

     atom    1 type  1   force =     0.00000000    0.00000000    0.00032652
     atom    2 type  2   force =     0.00000000    0.00000000   -0.00126258
     atom    3 type  3   force =     0.00000000    0.00000000   -0.00012081
     atom    4 type  3   force =     0.00000000    0.00000000    0.00052843
     atom    5 type  3   force =     0.00000000    0.00000000    0.00052843

     Total force =     0.001508     Total SCF correction =     0.000007


     Computing stress (Cartesian axis) and pressure


     negative rho (up, down):  1.550E-02 0.000E+00
          total   stress  (Ry/bohr**3)                   (kbar)     P=      -42.08
  -0.00033722   0.00000000   0.00000000          -49.61        0.00        0.00
   0.00000000  -0.00033722   0.00000000            0.00      -49.61        0.00
   0.00000000   0.00000000  -0.00018378            0.00        0.00      -27.04

     Energy error            =      6.7E-06 Ry
     Gradient error          =      1.3E-03 Ry/Bohr

     number of scf cycles    =   8
     number of bfgs steps    =   7

     energy             old  =    -380.5756335519 Ry
     energy             new  =    -380.5756402496 Ry

     CASE: energy            _new < energy            _old

     new trust radius        =       0.0019139278 bohr
     new conv_thr            =            1.0E-10 Ry


ATOMIC_POSITIONS (crystal)
Pb               0.0000000000        0.0000000000        0.9934880057
Ti               0.5000000000        0.5000000000        0.5381688459
O                0.5000000000        0.5000000000        0.1067082060
O                0.5000000000        0.0000000000        0.6144596153
O                0.0000000000        0.5000000000        0.6144596153



     Writing config-only to output data dir ./pto_120.save/ :
     XML data file
     NEW-OLD atomic charge density approx. for the potential

     negative rho (up, down):  1.550E-02 0.000E+00

     total cpu time spent up to now is      269.5 secs

     Self-consistent Calculation

     iteration #  1     ecut=   120.00 Ry     beta= 0.70
     CG style diagonalization
     ethr =  1.00E-06,  avg # of iterations =  3.1

     Threshold (ethr) on eigenvalues was too large:
     Diagonalizing with lowered threshold

     CG style diagonalization
     c_bands:  1 eigenvalues not converged
     c_bands:  1 eigenvalues not converged
     c_bands:  3 eigenvalues not converged
     c_bands:  4 eigenvalues not converged
     c_bands:  1 eigenvalues not converged
     c_bands:  1 eigenvalues not converged
     c_bands:  1 eigenvalues not converged
     c_bands:  1 eigenvalues not converged
     ethr =  1.88E-09,  avg # of iterations =  7.6

     negative rho (up, down):  1.550E-02 0.000E+00

     total cpu time spent up to now is      276.3 secs

     total energy              =    -380.57564221 Ry
     estimated scf accuracy    <       0.00000103 Ry

     iteration #  2     ecut=   120.00 Ry     beta= 0.70
     CG style diagonalization
     ethr =  2.34E-09,  avg # of iterations =  4.6

     negative rho (up, down):  1.550E-02 0.000E+00

     total cpu time spent up to now is      279.1 secs

     total energy              =    -380.57564205 Ry
     estimated scf accuracy    <       0.00000339 Ry

     iteration #  3     ecut=   120.00 Ry     beta= 0.70
     CG style diagonalization
     ethr =  2.34E-09,  avg # of iterations =  4.2

     negative rho (up, down):  1.550E-02 0.000E+00

     total cpu time spent up to now is      281.7 secs

     total energy              =    -380.57564271 Ry
     estimated scf accuracy    <       0.00000011 Ry

     iteration #  4     ecut=   120.00 Ry     beta= 0.70
     CG style diagonalization
     ethr =  2.59E-10,  avg # of iterations =  3.7

     negative rho (up, down):  1.550E-02 0.000E+00

     total cpu time spent up to now is      284.0 secs

     total energy              =    -380.57564273 Ry
     estimated scf accuracy    <       0.00000002 Ry

     iteration #  5     ecut=   120.00 Ry     beta= 0.70
     CG style diagonalization
     ethr =  3.66E-11,  avg # of iterations =  4.4

     negative rho (up, down):  1.550E-02 0.000E+00

     total cpu time spent up to now is      286.8 secs

     total energy              =    -380.57564274 Ry
     estimated scf accuracy    <          3.4E-09 Ry

     iteration #  6     ecut=   120.00 Ry     beta= 0.70
     CG style diagonalization
     ethr =  7.73E-12,  avg # of iterations =  4.4

     negative rho (up, down):  1.550E-02 0.000E+00

     total cpu time spent up to now is      289.4 secs

     total energy              =    -380.57564274 Ry
     estimated scf accuracy    <          7.8E-10 Ry

     iteration #  7     ecut=   120.00 Ry     beta= 0.70
     CG style diagonalization
     ethr =  1.77E-12,  avg # of iterations =  4.7

     negative rho (up, down):  1.550E-02 0.000E+00

     total cpu time spent up to now is      292.3 secs

     total energy              =    -380.57564274 Ry
     estimated scf accuracy    <          2.8E-10 Ry

     iteration #  8     ecut=   120.00 Ry     beta= 0.70
     CG style diagonalization
     ethr =  6.34E-13,  avg # of iterations =  4.5

     negative rho (up, down):  1.550E-02 0.000E+00

     total cpu time spent up to now is      295.1 secs

     End of self-consistent calculation

          k = 0.0000 0.0000 0.0000 (  9359 PWs)   bands (ev):

   -45.7957 -22.4816 -22.3714 -22.3714  -7.5740  -6.5125  -6.2026  -4.9908
    -4.9908  -4.9487  -4.8644  -4.6804   4.2139   6.2485   6.2485   6.8005
     8.1182   8.1182   8.4477   8.6288   8.8722   8.8722

          k = 0.0000 0.0000 0.2378 (  9319 PWs)   bands (ev):

   -45.7954 -22.5012 -22.3706 -22.3706  -7.3881  -6.4605  -6.1425  -5.0059
    -5.0059  -4.9474  -4.8504  -4.7443   3.4652   6.2884   6.2884   6.8752
     7.9147   7.9147   8.3631   8.7848   8.9708   8.9708

          k = 0.0000 0.0000-0.4756 (  9332 PWs)   bands (ev):

   -45.7951 -22.5206 -22.3698 -22.3698  -7.1879  -6.4044  -6.0875  -5.0208
    -5.0208  -4.9462  -4.8370  -4.8124   2.9575   6.2125   6.3087   6.3087
     7.7900   7.7900   8.2822   9.0352   9.0352   9.9896

          k = 0.0000 0.1667 0.0000 (  9344 PWs)   bands (ev):

   -45.7953 -22.4808 -22.3887 -22.3707  -7.4399  -6.4869  -6.1838  -5.0121
    -4.9894  -4.9614  -4.8544  -4.6700   3.7954   6.3065   6.3573   6.7325
     8.1335   8.1438   8.4238   8.5041   8.5724   8.9699

          k = 0.0000 0.1667 0.2378 (  9346 PWs)   bands (ev):

   -45.7951 -22.5003 -22.3878 -22.3699  -7.2699  -6.4483  -6.1172  -5.0051
    -5.0049  -4.9606  -4.8500  -4.7041   3.2604   6.0896   6.4058   6.9285
     7.6045   7.9019   8.2149   8.6206   8.6517   9.3536

          k = 0.0000 0.1667-0.4756 (  9292 PWs)   bands (ev):

   -45.7948 -22.5196 -22.3870 -22.3691  -7.0954  -6.4053  -6.0468  -5.0203
    -4.9957  -4.9598  -4.8508  -4.7380   2.8409   5.7976   6.4297   6.5850
     7.4378   7.7829   8.2529   8.6772   8.7269   9.9603

          k = 0.0000 0.3333 0.0000 (  9336 PWs)   bands (ev):

   -45.7947 -22.4793 -22.4231 -22.3693  -7.1480  -6.4308  -6.1641  -5.0397
    -4.9871  -4.9859  -4.8208  -4.6813   3.2263   5.9463   6.6426   6.6692
     7.8061   7.8380   8.2205   8.2872   8.6599   9.6370

          k = 0.0000 0.3333 0.2378 (  9357 PWs)   bands (ev):

   -45.7944 -22.4984 -22.4221 -22.3684  -7.0401  -6.3947  -6.0728  -5.0063
    -5.0030  -4.9867  -4.8236  -4.6533   2.9158   5.8099   6.5438   6.7173
     7.2378   7.6656   7.8432   8.3106   8.8654   9.7037

          k = 0.0000 0.3333-0.4756 (  9342 PWs)   bands (ev):

   -45.7941 -22.5175 -22.4210 -22.3676  -6.9592  -6.3405  -5.9536  -5.0193
    -4.9869  -4.9635  -4.8552  -4.6121   2.6348   5.4887   6.3318   6.7400
     7.1056   7.3567   7.6185   8.3560   9.2505   9.5743

          k = 0.0000-0.5000 0.0000 (  9346 PWs)   bands (ev):

   -45.7943 -22.4783 -22.4403 -22.3685  -6.9867  -6.3847  -6.1821  -5.0501
    -4.9990  -4.9850  -4.7501  -4.7465   3.0200   5.6066   6.9052   6.9129
     7.3309   7.4375   8.2030   8.2532   8.6898  10.3700

          k = 0.0000-0.5000 0.2378 (  9340 PWs)   bands (ev):

   -45.7941 -22.4974 -22.4392 -22.3677  -6.9401  -6.3226  -6.0723  -5.0152
    -5.0020  -4.9997  -4.7820  -4.6519   2.7780   5.5643   6.5546   6.7689
     7.0927   7.2356   7.9439   8.2803   8.8771   9.8841

          k = 0.0000-0.5000-0.4756 (  9344 PWs)   bands (ev):

   -45.7938 -22.5164 -22.4380 -22.3669  -6.9254  -6.2570  -5.9089  -5.0188
    -5.0004  -4.9730  -4.8276  -4.5616   2.5526   5.3578   6.0235   6.7898
     7.0601   7.2950   7.3962   8.2967   9.2224   9.5686

          k = 0.1667 0.1667 0.0000 (  9350 PWs)   bands (ev):

   -45.7950 -22.4801 -22.3881 -22.3877  -7.3083  -6.4604  -6.1839  -5.0158
    -5.0023  -4.9639  -4.8244  -4.6601   3.4922   6.2518   6.4877   6.7267
     7.6558   7.7892   8.4674   8.5344   8.8213   9.1843

          k = 0.1667 0.1667 0.2378 (  9329 PWs)   bands (ev):

   -45.7947 -22.4994 -22.3872 -22.3869  -7.1499  -6.4386  -6.1153  -5.0168
    -4.9929  -4.9585  -4.8178  -4.6740   3.1419   6.0423   6.1232   6.8472
     7.4934   7.5181   8.2765   8.6777   8.8995   9.3316

          k = 0.1667 0.1667-0.4756 (  9310 PWs)   bands (ev):

   -45.7945 -22.5187 -22.3863 -22.3861  -6.9937  -6.4166  -6.0341  -5.0276
    -4.9726  -4.9362  -4.8245  -4.6919   2.8135   5.8398   5.8567   6.5715
     7.3504   7.4715   8.2097   8.7415   8.9533   9.6825

          k = 0.1667 0.3333 0.0000 (  9353 PWs)   bands (ev):

   -45.7943 -22.4785 -22.4222 -22.3864  -7.0237  -6.4059  -6.2009  -5.0326
    -4.9911  -4.9473  -4.7821  -4.6690   3.0141   5.9568   6.4909   6.8232
     7.1473   7.7060   8.0381   8.6511   8.8182   9.6818

          k = 0.1667 0.3333 0.2378 (  9346 PWs)   bands (ev):

   -45.7941 -22.4976 -22.4212 -22.3855  -6.9159  -6.3974  -6.1178  -5.0117
    -4.9885  -4.9289  -4.7679  -4.6314   2.9004   5.7814   5.9426   6.4621
     6.8993   7.5625   8.3334   8.6160   8.9544   9.4309

          k = 0.1667 0.3333-0.4756 (  9334 PWs)   bands (ev):

   -45.7938 -22.5166 -22.4202 -22.3847  -6.8400  -6.3791  -5.9992  -5.0119
    -4.9649  -4.8935  -4.7760  -4.5877   2.7468   5.4405   5.8405   6.2155
     6.4040   7.4179   8.4379   8.6601   8.9683   9.3861

          k = 0.1667-0.5000 0.0000 (  9358 PWs)   bands (ev):

   -45.7940 -22.4776 -22.4394 -22.3856  -6.8669  -6.3626  -6.2360  -5.0337
    -4.9833  -4.9286  -4.7291  -4.7245   2.8240   5.6246   6.6201   6.8140
     7.1840   7.4563   7.8414   8.7010   8.7983  10.0025

          k = 0.1667-0.5000 0.2378 (  9342 PWs)   bands (ev):

   -45.7938 -22.4966 -22.4383 -22.3848  -6.8156  -6.3344  -6.1396  -5.0099
    -4.9759  -4.9128  -4.7330  -4.6297   2.7898   5.5717   5.8455   6.2319
     6.8484   7.6982   8.1244   8.6144   8.9670   9.3992

          k = 0.1667-0.5000-0.4756 (  9332 PWs)   bands (ev):

   -45.7935 -22.5155 -22.4372 -22.3839  -6.8056  -6.3072  -5.9844  -5.0070
    -4.9375  -4.8956  -4.7448  -4.5396   2.7177   5.3264   5.6779   5.8701
     6.2998   7.5325   8.3228   8.5829   8.6426   9.5816

          k = 0.3333 0.3333 0.0000 (  9348 PWs)   bands (ev):

   -45.7937 -22.4769 -22.4206 -22.4203  -6.7678  -6.3576  -6.2691  -5.0132
    -4.9695  -4.8701  -4.7110  -4.6690   2.6148   5.9073   6.0883   6.8979
     7.0734   7.1976   7.8792   8.4920   9.2980   9.4306

          k = 0.3333 0.3333 0.2378 (  9342 PWs)   bands (ev):

   -45.7934 -22.4959 -22.4196 -22.4194  -6.6649  -6.3967  -6.2031  -4.9764
    -4.9654  -4.8271  -4.6655  -4.6009   2.7965   5.5546   5.6384   5.9038
     6.6262   7.0701   8.4191   8.9272   8.9659   9.3149

          k = 0.3333 0.3333-0.4756 (  9328 PWs)   bands (ev):

   -45.7932 -22.5148 -22.4187 -22.4185  -6.6158  -6.4335  -6.0725  -4.9607
    -4.9407  -4.7790  -4.6192  -4.5350   2.9686   5.1562   5.1938   5.6731
     6.3580   6.5449   7.7556   9.2699   9.2842   9.4568

          k = 0.3333-0.5000 0.0000 (  9354 PWs)   bands (ev):

   -45.7934 -22.4759 -22.4375 -22.4195  -6.6381  -6.3241  -6.3093  -5.0055
    -4.9471  -4.7980  -4.7119  -4.6726   2.4298   5.5947   6.1258   6.7374
     7.2457   7.3866   7.4754   8.4794   9.1342   9.4923

          k = 0.3333-0.5000 0.2378 (  9346 PWs)   bands (ev):

   -45.7931 -22.4949 -22.4365 -22.4187  -6.5546  -6.3618  -6.2594  -4.9688
    -4.9390  -4.7474  -4.6407  -4.5891   2.7116   5.4784   5.5492   5.6646
     6.3993   7.1421   7.9951   8.9342   8.9430   9.4680

          k = 0.3333-0.5000-0.4756 (  9356 PWs)   bands (ev):

   -45.7928 -22.5138 -22.4355 -22.4178  -6.5620  -6.3975  -6.1045  -4.9440
    -4.9198  -4.7050  -4.5692  -4.4957   3.0669   4.9205   5.1184   5.4454
     6.1474   6.5447   7.0337   9.3762   9.4384   9.6117

          k =-0.5000-0.5000 0.0000 (  9348 PWs)   bands (ev):

   -45.7931 -22.4749 -22.4365 -22.4365  -6.5530  -6.3079  -6.3079  -4.9958
    -4.9069  -4.7153  -4.7153  -4.6652   2.2356   5.4344   5.9961   6.9685
     6.9685   7.4849   7.4849   8.2521   8.6655   9.7440

          k =-0.5000-0.5000 0.2378 (  9344 PWs)   bands (ev):

   -45.7928 -22.4939 -22.4356 -22.4356  -6.3769  -6.3769  -6.3572  -4.9579
    -4.9051  -4.6385  -4.5959  -4.5959   2.6157   5.3918   5.6107   5.6107
     6.0024   7.0797   7.3855   8.9597   8.9597   9.7292

          k =-0.5000-0.5000-0.4756 (  9376 PWs)   bands (ev):

   -45.7925 -22.5128 -22.4347 -22.4347  -6.4386  -6.4386  -6.1553  -4.9199
    -4.9032  -4.6032  -4.4821  -4.4821   3.1932   4.9877   4.9877   5.2797
     6.0087   6.1149   6.2340   9.6274   9.6274   9.7144

     highest occupied level (ev):    10.3700

!    total energy              =    -380.57564274 Ry
     estimated scf accuracy    <          9.2E-12 Ry

     The total energy is the sum of the following terms:
     one-electron contribution =     -85.71958880 Ry
     hartree contribution      =      72.00422801 Ry
     xc contribution           =    -102.58508743 Ry
     ewald contribution        =    -264.27519453 Ry

     convergence has been achieved in   8 iterations

     negative rho (up, down):  1.550E-02 0.000E+00

     Forces acting on atoms (cartesian axes, Ry/au):

     atom    1 type  1   force =     0.00000000    0.00000000    0.00015254
     atom    2 type  2   force =     0.00000000    0.00000000   -0.00084814
     atom    3 type  3   force =     0.00000000    0.00000000    0.00037959
     atom    4 type  3   force =     0.00000000    0.00000000    0.00015801
     atom    5 type  3   force =     0.00000000    0.00000000    0.00015801

     Total force =     0.000968     Total SCF correction =     0.000008


     Computing stress (Cartesian axis) and pressure


     negative rho (up, down):  1.550E-02 0.000E+00
          total   stress  (Ry/bohr**3)                   (kbar)     P=      -42.30
  -0.00033906   0.00000000   0.00000000          -49.88        0.00        0.00
   0.00000000  -0.00033906   0.00000000            0.00      -49.88        0.00
   0.00000000   0.00000000  -0.00018458            0.00        0.00      -27.15

     Energy error            =      2.5E-06 Ry
     Gradient error          =      8.5E-04 Ry/Bohr

     bfgs converged in   9 scf cycles and   8 bfgs steps
     (criteria: energy <  1.0E-04 Ry, force <  1.0E-03 Ry/Bohr)

     End of BFGS Geometry Optimization

     Final energy             =    -380.5756427421 Ry

     File ./pto_120.bfgs deleted, as requested
Begin final coordinates

ATOMIC_POSITIONS (crystal)
Pb               0.0000000000        0.0000000000        0.9934880057
Ti               0.5000000000        0.5000000000        0.5381688459
O                0.5000000000        0.5000000000        0.1067082060
O                0.5000000000        0.0000000000        0.6144596153
O                0.0000000000        0.5000000000        0.6144596153
End final coordinates



     Writing all to output data dir ./pto_120.save/ :
     XML data file, charge density, pseudopotentials, collected wavefunctions
 
     init_run     :      0.87s CPU      1.00s WALL (       1 calls)
     electrons    :    248.06s CPU    260.78s WALL (       9 calls)
     update_pot   :      0.09s CPU      0.10s WALL (       8 calls)
     forces       :      3.07s CPU      3.43s WALL (       9 calls)
     stress       :     30.68s CPU     31.74s WALL (       9 calls)

     Called by init_run:
     wfcinit      :      0.49s CPU      0.52s WALL (       1 calls)
     potinit      :      0.02s CPU      0.02s WALL (       1 calls)
     hinit0       :      0.17s CPU      0.20s WALL (       1 calls)

     Called by electrons:
     c_bands      :    205.43s CPU    210.89s WALL (      89 calls)
     sum_band     :     30.05s CPU     33.77s WALL (      89 calls)
     v_of_rho     :      0.42s CPU      0.42s WALL (      94 calls)
     newd         :     12.88s CPU     16.43s WALL (      94 calls)
     mix_rho      :      0.28s CPU      0.29s WALL (      89 calls)

     Called by c_bands:
     init_us_2    :      2.13s CPU      2.19s WALL (    5910 calls)
     init_us_2:cp :      2.12s CPU      2.18s WALL (    5910 calls)
     ccgdiagg     :    182.20s CPU    187.22s WALL (    2670 calls)
     wfcrot       :     22.27s CPU     22.66s WALL (    2310 calls)

     Called by *cgdiagg:
     h_psi        :    134.33s CPU    137.76s WALL (  229777 calls)
     s_psi        :     25.13s CPU     25.90s WALL (  457244 calls)

     Called by h_psi:
     h_psi:calbec :     16.99s CPU     17.44s WALL (  229777 calls)
     vloc_psi     :    101.75s CPU    104.29s WALL (  229777 calls)
     add_vuspsi   :     13.16s CPU     13.59s WALL (  229777 calls)
     hs_1psi      :    128.80s CPU    132.28s WALL (  227467 calls)
     s_1psi       :     28.48s CPU     29.24s WALL (  227467 calls)

     General routines
     calbec       :     32.83s CPU     33.81s WALL (  461264 calls)
     fft          :      0.68s CPU      0.70s WALL (     630 calls)
     ffts         :      0.05s CPU      0.05s WALL (     183 calls)
     fftw         :     88.74s CPU     90.76s WALL (  615854 calls)
     interpolate  :      0.13s CPU      0.13s WALL (      94 calls)
 
     Parallel routines
 
     PWSCF        :   4m44.19s CPU   4m59.71s WALL

 
   This run was terminated on:  20:32:26  14Nov2025            

=------------------------------------------------------------------------------=
   JOB DONE.
=------------------------------------------------------------------------------=
TACC:  Shutdown complete. Exiting. 
