TACC:  Starting up job 2406236 
TACC:  Starting parallel tasks... 

     Program PWSCF v.7.3 starts on 24Sep2025 at  0: 1: 1 

     This program is part of the open-source Quantum ESPRESSO suite
     for quantum simulation of materials; please cite
         "P. Giannozzi et al., J. Phys.:Condens. Matter 21 395502 (2009);
         "P. Giannozzi et al., J. Phys.:Condens. Matter 29 465901 (2017);
         "P. Giannozzi et al., J. Chem. Phys. 152 154105 (2020);
          URL http://www.quantum-espresso.org", 
     in publications or presentations arising from this work. More details at
     http://www.quantum-espresso.org/quote

     Parallel version (MPI & OpenMP), running on      10 processor cores
     Number of MPI processes:                10
     Threads/MPI process:                     1

     MPI processes distributed on     1 nodes
     184842 MiB available memory on the printing compute node when the environment starts
 
     Waiting for input...
     Reading input from standard input
Warning: card &CELL ignored
Warning: card  CELL_DYNAMICS = 'BFGS', ignored
Warning: card  PRESS=0.D0, ignored
Warning: card / ignored
     Message from routine read_cards :
     DEPRECATED: no units specified in ATOMIC_POSITIONS card
     Message from routine read_cards :
     ATOMIC_POSITIONS: units set to alat

     Current dimensions of program PWSCF are:
     Max number of different atomic species (ntypx) = 10
     Max number of k-points (npk) =  40000
     Max angular momentum in pseudopotentials (lmaxx) =  4
 
     R & G space division:  proc/nbgrp/npool/nimage =      10
     Subspace diagonalization in iterative solution of the eigenvalue problem:
     a serial algorithm will be used

 
     Parallelization info
     --------------------
     sticks:   dense  smooth     PW     G-vecs:    dense   smooth      PW
     Min         314     126     37                13320     3364     543
     Max         315     128     38                13323     3365     546
     Sum        3149    1265    373               133219    33641    5449
 
     Using Slab Decomposition
 


     bravais-lattice index     =            1
     lattice parameter (alat)  =       7.5245  a.u.
     unit-cell volume          =     426.0248 (a.u.)^3
     number of atoms/cell      =            5
     number of atomic types    =            3
     number of electrons       =        40.00
     number of Kohn-Sham states=           20
     kinetic-energy cutoff     =      70.0000  Ry
     charge density cutoff     =     700.0000  Ry
     scf convergence threshold =      1.0E-08
     mixing beta               =       0.7000
     number of iterations used =            8  plain     mixing
     Exchange-correlation= SLA  PZ   NOGX NOGC
                           (   1   1   0   0   0   0   0)

     celldm(1)=   7.524511  celldm(2)=   0.000000  celldm(3)=   0.000000
     celldm(4)=   0.000000  celldm(5)=   0.000000  celldm(6)=   0.000000

     crystal axes: (cart. coord. in units of alat)
               a(1) = (   1.000000   0.000000   0.000000 )  
               a(2) = (   0.000000   1.000000   0.000000 )  
               a(3) = (   0.000000   0.000000   1.000000 )  

     reciprocal axes: (cart. coord. in units 2 pi/alat)
               b(1) = (  1.000000  0.000000  0.000000 )  
               b(2) = (  0.000000  1.000000  0.000000 )  
               b(3) = (  0.000000  0.000000  1.000000 )  


     PseudoPot. # 1 for Ca read from file:
     /scratch/11018/zhc/assisgnment1/CaTiO3/Ca_LDA.UPF
     MD5 check sum: d2d4e7693e10d071152e9eeb7dd009f3
     Pseudo is Ultrasoft + core correction, Zval = 10.0
     Generated by new atomic code, or converted to UPF format
     Using radial grid of  845 points,  6 beta functions with: 
                l(1) =   0
                l(2) =   0
                l(3) =   1
                l(4) =   1
                l(5) =   2
                l(6) =   2
     Q(r) pseudized with  8 coefficients,  rinner =    1.500   1.500   1.500
                                                       1.500   1.500

     PseudoPot. # 2 for Ti read from file:
     /scratch/11018/zhc/assisgnment1/CaTiO3/Ti_LDA.UPF
     MD5 check sum: 0d9f225c038fe889ca2a701dcc8d72cb
     Pseudo is Ultrasoft + core correction, Zval = 12.0
     Generated by new atomic code, or converted to UPF format
     Using radial grid of  851 points,  6 beta functions with: 
                l(1) =   0
                l(2) =   0
                l(3) =   1
                l(4) =   1
                l(5) =   2
                l(6) =   2
     Q(r) pseudized with  6 coefficients,  rinner =    1.000   1.000   1.000
                                                       1.000   1.000

     PseudoPot. # 3 for O  read from file:
     /scratch/11018/zhc/assisgnment1/CaTiO3/O_LDA.UPF
     MD5 check sum: 194b818514d2a7dbb603bb78519a4f40
     Pseudo is Ultrasoft + core correction, Zval =  6.0
     Generated by new atomic code, or converted to UPF format
     Using radial grid of  737 points,  5 beta functions with: 
                l(1) =   0
                l(2) =   0
                l(3) =   1
                l(4) =   1
                l(5) =   2
     Q(r) pseudized with  8 coefficients,  rinner =    0.900   0.900   0.900
                                                       0.900   0.900

     atomic species   valence    mass     pseudopotential
     Ca               10.00    40.07800     Ca( 1.00)
     Ti               12.00    47.88000     Ti( 1.00)
     O                 6.00    16.00000     O ( 1.00)

     48 Sym. Ops., with inversion, found



   Cartesian axes

     site n.     atom                  positions (alat units)
         1        Ca     tau(   1) = (   0.0000000   0.0000000   0.0000000  )
         2        Ti     tau(   2) = (   0.5000000   0.5000000   0.5000000  )
         3        O      tau(   3) = (   0.5000000   0.5000000   0.0000000  )
         4        O      tau(   4) = (   0.5000000   0.0000000   0.5000000  )
         5        O      tau(   5) = (   0.0000000   0.5000000   0.5000000  )

     number of k points=    20
                       cart. coord. in units 2pi/alat
        k(    1) = (   0.0000000   0.0000000   0.0000000), wk =   0.0092593
        k(    2) = (   0.0000000   0.0000000   0.1666667), wk =   0.0555556
        k(    3) = (   0.0000000   0.0000000   0.3333333), wk =   0.0555556
        k(    4) = (   0.0000000   0.0000000  -0.5000000), wk =   0.0277778
        k(    5) = (   0.0000000   0.1666667   0.1666667), wk =   0.1111111
        k(    6) = (   0.0000000   0.1666667   0.3333333), wk =   0.2222222
        k(    7) = (   0.0000000   0.1666667  -0.5000000), wk =   0.1111111
        k(    8) = (   0.0000000   0.3333333   0.3333333), wk =   0.1111111
        k(    9) = (   0.0000000   0.3333333  -0.5000000), wk =   0.1111111
        k(   10) = (   0.0000000  -0.5000000  -0.5000000), wk =   0.0277778
        k(   11) = (   0.1666667   0.1666667   0.1666667), wk =   0.0740741
        k(   12) = (   0.1666667   0.1666667   0.3333333), wk =   0.2222222
        k(   13) = (   0.1666667   0.1666667  -0.5000000), wk =   0.1111111
        k(   14) = (   0.1666667   0.3333333   0.3333333), wk =   0.2222222
        k(   15) = (   0.1666667   0.3333333  -0.5000000), wk =   0.2222222
        k(   16) = (   0.1666667  -0.5000000  -0.5000000), wk =   0.0555556
        k(   17) = (   0.3333333   0.3333333   0.3333333), wk =   0.0740741
        k(   18) = (   0.3333333   0.3333333  -0.5000000), wk =   0.1111111
        k(   19) = (   0.3333333  -0.5000000  -0.5000000), wk =   0.0555556
        k(   20) = (  -0.5000000  -0.5000000  -0.5000000), wk =   0.0092593

     Dense  grid:   133219 G-vectors     FFT dimensions: (  64,  64,  64)

     Smooth grid:    33641 G-vectors     FFT dimensions: (  45,  45,  45)

     Estimated max dynamical RAM per process >      58.65 MB

     Estimated total dynamical RAM >     586.54 MB

     Check: negative core charge=   -0.000003

     Initial potential from superposition of free atoms

     starting charge      38.9952, renormalised to      40.0000

     negative rho (up, down):  7.998E-04 0.000E+00
     Starting wfcs are   32 randomized atomic wfcs

     total cpu time spent up to now is        0.9 secs

     Self-consistent Calculation

     iteration #  1     ecut=    70.00 Ry     beta= 0.70
     CG style diagonalization
     ethr =  1.00E-02,  avg # of iterations =  2.2

     negative rho (up, down):  1.222E-03 0.000E+00

     total cpu time spent up to now is        1.6 secs

     total energy              =    -291.25874158 Ry
     estimated scf accuracy    <       0.83749750 Ry

     iteration #  2     ecut=    70.00 Ry     beta= 0.70
     CG style diagonalization
     ethr =  2.09E-03,  avg # of iterations =  5.3

     negative rho (up, down):  4.370E-04 0.000E+00

     total cpu time spent up to now is        2.7 secs

     total energy              =    -290.16279880 Ry
     estimated scf accuracy    <      10.07994695 Ry

     iteration #  3     ecut=    70.00 Ry     beta= 0.70
     CG style diagonalization
     ethr =  2.09E-03,  avg # of iterations =  4.7

     negative rho (up, down):  6.050E-04 0.000E+00

     total cpu time spent up to now is        3.8 secs

     total energy              =    -291.69593559 Ry
     estimated scf accuracy    <       0.22796620 Ry

     iteration #  4     ecut=    70.00 Ry     beta= 0.70
     CG style diagonalization
     ethr =  5.70E-04,  avg # of iterations =  3.5

     negative rho (up, down):  7.065E-04 0.000E+00

     total cpu time spent up to now is        4.5 secs

     total energy              =    -291.70772380 Ry
     estimated scf accuracy    <       0.08556522 Ry

     iteration #  5     ecut=    70.00 Ry     beta= 0.70
     CG style diagonalization
     ethr =  2.14E-04,  avg # of iterations =  3.5

     negative rho (up, down):  7.819E-04 0.000E+00

     total cpu time spent up to now is        5.3 secs

     total energy              =    -291.71772113 Ry
     estimated scf accuracy    <       0.00420798 Ry

     iteration #  6     ecut=    70.00 Ry     beta= 0.70
     CG style diagonalization
     ethr =  1.05E-05,  avg # of iterations =  4.0

     negative rho (up, down):  7.874E-04 0.000E+00

     total cpu time spent up to now is        6.2 secs

     total energy              =    -291.72011707 Ry
     estimated scf accuracy    <       0.00021443 Ry

     iteration #  7     ecut=    70.00 Ry     beta= 0.70
     CG style diagonalization
     ethr =  5.36E-07,  avg # of iterations =  4.1

     negative rho (up, down):  7.896E-04 0.000E+00

     total cpu time spent up to now is        7.1 secs

     total energy              =    -291.72030077 Ry
     estimated scf accuracy    <       0.00012922 Ry

     iteration #  8     ecut=    70.00 Ry     beta= 0.70
     CG style diagonalization
     ethr =  3.23E-07,  avg # of iterations =  3.4

     negative rho (up, down):  7.870E-04 0.000E+00

     total cpu time spent up to now is        7.9 secs

     total energy              =    -291.72030719 Ry
     estimated scf accuracy    <       0.00002495 Ry

     iteration #  9     ecut=    70.00 Ry     beta= 0.70
     CG style diagonalization
     ethr =  6.24E-08,  avg # of iterations =  3.7

     negative rho (up, down):  7.869E-04 0.000E+00

     total cpu time spent up to now is        8.7 secs

     total energy              =    -291.72031341 Ry
     estimated scf accuracy    <       0.00000002 Ry

     iteration # 10     ecut=    70.00 Ry     beta= 0.70
     CG style diagonalization
     ethr =  5.07E-11,  avg # of iterations =  6.5

     negative rho (up, down):  7.868E-04 0.000E+00

     total cpu time spent up to now is       10.1 secs

     total energy              =    -291.72031397 Ry
     estimated scf accuracy    <       0.00000006 Ry

     iteration # 11     ecut=    70.00 Ry     beta= 0.70
     CG style diagonalization
     ethr =  5.07E-11,  avg # of iterations =  3.7

     negative rho (up, down):  7.868E-04 0.000E+00

     total cpu time spent up to now is       10.9 secs

     total energy              =    -291.72031396 Ry
     estimated scf accuracy    <       0.00000003 Ry

     iteration # 12     ecut=    70.00 Ry     beta= 0.70
     CG style diagonalization
     ethr =  5.07E-11,  avg # of iterations =  3.7

     negative rho (up, down):  7.868E-04 0.000E+00

     total cpu time spent up to now is       11.8 secs

     End of self-consistent calculation

          k = 0.0000 0.0000 0.0000 (  4169 PWs)   bands (ev):

   -48.2892 -31.3120 -24.8330 -24.8330 -24.8330 -12.4934 -12.4934 -12.4934
    -9.1606  -8.1277  -8.1277   4.8101   4.8101   4.8101   6.7406   6.7406
     6.7406   7.3119   7.3119   7.3119

          k = 0.0000 0.0000 0.1667 (  4200 PWs)   bands (ev):

   -48.2890 -31.3109 -24.8461 -24.8324 -24.8324 -12.5339 -12.4914 -12.4914
    -9.0314  -8.1195  -8.0748   4.5242   4.8349   4.8349   6.4022   6.4022
     6.5407   6.5657   7.1940   7.1940

          k = 0.0000 0.0000 0.3333 (  4200 PWs)   bands (ev):

   -48.2886 -31.3089 -24.8720 -24.8313 -24.8313 -12.6115 -12.4873 -12.4873
    -8.7664  -8.1029  -7.9657   3.9174   4.9360   4.9360   5.5617   5.7797
     5.7797   6.1897   7.0904   7.0904

          k = 0.0000 0.0000-0.5000 (  4220 PWs)   bands (ev):

   -48.2884 -31.3078 -24.8849 -24.8307 -24.8307 -12.6488 -12.4852 -12.4852
    -8.6309  -8.0945  -7.9081   3.5883   5.0850   5.0850   5.1991   5.4134
     5.4134   6.0324   7.0535   7.0535

          k = 0.0000 0.1667 0.1667 (  4196 PWs)   bands (ev):

   -48.2888 -31.3099 -24.8457 -24.8454 -24.8319 -12.5385 -12.5176 -12.4893
    -8.9118  -8.0914  -8.0440   4.3773   4.6886   4.8571   5.7027   6.1940
     6.4925   6.6303   6.9167   6.9688

          k = 0.0000 0.1667 0.3333 (  4195 PWs)   bands (ev):

   -48.2884 -31.3078 -24.8716 -24.8445 -24.8307 -12.6001 -12.5154 -12.4850
    -8.6728  -8.0665  -7.9395   3.8814   4.5105   4.9505   4.9539   5.6924
     5.8991   6.5725   6.7741   6.8458

          k = 0.0000 0.1667-0.5000 (  4222 PWs)   bands (ev):

   -48.2882 -31.3067 -24.8845 -24.8440 -24.8301 -12.6331 -12.5110 -12.4828
    -8.5564  -8.0545  -7.8767   3.5810   4.3145   4.7932   5.1005   5.3505
     5.6942   6.5622   6.7197   6.7560

          k = 0.0000 0.3333 0.3333 (  4220 PWs)   bands (ev):

   -48.2880 -31.3056 -24.8708 -24.8706 -24.8296 -12.5837 -12.5641 -12.4803
    -8.5207  -7.9593  -7.8720   3.6514   4.0540   4.1216   5.0144   5.4573
     5.9627   6.1152   6.3626   7.3664

          k = 0.0000 0.3333-0.5000 (  4228 PWs)   bands (ev):

   -48.2878 -31.3045 -24.8838 -24.8703 -24.8290 -12.6019 -12.5615 -12.4779
    -8.4683  -7.8978  -7.8142   3.5300   3.5515   4.0546   5.1413   5.2291
     5.8889   6.0970   6.2235   7.4939

          k = 0.0000-0.5000-0.5000 (  4196 PWs)   bands (ev):

   -48.2876 -31.3033 -24.8834 -24.8834 -24.8284 -12.5864 -12.5864 -12.4755
    -8.4513  -7.7831  -7.7831   3.2756   3.3868   3.7683   5.1706   5.1706
     5.9826   5.9826   6.0135   7.7214

          k = 0.1667 0.1667 0.1667 (  4211 PWs)   bands (ev):

   -48.2886 -31.3088 -24.8450 -24.8450 -24.8449 -12.5407 -12.5137 -12.5137
    -8.7960  -8.0418  -8.0418   4.2441   4.6895   4.6895   5.6329   5.6329
     5.9495   6.8411   6.8411   6.9862

          k = 0.1667 0.1667 0.3333 (  4205 PWs)   bands (ev):

   -48.2882 -31.3067 -24.8711 -24.8440 -24.8438 -12.5898 -12.5163 -12.5058
    -8.5673  -8.0372  -7.9269   3.8462   4.4257   4.6656   4.8625   5.1013
     5.8423   6.6190   6.8002   6.9870

          k = 0.1667 0.1667-0.5000 (  4248 PWs)   bands (ev):

   -48.2880 -31.3056 -24.8841 -24.8435 -24.8432 -12.6193 -12.5120 -12.5018
    -8.4582  -8.0349  -7.8567   3.5765   4.2084   4.6117   4.6484   4.9549
     5.8965   6.4815   6.7817   6.9103

          k = 0.1667 0.3333 0.3333 (  4226 PWs)   bands (ev):

   -48.2878 -31.3045 -24.8701 -24.8701 -24.8427 -12.5750 -12.5569 -12.5021
    -8.3908  -7.9499  -7.8810   3.6623   4.1018   4.1224   4.5623   4.8298
     5.3699   6.7109   6.7460   7.3925

          k = 0.1667 0.3333-0.5000 (  4228 PWs)   bands (ev):

   -48.2876 -31.3034 -24.8831 -24.8696 -24.8422 -12.5916 -12.5548 -12.4983
    -8.3313  -7.9098  -7.8172   3.5321   3.6334   4.0536   4.5287   4.6836
     5.3630   6.6706   6.7368   7.5145

          k = 0.1667-0.5000-0.5000 (  4204 PWs)   bands (ev):

   -48.2874 -31.3023 -24.8827 -24.8827 -24.8416 -12.5778 -12.5778 -12.4947
    -8.3082  -7.7976  -7.7976   3.3847   3.3922   3.7722   4.5483   4.5483
     5.2958   6.7047   6.7047   7.7423

          k = 0.3333 0.3333 0.3333 (  4212 PWs)   bands (ev):

   -48.2874 -31.3024 -24.8691 -24.8688 -24.8688 -12.5607 -12.5424 -12.5424
    -8.1466  -7.8994  -7.8994   3.6188   4.0792   4.0792   4.1610   4.2791
     4.2791   7.2166   7.2166   7.5172

          k = 0.3333 0.3333-0.5000 (  4208 PWs)   bands (ev):

   -48.2872 -31.3013 -24.8819 -24.8684 -24.8681 -12.5709 -12.5450 -12.5350
    -8.0657  -7.9086  -7.8235   3.4970   3.7442   3.9484   3.9674   4.1981
     4.2883   7.3015   7.3817   7.6131

          k = 0.3333-0.5000-0.5000 (  4220 PWs)   bands (ev):

   -48.2870 -31.3003 -24.8812 -24.8812 -24.8676 -12.5604 -12.5604 -12.5328
    -8.0041  -7.8268  -7.8268   3.3600   3.6098   3.7801   3.9428   3.9428
     4.1685   7.5008   7.5008   7.7847

          k =-0.5000-0.5000-0.5000 (  4224 PWs)   bands (ev):

   -48.2868 -31.2993 -24.8805 -24.8805 -24.8805 -12.5517 -12.5517 -12.5517
    -7.8416  -7.8416  -7.8416   3.2367   3.7263   3.7263   3.7263   3.7840
     3.7840   7.8064   7.8064   7.8064

     highest occupied level (ev):     7.8064

!    total energy              =    -291.72031397 Ry
     estimated scf accuracy    <          3.1E-10 Ry

     The total energy is the sum of the following terms:
     one-electron contribution =    -100.22294463 Ry
     hartree contribution      =      67.90246168 Ry
     xc contribution           =     -50.99181353 Ry
     ewald contribution        =    -208.40801749 Ry

     convergence has been achieved in  12 iterations

     negative rho (up, down):  7.868E-04 0.000E+00

     Forces acting on atoms (cartesian axes, Ry/au):

     atom    1 type  1   force =     0.00000000    0.00000000    0.00000000
     atom    2 type  2   force =     0.00000000    0.00000000    0.00000000
     atom    3 type  3   force =     0.00000000    0.00000000    0.00000000
     atom    4 type  3   force =     0.00000000    0.00000000    0.00000000
     atom    5 type  3   force =     0.00000000    0.00000000    0.00000000

     Total force =     0.000000     Total SCF correction =     0.000000


     Computing stress (Cartesian axis) and pressure


     negative rho (up, down):  7.868E-04 0.000E+00
          total   stress  (Ry/bohr**3)                   (kbar)     P=     -206.88
  -0.00140633   0.00000000   0.00000000         -206.88        0.00        0.00
   0.00000000  -0.00140633   0.00000000            0.00     -206.88        0.00
   0.00000000   0.00000000  -0.00140633            0.00        0.00     -206.88


     Writing all to output data dir ./CTO_CELLDM_9.save/ :
     XML data file, charge density, pseudopotentials, collected wavefunctions
 
     init_run     :      0.56s CPU      0.65s WALL (       1 calls)
     electrons    :     10.23s CPU     10.90s WALL (       1 calls)
     forces       :      0.13s CPU      0.15s WALL (       1 calls)
     stress       :      1.14s CPU      1.16s WALL (       1 calls)

     Called by init_run:
     wfcinit      :      0.21s CPU      0.23s WALL (       1 calls)
     potinit      :      0.01s CPU      0.02s WALL (       1 calls)
     hinit0       :      0.12s CPU      0.15s WALL (       1 calls)

     Called by electrons:
     c_bands      :      7.80s CPU      8.09s WALL (      12 calls)
     sum_band     :      1.64s CPU      1.74s WALL (      12 calls)
     v_of_rho     :      0.03s CPU      0.03s WALL (      13 calls)
     newd         :      0.79s CPU      1.03s WALL (      13 calls)
     mix_rho      :      0.02s CPU      0.02s WALL (      12 calls)

     Called by c_bands:
     init_us_2    :      0.09s CPU      0.09s WALL (     540 calls)
     init_us_2:cp :      0.09s CPU      0.09s WALL (     540 calls)
     ccgdiagg     :      6.59s CPU      6.84s WALL (     240 calls)
     wfcrot       :      1.33s CPU      1.39s WALL (     240 calls)

     Called by *cgdiagg:
     h_psi        :      5.52s CPU      5.72s WALL (   15139 calls)
     s_psi        :      0.49s CPU      0.51s WALL (   30038 calls)

     Called by h_psi:
     h_psi:calbec :      0.61s CPU      0.63s WALL (   15139 calls)
     vloc_psi     :      4.49s CPU      4.65s WALL (   15139 calls)
     add_vuspsi   :      0.29s CPU      0.30s WALL (   15139 calls)
     hs_1psi      :      4.67s CPU      4.84s WALL (   14899 calls)
     s_1psi       :      0.72s CPU      0.75s WALL (   14899 calls)

     General routines
     calbec       :      1.04s CPU      1.09s WALL (   30378 calls)
     fft          :      0.03s CPU      0.04s WALL (      84 calls)
     ffts         :      0.01s CPU      0.01s WALL (      25 calls)
     fftw         :      4.18s CPU      4.31s WALL (   44678 calls)
     interpolate  :      0.01s CPU      0.01s WALL (      13 calls)
 
     Parallel routines
 
     PWSCF        :     12.28s CPU     13.51s WALL

 
   This run was terminated on:   0: 1:14  24Sep2025            

=------------------------------------------------------------------------------=
   JOB DONE.
=------------------------------------------------------------------------------=
TACC:  Shutdown complete. Exiting. 
