TACC:  Starting up job 2560841 
TACC:  Starting parallel tasks... 

     Program PWSCF v.7.3 starts on 18Nov2025 at  0: 7:15 

     This program is part of the open-source Quantum ESPRESSO suite
     for quantum simulation of materials; please cite
         "P. Giannozzi et al., J. Phys.:Condens. Matter 21 395502 (2009);
         "P. Giannozzi et al., J. Phys.:Condens. Matter 29 465901 (2017);
         "P. Giannozzi et al., J. Chem. Phys. 152 154105 (2020);
          URL http://www.quantum-espresso.org", 
     in publications or presentations arising from this work. More details at
     http://www.quantum-espresso.org/quote

     Parallel version (MPI & OpenMP), running on      10 processor cores
     Number of MPI processes:                10
     Threads/MPI process:                     1

     MPI processes distributed on     1 nodes
     187612 MiB available memory on the printing compute node when the environment starts
 
     Waiting for input...
     Reading input from standard input
Warning: card &CELL ignored
Warning: card  CELL_DYNAMICS = 'BFGS', ignored
Warning: card  PRESS=0.D0, ignored
Warning: card / ignored

     Current dimensions of program PWSCF are:
     Max number of different atomic species (ntypx) = 10
     Max number of k-points (npk) =  40000
     Max angular momentum in pseudopotentials (lmaxx) =  4
     Message from routine setup:
     using ibrav=0 with symmetry is DISCOURAGED, use correct ibrav instead
 
     R & G space division:  proc/nbgrp/npool/nimage =      10
     Subspace diagonalization in iterative solution of the eigenvalue problem:
     a serial algorithm will be used

 
     Parallelization info
     --------------------
     sticks:   dense  smooth     PW     G-vecs:    dense   smooth      PW
     Min         209      84     25                 7681     1946     323
     Max         210      86     27                 7686     1949     324
     Sum        2097     853    257                76827    19475    3235
 
     Using Slab Decomposition
 


     bravais-lattice index     =            0
     lattice parameter (alat)  =       7.2934  a.u.
     unit-cell volume          =     406.8970 (a.u.)^3
     number of atoms/cell      =            5
     number of atomic types    =            3
     number of electrons       =        44.00
     number of Kohn-Sham states=           22
     kinetic-energy cutoff     =      50.0000  Ry
     charge density cutoff     =     500.0000  Ry
     scf convergence threshold =      1.0E-08
     mixing beta               =       0.7000
     number of iterations used =            8  plain     mixing
     energy convergence thresh.=      1.0E-04
     force convergence thresh. =      1.0E-03
     Exchange-correlation= SLA  PZ   NOGX NOGC
                           (   1   1   0   0   0   0   0)
     nstep                     =           50


     celldm(1)=   7.293436  celldm(2)=   0.000000  celldm(3)=   0.000000
     celldm(4)=   0.000000  celldm(5)=   0.000000  celldm(6)=   0.000000

     crystal axes: (cart. coord. in units of alat)
               a(1) = (   1.000000   0.000000   0.000000 )  
               a(2) = (   0.000000   0.998964   0.000000 )  
               a(3) = (   0.000000   0.000000   1.049877 )  

     reciprocal axes: (cart. coord. in units 2 pi/alat)
               b(1) = (  1.000000  0.000000  0.000000 )  
               b(2) = (  0.000000  1.001037  0.000000 )  
               b(3) = (  0.000000  0.000000  0.952493 )  


     PseudoPot. # 1 for Pb read from file:
     /scratch/11018/zhc/assisgnment3/input_files/Pb_LDA.UPF
     MD5 check sum: 062a37469794d955244864f8fe2e5624
     Pseudo is Ultrasoft + core correction, Zval = 14.0
     Generated by new atomic code, or converted to UPF format
     Using radial grid of  899 points,  6 beta functions with: 
                l(1) =   0
                l(2) =   0
                l(3) =   1
                l(4) =   1
                l(5) =   2
                l(6) =   2
     Q(r) pseudized with  6 coefficients,  rinner =    1.000   1.000   1.000
                                                       1.000   1.000

     PseudoPot. # 2 for Ti read from file:
     /scratch/11018/zhc/assisgnment3/input_files/Ti_LDA.UPF
     MD5 check sum: 0d9f225c038fe889ca2a701dcc8d72cb
     Pseudo is Ultrasoft + core correction, Zval = 12.0
     Generated by new atomic code, or converted to UPF format
     Using radial grid of  851 points,  6 beta functions with: 
                l(1) =   0
                l(2) =   0
                l(3) =   1
                l(4) =   1
                l(5) =   2
                l(6) =   2
     Q(r) pseudized with  6 coefficients,  rinner =    1.000   1.000   1.000
                                                       1.000   1.000

     PseudoPot. # 3 for O  read from file:
     /scratch/11018/zhc/assisgnment3/input_files/O_LDA.UPF
     MD5 check sum: 194b818514d2a7dbb603bb78519a4f40
     Pseudo is Ultrasoft + core correction, Zval =  6.0
     Generated by new atomic code, or converted to UPF format
     Using radial grid of  737 points,  5 beta functions with: 
                l(1) =   0
                l(2) =   0
                l(3) =   1
                l(4) =   1
                l(5) =   2
     Q(r) pseudized with  8 coefficients,  rinner =    0.900   0.900   0.900
                                                       0.900   0.900

     atomic species   valence    mass     pseudopotential
     Pb               14.00   207.20000     Pb( 1.00)
     Ti               12.00    47.88000     Ti( 1.00)
     O                 6.00    16.00000     O ( 1.00)

      4 Sym. Ops. (no inversion) found



   Cartesian axes

     site n.     atom                  positions (alat units)
         1        Pb     tau(   1) = (   0.0000000   0.0000000   1.0553086  )
         2        Ti     tau(   2) = (   0.5000000   0.4994818   0.5664446  )
         3        O      tau(   3) = (   0.5000000   0.4994818   0.1044710  )
         4        O      tau(   4) = (   0.5000000   0.0000000   0.6420353  )
         5        O      tau(   5) = (   0.0000000   0.4994818   0.6420353  )

     number of k points=    48
                       cart. coord. in units 2pi/alat
        k(    1) = (   0.0000000   0.0000000   0.0000000), wk =   0.0138889
        k(    2) = (   0.0000000   0.0000000   0.2381232), wk =   0.0277778
        k(    3) = (   0.0000000   0.0000000  -0.4762464), wk =   0.0138889
        k(    4) = (   0.0000000   0.1668396   0.0000000), wk =   0.0277778
        k(    5) = (   0.0000000   0.1668396   0.2381232), wk =   0.0555556
        k(    6) = (   0.0000000   0.1668396  -0.4762464), wk =   0.0277778
        k(    7) = (   0.0000000   0.3336792   0.0000000), wk =   0.0277778
        k(    8) = (   0.0000000   0.3336792   0.2381232), wk =   0.0555556
        k(    9) = (   0.0000000   0.3336792  -0.4762464), wk =   0.0277778
        k(   10) = (   0.0000000  -0.5005187   0.0000000), wk =   0.0138889
        k(   11) = (   0.0000000  -0.5005187   0.2381232), wk =   0.0277778
        k(   12) = (   0.0000000  -0.5005187  -0.4762464), wk =   0.0138889
        k(   13) = (   0.1666667   0.0000000   0.0000000), wk =   0.0277778
        k(   14) = (   0.1666667   0.0000000   0.2381232), wk =   0.0555556
        k(   15) = (   0.1666667   0.0000000  -0.4762464), wk =   0.0277778
        k(   16) = (   0.1666667   0.1668396   0.0000000), wk =   0.0555556
        k(   17) = (   0.1666667   0.1668396   0.2381232), wk =   0.1111111
        k(   18) = (   0.1666667   0.1668396  -0.4762464), wk =   0.0555556
        k(   19) = (   0.1666667   0.3336792   0.0000000), wk =   0.0555556
        k(   20) = (   0.1666667   0.3336792   0.2381232), wk =   0.1111111
        k(   21) = (   0.1666667   0.3336792  -0.4762464), wk =   0.0555556
        k(   22) = (   0.1666667  -0.5005187   0.0000000), wk =   0.0277778
        k(   23) = (   0.1666667  -0.5005187   0.2381232), wk =   0.0555556
        k(   24) = (   0.1666667  -0.5005187  -0.4762464), wk =   0.0277778
        k(   25) = (   0.3333333   0.0000000   0.0000000), wk =   0.0277778
        k(   26) = (   0.3333333   0.0000000   0.2381232), wk =   0.0555556
        k(   27) = (   0.3333333   0.0000000  -0.4762464), wk =   0.0277778
        k(   28) = (   0.3333333   0.1668396   0.0000000), wk =   0.0555556
        k(   29) = (   0.3333333   0.1668396   0.2381232), wk =   0.1111111
        k(   30) = (   0.3333333   0.1668396  -0.4762464), wk =   0.0555556
        k(   31) = (   0.3333333   0.3336792   0.0000000), wk =   0.0555556
        k(   32) = (   0.3333333   0.3336792   0.2381232), wk =   0.1111111
        k(   33) = (   0.3333333   0.3336792  -0.4762464), wk =   0.0555556
        k(   34) = (   0.3333333  -0.5005187   0.0000000), wk =   0.0277778
        k(   35) = (   0.3333333  -0.5005187   0.2381232), wk =   0.0555556
        k(   36) = (   0.3333333  -0.5005187  -0.4762464), wk =   0.0277778
        k(   37) = (  -0.5000000   0.0000000   0.0000000), wk =   0.0138889
        k(   38) = (  -0.5000000   0.0000000   0.2381232), wk =   0.0277778
        k(   39) = (  -0.5000000   0.0000000  -0.4762464), wk =   0.0138889
        k(   40) = (  -0.5000000   0.1668396   0.0000000), wk =   0.0277778
        k(   41) = (  -0.5000000   0.1668396   0.2381232), wk =   0.0555556
        k(   42) = (  -0.5000000   0.1668396  -0.4762464), wk =   0.0277778
        k(   43) = (  -0.5000000   0.3336792   0.0000000), wk =   0.0277778
        k(   44) = (  -0.5000000   0.3336792   0.2381232), wk =   0.0555556
        k(   45) = (  -0.5000000   0.3336792  -0.4762464), wk =   0.0277778
        k(   46) = (  -0.5000000  -0.5005187   0.0000000), wk =   0.0138889
        k(   47) = (  -0.5000000  -0.5005187   0.2381232), wk =   0.0277778
        k(   48) = (  -0.5000000  -0.5005187  -0.4762464), wk =   0.0138889

     Dense  grid:    76827 G-vectors     FFT dimensions: (  54,  54,  60)

     Smooth grid:    19475 G-vectors     FFT dimensions: (  36,  36,  36)

     Estimated max dynamical RAM per process >      38.04 MB

     Estimated total dynamical RAM >     380.37 MB

     Check: negative core charge=   -0.000004

     Initial potential from superposition of free atoms

     starting charge      42.9982, renormalised to      44.0000

     negative rho (up, down):  1.669E-02 0.000E+00
     Starting wfcs are   31 randomized atomic wfcs

     total cpu time spent up to now is        0.8 secs

     Self-consistent Calculation

     iteration #  1     ecut=    50.00 Ry     beta= 0.70
     CG style diagonalization
     ethr =  1.00E-02,  avg # of iterations =  2.1

     negative rho (up, down):  1.400E-02 0.000E+00

     total cpu time spent up to now is        1.6 secs

     total energy              =    -380.06169447 Ry
     estimated scf accuracy    <       1.02218081 Ry

     iteration #  2     ecut=    50.00 Ry     beta= 0.70
     CG style diagonalization
     ethr =  2.32E-03,  avg # of iterations =  4.8

     negative rho (up, down):  1.451E-02 0.000E+00

     total cpu time spent up to now is        3.0 secs

     total energy              =    -379.74807331 Ry
     estimated scf accuracy    <       3.96088537 Ry

     iteration #  3     ecut=    50.00 Ry     beta= 0.70
     CG style diagonalization
     ethr =  2.32E-03,  avg # of iterations =  4.3

     negative rho (up, down):  1.513E-02 0.000E+00

     total cpu time spent up to now is        4.3 secs

     total energy              =    -380.53701724 Ry
     estimated scf accuracy    <       0.31291630 Ry

     iteration #  4     ecut=    50.00 Ry     beta= 0.70
     CG style diagonalization
     ethr =  7.11E-04,  avg # of iterations =  3.4

     negative rho (up, down):  1.511E-02 0.000E+00

     total cpu time spent up to now is        5.3 secs

     total energy              =    -380.56012001 Ry
     estimated scf accuracy    <       0.04253643 Ry

     iteration #  5     ecut=    50.00 Ry     beta= 0.70
     CG style diagonalization
     ethr =  9.67E-05,  avg # of iterations =  3.9

     negative rho (up, down):  1.512E-02 0.000E+00

     total cpu time spent up to now is        6.5 secs

     total energy              =    -380.57141927 Ry
     estimated scf accuracy    <       0.00799494 Ry

     iteration #  6     ecut=    50.00 Ry     beta= 0.70
     CG style diagonalization
     ethr =  1.82E-05,  avg # of iterations =  3.9

     negative rho (up, down):  1.512E-02 0.000E+00

     total cpu time spent up to now is        7.7 secs

     total energy              =    -380.57362831 Ry
     estimated scf accuracy    <       0.00611745 Ry

     iteration #  7     ecut=    50.00 Ry     beta= 0.70
     CG style diagonalization
     ethr =  1.39E-05,  avg # of iterations =  3.3

     negative rho (up, down):  1.514E-02 0.000E+00

     total cpu time spent up to now is        8.6 secs

     total energy              =    -380.57363370 Ry
     estimated scf accuracy    <       0.00161557 Ry

     iteration #  8     ecut=    50.00 Ry     beta= 0.70
     CG style diagonalization
     ethr =  3.67E-06,  avg # of iterations =  3.7

     negative rho (up, down):  1.516E-02 0.000E+00

     total cpu time spent up to now is        9.7 secs

     total energy              =    -380.57398967 Ry
     estimated scf accuracy    <       0.00001024 Ry

     iteration #  9     ecut=    50.00 Ry     beta= 0.70
     CG style diagonalization
     c_bands:  1 eigenvalues not converged
     c_bands:  1 eigenvalues not converged
     c_bands:  1 eigenvalues not converged
     ethr =  2.33E-08,  avg # of iterations =  7.6

     negative rho (up, down):  1.519E-02 0.000E+00

     total cpu time spent up to now is       12.0 secs

     total energy              =    -380.57405105 Ry
     estimated scf accuracy    <       0.00003538 Ry

     iteration # 10     ecut=    50.00 Ry     beta= 0.70
     CG style diagonalization
     ethr =  2.33E-08,  avg # of iterations =  3.4

     negative rho (up, down):  1.529E-02 0.000E+00

     total cpu time spent up to now is       13.0 secs

     total energy              =    -380.57404336 Ry
     estimated scf accuracy    <       0.00002108 Ry

     iteration # 11     ecut=    50.00 Ry     beta= 0.70
     CG style diagonalization
     ethr =  2.33E-08,  avg # of iterations =  4.1

     negative rho (up, down):  1.530E-02 0.000E+00

     total cpu time spent up to now is       14.3 secs

     total energy              =    -380.57404826 Ry
     estimated scf accuracy    <       0.00000184 Ry

     iteration # 12     ecut=    50.00 Ry     beta= 0.70
     CG style diagonalization
     ethr =  4.18E-09,  avg # of iterations =  4.7

     negative rho (up, down):  1.530E-02 0.000E+00

     total cpu time spent up to now is       15.7 secs

     total energy              =    -380.57404892 Ry
     estimated scf accuracy    <       0.00000086 Ry

     iteration # 13     ecut=    50.00 Ry     beta= 0.70
     CG style diagonalization
     ethr =  1.96E-09,  avg # of iterations =  4.9

     negative rho (up, down):  1.530E-02 0.000E+00

     total cpu time spent up to now is       17.1 secs

     total energy              =    -380.57404935 Ry
     estimated scf accuracy    <       0.00000004 Ry

     iteration # 14     ecut=    50.00 Ry     beta= 0.70
     CG style diagonalization
     c_bands:  1 eigenvalues not converged
     c_bands:  1 eigenvalues not converged
     ethr =  8.00E-11,  avg # of iterations = 10.2

     negative rho (up, down):  1.531E-02 0.000E+00

     total cpu time spent up to now is       20.2 secs

     total energy              =    -380.57404965 Ry
     estimated scf accuracy    <       0.00000002 Ry

     iteration # 15     ecut=    50.00 Ry     beta= 0.70
     CG style diagonalization
     ethr =  4.49E-11,  avg # of iterations =  4.6

     negative rho (up, down):  1.531E-02 0.000E+00

     total cpu time spent up to now is       21.6 secs

     End of self-consistent calculation

          k = 0.0000 0.0000 0.0000 (  2421 PWs)   bands (ev):

   -45.1909 -21.8704 -21.7870 -21.7859  -7.1767  -6.0267  -5.7708  -4.4319
    -4.4316  -4.3922  -4.2753  -4.1605   4.8232   6.7179   6.7260   7.0971
     8.6976   8.6994   8.9385   9.2737   9.4253   9.4270

          k = 0.0000 0.0000 0.2381 (  2433 PWs)   bands (ev):

   -45.1905 -21.8938 -21.7861 -21.7850  -6.9692  -5.9649  -5.7011  -4.4496
    -4.4493  -4.3907  -4.2631  -4.2374   3.9641   6.7738   6.7804   7.2898
     8.4425   8.4464   8.8548   9.3612   9.5445   9.5453

          k = 0.0000 0.0000-0.4762 (  2418 PWs)   bands (ev):

   -45.1902 -21.9170 -21.7851 -21.7841  -6.7437  -5.8972  -5.6379  -4.4672
    -4.4669  -4.3892  -4.3203  -4.2524   3.4220   6.5933   6.8092   6.8138
     8.2831   8.2898   8.7752   9.6208   9.6212  10.6358

          k = 0.0000 0.1668 0.0000 (  2433 PWs)   bands (ev):

   -45.1905 -21.8696 -21.8074 -21.7851  -7.0317  -5.9925  -5.7402  -4.4559
    -4.4303  -4.4070  -4.2781  -4.1489   4.3361   6.7904   6.8282   7.1285
     8.6550   8.7185   8.9345   9.0504   9.1550   9.5468

          k = 0.0000 0.1668 0.2381 (  2432 PWs)   bands (ev):

   -45.1902 -21.8928 -21.8063 -21.7841  -6.8405  -5.9469  -5.6648  -4.4543
    -4.4486  -4.4061  -4.2725  -4.1880   3.7318   6.5714   6.8952   7.3755
     8.1104   8.4246   8.7505   9.1490   9.2156   9.9183

          k = 0.0000 0.1668-0.4762 (  2426 PWs)   bands (ev):

   -45.1898 -21.9158 -21.8053 -21.7832  -6.6428  -5.8953  -5.5864  -4.4668
    -4.4506  -4.4053  -4.2769  -4.2231   3.2792   6.2512   6.9364   7.0208
     7.9170   8.2745   8.8170   9.2068   9.2967  10.5561

          k = 0.0000 0.3337 0.0000 (  2422 PWs)   bands (ev):

   -45.1897 -21.8680 -21.8477 -21.7834  -6.7167  -5.9187  -5.6947  -4.4930
    -4.4365  -4.4270  -4.2720  -4.1546   3.7091   6.4165   7.0851   7.1105
     8.3168   8.3402   8.7895   8.8396   9.2741  10.1965

          k = 0.0000 0.3337 0.2381 (  2425 PWs)   bands (ev):

   -45.1894 -21.8907 -21.8465 -21.7824  -6.5916  -5.8768  -5.5981  -4.4597
    -4.4467  -4.4367  -4.2655  -4.1273   3.3470   6.2877   6.9874   7.2104
     7.7453   8.1686   8.3235   8.8899   9.4126  10.2751

          k = 0.0000 0.3337-0.4762 (  2430 PWs)   bands (ev):

   -45.1891 -21.9133 -21.8453 -21.7814  -6.4991  -5.8097  -5.4706  -4.4659
    -4.4371  -4.4185  -4.3015  -4.0736   3.0291   5.9640   6.7478   7.2553
     7.6290   7.7978   8.1092   8.9198   9.8458  10.1038

          k = 0.0000-0.5005 0.0000 (  2440 PWs)   bands (ev):

   -45.1893 -21.8681 -21.8666 -21.7825  -6.5428  -5.8623  -5.6999  -4.5090
    -4.4511  -4.4254  -4.2442  -4.1883   3.4898   6.0321   7.3505   7.3541
     7.8225   7.9577   8.7104   8.8771   9.3052  10.9985

          k = 0.0000-0.5005 0.2381 (  2430 PWs)   bands (ev):

   -45.1890 -21.8894 -21.8667 -21.7815  -6.4837  -5.7866  -5.5924  -4.4721
    -4.4519  -4.4456  -4.2311  -4.1229   3.1959   6.0042   7.0181   7.2575
     7.5616   7.7603   8.4340   8.8675   9.4138  10.4743

          k = 0.0000-0.5005-0.4762 (  2432 PWs)   bands (ev):

   -45.1887 -21.9119 -21.8652 -21.7805  -6.4657  -5.7055  -5.4170  -4.4655
    -4.4528  -4.4273  -4.2864  -4.0114   2.9293   5.8236   6.4360   7.3166
     7.5814   7.7865   7.8101   8.8613   9.7695  10.1470

          k = 0.1667 0.0000 0.0000 (  2427 PWs)   bands (ev):

   -45.1905 -21.8696 -21.8061 -21.7862  -7.0327  -5.9930  -5.7404  -4.4562
    -4.4300  -4.4069  -4.2781  -4.1492   4.3357   6.7864   6.8362   7.1301
     8.6521   8.7210   8.9336   9.0498   9.1559   9.5469

          k = 0.1667 0.0000 0.2381 (  2432 PWs)   bands (ev):

   -45.1902 -21.8928 -21.8050 -21.7852  -6.8416  -5.9470  -5.6649  -4.4546
    -4.4483  -4.4060  -4.2720  -4.1892   3.7310   6.5680   6.9016   7.3765
     8.1116   8.4286   8.7509   9.1459   9.2166   9.9173

          k = 0.1667 0.0000-0.4762 (  2426 PWs)   bands (ev):

   -45.1898 -21.9158 -21.8040 -21.7843  -6.6442  -5.8949  -5.5865  -4.4665
    -4.4507  -4.4051  -4.2764  -4.2249   3.2781   6.2486   6.9406   7.0224
     7.9151   8.2812   8.8190   9.2026   9.2983  10.5577

          k = 0.1667 0.1668 0.0000 (  2425 PWs)   bands (ev):

   -45.1901 -21.8688 -21.8065 -21.8051  -6.8901  -5.9578  -5.7316  -4.4620
    -4.4463  -4.4105  -4.2541  -4.1384   4.0054   6.7086   6.9632   7.1843
     8.1810   8.2925   9.0285   9.0597   9.3665   9.7801

          k = 0.1667 0.1668 0.2381 (  2424 PWs)   bands (ev):

   -45.1898 -21.8918 -21.8054 -21.8041  -6.7100  -5.9318  -5.6566  -4.4648
    -4.4414  -4.4043  -4.2434  -4.1542   3.6078   6.4872   6.5958   7.3200
     8.0092   8.0252   8.8316   9.2096   9.4456   9.8867

          k = 0.1667 0.1668-0.4762 (  2444 PWs)   bands (ev):

   -45.1895 -21.9147 -21.8044 -21.8030  -6.5311  -5.9056  -5.5688  -4.4778
    -4.4199  -4.3811  -4.2486  -4.1761   3.2459   6.2720   6.3174   7.0131
     7.9153   7.9526   8.7334   9.2843   9.5038  10.2529

          k = 0.1667 0.3337 0.0000 (  2428 PWs)   bands (ev):

   -45.1893 -21.8671 -21.8466 -21.8033  -6.5837  -5.8856  -5.7290  -4.4863
    -4.4354  -4.3947  -4.2291  -4.1441   3.4933   6.4140   6.9599   7.2589
     7.6415   8.2274   8.5337   9.2031   9.3935  10.2765

          k = 0.1667 0.3337 0.2381 (  2432 PWs)   bands (ev):

   -45.1890 -21.8897 -21.8455 -21.8022  -6.4549  -5.8766  -5.6468  -4.4617
    -4.4361  -4.3713  -4.2084  -4.1017   3.3503   6.2369   6.3680   6.9225
     7.3741   8.0628   8.8833   9.1631   9.5023   9.9864

          k = 0.1667 0.3337-0.4762 (  2428 PWs)   bands (ev):

   -45.1887 -21.9123 -21.8443 -21.8012  -6.3648  -5.8532  -5.5245  -4.4594
    -4.4103  -4.3299  -4.2211  -4.0466   3.1626   5.8837   6.2989   6.6219
     6.8636   7.9221   8.9870   9.2070   9.4905   9.9388

          k = 0.1667-0.5005 0.0000 (  2428 PWs)   bands (ev):

   -45.1890 -21.8670 -21.8658 -21.8023  -6.4161  -5.8317  -5.7549  -4.4894
    -4.4274  -4.3730  -4.2090  -4.1789   3.2939   6.0506   7.0771   7.3058
     7.6045   7.9502   8.3949   9.2370   9.3905  10.6091

          k = 0.1667-0.5005 0.2381 (  2428 PWs)   bands (ev):

   -45.1886 -21.8884 -21.8656 -21.8013  -6.3457  -5.7969  -5.6698  -4.4599
    -4.4224  -4.3498  -4.1849  -4.0955   3.2325   6.0087   6.2627   6.6720
     7.3340   8.2063   8.6492   9.1736   9.5111   9.9479

          k = 0.1667-0.5005-0.4762 (  2424 PWs)   bands (ev):

   -45.1883 -21.9109 -21.8642 -21.8003  -6.3304  -5.7635  -5.5079  -4.4540
    -4.3783  -4.3272  -4.2036  -3.9852   3.1236   5.7770   6.1314   6.2813
     6.7162   8.0356   8.8519   9.1194   9.1487  10.1566

          k = 0.3333 0.0000 0.0000 (  2422 PWs)   bands (ev):

   -45.1897 -21.8680 -21.8459 -21.7845  -6.7197  -5.9200  -5.6953  -4.4933
    -4.4361  -4.4267  -4.2727  -4.1551   3.7092   6.4212   7.0857   7.1186
     8.3149   8.3434   8.7888   8.8394   9.2744  10.1948

          k = 0.3333 0.0000 0.2381 (  2427 PWs)   bands (ev):

   -45.1894 -21.8907 -21.8447 -21.7835  -6.5947  -5.8774  -5.5987  -4.4601
    -4.4464  -4.4363  -4.2652  -4.1296   3.3453   6.2899   6.9894   7.2167
     7.7478   8.1723   8.3259   8.8924   9.4106  10.2734

          k = 0.3333 0.0000-0.4762 (  2430 PWs)   bands (ev):

   -45.1891 -21.9133 -21.8435 -21.7825  -6.5021  -5.8098  -5.4711  -4.4657
    -4.4367  -4.4188  -4.3012  -4.0767   3.0261   5.9631   6.7517   7.2585
     7.6339   7.8005   8.1159   8.9234   9.8394  10.1108

          k = 0.3333 0.1668 0.0000 (  2428 PWs)   bands (ev):

   -45.1893 -21.8671 -21.8448 -21.8046  -6.5856  -5.8865  -5.7295  -4.4864
    -4.4353  -4.3947  -4.2294  -4.1444   3.4936   6.4192   6.9615   7.2609
     7.6403   8.2270   8.5336   9.2069   9.3937  10.2741

          k = 0.3333 0.1668 0.2381 (  2430 PWs)   bands (ev):

   -45.1890 -21.8897 -21.8437 -21.8036  -6.4568  -5.8772  -5.6472  -4.4618
    -4.4361  -4.3712  -4.2078  -4.1035   3.3493   6.2390   6.3705   6.9233
     7.3744   8.0652   8.8893   9.1654   9.5008   9.9846

          k = 0.3333 0.1668-0.4762 (  2426 PWs)   bands (ev):

   -45.1887 -21.9123 -21.8425 -21.8026  -6.3667  -5.8536  -5.5248  -4.4595
    -4.4103  -4.3298  -4.2201  -4.0493   3.1604   5.8827   6.3010   6.6228
     6.8687   7.9237   8.9922   9.2125   9.4905   9.9370

          k = 0.3333 0.3337 0.0000 (  2438 PWs)   bands (ev):

   -45.1886 -21.8654 -21.8445 -21.8426  -6.3207  -5.8193  -5.7798  -4.4663
    -4.4158  -4.3225  -4.1482  -4.1468   3.0882   6.3997   6.4975   7.3671
     7.5202   7.6646   8.3325   9.0513   9.8689  10.0077

          k = 0.3333 0.3337 0.2381 (  2428 PWs)   bands (ev):

   -45.1883 -21.8877 -21.8435 -21.8417  -6.1823  -5.8678  -5.7356  -4.4242
    -4.4089  -4.2620  -4.0999  -4.0661   3.2781   5.9482   6.0190   6.3954
     7.0403   7.5391   8.9499   9.4647   9.5060   9.8850

          k = 0.3333 0.3337-0.4762 (  2428 PWs)   bands (ev):

   -45.1879 -21.9101 -21.8424 -21.8406  -6.1119  -5.9128  -5.6110  -4.4019
    -4.3824  -4.1965  -4.0497  -3.9877   3.4447   5.5433   5.5646   6.1395
     6.7925   6.9568   8.1962   9.8395   9.8554  10.0191

          k = 0.3333-0.5005 0.0000 (  2458 PWs)   bands (ev):

   -45.1882 -21.8647 -21.8640 -21.8416  -6.2011  -5.7954  -5.7755  -4.4580
    -4.3919  -4.2566  -4.1822  -4.1127   2.9015   6.0433   6.5460   7.1784
     7.7078   7.8280   7.9539   9.0199   9.6884  10.0763

          k = 0.3333-0.5005 0.2381 (  2430 PWs)   bands (ev):

   -45.1879 -21.8865 -21.8635 -21.8406  -6.0645  -5.8220  -5.7945  -4.4150
    -4.3801  -4.1674  -4.0987  -4.0355   3.2044   5.8398   5.9898   6.0600
     6.8233   7.6098   8.4741   9.4635   9.4913  10.0433

          k = 0.3333-0.5005-0.4762 (  2420 PWs)   bands (ev):

   -45.1876 -21.9089 -21.8623 -21.8396  -6.0542  -5.8654  -5.6492  -4.3846
    -4.3575  -4.1051  -4.0142  -3.9298   3.5859   5.2754   5.4724   5.8958
     6.5521   6.9710   7.4093   9.9392  10.0147  10.1805

          k =-0.5000 0.0000 0.0000 (  2440 PWs)   bands (ev):

   -45.1894 -21.8667 -21.8661 -21.7836  -6.5469  -5.8645  -5.7004  -4.5094
    -4.4505  -4.4252  -4.2461  -4.1880   3.4901   6.0396   7.3532   7.3636
     7.8193   7.9595   8.7105   8.8771   9.3055  10.9942

          k =-0.5000 0.0000 0.2381 (  2434 PWs)   bands (ev):

   -45.1890 -21.8894 -21.8646 -21.7826  -6.4874  -5.7884  -5.5927  -4.4724
    -4.4514  -4.4453  -4.2311  -4.1257   3.1938   6.0106   7.0178   7.2620
     7.5714   7.7604   8.4358   8.8701   9.4136  10.4740

          k =-0.5000 0.0000-0.4762 (  2444 PWs)   bands (ev):

   -45.1887 -21.9120 -21.8632 -21.7816  -6.4688  -5.7069  -5.4175  -4.4653
    -4.4523  -4.4276  -4.2867  -4.0151   2.9253   5.8251   6.4417   7.3206
     7.5806   7.7966   7.8131   8.8654   9.7779  10.1433

          k =-0.5000 0.1668 0.0000 (  2428 PWs)   bands (ev):

   -45.1890 -21.8658 -21.8649 -21.8037  -6.4189  -5.8337  -5.7552  -4.4895
    -4.4274  -4.3730  -4.2106  -4.1783   3.2944   6.0585   7.0804   7.3025
     7.6093   7.9483   8.3951   9.2413   9.3917  10.6047

          k =-0.5000 0.1668 0.2381 (  2430 PWs)   bands (ev):

   -45.1886 -21.8885 -21.8636 -21.8027  -6.3482  -5.7988  -5.6699  -4.4600
    -4.4226  -4.3496  -4.1841  -4.0982   3.2311   6.0151   6.2661   6.6705
     7.3338   8.2073   8.6591   9.1757   9.5110   9.9472

          k =-0.5000 0.1668-0.4762 (  2416 PWs)   bands (ev):

   -45.1883 -21.9110 -21.8622 -21.8017  -6.3322  -5.7652  -5.5083  -4.4541
    -4.3785  -4.3270  -4.2026  -3.9888   3.1203   5.7773   6.1351   6.2859
     6.7174   8.0362   8.8634   9.1234   9.1521  10.1536

          k =-0.5000 0.3337 0.0000 (  2454 PWs)   bands (ev):

   -45.1882 -21.8641 -21.8626 -21.8434  -6.2016  -5.7948  -5.7772  -4.4579
    -4.3919  -4.2579  -4.1810  -4.1131   2.9019   6.0505   6.5402   7.1787
     7.7085   7.8335   7.9493   9.0200   9.6930  10.0727

          k =-0.5000 0.3337 0.2381 (  2432 PWs)   bands (ev):

   -45.1879 -21.8865 -21.8614 -21.8425  -6.0645  -5.8240  -5.7939  -4.4149
    -4.3804  -4.1683  -4.0968  -4.0372   3.2043   5.8413   5.9925   6.0596
     6.8216   7.6095   8.4778   9.4635   9.4918  10.0450

          k =-0.5000 0.3337-0.4762 (  2420 PWs)   bands (ev):

   -45.1876 -21.9089 -21.8602 -21.8415  -6.0532  -5.8677  -5.6493  -4.3843
    -4.3580  -4.1055  -4.0116  -3.9329   3.5846   5.2767   5.4695   5.8994
     6.5564   6.9667   7.4133   9.9429  10.0178  10.1777

          k =-0.5000-0.5005 0.0000 (  2480 PWs)   bands (ev):

   -45.1878 -21.8635 -21.8627 -21.8614  -6.1458  -5.7519  -5.7502  -4.4470
    -4.3442  -4.2038  -4.2021  -4.0626   2.7090   5.8951   6.3760   7.3906
     7.3911   7.9450   7.9515   8.7867   9.2157  10.3346

          k =-0.5000-0.5005 0.2381 (  2432 PWs)   bands (ev):

   -45.1875 -21.8853 -21.8624 -21.8603  -5.9304  -5.8383  -5.8361  -4.4027
    -4.3420  -4.0576  -4.0550  -4.0281   3.1265   5.8517   5.9623   5.9646
     6.3826   7.5505   7.8214   9.4933   9.4941  10.3170

          k =-0.5000-0.5005-0.4762 (  2400 PWs)   bands (ev):

   -45.1872 -21.9078 -21.8613 -21.8592  -5.9136  -5.9111  -5.7085  -4.3583
    -4.3398  -3.9819  -3.9198  -3.9165   3.8031   5.3022   5.3042   5.7322
     6.3893   6.4026   6.6557  10.1894  10.1922  10.2996

     highest occupied level (ev):    10.9985

!    total energy              =    -380.57404965 Ry
     estimated scf accuracy    <          1.8E-09 Ry

     The total energy is the sum of the following terms:
     one-electron contribution =     -79.84208211 Ry
     hartree contribution      =      69.97025578 Ry
     xc contribution           =    -102.67313083 Ry
     ewald contribution        =    -268.02909250 Ry

     convergence has been achieved in  15 iterations

     negative rho (up, down):  1.531E-02 0.000E+00

     Forces acting on atoms (cartesian axes, Ry/au):

     atom    1 type  1   force =     0.00000000    0.00000000   -0.00012796
     atom    2 type  2   force =     0.00000000    0.00000000    0.00002263
     atom    3 type  3   force =     0.00000000    0.00000000    0.00029452
     atom    4 type  3   force =     0.00000000    0.00000000    0.00001330
     atom    5 type  3   force =     0.00000000    0.00000000   -0.00020249

     Total force =     0.000381     Total SCF correction =     0.000068
     SCF correction compared to forces is large: reduce conv_thr to get better values


     Computing stress (Cartesian axis) and pressure


     negative rho (up, down):  1.531E-02 0.000E+00
          total   stress  (Ry/bohr**3)                   (kbar)     P=       -2.10
  -0.00002138   0.00000000   0.00000000           -3.15        0.00        0.00
   0.00000000  -0.00000808   0.00000000            0.00       -1.19        0.00
   0.00000000   0.00000000  -0.00001327            0.00        0.00       -1.95


     BFGS Geometry Optimization
     Energy error            =      0.0E+00 Ry
     Gradient error          =      2.9E-04 Ry/Bohr

     bfgs converged in   1 scf cycles and   0 bfgs steps
     (criteria: energy <  1.0E-04 Ry, force <  1.0E-03 Ry/Bohr)

     End of BFGS Geometry Optimization

     Final energy             =    -380.5740496545 Ry
Begin final coordinates

ATOMIC_POSITIONS (crystal)
Pb               0.0000000000        0.0000000000        1.0051738283
Ti               0.5000000000        0.5000000000        0.5395344294
O                0.5000000000        0.5000000000        0.0995079024
O                0.5000000000        0.0000000000        0.6115340639
O                0.0000000000        0.5000000000        0.6115340639
End final coordinates



     Writing all to output data dir ./pto_T1_eta0p004.save/ :
     XML data file, charge density, pseudopotentials, collected wavefunctions
 
     init_run     :      0.46s CPU      0.54s WALL (       1 calls)
     electrons    :     19.75s CPU     20.89s WALL (       1 calls)
     forces       :      0.13s CPU      0.13s WALL (       1 calls)
     stress       :      1.37s CPU      1.39s WALL (       1 calls)

     Called by init_run:
     wfcinit      :      0.25s CPU      0.28s WALL (       1 calls)
     potinit      :      0.01s CPU      0.01s WALL (       1 calls)
     hinit0       :      0.11s CPU      0.14s WALL (       1 calls)

     Called by electrons:
     c_bands      :     17.26s CPU     18.26s WALL (      15 calls)
     sum_band     :      1.80s CPU      1.88s WALL (      15 calls)
     v_of_rho     :      0.02s CPU      0.03s WALL (      16 calls)
     newd         :      0.67s CPU      0.73s WALL (      16 calls)
     mix_rho      :      0.02s CPU      0.02s WALL (      15 calls)

     Called by c_bands:
     init_us_2    :      0.15s CPU      0.16s WALL (    1584 calls)
     init_us_2:cp :      0.15s CPU      0.16s WALL (    1584 calls)
     ccgdiagg     :     15.32s CPU     16.21s WALL (     720 calls)
     wfcrot       :      2.04s CPU      2.16s WALL (     720 calls)

     Called by *cgdiagg:
     h_psi        :      9.90s CPU     10.47s WALL (   58615 calls)
     s_psi        :      1.52s CPU      1.62s WALL (  116510 calls)

     Called by h_psi:
     h_psi:calbec :      1.51s CPU      1.60s WALL (   58615 calls)
     vloc_psi     :      7.09s CPU      7.49s WALL (   58615 calls)
     add_vuspsi   :      0.84s CPU      0.90s WALL (   58615 calls)
     hs_1psi      :      9.37s CPU      9.91s WALL (   57895 calls)
     s_1psi       :      2.25s CPU      2.38s WALL (   57895 calls)

     General routines
     calbec       :      2.70s CPU      2.86s WALL (  117470 calls)
     fft          :      0.03s CPU      0.04s WALL (     102 calls)
     ffts         :      0.00s CPU      0.00s WALL (      31 calls)
     fftw         :      6.04s CPU      6.36s WALL (  164174 calls)
     interpolate  :      0.01s CPU      0.01s WALL (      16 calls)
 
     Parallel routines
 
     PWSCF        :     21.96s CPU     23.72s WALL

 
   This run was terminated on:   0: 7:39  18Nov2025            

=------------------------------------------------------------------------------=
   JOB DONE.
=------------------------------------------------------------------------------=
TACC:  Shutdown complete. Exiting. 
