TACC:  Starting up job 2476510 
TACC:  Starting parallel tasks... 

     Program PWSCF v.7.3 starts on 18Oct2025 at 15:12:38 

     This program is part of the open-source Quantum ESPRESSO suite
     for quantum simulation of materials; please cite
         "P. Giannozzi et al., J. Phys.:Condens. Matter 21 395502 (2009);
         "P. Giannozzi et al., J. Phys.:Condens. Matter 29 465901 (2017);
         "P. Giannozzi et al., J. Chem. Phys. 152 154105 (2020);
          URL http://www.quantum-espresso.org", 
     in publications or presentations arising from this work. More details at
     http://www.quantum-espresso.org/quote

     Parallel version (MPI & OpenMP), running on      10 processor cores
     Number of MPI processes:                10
     Threads/MPI process:                     1

     MPI processes distributed on     1 nodes
     186252 MiB available memory on the printing compute node when the environment starts
 
     Waiting for input...
     Reading input from standard input
Warning: card &CELL ignored
Warning: card  CELL_DYNAMICS = 'BFGS', ignored
Warning: card  PRESS=0.D0, ignored
Warning: card / ignored

     Current dimensions of program PWSCF are:
     Max number of different atomic species (ntypx) = 10
     Max number of k-points (npk) =  40000
     Max angular momentum in pseudopotentials (lmaxx) =  4
 
     R & G space division:  proc/nbgrp/npool/nimage =      10
     Subspace diagonalization in iterative solution of the eigenvalue problem:
     a serial algorithm will be used

 
     Parallelization info
     --------------------
     sticks:   dense  smooth     PW     G-vecs:    dense   smooth      PW
     Min         280      74     23                11224     1548     259
     Max         281      75     24                11229     1553     261
     Sum        2801     749    233               112259    15515    2601
 
     Using Slab Decomposition
 


     bravais-lattice index     =            1
     lattice parameter (alat)  =       7.6794  a.u.
     unit-cell volume          =     452.8787 (a.u.)^3
     number of atoms/cell      =            5
     number of atomic types    =            3
     number of electrons       =        40.00
     number of Kohn-Sham states=           20
     kinetic-energy cutoff     =      40.0000  Ry
     charge density cutoff     =     600.0000  Ry
     scf convergence threshold =      1.0E-08
     mixing beta               =       0.7000
     number of iterations used =            8  plain     mixing
     Exchange-correlation= SLA  PZ   NOGX NOGC
                           (   1   1   0   0   0   0   0)

     celldm(1)=   7.679400  celldm(2)=   0.000000  celldm(3)=   0.000000
     celldm(4)=   0.000000  celldm(5)=   0.000000  celldm(6)=   0.000000

     crystal axes: (cart. coord. in units of alat)
               a(1) = (   1.000000   0.000000   0.000000 )  
               a(2) = (   0.000000   1.000000   0.000000 )  
               a(3) = (   0.000000   0.000000   1.000000 )  

     reciprocal axes: (cart. coord. in units 2 pi/alat)
               b(1) = (  1.000000  0.000000  0.000000 )  
               b(2) = (  0.000000  1.000000  0.000000 )  
               b(3) = (  0.000000  0.000000  1.000000 )  


     PseudoPot. # 1 for Ba read from file:
     /scratch/11018/zhc/Assisgnment2/Q1/1D/energy_off/Ba_LDA.UPF
     MD5 check sum: 0ec7675c796dc0a11c6269c68e51391e
     Pseudo is Ultrasoft + core correction, Zval = 10.0
     Generated by new atomic code, or converted to UPF format
     Using radial grid of  907 points,  7 beta functions with: 
                l(1) =   0
                l(2) =   0
                l(3) =   1
                l(4) =   1
                l(5) =   2
                l(6) =   2
                l(7) =   3
     Q(r) pseudized with  6 coefficients,  rinner =    1.700   1.700   1.700
                                                       1.700   1.700   1.700
                                                       1.700

     PseudoPot. # 2 for Ti read from file:
     /scratch/11018/zhc/Assisgnment2/Q1/1D/energy_off/Ti_LDA.UPF
     MD5 check sum: 0d9f225c038fe889ca2a701dcc8d72cb
     Pseudo is Ultrasoft + core correction, Zval = 12.0
     Generated by new atomic code, or converted to UPF format
     Using radial grid of  851 points,  6 beta functions with: 
                l(1) =   0
                l(2) =   0
                l(3) =   1
                l(4) =   1
                l(5) =   2
                l(6) =   2
     Q(r) pseudized with  6 coefficients,  rinner =    1.000   1.000   1.000
                                                       1.000   1.000

     PseudoPot. # 3 for O  read from file:
     /scratch/11018/zhc/Assisgnment2/Q1/1D/energy_off/O_LDA.UPF
     MD5 check sum: 194b818514d2a7dbb603bb78519a4f40
     Pseudo is Ultrasoft + core correction, Zval =  6.0
     Generated by new atomic code, or converted to UPF format
     Using radial grid of  737 points,  5 beta functions with: 
                l(1) =   0
                l(2) =   0
                l(3) =   1
                l(4) =   1
                l(5) =   2
     Q(r) pseudized with  8 coefficients,  rinner =    0.900   0.900   0.900
                                                       0.900   0.900

     atomic species   valence    mass     pseudopotential
     Ba               10.00   137.32700     Ba( 1.00)
     Ti               12.00    47.88000     Ti( 1.00)
     O                 6.00    16.00000     O ( 1.00)

     48 Sym. Ops., with inversion, found



   Cartesian axes

     site n.     atom                  positions (alat units)
         1        Ba     tau(   1) = (   0.0000000   0.0000000   0.0000000  )
         2        Ti     tau(   2) = (   0.5000000   0.5000000   0.5000000  )
         3        O      tau(   3) = (   0.5000000   0.5000000   0.0000000  )
         4        O      tau(   4) = (   0.5000000   0.0000000   0.5000000  )
         5        O      tau(   5) = (   0.0000000   0.5000000   0.5000000  )

     number of k points=     4
                       cart. coord. in units 2pi/alat
        k(    1) = (   0.0000000   0.0000000   0.0000000), wk =   0.2500000
        k(    2) = (   0.0000000   0.0000000  -0.5000000), wk =   0.7500000
        k(    3) = (   0.0000000  -0.5000000  -0.5000000), wk =   0.7500000
        k(    4) = (  -0.5000000  -0.5000000  -0.5000000), wk =   0.2500000

     Dense  grid:   112259 G-vectors     FFT dimensions: (  60,  60,  60)

     Smooth grid:    15515 G-vectors     FFT dimensions: (  32,  32,  32)

     Estimated max dynamical RAM per process >      83.22 MB

     Estimated total dynamical RAM >     832.24 MB

     Check: negative core charge=   -0.000003

     Initial potential from superposition of free atoms

     starting charge      38.9872, renormalised to      40.0000

     negative rho (up, down):  1.016E-01 0.000E+00
     Starting wfcs are   35 randomized atomic wfcs

     total cpu time spent up to now is        0.7 secs

     Self-consistent Calculation

     iteration #  1     ecut=    40.00 Ry     beta= 0.70
     CG style diagonalization
     ethr =  1.00E-02,  avg # of iterations =  2.2

     negative rho (up, down):  9.459E-02 0.000E+00

     total cpu time spent up to now is        1.0 secs

     total energy              =    -286.62024856 Ry
     estimated scf accuracy    <       0.87610696 Ry

     iteration #  2     ecut=    40.00 Ry     beta= 0.70
     CG style diagonalization
     ethr =  2.19E-03,  avg # of iterations =  4.6

     negative rho (up, down):  9.287E-02 0.000E+00

     total cpu time spent up to now is        1.3 secs

     total energy              =    -285.82164941 Ry
     estimated scf accuracy    <       8.36598380 Ry

     iteration #  3     ecut=    40.00 Ry     beta= 0.70
     CG style diagonalization
     ethr =  2.19E-03,  avg # of iterations =  4.6

     negative rho (up, down):  9.211E-02 0.000E+00

     total cpu time spent up to now is        1.6 secs

     total energy              =    -287.12138554 Ry
     estimated scf accuracy    <       0.17185263 Ry

     iteration #  4     ecut=    40.00 Ry     beta= 0.70
     CG style diagonalization
     ethr =  4.30E-04,  avg # of iterations =  3.4

     negative rho (up, down):  9.134E-02 0.000E+00

     total cpu time spent up to now is        1.9 secs

     total energy              =    -287.12254363 Ry
     estimated scf accuracy    <       0.05226168 Ry

     iteration #  5     ecut=    40.00 Ry     beta= 0.70
     CG style diagonalization
     ethr =  1.31E-04,  avg # of iterations =  3.3

     negative rho (up, down):  9.150E-02 0.000E+00

     total cpu time spent up to now is        2.1 secs

     total energy              =    -287.13339264 Ry
     estimated scf accuracy    <       0.00058061 Ry

     iteration #  6     ecut=    40.00 Ry     beta= 0.70
     CG style diagonalization
     ethr =  1.45E-06,  avg # of iterations =  4.1

     negative rho (up, down):  9.143E-02 0.000E+00

     total cpu time spent up to now is        2.4 secs

     total energy              =    -287.13380593 Ry
     estimated scf accuracy    <       0.00002269 Ry

     iteration #  7     ecut=    40.00 Ry     beta= 0.70
     CG style diagonalization
     ethr =  5.67E-08,  avg # of iterations =  4.3

     negative rho (up, down):  9.136E-02 0.000E+00

     total cpu time spent up to now is        2.7 secs

     total energy              =    -287.13382686 Ry
     estimated scf accuracy    <       0.00000319 Ry

     iteration #  8     ecut=    40.00 Ry     beta= 0.70
     CG style diagonalization
     ethr =  7.98E-09,  avg # of iterations =  3.9

     negative rho (up, down):  9.137E-02 0.000E+00

     total cpu time spent up to now is        3.0 secs

     total energy              =    -287.13382766 Ry
     estimated scf accuracy    <       0.00000017 Ry

     iteration #  9     ecut=    40.00 Ry     beta= 0.70
     CG style diagonalization
     ethr =  4.20E-10,  avg # of iterations =  4.5

     negative rho (up, down):  9.137E-02 0.000E+00

     total cpu time spent up to now is        3.3 secs

     End of self-consistent calculation

          k = 0.0000 0.0000 0.0000 (  1935 PWs)   bands (ev):

   -47.1420 -23.6404 -23.6404 -23.6404 -15.3091  -6.9666  -6.2389  -6.2389
    -0.4578  -0.4578  -0.4578   7.1363   7.1363   7.1363   8.4247   8.4247
     8.4247   9.3225   9.3225   9.3225

          k = 0.0000 0.0000-0.5000 (  1936 PWs)   bands (ev):

   -47.1415 -23.6784 -23.6387 -23.6387 -15.2139  -7.1400  -6.2029  -6.0058
    -0.3057  -0.3057  -0.0739   5.4909   6.7454   6.7454   7.5456   7.6079
     7.6079   7.6526   8.7786   8.7786

          k = 0.0000-0.5000-0.5000 (  1956 PWs)   bands (ev):

   -47.1410 -23.6758 -23.6758 -23.6371 -15.1498  -6.5614  -6.2243  -6.2243
    -0.4821  -0.4821  -0.1218   5.1864   5.4884   5.6422   6.8393   6.8393
     7.7182   8.5966   8.5966   9.4215

          k =-0.5000-0.5000-0.5000 (  1904 PWs)   bands (ev):

   -47.1405 -23.6738 -23.6738 -23.6738 -15.0934  -6.0516  -6.0516  -6.0516
    -1.1088  -1.1088  -1.1088   4.9992   5.6579   5.6579   7.0018   7.0018
     7.0018   9.4847   9.4847   9.4847

     highest occupied level (ev):     9.4847

!    total energy              =    -287.13382778 Ry
     estimated scf accuracy    <          3.6E-09 Ry

     The total energy is the sum of the following terms:
     one-electron contribution =     -76.41869267 Ry
     hartree contribution      =      60.66587000 Ry
     xc contribution           =     -67.17644441 Ry
     ewald contribution        =    -204.20456071 Ry

     convergence has been achieved in   9 iterations

     negative rho (up, down):  9.137E-02 0.000E+00

     Forces acting on atoms (cartesian axes, Ry/au):

     atom    1 type  1   force =     0.00000000    0.00000000    0.00000000
     atom    2 type  2   force =     0.00000000    0.00000000    0.00000000
     atom    3 type  3   force =     0.00000000    0.00000000    0.00000000
     atom    4 type  3   force =     0.00000000    0.00000000    0.00000000
     atom    5 type  3   force =     0.00000000    0.00000000    0.00000000

     Total force =     0.000000     Total SCF correction =     0.000000


     Computing stress (Cartesian axis) and pressure


     negative rho (up, down):  9.137E-02 0.000E+00
          total   stress  (Ry/bohr**3)                   (kbar)     P=     -120.76
  -0.00082092   0.00000000   0.00000000         -120.76        0.00        0.00
   0.00000000  -0.00082092   0.00000000            0.00     -120.76        0.00
   0.00000000   0.00000000  -0.00082092            0.00        0.00     -120.76


     Writing all to output data dir ./BTO_40.save/ :
     XML data file, charge density, pseudopotentials, collected wavefunctions
 
     init_run     :      0.36s CPU      0.44s WALL (       1 calls)
     electrons    :      2.21s CPU      2.65s WALL (       1 calls)
     forces       :      0.12s CPU      0.14s WALL (       1 calls)
     stress       :      0.59s CPU      0.64s WALL (       1 calls)

     Called by init_run:
     wfcinit      :      0.02s CPU      0.04s WALL (       1 calls)
     potinit      :      0.01s CPU      0.01s WALL (       1 calls)
     hinit0       :      0.13s CPU      0.16s WALL (       1 calls)

     Called by electrons:
     c_bands      :      0.58s CPU      0.63s WALL (       9 calls)
     sum_band     :      0.86s CPU      1.06s WALL (       9 calls)
     v_of_rho     :      0.02s CPU      0.02s WALL (      10 calls)
     newd         :      0.81s CPU      1.01s WALL (      10 calls)
     mix_rho      :      0.01s CPU      0.01s WALL (       9 calls)

     Called by c_bands:
     init_us_2    :      0.01s CPU      0.01s WALL (      84 calls)
     init_us_2:cp :      0.01s CPU      0.01s WALL (      84 calls)
     ccgdiagg     :      0.51s CPU      0.54s WALL (      36 calls)
     wfcrot       :      0.08s CPU      0.11s WALL (      36 calls)

     Called by *cgdiagg:
     h_psi        :      0.33s CPU      0.36s WALL (    2183 calls)
     s_psi        :      0.05s CPU      0.05s WALL (    4330 calls)

     Called by h_psi:
     h_psi:calbec :      0.06s CPU      0.06s WALL (    2183 calls)
     vloc_psi     :      0.23s CPU      0.25s WALL (    2183 calls)
     add_vuspsi   :      0.03s CPU      0.03s WALL (    2183 calls)
     hs_1psi      :      0.30s CPU      0.32s WALL (    2147 calls)
     s_1psi       :      0.08s CPU      0.08s WALL (    2147 calls)

     General routines
     calbec       :      0.10s CPU      0.11s WALL (    4386 calls)
     fft          :      0.03s CPU      0.04s WALL (      66 calls)
     ffts         :      0.00s CPU      0.00s WALL (      19 calls)
     fftw         :      0.18s CPU      0.20s WALL (    6574 calls)
     interpolate  :      0.00s CPU      0.01s WALL (      10 calls)
 
     Parallel routines
 
     PWSCF        :      3.47s CPU      4.23s WALL

 
   This run was terminated on:  15:12:42  18Oct2025            

=------------------------------------------------------------------------------=
   JOB DONE.
=------------------------------------------------------------------------------=
TACC:  Shutdown complete. Exiting. 
