TACC:  Starting up job 2386207 
TACC:  Starting parallel tasks... 

     Program PWSCF v.7.3 starts on 19Sep2025 at  9:35:31 

     This program is part of the open-source Quantum ESPRESSO suite
     for quantum simulation of materials; please cite
         "P. Giannozzi et al., J. Phys.:Condens. Matter 21 395502 (2009);
         "P. Giannozzi et al., J. Phys.:Condens. Matter 29 465901 (2017);
         "P. Giannozzi et al., J. Chem. Phys. 152 154105 (2020);
          URL http://www.quantum-espresso.org", 
     in publications or presentations arising from this work. More details at
     http://www.quantum-espresso.org/quote

     Parallel version (MPI & OpenMP), running on      10 processor cores
     Number of MPI processes:                10
     Threads/MPI process:                     1

     MPI processes distributed on     1 nodes
     187919 MiB available memory on the printing compute node when the environment starts
 
     Waiting for input...
     Reading input from standard input
Warning: card &CELL ignored
Warning: card  CELL_DYNAMICS = 'BFGS', ignored
Warning: card  PRESS=0.D0, ignored
Warning: card / ignored
     Message from routine read_cards :
     DEPRECATED: no units specified in ATOMIC_POSITIONS card
     Message from routine read_cards :
     ATOMIC_POSITIONS: units set to alat

     Current dimensions of program PWSCF are:
     Max number of different atomic species (ntypx) = 10
     Max number of k-points (npk) =  40000
     Max angular momentum in pseudopotentials (lmaxx) =  4
 
     R & G space division:  proc/nbgrp/npool/nimage =      10
     Subspace diagonalization in iterative solution of the eigenvalue problem:
     a serial algorithm will be used

 
     Parallelization info
     --------------------
     sticks:   dense  smooth     PW     G-vecs:    dense   smooth      PW
     Min         259     104     30                 9897     2516     406
     Max         260     105     31                 9900     2519     409
     Sum        2593    1041    305                98985    25173    4067
 
     Using Slab Decomposition
 


     bravais-lattice index     =            1
     lattice parameter (alat)  =       7.3573  a.u.
     unit-cell volume          =     398.2496 (a.u.)^3
     number of atoms/cell      =            5
     number of atomic types    =            3
     number of electrons       =        40.00
     number of Kohn-Sham states=           20
     kinetic-energy cutoff     =      60.0000  Ry
     charge density cutoff     =     600.0000  Ry
     scf convergence threshold =      1.0E-08
     mixing beta               =       0.7000
     number of iterations used =            8  plain     mixing
     Exchange-correlation= SLA  PZ   NOGX NOGC
                           (   1   1   0   0   0   0   0)

     celldm(1)=   7.357300  celldm(2)=   0.000000  celldm(3)=   0.000000
     celldm(4)=   0.000000  celldm(5)=   0.000000  celldm(6)=   0.000000

     crystal axes: (cart. coord. in units of alat)
               a(1) = (   1.000000   0.000000   0.000000 )  
               a(2) = (   0.000000   1.000000   0.000000 )  
               a(3) = (   0.000000   0.000000   1.000000 )  

     reciprocal axes: (cart. coord. in units 2 pi/alat)
               b(1) = (  1.000000  0.000000  0.000000 )  
               b(2) = (  0.000000  1.000000  0.000000 )  
               b(3) = (  0.000000  0.000000  1.000000 )  


     PseudoPot. # 1 for Ca read from file:
     /scratch/11018/zhc/assisgnment1/CaTiO3/Ca_LDA.UPF
     MD5 check sum: d2d4e7693e10d071152e9eeb7dd009f3
     Pseudo is Ultrasoft + core correction, Zval = 10.0
     Generated by new atomic code, or converted to UPF format
     Using radial grid of  845 points,  6 beta functions with: 
                l(1) =   0
                l(2) =   0
                l(3) =   1
                l(4) =   1
                l(5) =   2
                l(6) =   2
     Q(r) pseudized with  8 coefficients,  rinner =    1.500   1.500   1.500
                                                       1.500   1.500

     PseudoPot. # 2 for Ti read from file:
     /scratch/11018/zhc/assisgnment1/CaTiO3/Ti_LDA.UPF
     MD5 check sum: 0d9f225c038fe889ca2a701dcc8d72cb
     Pseudo is Ultrasoft + core correction, Zval = 12.0
     Generated by new atomic code, or converted to UPF format
     Using radial grid of  851 points,  6 beta functions with: 
                l(1) =   0
                l(2) =   0
                l(3) =   1
                l(4) =   1
                l(5) =   2
                l(6) =   2
     Q(r) pseudized with  6 coefficients,  rinner =    1.000   1.000   1.000
                                                       1.000   1.000

     PseudoPot. # 3 for O  read from file:
     /scratch/11018/zhc/assisgnment1/CaTiO3/O_LDA.UPF
     MD5 check sum: 194b818514d2a7dbb603bb78519a4f40
     Pseudo is Ultrasoft + core correction, Zval =  6.0
     Generated by new atomic code, or converted to UPF format
     Using radial grid of  737 points,  5 beta functions with: 
                l(1) =   0
                l(2) =   0
                l(3) =   1
                l(4) =   1
                l(5) =   2
     Q(r) pseudized with  8 coefficients,  rinner =    0.900   0.900   0.900
                                                       0.900   0.900

     atomic species   valence    mass     pseudopotential
     Ca               10.00    40.07800     Ca( 1.00)
     Ti               12.00    47.88000     Ti( 1.00)
     O                 6.00    16.00000     O ( 1.00)

     48 Sym. Ops., with inversion, found



   Cartesian axes

     site n.     atom                  positions (alat units)
         1        Ca     tau(   1) = (   0.0000000   0.0000000   0.0000000  )
         2        Ti     tau(   2) = (   0.5000000   0.5000000   0.5000000  )
         3        O      tau(   3) = (   0.5000000   0.5000000   0.0000000  )
         4        O      tau(   4) = (   0.5000000   0.0000000   0.5000000  )
         5        O      tau(   5) = (   0.0000000   0.5000000   0.5000000  )

     number of k points=     4
                       cart. coord. in units 2pi/alat
        k(    1) = (   0.0000000   0.0000000   0.0000000), wk =   0.2500000
        k(    2) = (   0.0000000   0.0000000  -0.5000000), wk =   0.7500000
        k(    3) = (   0.0000000  -0.5000000  -0.5000000), wk =   0.7500000
        k(    4) = (  -0.5000000  -0.5000000  -0.5000000), wk =   0.2500000

     Dense  grid:    98985 G-vectors     FFT dimensions: (  60,  60,  60)

     Smooth grid:    25173 G-vectors     FFT dimensions: (  40,  40,  40)

     Estimated max dynamical RAM per process >      43.24 MB

     Estimated total dynamical RAM >     432.36 MB

     Check: negative core charge=   -0.000003

     Initial potential from superposition of free atoms

     starting charge      38.9952, renormalised to      40.0000

     negative rho (up, down):  7.752E-04 0.000E+00
     Starting wfcs are   32 randomized atomic wfcs

     total cpu time spent up to now is        0.6 secs

     Self-consistent Calculation

     iteration #  1     ecut=    60.00 Ry     beta= 0.70
     CG style diagonalization
     ethr =  1.00E-02,  avg # of iterations =  2.2

     negative rho (up, down):  1.297E-03 0.000E+00

     total cpu time spent up to now is        0.8 secs

     total energy              =    -291.22723273 Ry
     estimated scf accuracy    <       0.88229507 Ry

     iteration #  2     ecut=    60.00 Ry     beta= 0.70
     CG style diagonalization
     ethr =  2.21E-03,  avg # of iterations =  4.6

     negative rho (up, down):  5.630E-04 0.000E+00

     total cpu time spent up to now is        1.1 secs

     total energy              =    -290.88487567 Ry
     estimated scf accuracy    <       4.20307921 Ry

     iteration #  3     ecut=    60.00 Ry     beta= 0.70
     CG style diagonalization
     ethr =  2.21E-03,  avg # of iterations =  3.9

     negative rho (up, down):  7.286E-04 0.000E+00

     total cpu time spent up to now is        1.3 secs

     total energy              =    -291.67974096 Ry
     estimated scf accuracy    <       0.11559909 Ry

     iteration #  4     ecut=    60.00 Ry     beta= 0.70
     CG style diagonalization
     ethr =  2.89E-04,  avg # of iterations =  3.6

     negative rho (up, down):  8.550E-04 0.000E+00

     total cpu time spent up to now is        1.5 secs

     total energy              =    -291.69022481 Ry
     estimated scf accuracy    <       0.02287941 Ry

     iteration #  5     ecut=    60.00 Ry     beta= 0.70
     CG style diagonalization
     ethr =  5.72E-05,  avg # of iterations =  3.5

     negative rho (up, down):  8.433E-04 0.000E+00

     total cpu time spent up to now is        1.7 secs

     total energy              =    -291.69615346 Ry
     estimated scf accuracy    <       0.00116934 Ry

     iteration #  6     ecut=    60.00 Ry     beta= 0.70
     CG style diagonalization
     ethr =  2.92E-06,  avg # of iterations =  3.7

     negative rho (up, down):  8.507E-04 0.000E+00

     total cpu time spent up to now is        1.9 secs

     total energy              =    -291.69649786 Ry
     estimated scf accuracy    <       0.00001093 Ry

     iteration #  7     ecut=    60.00 Ry     beta= 0.70
     CG style diagonalization
     ethr =  2.73E-08,  avg # of iterations =  4.5

     negative rho (up, down):  8.512E-04 0.000E+00

     total cpu time spent up to now is        2.1 secs

     total energy              =    -291.69650850 Ry
     estimated scf accuracy    <       0.00000068 Ry

     iteration #  8     ecut=    60.00 Ry     beta= 0.70
     CG style diagonalization
     ethr =  1.69E-09,  avg # of iterations =  4.3

     negative rho (up, down):  8.512E-04 0.000E+00

     total cpu time spent up to now is        2.4 secs

     total energy              =    -291.69650897 Ry
     estimated scf accuracy    <       0.00000005 Ry

     iteration #  9     ecut=    60.00 Ry     beta= 0.70
     CG style diagonalization
     ethr =  1.20E-10,  avg # of iterations =  4.0

     negative rho (up, down):  8.510E-04 0.000E+00

     total cpu time spent up to now is        2.6 secs

     End of self-consistent calculation

          k = 0.0000 0.0000 0.0000 (  3119 PWs)   bands (ev):

   -47.5579 -30.1999 -24.1246 -24.1246 -24.1246 -11.3941 -11.3941 -11.3941
    -8.4756  -7.3529  -7.3529   5.6357   5.6357   5.6357   7.6003   7.6003
     7.6003   8.3079   8.3079   8.3079

          k = 0.0000 0.0000-0.5000 (  3178 PWs)   bands (ev):

   -47.5568 -30.1941 -24.1912 -24.1213 -24.1213 -11.6210 -11.3831 -11.3831
    -7.8335  -7.3117  -7.0372   4.2352   5.8963   5.8963   5.9903   6.1058
     6.1058   6.7924   8.0176   8.0176

          k = 0.0000-0.5000-0.5000 (  3136 PWs)   bands (ev):

   -47.5557 -30.1876 -24.1894 -24.1894 -24.1182 -11.5219 -11.5219 -11.3695
    -7.7029  -6.8691  -6.8691   3.8129   4.0888   4.3615   5.8211   5.8211
     6.8134   6.8134   6.9909   8.6862

          k =-0.5000-0.5000-0.5000 (  3112 PWs)   bands (ev):

   -47.5546 -30.1819 -24.1854 -24.1854 -24.1854 -11.4718 -11.4718 -11.4718
    -6.9579  -6.9579  -6.9579   4.0118   4.3224   4.3224   4.3224   4.3791
     4.3791   8.7845   8.7845   8.7845

     highest occupied level (ev):     8.7845

!    total energy              =    -291.69650898 Ry
     estimated scf accuracy    <          4.2E-09 Ry

     The total energy is the sum of the following terms:
     one-electron contribution =     -93.05784909 Ry
     hartree contribution      =      65.71904017 Ry
     xc contribution           =     -51.21313569 Ry
     ewald contribution        =    -213.14456438 Ry

     convergence has been achieved in   9 iterations

     negative rho (up, down):  8.510E-04 0.000E+00

     Forces acting on atoms (cartesian axes, Ry/au):

     atom    1 type  1   force =     0.00000000    0.00000000    0.00000000
     atom    2 type  2   force =     0.00000000    0.00000000    0.00000000
     atom    3 type  3   force =     0.00000000    0.00000000    0.00000000
     atom    4 type  3   force =     0.00000000    0.00000000    0.00000000
     atom    5 type  3   force =     0.00000000    0.00000000    0.00000000

     Total force =     0.000000     Total SCF correction =     0.000000


     Computing stress (Cartesian axis) and pressure


     negative rho (up, down):  8.510E-04 0.000E+00
          total   stress  (Ry/bohr**3)                   (kbar)     P=      -98.21
  -0.00066762   0.00000000   0.00000000          -98.21        0.00        0.00
   0.00000000  -0.00066762   0.00000000            0.00      -98.21        0.00
   0.00000000   0.00000000  -0.00066762            0.00        0.00      -98.21


     Writing all to output data dir ./CTO.save/ :
     XML data file, charge density, pseudopotentials, collected wavefunctions
 
     init_run     :      0.29s CPU      0.37s WALL (       1 calls)
     electrons    :      1.83s CPU      2.02s WALL (       1 calls)
     forces       :      0.07s CPU      0.09s WALL (       1 calls)
     stress       :      0.40s CPU      0.43s WALL (       1 calls)

     Called by init_run:
     wfcinit      :      0.03s CPU      0.05s WALL (       1 calls)
     potinit      :      0.01s CPU      0.02s WALL (       1 calls)
     hinit0       :      0.11s CPU      0.15s WALL (       1 calls)

     Called by electrons:
     c_bands      :      0.75s CPU      0.79s WALL (       9 calls)
     sum_band     :      0.59s CPU      0.62s WALL (       9 calls)
     v_of_rho     :      0.02s CPU      0.02s WALL (      10 calls)
     newd         :      0.49s CPU      0.58s WALL (      10 calls)
     mix_rho      :      0.01s CPU      0.01s WALL (       9 calls)

     Called by c_bands:
     init_us_2    :      0.01s CPU      0.01s WALL (      84 calls)
     init_us_2:cp :      0.01s CPU      0.01s WALL (      84 calls)
     ccgdiagg     :      0.64s CPU      0.67s WALL (      36 calls)
     wfcrot       :      0.12s CPU      0.15s WALL (      36 calls)

     Called by *cgdiagg:
     h_psi        :      0.47s CPU      0.49s WALL (    2137 calls)
     s_psi        :      0.06s CPU      0.06s WALL (    4238 calls)

     Called by h_psi:
     h_psi:calbec :      0.07s CPU      0.07s WALL (    2137 calls)
     vloc_psi     :      0.35s CPU      0.37s WALL (    2137 calls)
     add_vuspsi   :      0.03s CPU      0.03s WALL (    2137 calls)
     hs_1psi      :      0.41s CPU      0.43s WALL (    2101 calls)
     s_1psi       :      0.09s CPU      0.09s WALL (    2101 calls)

     General routines
     calbec       :      0.12s CPU      0.13s WALL (    4294 calls)
     fft          :      0.02s CPU      0.03s WALL (      66 calls)
     ffts         :      0.00s CPU      0.00s WALL (      19 calls)
     fftw         :      0.30s CPU      0.32s WALL (    6458 calls)
     interpolate  :      0.00s CPU      0.01s WALL (      10 calls)
 
     Parallel routines
 
     PWSCF        :      2.78s CPU      3.31s WALL

 
   This run was terminated on:   9:35:35  19Sep2025            

=------------------------------------------------------------------------------=
   JOB DONE.
=------------------------------------------------------------------------------=
TACC:  Shutdown complete. Exiting. 
