TACC:  Starting up job 2560855 
TACC:  Starting parallel tasks... 

     Program PWSCF v.7.3 starts on 18Nov2025 at  0:16:16 

     This program is part of the open-source Quantum ESPRESSO suite
     for quantum simulation of materials; please cite
         "P. Giannozzi et al., J. Phys.:Condens. Matter 21 395502 (2009);
         "P. Giannozzi et al., J. Phys.:Condens. Matter 29 465901 (2017);
         "P. Giannozzi et al., J. Chem. Phys. 152 154105 (2020);
          URL http://www.quantum-espresso.org", 
     in publications or presentations arising from this work. More details at
     http://www.quantum-espresso.org/quote

     Parallel version (MPI & OpenMP), running on      10 processor cores
     Number of MPI processes:                10
     Threads/MPI process:                     1

     MPI processes distributed on     1 nodes
     183940 MiB available memory on the printing compute node when the environment starts
 
     Waiting for input...
     Reading input from standard input
Warning: card &CELL ignored
Warning: card  CELL_DYNAMICS = 'BFGS', ignored
Warning: card  PRESS=0.D0, ignored
Warning: card / ignored

     Current dimensions of program PWSCF are:
     Max number of different atomic species (ntypx) = 10
     Max number of k-points (npk) =  40000
     Max angular momentum in pseudopotentials (lmaxx) =  4
     Message from routine setup:
     using ibrav=0 with symmetry is DISCOURAGED, use correct ibrav instead
 
     R & G space division:  proc/nbgrp/npool/nimage =      10
     Subspace diagonalization in iterative solution of the eigenvalue problem:
     a serial algorithm will be used

 
     Parallelization info
     --------------------
     sticks:   dense  smooth     PW     G-vecs:    dense   smooth      PW
     Min         209      84     25                 7661     1938     321
     Max         210      85     26                 7664     1943     324
     Sum        2093     845    253                76619    19399    3231
 
     Using Slab Decomposition
 


     bravais-lattice index     =            0
     lattice parameter (alat)  =       7.2859  a.u.
     unit-cell volume          =     405.8734 (a.u.)^3
     number of atoms/cell      =            5
     number of atomic types    =            3
     number of electrons       =        44.00
     number of Kohn-Sham states=           22
     kinetic-energy cutoff     =      50.0000  Ry
     charge density cutoff     =     500.0000  Ry
     scf convergence threshold =      1.0E-08
     mixing beta               =       0.7000
     number of iterations used =            8  plain     mixing
     energy convergence thresh.=      1.0E-04
     force convergence thresh. =      1.0E-03
     Exchange-correlation= SLA  PZ   NOGX NOGC
                           (   1   1   0   0   0   0   0)
     nstep                     =           50


     celldm(1)=   7.285877  celldm(2)=   0.000000  celldm(3)=   0.000000
     celldm(4)=   0.000000  celldm(5)=   0.000000  celldm(6)=   0.000000

     crystal axes: (cart. coord. in units of alat)
               a(1) = (   1.000000   0.000000   0.000000 )  
               a(2) = (   0.000000   1.000000   0.000000 )  
               a(3) = (   0.000000   0.000000   1.049410 )  

     reciprocal axes: (cart. coord. in units 2 pi/alat)
               b(1) = (  1.000000  0.000000  0.000000 )  
               b(2) = (  0.000000  1.000000  0.000000 )  
               b(3) = (  0.000000  0.000000  0.952917 )  


     PseudoPot. # 1 for Pb read from file:
     /scratch/11018/zhc/assisgnment3/input_files/Pb_LDA.UPF
     MD5 check sum: 062a37469794d955244864f8fe2e5624
     Pseudo is Ultrasoft + core correction, Zval = 14.0
     Generated by new atomic code, or converted to UPF format
     Using radial grid of  899 points,  6 beta functions with: 
                l(1) =   0
                l(2) =   0
                l(3) =   1
                l(4) =   1
                l(5) =   2
                l(6) =   2
     Q(r) pseudized with  6 coefficients,  rinner =    1.000   1.000   1.000
                                                       1.000   1.000

     PseudoPot. # 2 for Ti read from file:
     /scratch/11018/zhc/assisgnment3/input_files/Ti_LDA.UPF
     MD5 check sum: 0d9f225c038fe889ca2a701dcc8d72cb
     Pseudo is Ultrasoft + core correction, Zval = 12.0
     Generated by new atomic code, or converted to UPF format
     Using radial grid of  851 points,  6 beta functions with: 
                l(1) =   0
                l(2) =   0
                l(3) =   1
                l(4) =   1
                l(5) =   2
                l(6) =   2
     Q(r) pseudized with  6 coefficients,  rinner =    1.000   1.000   1.000
                                                       1.000   1.000

     PseudoPot. # 3 for O  read from file:
     /scratch/11018/zhc/assisgnment3/input_files/O_LDA.UPF
     MD5 check sum: 194b818514d2a7dbb603bb78519a4f40
     Pseudo is Ultrasoft + core correction, Zval =  6.0
     Generated by new atomic code, or converted to UPF format
     Using radial grid of  737 points,  5 beta functions with: 
                l(1) =   0
                l(2) =   0
                l(3) =   1
                l(4) =   1
                l(5) =   2
     Q(r) pseudized with  8 coefficients,  rinner =    0.900   0.900   0.900
                                                       0.900   0.900

     atomic species   valence    mass     pseudopotential
     Pb               14.00   207.20000     Pb( 1.00)
     Ti               12.00    47.88000     Ti( 1.00)
     O                 6.00    16.00000     O ( 1.00)

      8 Sym. Ops. (no inversion) found



   Cartesian axes

     site n.     atom                  positions (alat units)
         1        Pb     tau(   1) = (   0.0000000   0.0000000   1.0548391  )
         2        Ti     tau(   2) = (   0.5000000   0.5000000   0.5661927  )
         3        O      tau(   3) = (   0.5000000   0.5000000   0.1044246  )
         4        O      tau(   4) = (   0.5000000   0.0000000   0.6417498  )
         5        O      tau(   5) = (   0.0000000   0.5000000   0.6417498  )

     number of k points=    30
                       cart. coord. in units 2pi/alat
        k(    1) = (   0.0000000   0.0000000   0.0000000), wk =   0.0138889
        k(    2) = (   0.0000000   0.0000000   0.2382292), wk =   0.0277778
        k(    3) = (   0.0000000   0.0000000  -0.4764583), wk =   0.0138889
        k(    4) = (   0.0000000   0.1666667   0.0000000), wk =   0.0555556
        k(    5) = (   0.0000000   0.1666667   0.2382292), wk =   0.1111111
        k(    6) = (   0.0000000   0.1666667  -0.4764583), wk =   0.0555556
        k(    7) = (   0.0000000   0.3333333   0.0000000), wk =   0.0555556
        k(    8) = (   0.0000000   0.3333333   0.2382292), wk =   0.1111111
        k(    9) = (   0.0000000   0.3333333  -0.4764583), wk =   0.0555556
        k(   10) = (   0.0000000  -0.5000000   0.0000000), wk =   0.0277778
        k(   11) = (   0.0000000  -0.5000000   0.2382292), wk =   0.0555556
        k(   12) = (   0.0000000  -0.5000000  -0.4764583), wk =   0.0277778
        k(   13) = (   0.1666667   0.1666667   0.0000000), wk =   0.0555556
        k(   14) = (   0.1666667   0.1666667   0.2382292), wk =   0.1111111
        k(   15) = (   0.1666667   0.1666667  -0.4764583), wk =   0.0555556
        k(   16) = (   0.1666667   0.3333333   0.0000000), wk =   0.1111111
        k(   17) = (   0.1666667   0.3333333   0.2382292), wk =   0.2222222
        k(   18) = (   0.1666667   0.3333333  -0.4764583), wk =   0.1111111
        k(   19) = (   0.1666667  -0.5000000   0.0000000), wk =   0.0555556
        k(   20) = (   0.1666667  -0.5000000   0.2382292), wk =   0.1111111
        k(   21) = (   0.1666667  -0.5000000  -0.4764583), wk =   0.0555556
        k(   22) = (   0.3333333   0.3333333   0.0000000), wk =   0.0555556
        k(   23) = (   0.3333333   0.3333333   0.2382292), wk =   0.1111111
        k(   24) = (   0.3333333   0.3333333  -0.4764583), wk =   0.0555556
        k(   25) = (   0.3333333  -0.5000000   0.0000000), wk =   0.0555556
        k(   26) = (   0.3333333  -0.5000000   0.2382292), wk =   0.1111111
        k(   27) = (   0.3333333  -0.5000000  -0.4764583), wk =   0.0555556
        k(   28) = (  -0.5000000  -0.5000000   0.0000000), wk =   0.0138889
        k(   29) = (  -0.5000000  -0.5000000   0.2382292), wk =   0.0277778
        k(   30) = (  -0.5000000  -0.5000000  -0.4764583), wk =   0.0138889

     Dense  grid:    76619 G-vectors     FFT dimensions: (  54,  54,  60)

     Smooth grid:    19399 G-vectors     FFT dimensions: (  36,  36,  36)

     Estimated max dynamical RAM per process >      36.49 MB

     Estimated total dynamical RAM >     364.86 MB

     Check: negative core charge=   -0.000004

     Initial potential from superposition of free atoms

     starting charge      42.9982, renormalised to      44.0000

     negative rho (up, down):  1.669E-02 0.000E+00
     Starting wfcs are   31 randomized atomic wfcs

     total cpu time spent up to now is        0.7 secs

     Self-consistent Calculation

     iteration #  1     ecut=    50.00 Ry     beta= 0.70
     CG style diagonalization
     ethr =  1.00E-02,  avg # of iterations =  2.1

     negative rho (up, down):  1.401E-02 0.000E+00

     total cpu time spent up to now is        1.2 secs

     total energy              =    -380.06353306 Ry
     estimated scf accuracy    <       1.02025980 Ry

     iteration #  2     ecut=    50.00 Ry     beta= 0.70
     CG style diagonalization
     ethr =  2.32E-03,  avg # of iterations =  4.8

     negative rho (up, down):  1.452E-02 0.000E+00

     total cpu time spent up to now is        2.2 secs

     total energy              =    -379.76212329 Ry
     estimated scf accuracy    <       3.87727335 Ry

     iteration #  3     ecut=    50.00 Ry     beta= 0.70
     CG style diagonalization
     ethr =  2.32E-03,  avg # of iterations =  4.3

     negative rho (up, down):  1.513E-02 0.000E+00

     total cpu time spent up to now is        3.0 secs

     total energy              =    -380.53735427 Ry
     estimated scf accuracy    <       0.30884831 Ry

     iteration #  4     ecut=    50.00 Ry     beta= 0.70
     CG style diagonalization
     ethr =  7.02E-04,  avg # of iterations =  3.4

     negative rho (up, down):  1.512E-02 0.000E+00

     total cpu time spent up to now is        3.7 secs

     total energy              =    -380.56029967 Ry
     estimated scf accuracy    <       0.04119132 Ry

     iteration #  5     ecut=    50.00 Ry     beta= 0.70
     CG style diagonalization
     ethr =  9.36E-05,  avg # of iterations =  3.9

     negative rho (up, down):  1.512E-02 0.000E+00

     total cpu time spent up to now is        4.5 secs

     total energy              =    -380.57158287 Ry
     estimated scf accuracy    <       0.00799801 Ry

     iteration #  6     ecut=    50.00 Ry     beta= 0.70
     CG style diagonalization
     ethr =  1.82E-05,  avg # of iterations =  3.8

     negative rho (up, down):  1.513E-02 0.000E+00

     total cpu time spent up to now is        5.2 secs

     total energy              =    -380.57358068 Ry
     estimated scf accuracy    <       0.00596161 Ry

     iteration #  7     ecut=    50.00 Ry     beta= 0.70
     CG style diagonalization
     ethr =  1.35E-05,  avg # of iterations =  3.3

     negative rho (up, down):  1.514E-02 0.000E+00

     total cpu time spent up to now is        5.9 secs

     total energy              =    -380.57361941 Ry
     estimated scf accuracy    <       0.00152873 Ry

     iteration #  8     ecut=    50.00 Ry     beta= 0.70
     CG style diagonalization
     ethr =  3.47E-06,  avg # of iterations =  3.7

     negative rho (up, down):  1.517E-02 0.000E+00

     total cpu time spent up to now is        6.6 secs

     total energy              =    -380.57396634 Ry
     estimated scf accuracy    <       0.00000876 Ry

     iteration #  9     ecut=    50.00 Ry     beta= 0.70
     CG style diagonalization
     c_bands:  1 eigenvalues not converged
     c_bands:  1 eigenvalues not converged
     ethr =  1.99E-08,  avg # of iterations =  7.8

     negative rho (up, down):  1.520E-02 0.000E+00

     total cpu time spent up to now is        8.1 secs

     total energy              =    -380.57402737 Ry
     estimated scf accuracy    <       0.00003727 Ry

     iteration # 10     ecut=    50.00 Ry     beta= 0.70
     CG style diagonalization
     ethr =  1.99E-08,  avg # of iterations =  3.5

     negative rho (up, down):  1.531E-02 0.000E+00

     total cpu time spent up to now is        8.8 secs

     total energy              =    -380.57401860 Ry
     estimated scf accuracy    <       0.00002245 Ry

     iteration # 11     ecut=    50.00 Ry     beta= 0.70
     CG style diagonalization
     ethr =  1.99E-08,  avg # of iterations =  4.3

     negative rho (up, down):  1.531E-02 0.000E+00

     total cpu time spent up to now is        9.7 secs

     total energy              =    -380.57402414 Ry
     estimated scf accuracy    <       0.00000217 Ry

     iteration # 12     ecut=    50.00 Ry     beta= 0.70
     CG style diagonalization
     ethr =  4.92E-09,  avg # of iterations =  4.3

     negative rho (up, down):  1.531E-02 0.000E+00

     total cpu time spent up to now is       10.5 secs

     total energy              =    -380.57402497 Ry
     estimated scf accuracy    <       0.00000004 Ry

     iteration # 13     ecut=    50.00 Ry     beta= 0.70
     CG style diagonalization
     c_bands:  1 eigenvalues not converged
     c_bands:  1 eigenvalues not converged
     c_bands:  1 eigenvalues not converged
     ethr =  9.23E-11,  avg # of iterations = 11.5

     negative rho (up, down):  1.531E-02 0.000E+00

     total cpu time spent up to now is       12.8 secs

     total energy              =    -380.57402564 Ry
     estimated scf accuracy    <       0.00000007 Ry

     iteration # 14     ecut=    50.00 Ry     beta= 0.70
     CG style diagonalization
     ethr =  9.23E-11,  avg # of iterations =  3.6

     negative rho (up, down):  1.531E-02 0.000E+00

     total cpu time spent up to now is       13.5 secs

     total energy              =    -380.57402563 Ry
     estimated scf accuracy    <       0.00000003 Ry

     iteration # 15     ecut=    50.00 Ry     beta= 0.70
     CG style diagonalization
     ethr =  6.41E-11,  avg # of iterations =  4.3

     negative rho (up, down):  1.531E-02 0.000E+00

     total cpu time spent up to now is       14.3 secs

     total energy              =    -380.57402564 Ry
     estimated scf accuracy    <       0.00000001 Ry

     iteration # 16     ecut=    50.00 Ry     beta= 0.70
     CG style diagonalization
     ethr =  2.81E-11,  avg # of iterations =  4.2

     negative rho (up, down):  1.531E-02 0.000E+00

     total cpu time spent up to now is       15.2 secs

     End of self-consistent calculation

          k = 0.0000 0.0000 0.0000 (  2421 PWs)   bands (ev):

   -45.1408 -21.8243 -21.7378 -21.7378  -7.1499  -5.9947  -5.7386  -4.3871
    -4.3871  -4.3475  -4.2313  -4.1141   4.8705   6.7524   6.7524   7.1346
     8.7327   8.7327   8.9752   9.3137   9.4626   9.4626

          k = 0.0000 0.0000 0.2382 (  2429 PWs)   bands (ev):

   -45.1404 -21.8481 -21.7369 -21.7369  -6.9404  -5.9324  -5.6672  -4.4051
    -4.4051  -4.3460  -4.2184  -4.1918   4.0031   6.8071   6.8071   7.3259
     8.4776   8.4776   8.8910   9.4043   9.5827   9.5827

          k = 0.0000 0.0000-0.4765 (  2410 PWs)   bands (ev):

   -45.1401 -21.8718 -21.7359 -21.7359  -6.7129  -5.8641  -5.6022  -4.4230
    -4.4230  -4.3444  -4.2755  -4.2070   3.4571   6.6215   6.8403   6.8403
     8.3203   8.3203   8.8109   9.6595   9.6595  10.6885

          k = 0.0000 0.1667 0.0000 (  2423 PWs)   bands (ev):

   -45.1404 -21.8234 -21.7583 -21.7370  -7.0048  -5.9604  -5.7080  -4.4117
    -4.3855  -4.3624  -4.2339  -4.1027   4.3774   6.8237   6.8629   7.1666
     8.6891   8.7529   8.9685   9.0870   9.1939   9.5868

          k = 0.0000 0.1667 0.2382 (  2428 PWs)   bands (ev):

   -45.1400 -21.8471 -21.7572 -21.7360  -6.8118  -5.9142  -5.6309  -4.4101
    -4.4042  -4.3615  -4.2275  -4.1428   3.7684   6.6010   6.9289   7.4132
     8.1437   8.4587   8.7869   9.1834   9.2542   9.9615

          k = 0.0000 0.1667-0.4765 (  2422 PWs)   bands (ev):

   -45.1397 -21.8706 -21.7561 -21.7350  -6.6125  -5.8618  -5.5506  -4.4226
    -4.4064  -4.3606  -4.2313  -4.1787   3.3126   6.2771   6.9679   7.0537
     7.9487   8.3108   8.8548   9.2398   9.3362  10.6075

          k = 0.0000 0.3333 0.0000 (  2414 PWs)   bands (ev):

   -45.1396 -21.8218 -21.7987 -21.7353  -6.6896  -5.8863  -5.6628  -4.4492
    -4.3920  -4.3822  -4.2278  -4.1087   3.7464   6.4544   7.1204   7.1453
     8.3523   8.3762   8.8244   8.8746   9.3145  10.2383

          k = 0.0000 0.3333 0.2382 (  2420 PWs)   bands (ev):

   -45.1393 -21.8450 -21.7975 -21.7342  -6.5629  -5.8437  -5.5646  -4.4155
    -4.4022  -4.3921  -4.2202  -4.0824   3.3807   6.3224   7.0220   7.2449
     7.7789   8.2019   8.3594   8.9285   9.4504  10.3181

          k = 0.0000 0.3333-0.4765 (  2420 PWs)   bands (ev):

   -45.1389 -21.8681 -21.7962 -21.7332  -6.4693  -5.7756  -5.4348  -4.4218
    -4.3925  -4.3738  -4.2562  -4.0286   3.0599   5.9921   6.7823   7.2875
     7.6627   7.8314   8.1445   8.9600   9.8786  10.1556

          k = 0.0000-0.5000 0.0000 (  2428 PWs)   bands (ev):

   -45.1392 -21.8205 -21.8192 -21.7344  -6.5155  -5.8299  -5.6682  -4.4653
    -4.4065  -4.3806  -4.2004  -4.1422   3.5263   6.0696   7.3848   7.3885
     7.8599   7.9946   8.7456   8.9114   9.3455  11.0426

          k = 0.0000-0.5000 0.2382 (  2420 PWs)   bands (ev):

   -45.1389 -21.8437 -21.8177 -21.7334  -6.4548  -5.7533  -5.5592  -4.4279
    -4.4075  -4.4011  -4.1854  -4.0784   3.2287   6.0412   7.0506   7.2905
     7.5980   7.7929   8.4702   8.9049   9.4543  10.5171

          k = 0.0000-0.5000-0.4765 (  2416 PWs)   bands (ev):

   -45.1386 -21.8667 -21.8162 -21.7323  -6.4360  -5.6713  -5.3812  -4.4214
    -4.4084  -4.3824  -4.2413  -3.9662   2.9591   5.8549   6.4685   7.3487
     7.6110   7.8252   7.8437   8.9006   9.8186  10.1842

          k = 0.1667 0.1667 0.0000 (  2417 PWs)   bands (ev):

   -45.1400 -21.8226 -21.7575 -21.7571  -6.8622  -5.9251  -5.6993  -4.4178
    -4.4017  -4.3659  -4.2098  -4.0921   4.0437   6.7404   6.9993   7.2223
     8.2147   8.3264   9.0652   9.0987   9.4020   9.8198

          k = 0.1667 0.1667 0.2382 (  2419 PWs)   bands (ev):

   -45.1397 -21.8461 -21.7564 -21.7561  -6.6803  -5.8988  -5.6227  -4.4206
    -4.3969  -4.3597  -4.1986  -4.1082   3.6439   6.5164   6.6271   7.3560
     8.0446   8.0603   8.8657   9.2461   9.4813   9.9308

          k = 0.1667 0.1667-0.4765 (  2444 PWs)   bands (ev):

   -45.1393 -21.8695 -21.7553 -21.7551  -6.4996  -5.8722  -5.5329  -4.4337
    -4.3753  -4.3363  -4.2035  -4.1304   3.2795   6.2990   6.3449   7.0458
     7.9499   7.9888   8.7666   9.3208   9.5393  10.3012

          k = 0.1667 0.3333 0.0000 (  2424 PWs)   bands (ev):

   -45.1392 -21.8209 -21.7976 -21.7554  -6.5556  -5.8526  -5.6967  -4.4424
    -4.3908  -4.3502  -4.1848  -4.0982   3.5280   6.4512   6.9942   7.2960
     7.6754   8.2605   8.5713   9.2417   9.4323  10.3182

          k = 0.1667 0.3333 0.2382 (  2422 PWs)   bands (ev):

   -45.1389 -21.8440 -21.7965 -21.7544  -6.4250  -5.8432  -5.6131  -4.4174
    -4.3916  -4.3267  -4.1630  -4.0564   3.3838   6.2700   6.3979   6.9561
     7.4078   8.1008   8.9232   9.1997   9.5390  10.0280

          k = 0.1667 0.3333-0.4765 (  2420 PWs)   bands (ev):

   -45.1386 -21.8671 -21.7952 -21.7533  -6.3338  -5.8194  -5.4885  -4.4153
    -4.3656  -4.2849  -4.1754  -4.0014   3.1940   5.9105   6.3290   6.6502
     6.9000   7.9603   9.0228   9.2453   9.5324   9.9770

          k = 0.1667-0.5000 0.0000 (  2420 PWs)   bands (ev):

   -45.1388 -21.8196 -21.8180 -21.7545  -6.3877  -5.7988  -5.7225  -4.4455
    -4.3828  -4.3286  -4.1652  -4.1327   3.3276   6.0884   7.1101   7.3403
     7.6415   7.9876   8.4280   9.2737   9.4319  10.6542

          k = 0.1667-0.5000 0.2382 (  2424 PWs)   bands (ev):

   -45.1385 -21.8428 -21.8166 -21.7535  -6.3155  -5.7636  -5.6362  -4.4156
    -4.3779  -4.3054  -4.1387  -4.0510   3.2650   6.0454   6.2921   6.7019
     7.3677   8.2432   8.6917   9.2099   9.5506   9.9886

          k = 0.1667-0.5000-0.4765 (  2408 PWs)   bands (ev):

   -45.1382 -21.8657 -21.8152 -21.7524  -6.2994  -5.7296  -5.4718  -4.4098
    -4.3331  -4.2829  -4.1576  -3.9399   3.1540   5.8060   6.1611   6.3147
     6.7449   8.0734   8.8974   9.1546   9.1876  10.1946

          k = 0.3333 0.3333 0.0000 (  2434 PWs)   bands (ev):

   -45.1385 -21.8191 -21.7954 -21.7954  -6.2910  -5.7850  -5.7464  -4.4223
    -4.3713  -4.2778  -4.1036  -4.1012   3.1184   6.4356   6.5308   7.4019
     7.5561   7.6963   8.3688   9.0931   9.9049  10.0539

          k = 0.3333 0.3333 0.2382 (  2419 PWs)   bands (ev):

   -45.1381 -21.8420 -21.7945 -21.7943  -6.1502  -5.8337  -5.7015  -4.3795
    -4.3643  -4.2172  -4.0548  -4.0197   3.3099   5.9761   6.0468   6.4311
     7.0742   7.5737   8.9941   9.5029   9.5436   9.9211

          k = 0.3333 0.3333-0.4765 (  2416 PWs)   bands (ev):

   -45.1378 -21.8649 -21.7934 -21.7933  -6.0786  -5.8788  -5.5747  -4.3572
    -4.3371  -4.1515  -4.0037  -3.9408   3.4775   5.5679   5.5905   6.1713
     6.8242   6.9915   8.2350   9.8767   9.8918  10.0568

          k = 0.3333-0.5000 0.0000 (  2454 PWs)   bands (ev):

   -45.1381 -21.8178 -21.8157 -21.7943  -6.1716  -5.7609  -5.7416  -4.4139
    -4.3473  -4.2124  -4.1361  -4.0686   2.9303   6.0815   6.5774   7.2113
     7.7404   7.8661   7.9883   9.0612   9.7392  10.1125

          k = 0.3333-0.5000 0.2382 (  2428 PWs)   bands (ev):

   -45.1377 -21.8408 -21.8144 -21.7934  -6.0318  -5.7884  -5.7602  -4.3702
    -4.3355  -4.1229  -4.0516  -3.9908   3.2346   5.8674   6.0228   6.0910
     6.8563   7.6431   8.5211   9.5020   9.5295  10.0806

          k = 0.3333-0.5000-0.4765 (  2420 PWs)   bands (ev):

   -45.1374 -21.8637 -21.8132 -21.7923  -6.0203  -5.8321  -5.6129  -4.3395
    -4.3124  -4.0604  -3.9661  -3.8842   3.6178   5.3006   5.4951   5.9315
     6.5842   7.0012   7.4497   9.9783  10.0526  10.2185

          k =-0.5000-0.5000 0.0000 (  2480 PWs)   bands (ev):

   -45.1377 -21.8165 -21.8145 -21.8145  -6.1161  -5.7159  -5.7159  -4.4029
    -4.2992  -4.1578  -4.1578  -4.0183   2.7355   5.9299   6.4096   7.4220
     7.4220   7.9837   7.9837   8.8288   9.2695  10.3719

          k =-0.5000-0.5000 0.2382 (  2424 PWs)   bands (ev):

   -45.1374 -21.8396 -21.8134 -21.8134  -5.8976  -5.8025  -5.8025  -4.3578
    -4.2969  -4.0100  -4.0100  -3.9836   3.1546   5.8867   5.9897   5.9897
     6.4164   7.5838   7.8673   9.5327   9.5327  10.3541

          k =-0.5000-0.5000-0.4765 (  2400 PWs)   bands (ev):

   -45.1370 -21.8625 -21.8122 -21.8122  -5.8780  -5.8780  -5.6722  -4.3127
    -4.2947  -3.9369  -3.8707  -3.8707   3.8344   5.3265   5.3265   5.7665
     6.4232   6.4410   6.6823  10.2301  10.2301  10.3364

     highest occupied level (ev):    11.0426

!    total energy              =    -380.57402564 Ry
     estimated scf accuracy    <          1.2E-10 Ry

     The total energy is the sum of the following terms:
     one-electron contribution =     -79.50502309 Ry
     hartree contribution      =      69.87168559 Ry
     xc contribution           =    -102.68271652 Ry
     ewald contribution        =    -268.25797162 Ry

     convergence has been achieved in  16 iterations

     negative rho (up, down):  1.531E-02 0.000E+00

     Forces acting on atoms (cartesian axes, Ry/au):

     atom    1 type  1   force =     0.00000000    0.00000000    0.00042019
     atom    2 type  2   force =     0.00000000    0.00000000    0.00149486
     atom    3 type  3   force =     0.00000000    0.00000000   -0.00167729
     atom    4 type  3   force =     0.00000000    0.00000000   -0.00011888
     atom    5 type  3   force =     0.00000000    0.00000000   -0.00011888

     Total force =     0.002292     Total SCF correction =     0.000031


     Computing stress (Cartesian axis) and pressure


     negative rho (up, down):  1.531E-02 0.000E+00
          total   stress  (Ry/bohr**3)                   (kbar)     P=        2.81
   0.00001453   0.00000000   0.00000000            2.14        0.00        0.00
   0.00000000   0.00001453   0.00000000            0.00        2.14        0.00
   0.00000000   0.00000000   0.00002819            0.00        0.00        4.15


     BFGS Geometry Optimization
     Energy error            =      0.0E+00 Ry
     Gradient error          =      1.7E-03 Ry/Bohr

     number of scf cycles    =   1
     number of bfgs steps    =   0

     energy             new  =    -380.5740256432 Ry

     new trust radius        =       0.0016772919 bohr
     new conv_thr            =       0.0000000100 Ry


ATOMIC_POSITIONS (crystal)
Pb               0.0000000000        0.0000000000        1.0052287849
Ti               0.5000000000        0.5000000000        0.5397299419
O                0.5000000000        0.5000000000        0.0992885301
O                0.5000000000        0.0000000000        0.6115185155
O                0.0000000000        0.5000000000        0.6115185155



     Writing config-only to output data dir ./pto_T3_etam0p006.save/ :
     XML data file
     NEW-OLD atomic charge density approx. for the potential

     Check: negative core charge=   -0.000004

     negative rho (up, down):  1.532E-02 0.000E+00

     total cpu time spent up to now is       16.3 secs

     Self-consistent Calculation

     iteration #  1     ecut=    50.00 Ry     beta= 0.70
     CG style diagonalization
     ethr =  1.00E-06,  avg # of iterations =  2.6

     Threshold (ethr) on eigenvalues was too large:
     Diagonalizing with lowered threshold

     CG style diagonalization
     c_bands:  1 eigenvalues not converged
     c_bands:  1 eigenvalues not converged
     c_bands:  1 eigenvalues not converged
     c_bands:  1 eigenvalues not converged
     c_bands:  1 eigenvalues not converged
     c_bands:  1 eigenvalues not converged
     c_bands:  1 eigenvalues not converged
     ethr =  4.62E-09,  avg # of iterations =  6.1

     negative rho (up, down):  1.532E-02 0.000E+00

     total cpu time spent up to now is       18.2 secs

     total energy              =    -380.57402861 Ry
     estimated scf accuracy    <       0.00000218 Ry

     iteration #  2     ecut=    50.00 Ry     beta= 0.70
     CG style diagonalization
     ethr =  4.95E-09,  avg # of iterations =  4.6

     negative rho (up, down):  1.532E-02 0.000E+00

     total cpu time spent up to now is       19.1 secs

     total energy              =    -380.57402836 Ry
     estimated scf accuracy    <       0.00000560 Ry

     iteration #  3     ecut=    50.00 Ry     beta= 0.70
     CG style diagonalization
     ethr =  4.95E-09,  avg # of iterations =  4.2

     negative rho (up, down):  1.532E-02 0.000E+00

     total cpu time spent up to now is       19.9 secs

     total energy              =    -380.57402950 Ry
     estimated scf accuracy    <       0.00000050 Ry

     iteration #  4     ecut=    50.00 Ry     beta= 0.70
     CG style diagonalization
     ethr =  1.13E-09,  avg # of iterations =  3.7

     negative rho (up, down):  1.532E-02 0.000E+00

     total cpu time spent up to now is       20.7 secs

     total energy              =    -380.57402962 Ry
     estimated scf accuracy    <       0.00000005 Ry

     iteration #  5     ecut=    50.00 Ry     beta= 0.70
     CG style diagonalization
     ethr =  1.16E-10,  avg # of iterations =  4.3

     negative rho (up, down):  1.532E-02 0.000E+00

     total cpu time spent up to now is       21.5 secs

     End of self-consistent calculation

          k = 0.0000 0.0000 0.0000 (  2421 PWs)   bands (ev):

   -45.1444 -21.8254 -21.7416 -21.7416  -7.1504  -5.9957  -5.7377  -4.3868
    -4.3868  -4.3470  -4.2306  -4.1143   4.8713   6.7521   6.7521   7.1322
     8.7399   8.7399   8.9753   9.3193   9.4616   9.4616

          k = 0.0000 0.0000 0.2382 (  2429 PWs)   bands (ev):

   -45.1441 -21.8493 -21.7407 -21.7407  -6.9412  -5.9335  -5.6661  -4.4049
    -4.4049  -4.3455  -4.2177  -4.1919   4.0046   6.8080   6.8080   7.3245
     8.4818   8.4818   8.8911   9.4061   9.5821   9.5821

          k = 0.0000 0.0000-0.4765 (  2410 PWs)   bands (ev):

   -45.1437 -21.8729 -21.7397 -21.7397  -6.7142  -5.8652  -5.6006  -4.4227
    -4.4227  -4.3440  -4.2756  -4.2064   3.4595   6.6199   6.8428   6.8428
     8.3218   8.3218   8.8111   9.6588   9.6588  10.6881

          k = 0.0000 0.1667 0.0000 (  2423 PWs)   bands (ev):

   -45.1440 -21.8246 -21.7620 -21.7408  -7.0052  -5.9614  -5.7070  -4.4114
    -4.3852  -4.3619  -4.2334  -4.1028   4.3778   6.8232   6.8624   7.1660
     8.6920   8.7598   8.9695   9.0865   9.1957   9.5893

          k = 0.0000 0.1667 0.2382 (  2428 PWs)   bands (ev):

   -45.1437 -21.8483 -21.7610 -21.7398  -6.8125  -5.9151  -5.6297  -4.4099
    -4.4039  -4.3610  -4.2270  -4.1429   3.7695   6.6019   6.9296   7.4122
     8.1456   8.4626   8.7867   9.1853   9.2539   9.9616

          k = 0.0000 0.1667-0.4765 (  2422 PWs)   bands (ev):

   -45.1433 -21.8717 -21.7599 -21.7388  -6.6137  -5.8627  -5.5489  -4.4224
    -4.4061  -4.3601  -4.2309  -4.1787   3.3144   6.2786   6.9703   7.0526
     7.9494   8.3122   8.8538   9.2417   9.3355  10.6067

          k = 0.0000 0.3333 0.0000 (  2414 PWs)   bands (ev):

   -45.1433 -21.8230 -21.8024 -21.7391  -6.6900  -5.8870  -5.6617  -4.4489
    -4.3915  -4.3819  -4.2276  -4.1088   3.7466   6.4533   7.1205   7.1445
     8.3521   8.3754   8.8243   8.8821   9.3181  10.2398

          k = 0.0000 0.3333 0.2382 (  2420 PWs)   bands (ev):

   -45.1429 -21.8461 -21.8013 -21.7380  -6.5636  -5.8442  -5.5631  -4.4152
    -4.4020  -4.3917  -4.2199  -4.0825   3.3811   6.3224   7.0218   7.2452
     7.7788   8.2034   8.3594   8.9312   9.4519  10.3189

          k = 0.0000 0.3333-0.4765 (  2420 PWs)   bands (ev):

   -45.1426 -21.8692 -21.8000 -21.7370  -6.4704  -5.7762  -5.4329  -4.4216
    -4.3921  -4.3736  -4.2559  -4.0288   3.0606   5.9941   6.7804   7.2896
     7.6627   7.8299   8.1450   8.9605   9.8825  10.1540

          k = 0.0000-0.5000 0.0000 (  2428 PWs)   bands (ev):

   -45.1429 -21.8229 -21.8216 -21.7382  -6.5159  -5.8304  -5.6669  -4.4651
    -4.4061  -4.3803  -4.2005  -4.1420   3.5266   6.0675   7.3860   7.3871
     7.8584   7.9941   8.7457   8.9193   9.3492  11.0440

          k = 0.0000-0.5000 0.2382 (  2420 PWs)   bands (ev):

   -45.1425 -21.8448 -21.8215 -21.7371  -6.4556  -5.7538  -5.5574  -4.4277
    -4.4070  -4.4008  -4.1853  -4.0785   3.2290   6.0396   7.0509   7.2910
     7.5966   7.7949   8.4701   8.9089   9.4550  10.5189

          k = 0.0000-0.5000-0.4765 (  2416 PWs)   bands (ev):

   -45.1422 -21.8678 -21.8200 -21.7361  -6.4371  -5.6717  -5.3791  -4.4212
    -4.4079  -4.3823  -4.2411  -3.9664   2.9593   5.8557   6.4677   7.3487
     7.6144   7.8236   7.8418   8.9020   9.8189  10.1870

          k = 0.1667 0.1667 0.0000 (  2417 PWs)   bands (ev):

   -45.1436 -21.8238 -21.7613 -21.7609  -6.8625  -5.9260  -5.6983  -4.4175
    -4.4014  -4.3655  -4.2093  -4.0922   4.0439   6.7395   6.9986   7.2231
     8.2199   8.3263   9.0650   9.1021   9.4010   9.8241

          k = 0.1667 0.1667 0.2382 (  2419 PWs)   bands (ev):

   -45.1433 -21.8473 -21.7602 -21.7599  -6.6809  -5.8997  -5.6214  -4.4203
    -4.3966  -4.3594  -4.1981  -4.1083   3.6447   6.5172   6.6275   7.3561
     8.0457   8.0599   8.8696   9.2465   9.4813   9.9309

          k = 0.1667 0.1667-0.4765 (  2444 PWs)   bands (ev):

   -45.1430 -21.8706 -21.7591 -21.7589  -6.5007  -5.8731  -5.5312  -4.4334
    -4.3749  -4.3361  -4.2029  -4.1306   3.2810   6.3008   6.3460   7.0443
     7.9506   7.9880   8.7691   9.3211   9.5396  10.3004

          k = 0.1667 0.3333 0.0000 (  2424 PWs)   bands (ev):

   -45.1429 -21.8221 -21.8013 -21.7592  -6.5557  -5.8532  -5.6957  -4.4421
    -4.3905  -4.3498  -4.1845  -4.0983   3.5280   6.4498   6.9948   7.2950
     7.6756   8.2656   8.5704   9.2428   9.4331  10.3205

          k = 0.1667 0.3333 0.2382 (  2422 PWs)   bands (ev):

   -45.1425 -21.8452 -21.8002 -21.7582  -6.4255  -5.8438  -5.6117  -4.4171
    -4.3914  -4.3262  -4.1627  -4.0566   3.3842   6.2701   6.3981   6.9557
     7.4081   8.1006   8.9240   9.2016   9.5402  10.0288

          k = 0.1667 0.3333-0.4765 (  2420 PWs)   bands (ev):

   -45.1422 -21.8682 -21.7990 -21.7571  -6.3348  -5.8199  -5.4867  -4.4149
    -4.3652  -4.2844  -4.1751  -4.0015   3.1947   5.9124   6.3290   6.6498
     6.8985   7.9591   9.0260   9.2446   9.5327   9.9787

          k = 0.1667-0.5000 0.0000 (  2420 PWs)   bands (ev):

   -45.1425 -21.8218 -21.8208 -21.7583  -6.3878  -5.7993  -5.7216  -4.4452
    -4.3826  -4.3281  -4.1652  -4.1326   3.3277   6.0863   7.1120   7.3391
     7.6399   7.9864   8.4349   9.2738   9.4336  10.6550

          k = 0.1667-0.5000 0.2382 (  2424 PWs)   bands (ev):

   -45.1421 -21.8439 -21.8204 -21.7573  -6.3162  -5.7640  -5.6347  -4.4153
    -4.3777  -4.3048  -4.1386  -4.0511   3.2651   6.0439   6.2920   6.7025
     7.3680   8.2433   8.6911   9.2131   9.5506   9.9906

          k = 0.1667-0.5000-0.4765 (  2408 PWs)   bands (ev):

   -45.1418 -21.8669 -21.8190 -21.7562  -6.3003  -5.7300  -5.4701  -4.4095
    -4.3329  -4.2821  -4.1575  -3.9400   3.1542   5.8074   6.1605   6.3138
     6.7446   8.0718   8.8976   9.1576   9.1868  10.1970

          k = 0.3333 0.3333 0.0000 (  2434 PWs)   bands (ev):

   -45.1421 -21.8203 -21.7992 -21.7991  -6.2905  -5.7856  -5.7459  -4.4221
    -4.3709  -4.2775  -4.1030  -4.1013   3.1183   6.4348   6.5283   7.4038
     7.5556   7.7015   8.3660   9.0938   9.9044  10.0550

          k = 0.3333 0.3333 0.2382 (  2419 PWs)   bands (ev):

   -45.1418 -21.8431 -21.7983 -21.7981  -6.1503  -5.8342  -5.7004  -4.3793
    -4.3639  -4.2167  -4.0543  -4.0199   3.3100   5.9766   6.0471   6.4303
     7.0724   7.5735   8.9943   9.5040   9.5462   9.9208

          k = 0.3333 0.3333-0.4765 (  2416 PWs)   bands (ev):

   -45.1414 -21.8660 -21.7971 -21.7970  -6.0793  -5.8794  -5.5732  -4.3568
    -4.3369  -4.1507  -4.0033  -3.9409   3.4779   5.5688   5.5904   6.1712
     6.8232   6.9887   8.2353   9.8795   9.8909  10.0590

          k = 0.3333-0.5000 0.0000 (  2454 PWs)   bands (ev):

   -45.1417 -21.8194 -21.8190 -21.7981  -6.1707  -5.7609  -5.7420  -4.4137
    -4.3469  -4.2123  -4.1361  -4.0679   2.9302   6.0797   6.5748   7.2143
     7.7447   7.8645   7.9874   9.0612   9.7393  10.1116

          k = 0.3333-0.5000 0.2382 (  2428 PWs)   bands (ev):

   -45.1414 -21.8419 -21.8182 -21.7972  -6.0318  -5.7888  -5.7593  -4.3700
    -4.3351  -4.1223  -4.0517  -3.9905   3.2345   5.8679   6.0225   6.0902
     6.8546   7.6431   8.5206   9.5038   9.5317  10.0799

          k = 0.3333-0.5000-0.4765 (  2420 PWs)   bands (ev):

   -45.1411 -21.8648 -21.8170 -21.7961  -6.0208  -5.8325  -5.6116  -4.3392
    -4.3121  -4.0593  -3.9662  -3.8841   3.6179   5.3004   5.4963   5.9302
     6.5827   6.9992   7.4498   9.9810  10.0517  10.2209

          k =-0.5000-0.5000 0.0000 (  2480 PWs)   bands (ev):

   -45.1413 -21.8183 -21.8183 -21.8176  -6.1146  -5.7163  -5.7163  -4.4027
    -4.2987  -4.1580  -4.1580  -4.0172   2.7354   5.9285   6.4060   7.4257
     7.4257   7.9826   7.9826   8.8289   9.2682  10.3709

          k =-0.5000-0.5000 0.2382 (  2424 PWs)   bands (ev):

   -45.1410 -21.8407 -21.8171 -21.8171  -5.8962  -5.8029  -5.8029  -4.3576
    -4.2965  -4.0102  -4.0102  -3.9823   3.1544   5.8852   5.9907   5.9907
     6.4128   7.5838   7.8665   9.5345   9.5345  10.3531

          k =-0.5000-0.5000-0.4765 (  2400 PWs)   bands (ev):

   -45.1407 -21.8636 -21.8160 -21.8160  -5.8784  -5.8784  -5.6710  -4.3125
    -4.2943  -3.9354  -3.8708  -3.8708   3.8342   5.3272   5.3272   5.7651
     6.4196   6.4404   6.6822  10.2323  10.2323  10.3354

     highest occupied level (ev):    11.0440

!    total energy              =    -380.57402965 Ry
     estimated scf accuracy    <          4.5E-09 Ry

     The total energy is the sum of the following terms:
     one-electron contribution =     -79.48918346 Ry
     hartree contribution      =      69.86287946 Ry
     xc contribution           =    -102.68185827 Ry
     ewald contribution        =    -268.26586738 Ry

     convergence has been achieved in   5 iterations

     negative rho (up, down):  1.532E-02 0.000E+00

     Forces acting on atoms (cartesian axes, Ry/au):

     atom    1 type  1   force =     0.00000000    0.00000000    0.00070380
     atom    2 type  2   force =     0.00000000    0.00000000    0.00044373
     atom    3 type  3   force =     0.00000000    0.00000000   -0.00070046
     atom    4 type  3   force =     0.00000000    0.00000000   -0.00022353
     atom    5 type  3   force =     0.00000000    0.00000000   -0.00022353

     Total force =     0.001133     Total SCF correction =     0.000319
     SCF correction compared to forces is large: reduce conv_thr to get better values


     Computing stress (Cartesian axis) and pressure


     negative rho (up, down):  1.532E-02 0.000E+00
          total   stress  (Ry/bohr**3)                   (kbar)     P=        2.38
   0.00001455   0.00000000   0.00000000            2.14        0.00        0.00
   0.00000000   0.00001455   0.00000000            0.00        2.14        0.00
   0.00000000   0.00000000   0.00001943            0.00        0.00        2.86

     Energy error            =      4.0E-06 Ry
     Gradient error          =      7.0E-04 Ry/Bohr

     bfgs converged in   2 scf cycles and   1 bfgs steps
     (criteria: energy <  1.0E-04 Ry, force <  1.0E-03 Ry/Bohr)

     End of BFGS Geometry Optimization

     Final energy             =    -380.5740296545 Ry

     File ./pto_T3_etam0p006.bfgs deleted, as requested
Begin final coordinates

ATOMIC_POSITIONS (crystal)
Pb               0.0000000000        0.0000000000        1.0052287849
Ti               0.5000000000        0.5000000000        0.5397299419
O                0.5000000000        0.5000000000        0.0992885301
O                0.5000000000        0.0000000000        0.6115185155
O                0.0000000000        0.5000000000        0.6115185155
End final coordinates



     Writing all to output data dir ./pto_T3_etam0p006.save/ :
     XML data file, charge density, pseudopotentials, collected wavefunctions
 
     init_run     :      0.38s CPU      0.45s WALL (       1 calls)
     electrons    :     18.55s CPU     19.69s WALL (       2 calls)
     update_pot   :      0.00s CPU      0.00s WALL (       1 calls)
     forces       :      0.20s CPU      0.21s WALL (       2 calls)
     stress       :      1.88s CPU      1.91s WALL (       2 calls)

     Called by init_run:
     wfcinit      :      0.16s CPU      0.18s WALL (       1 calls)
     potinit      :      0.01s CPU      0.01s WALL (       1 calls)
     hinit0       :      0.11s CPU      0.14s WALL (       1 calls)

     Called by electrons:
     c_bands      :     15.58s CPU     16.48s WALL (      22 calls)
     sum_band     :      2.03s CPU      2.12s WALL (      22 calls)
     v_of_rho     :      0.03s CPU      0.04s WALL (      23 calls)
     newd         :      0.95s CPU      1.06s WALL (      23 calls)
     mix_rho      :      0.02s CPU      0.03s WALL (      22 calls)

     Called by c_bands:
     init_us_2    :      0.14s CPU      0.15s WALL (    1470 calls)
     init_us_2:cp :      0.14s CPU      0.15s WALL (    1470 calls)
     ccgdiagg     :     13.93s CPU     14.74s WALL (     660 calls)
     wfcrot       :      1.68s CPU      1.78s WALL (     600 calls)

     Called by *cgdiagg:
     h_psi        :      8.84s CPU      9.34s WALL (   53001 calls)
     s_psi        :      1.37s CPU      1.45s WALL (  105402 calls)

     Called by h_psi:
     h_psi:calbec :      1.38s CPU      1.46s WALL (   53001 calls)
     vloc_psi     :      6.28s CPU      6.64s WALL (   53001 calls)
     add_vuspsi   :      0.76s CPU      0.80s WALL (   53001 calls)
     hs_1psi      :      8.48s CPU      8.97s WALL (   52401 calls)
     s_1psi       :      2.05s CPU      2.16s WALL (   52401 calls)

     General routines
     calbec       :      2.47s CPU      2.62s WALL (  106362 calls)
     fft          :      0.04s CPU      0.06s WALL (     152 calls)
     ffts         :      0.00s CPU      0.00s WALL (      45 calls)
     fftw         :      5.37s CPU      5.66s WALL (  146262 calls)
     interpolate  :      0.01s CPU      0.01s WALL (      23 calls)
 
     Parallel routines
 
     PWSCF        :     21.30s CPU     22.95s WALL

 
   This run was terminated on:   0:16:39  18Nov2025            

=------------------------------------------------------------------------------=
   JOB DONE.
=------------------------------------------------------------------------------=
TACC:  Shutdown complete. Exiting. 
