TACC:  Starting up job 2476654 
TACC:  Starting parallel tasks... 

     Program PWSCF v.7.3 starts on 18Oct2025 at 16:23:32 

     This program is part of the open-source Quantum ESPRESSO suite
     for quantum simulation of materials; please cite
         "P. Giannozzi et al., J. Phys.:Condens. Matter 21 395502 (2009);
         "P. Giannozzi et al., J. Phys.:Condens. Matter 29 465901 (2017);
         "P. Giannozzi et al., J. Chem. Phys. 152 154105 (2020);
          URL http://www.quantum-espresso.org", 
     in publications or presentations arising from this work. More details at
     http://www.quantum-espresso.org/quote

     Parallel version (MPI & OpenMP), running on      10 processor cores
     Number of MPI processes:                10
     Threads/MPI process:                     1

     MPI processes distributed on     1 nodes
     186821 MiB available memory on the printing compute node when the environment starts
 
     Waiting for input...
     Reading input from standard input

     Current dimensions of program PWSCF are:
     Max number of different atomic species (ntypx) = 10
     Max number of k-points (npk) =  40000
     Max angular momentum in pseudopotentials (lmaxx) =  4
     Message from routine setup:
     using ibrav=0 with symmetry is DISCOURAGED, use correct ibrav instead
 
     R & G space division:  proc/nbgrp/npool/nimage =      10
     Subspace diagonalization in iterative solution of the eigenvalue problem:
     a serial algorithm will be used

 
     Parallelization info
     --------------------
     sticks:   dense  smooth     PW     G-vecs:    dense   smooth      PW
     Min         161      43     13                 4260      581     106
     Max         162      44     14                 4263      584     107
     Sum        1615     433    139                42615     5817    1067
 
     Using Slab Decomposition
 


     bravais-lattice index     =            0
     lattice parameter (alat)  =      10.2000  a.u.
     unit-cell volume          =     263.7134 (a.u.)^3
     number of atoms/cell      =            2
     number of atomic types    =            1
     number of electrons       =         8.00
     number of Kohn-Sham states=            8
     kinetic-energy cutoff     =      30.0000  Ry
     charge density cutoff     =     450.0000  Ry
     scf convergence threshold =      1.0E-08
     mixing beta               =       0.7000
     number of iterations used =            8  plain     mixing
     Exchange-correlation= SLA  PZ   NOGX NOGC
                           (   1   1   0   0   0   0   0)

     celldm(1)=  10.200000  celldm(2)=   0.000000  celldm(3)=   0.000000
     celldm(4)=   0.000000  celldm(5)=   0.000000  celldm(6)=   0.000000

     crystal axes: (cart. coord. in units of alat)
               a(1) = (  -0.499000   0.000000   0.499000 )  
               a(2) = (   0.000000   0.499000   0.499000 )  
               a(3) = (  -0.499000   0.499000   0.000000 )  

     reciprocal axes: (cart. coord. in units 2 pi/alat)
               b(1) = ( -1.002004 -1.002004  1.002004 )  
               b(2) = (  1.002004  1.002004  1.002004 )  
               b(3) = ( -1.002004  1.002004 -1.002004 )  


     PseudoPot. # 1 for Si read from file:
     /scratch/11018/zhc/Assisgnment2/Q1/1A/energy_cutoff_test/Si_LDA.UPF
     MD5 check sum: b5ade7b37ee992b02096e360e546dc2d
     Pseudo is Ultrasoft + core correction, Zval =  4.0
     Generated by new atomic code, or converted to UPF format
     Using radial grid of  899 points,  6 beta functions with: 
                l(1) =   0
                l(2) =   0
                l(3) =   1
                l(4) =   1
                l(5) =   2
                l(6) =   2
     Q(r) pseudized with  8 coefficients,  rinner =    0.900   0.900   0.900
                                                       0.900   0.900

     atomic species   valence    mass     pseudopotential
     Si                4.00    28.08550     Si( 1.00)

     48 Sym. Ops., with inversion, found (24 have fractional translation)



   Cartesian axes

     site n.     atom                  positions (alat units)
         1        Si     tau(   1) = (   0.0000000   0.0000000   0.0000000  )
         2        Si     tau(   2) = (  -0.2495000   0.2495000   0.2495000  )

     number of k points=    72
                       cart. coord. in units 2pi/alat
        k(    1) = (   0.0000000   0.0000000   0.0000000), wk =   0.0011574
        k(    2) = (  -0.0835003   0.0835003  -0.0835003), wk =   0.0092593
        k(    3) = (  -0.1670007   0.1670007  -0.1670007), wk =   0.0092593
        k(    4) = (  -0.2505010   0.2505010  -0.2505010), wk =   0.0092593
        k(    5) = (  -0.3340013   0.3340013  -0.3340013), wk =   0.0092593
        k(    6) = (  -0.4175017   0.4175017  -0.4175017), wk =   0.0092593
        k(    7) = (   0.5010020  -0.5010020   0.5010020), wk =   0.0046296
        k(    8) = (   0.0000000   0.1670007   0.0000000), wk =   0.0069444
        k(    9) = (  -0.0835003   0.2505010  -0.0835003), wk =   0.0277778
        k(   10) = (  -0.1670007   0.3340013  -0.1670007), wk =   0.0277778
        k(   11) = (  -0.2505010   0.4175017  -0.2505010), wk =   0.0277778
        k(   12) = (  -0.3340013   0.5010020  -0.3340013), wk =   0.0277778
        k(   13) = (   0.5845023  -0.4175017   0.5845023), wk =   0.0277778
        k(   14) = (   0.5010020  -0.3340013   0.5010020), wk =   0.0277778
        k(   15) = (   0.4175017  -0.2505010   0.4175017), wk =   0.0277778
        k(   16) = (   0.3340013  -0.1670007   0.3340013), wk =   0.0277778
        k(   17) = (   0.2505010  -0.0835003   0.2505010), wk =   0.0277778
        k(   18) = (   0.1670007  -0.0000000   0.1670007), wk =   0.0138889
        k(   19) = (   0.0000000   0.3340013   0.0000000), wk =   0.0069444
        k(   20) = (  -0.0835003   0.4175017  -0.0835003), wk =   0.0277778
        k(   21) = (  -0.1670007   0.5010020  -0.1670007), wk =   0.0277778
        k(   22) = (  -0.2505010   0.5845023  -0.2505010), wk =   0.0277778
        k(   23) = (   0.6680027  -0.3340013   0.6680027), wk =   0.0277778
        k(   24) = (   0.5845023  -0.2505010   0.5845023), wk =   0.0277778
        k(   25) = (   0.5010020  -0.1670007   0.5010020), wk =   0.0277778
        k(   26) = (   0.4175017  -0.0835003   0.4175017), wk =   0.0277778
        k(   27) = (   0.3340013   0.0000000   0.3340013), wk =   0.0138889
        k(   28) = (   0.0000000   0.5010020   0.0000000), wk =   0.0069444
        k(   29) = (  -0.0835003   0.5845023  -0.0835003), wk =   0.0277778
        k(   30) = (  -0.1670007   0.6680027  -0.1670007), wk =   0.0277778
        k(   31) = (   0.7515030  -0.2505010   0.7515030), wk =   0.0277778
        k(   32) = (   0.6680027  -0.1670007   0.6680027), wk =   0.0277778
        k(   33) = (   0.5845023  -0.0835003   0.5845023), wk =   0.0277778
        k(   34) = (   0.5010020   0.0000000   0.5010020), wk =   0.0138889
        k(   35) = (   0.0000000   0.6680027   0.0000000), wk =   0.0069444
        k(   36) = (  -0.0835003   0.7515030  -0.0835003), wk =   0.0277778
        k(   37) = (   0.8350033  -0.1670007   0.8350033), wk =   0.0277778
        k(   38) = (   0.7515030  -0.0835003   0.7515030), wk =   0.0277778
        k(   39) = (   0.6680027  -0.0000000   0.6680027), wk =   0.0138889
        k(   40) = (   0.0000000   0.8350033   0.0000000), wk =   0.0069444
        k(   41) = (   0.9185037  -0.0835003   0.9185037), wk =   0.0277778
        k(   42) = (   0.8350033   0.0000000   0.8350033), wk =   0.0138889
        k(   43) = (   0.0000000  -1.0020040   0.0000000), wk =   0.0034722
        k(   44) = (  -0.1670007   0.3340013   0.0000000), wk =   0.0277778
        k(   45) = (  -0.2505010   0.4175017  -0.0835003), wk =   0.0555556
        k(   46) = (  -0.3340013   0.5010020  -0.1670007), wk =   0.0555556
        k(   47) = (   0.5845023  -0.4175017   0.7515030), wk =   0.0555556
        k(   48) = (   0.5010020  -0.3340013   0.6680027), wk =   0.0277778
        k(   49) = (  -0.1670007   0.5010020   0.0000000), wk =   0.0277778
        k(   50) = (  -0.2505010   0.5845023  -0.0835003), wk =   0.0555556
        k(   51) = (   0.6680027  -0.3340013   0.8350033), wk =   0.0555556
        k(   52) = (   0.5845023  -0.2505010   0.7515030), wk =   0.0555556
        k(   53) = (   0.5010020  -0.1670007   0.6680027), wk =   0.0555556
        k(   54) = (   0.4175017  -0.0835003   0.5845023), wk =   0.0555556
        k(   55) = (   0.3340013   0.0000000   0.5010020), wk =   0.0277778
        k(   56) = (  -0.1670007   0.6680027   0.0000000), wk =   0.0277778
        k(   57) = (   0.7515030  -0.2505010   0.9185037), wk =   0.0555556
        k(   58) = (   0.6680027  -0.1670007   0.8350033), wk =   0.0555556
        k(   59) = (   0.5845023  -0.0835003   0.7515030), wk =   0.0555556
        k(   60) = (   0.5010020   0.0000000   0.6680027), wk =   0.0277778
        k(   61) = (   0.8350033  -0.1670007   1.0020040), wk =   0.0277778
        k(   62) = (   0.7515030  -0.0835003   0.9185037), wk =   0.0555556
        k(   63) = (   0.6680027  -0.0000000   0.8350033), wk =   0.0277778
        k(   64) = (  -0.1670007  -1.0020040  -0.0000000), wk =   0.0138889
        k(   65) = (   0.6680027  -0.3340013   1.0020040), wk =   0.0277778
        k(   66) = (   0.5845023  -0.2505010   0.9185037), wk =   0.0555556
        k(   67) = (   0.5010020  -0.1670007   0.8350033), wk =   0.0277778
        k(   68) = (   0.6680027  -0.1670007   1.0020040), wk =   0.0277778
        k(   69) = (   0.5845023  -0.0835003   0.9185037), wk =   0.0555556
        k(   70) = (   0.5010020   0.0000000   0.8350033), wk =   0.0277778
        k(   71) = (  -0.3340013  -1.0020040   0.0000000), wk =   0.0138889
        k(   72) = (  -0.5010020  -1.0020040   0.0000000), wk =   0.0069444

     Dense  grid:    42615 G-vectors     FFT dimensions: (  50,  50,  50)

     Smooth grid:     5817 G-vectors     FFT dimensions: (  25,  25,  25)

     Estimated max dynamical RAM per process >      18.07 MB

     Estimated total dynamical RAM >     180.70 MB

     Initial potential from superposition of free atoms

     starting charge       7.9988, renormalised to       8.0000
     Starting wfcs are    8 randomized atomic wfcs

     total cpu time spent up to now is        0.3 secs

     Self-consistent Calculation

     iteration #  1     ecut=    30.00 Ry     beta= 0.70
     CG style diagonalization
     ethr =  1.00E-02,  avg # of iterations =  3.7

     Threshold (ethr) on eigenvalues was too large:
     Diagonalizing with lowered threshold

     CG style diagonalization
     ethr =  7.40E-04,  avg # of iterations =  2.0

     total cpu time spent up to now is        1.1 secs

     total energy              =     -19.25674215 Ry
     estimated scf accuracy    <       0.06000303 Ry

     iteration #  2     ecut=    30.00 Ry     beta= 0.70
     CG style diagonalization
     ethr =  7.50E-04,  avg # of iterations =  3.0

     total cpu time spent up to now is        1.4 secs

     total energy              =     -19.26024483 Ry
     estimated scf accuracy    <       0.00169080 Ry

     iteration #  3     ecut=    30.00 Ry     beta= 0.70
     CG style diagonalization
     ethr =  2.11E-05,  avg # of iterations =  3.8

     total cpu time spent up to now is        1.9 secs

     total energy              =     -19.26045591 Ry
     estimated scf accuracy    <       0.00003925 Ry

     iteration #  4     ecut=    30.00 Ry     beta= 0.70
     CG style diagonalization
     ethr =  4.91E-07,  avg # of iterations =  4.3

     total cpu time spent up to now is        2.3 secs

     total energy              =     -19.26048727 Ry
     estimated scf accuracy    <       0.00000018 Ry

     iteration #  5     ecut=    30.00 Ry     beta= 0.70
     CG style diagonalization
     ethr =  2.28E-09,  avg # of iterations =  4.2

     total cpu time spent up to now is        2.8 secs

     End of self-consistent calculation

          k = 0.0000 0.0000 0.0000 (   725 PWs)   bands (ev):

    -5.8681   6.2634   6.2634   6.2634   8.8020   8.8020   8.8020   9.7255

          k =-0.0835 0.0835-0.0835 (   731 PWs)   bands (ev):

    -5.7752   5.3920   6.1155   6.1155   8.8565   9.0188   9.0188  10.3730

          k =-0.1670 0.1670-0.1670 (   718 PWs)   bands (ev):

    -5.4993   3.8451   5.8021   5.8021   8.5992   9.4618   9.4618  11.7790

          k =-0.2505 0.2505-0.2505 (   745 PWs)   bands (ev):

    -5.0509   2.2714   5.4881   5.4881   8.2707   9.7518   9.7518  13.2160

          k =-0.3340 0.3340-0.3340 (   751 PWs)   bands (ev):

    -4.4592   0.8361   5.2450   5.2450   8.0010   9.7374   9.7374  14.0330

          k =-0.4175 0.4175-0.4175 (   739 PWs)   bands (ev):

    -3.8187  -0.3220   5.0956   5.0956   7.8310   9.6129   9.6129  13.9099

          k = 0.5010-0.5010 0.5010 (   718 PWs)   bands (ev):

    -3.4696  -0.8454   5.0456   5.0456   7.7734   9.5544   9.5544  13.8187

          k = 0.0000 0.1670 0.0000 (   733 PWs)   bands (ev):

    -5.7441   5.5737   5.8185   5.8185   8.5084   9.3967   9.3967  10.3570

          k =-0.0835 0.2505-0.0835 (   726 PWs)   bands (ev):

    -5.5287   4.3145   5.4458   5.6474   8.5262   9.4984   9.9442  11.2024

          k =-0.1670 0.3340-0.1670 (   733 PWs)   bands (ev):

    -5.1363   2.7840   5.1276   5.3166   8.6630   9.4793  10.3285  11.6261

          k =-0.2505 0.4175-0.2505 (   737 PWs)   bands (ev):

    -4.5874   1.3185   4.9160   4.9566   8.5281   9.5340  10.3375  12.1951

          k =-0.3340 0.5010-0.3340 (   740 PWs)   bands (ev):

    -3.9437   0.0593   4.6545   4.8273   8.3653   9.4796  10.1270  13.2494

          k = 0.5845-0.4175 0.5845 (   737 PWs)   bands (ev):

    -3.4330  -0.7353   4.4445   4.8615   8.2878   9.4716   9.9177  14.0766

          k = 0.5010-0.3340 0.5010 (   736 PWs)   bands (ev):

    -3.5595  -0.5510   4.3450   5.0094   8.3184   9.5882   9.8045  14.1725

          k = 0.4175-0.2505 0.4175 (   743 PWs)   bands (ev):

    -4.1623   0.4492   4.3696   5.2547   8.4555   9.7787   9.8074  13.7092

          k = 0.3340-0.1670 0.3340 (   734 PWs)   bands (ev):

    -4.7865   1.7928   4.5287   5.5711   8.6859   9.7104   9.9790  12.7712

          k = 0.2505-0.0835 0.2505 (   733 PWs)   bands (ev):

    -5.2866   3.2811   4.8349   5.9068   8.9741   9.4165   9.7803  12.0266

          k = 0.1670-0.0000 0.1670 (   731 PWs)   bands (ev):

    -5.6211   4.6587   5.3675   6.1460   9.0548   9.2021   9.2059  11.1559

          k = 0.0000 0.3340 0.0000 (   729 PWs)   bands (ev):

    -5.3739   4.2258   5.0366   5.0366   7.8908  10.5521  10.6199  10.6199

          k =-0.0835 0.4175-0.0835 (   734 PWs)   bands (ev):

    -5.0398   3.1154   4.6841   4.6958   7.9089  10.1206  10.9368  11.1869

          k =-0.1670 0.5010-0.1670 (   731 PWs)   bands (ev):

    -4.5405   1.7741   4.2207   4.4744   8.1500  10.3010  10.7595  11.3447

          k =-0.2505 0.5845-0.2505 (   730 PWs)   bands (ev):

    -3.9166   0.5089   3.7715   4.3909   8.1900  10.5197  11.1497  11.2721

          k = 0.6680-0.3340 0.6680 (   732 PWs)   bands (ev):

    -3.3125  -0.4538   3.4184   4.4480   8.2235  10.3618  10.8658  12.6678

          k = 0.5845-0.2505 0.5845 (   737 PWs)   bands (ev):

    -3.1925  -0.6204   3.1972   4.6379   8.3791  10.3043  10.6344  14.2345

          k = 0.5010-0.1670 0.5010 (   734 PWs)   bands (ev):

    -3.7111   0.1640   3.1347   4.9411   8.6632  10.3503  10.4713  13.5484

          k = 0.4175-0.0835 0.4175 (   737 PWs)   bands (ev):

    -4.3533   1.3421   3.2746   5.3188   9.0200  10.2529  10.4034  12.3836

          k = 0.3340 0.0000 0.3340 (   732 PWs)   bands (ev):

    -4.8981   2.5091   3.7708   5.6919   9.3035   9.8102  10.0772  11.9133

          k = 0.0000 0.5010 0.0000 (   729 PWs)   bands (ev):

    -4.7636   2.7343   4.3255   4.3255   7.2885   9.3006  12.0471  12.0473

          k =-0.0835 0.5845-0.0835 (   732 PWs)   bands (ev):

    -4.3175   1.8084   3.8429   4.0748   7.3734   8.9366  12.3384  12.5281

          k =-0.1670 0.6680-0.1670 (   730 PWs)   bands (ev):

    -3.7282   0.7556   3.1886   3.9668   7.5854   9.4304  12.2023  12.4741

          k = 0.7515-0.2505 0.7515 (   735 PWs)   bands (ev):

    -3.0852  -0.1978   2.6266   4.0077   7.6697  10.6488  12.0358  12.1860

          k = 0.6680-0.1670 0.6680 (   723 PWs)   bands (ev):

    -2.7467  -0.6297   2.2524   4.1930   7.8559  11.6789  11.8838  12.4512

          k = 0.5845-0.0835 0.5845 (   729 PWs)   bands (ev):

    -3.1364  -0.1175   2.1244   4.5060   8.1957  11.5871  11.6789  13.4476

          k = 0.5010 0.0000 0.5010 (   742 PWs)   bands (ev):

    -3.7769   0.7265   2.3908   4.9088   8.6470  11.0571  11.3649  12.4127

          k = 0.0000 0.6680 0.0000 (   717 PWs)   bands (ev):

    -3.9241   1.2204   3.7880   3.7880   6.8651   8.1257  13.5653  13.5653

          k =-0.0835 0.7515-0.0835 (   734 PWs)   bands (ev):

    -3.3774   0.4216   3.2784   3.6431   7.0284   8.0018  13.8927  13.9319

          k = 0.8350-0.1670 0.8350 (   729 PWs)   bands (ev):

    -2.7318  -0.3614   2.5168   3.6503   7.1956   8.8932  13.7411  13.7806

          k = 0.7515-0.0835 0.7515 (   725 PWs)   bands (ev):

    -2.2440  -0.8682   1.9143   3.8082   7.3766  10.3663  13.3868  13.6061

          k = 0.6680-0.0000 0.6680 (   730 PWs)   bands (ev):

    -2.5218  -0.5786   1.7047   4.1040   7.7166  12.0072  12.7661  13.7309

          k = 0.0000 0.8350 0.0000 (   745 PWs)   bands (ev):

    -2.8730  -0.2559   3.4571   3.4571   6.6962   7.2956  15.1393  15.1393

          k = 0.9185-0.0835 0.9185 (   734 PWs)   bands (ev):

    -2.2455  -0.9561   3.0003   3.4231   6.8958   7.4819  15.3861  15.4880

          k = 0.8350 0.0000 0.8350 (   734 PWs)   bands (ev):

    -1.7715  -1.3715   2.2945   3.5431   7.0580   8.7189  14.8400  15.3806

          k = 0.0000-1.0020 0.0000 (   740 PWs)   bands (ev):

    -1.6373  -1.6373   3.3456   3.3456   6.8277   6.8277  16.4449  16.4449

          k =-0.1670 0.3340 0.0000 (   728 PWs)   bands (ev):

    -5.2542   3.5139   4.5751   5.5449   8.5475   9.8331  10.4190  11.1342

          k =-0.2505 0.4175-0.0835 (   737 PWs)   bands (ev):

    -4.8080   2.2475   4.0335   5.2626   8.8339   9.7880  10.8219  11.0979

          k =-0.3340 0.5010-0.1670 (   737 PWs)   bands (ev):

    -4.2183   0.9147   3.7645   4.9259   8.8838   9.6206  10.8775  11.7666

          k = 0.5845-0.4175 0.7515 (   734 PWs)   bands (ev):

    -3.5770  -0.2049   3.6390   4.6720   8.8385   9.3975  10.7900  13.0049

          k = 0.5010-0.3340 0.6680 (   732 PWs)   bands (ev):

    -3.2238  -0.7214   3.6045   4.5774   8.8240   9.2985  10.7427  14.3029

          k =-0.1670 0.5010 0.0000 (   733 PWs)   bands (ev):

    -4.6503   2.3167   3.8631   4.5976   7.9742   9.7149  11.0881  11.9205

          k =-0.2505 0.5845-0.0835 (   737 PWs)   bands (ev):

    -4.1051   1.2442   3.3132   4.2978   8.3082   9.9360  10.8256  12.3045

          k = 0.6680-0.3340 0.8350 (   735 PWs)   bands (ev):

    -3.4621   0.1599   2.9526   4.0792   8.4241  10.4342  11.0505  12.2821

          k = 0.5845-0.2505 0.7515 (   728 PWs)   bands (ev):

    -2.9460  -0.5721   2.7020   4.0606   8.5556  10.1615  12.1629  12.5366

          k = 0.5010-0.1670 0.6680 (   731 PWs)   bands (ev):

    -3.0871  -0.3779   2.5774   4.2392   8.8171   9.9656  12.0866  12.9101

          k = 0.4175-0.0835 0.5845 (   734 PWs)   bands (ev):

    -3.6972   0.5283   2.6456   4.5667   9.1971   9.8219  11.5320  12.0252

          k = 0.3340 0.0000 0.5010 (   733 PWs)   bands (ev):

    -4.3156   1.5308   3.0657   4.9615   9.4336   9.6064  10.8764  11.6037

          k =-0.1670 0.6680 0.0000 (   731 PWs)   bands (ev):

    -3.8224   1.0410   3.3422   3.7868   7.5573   8.6303  12.3478  13.5113

          k = 0.7515-0.2505 0.9185 (   734 PWs)   bands (ev):

    -3.2015   0.1900   2.7312   3.5606   7.8891   9.1855  12.0361  13.8820

          k = 0.6680-0.1670 0.8350 (   728 PWs)   bands (ev):

    -2.5927  -0.5456   2.1914   3.5692   8.0421  10.5014  11.7370  13.8159

          k = 0.5845-0.0835 0.7515 (   728 PWs)   bands (ev):

    -2.5162  -0.6214   1.8910   3.7741   8.3074  11.2843  12.3002  13.0110

          k = 0.5010 0.0000 0.6680 (   734 PWs)   bands (ev):

    -3.0709  -0.0161   1.9788   4.1301   8.7154  10.8802  11.7447  13.1046

          k = 0.8350-0.1670 1.0020 (   737 PWs)   bands (ev):

    -2.7924  -0.2910   3.0524   3.2553   7.3728   7.8756  13.7332  15.1361

          k = 0.7515-0.0835 0.9185 (   734 PWs)   bands (ev):

    -2.1461  -0.9452   2.3914   3.2096   7.6632   8.8174  13.4033  14.9086

          k = 0.6680-0.0000 0.8350 (   727 PWs)   bands (ev):

    -1.9791  -1.0663   1.8709   3.4125   7.9074  10.3727  12.9405  13.3237

          k =-0.1670-1.0020-0.0000 (   728 PWs)   bands (ev):

    -1.5962  -1.5962   3.0167   3.0167   7.4666   7.4666  15.2193  15.2193

          k = 0.6680-0.3340 1.0020 (   728 PWs)   bands (ev):

    -3.5270   0.5711   2.5818   3.9005   9.0558   9.8852  10.4983  13.3559

          k = 0.5845-0.2505 0.9185 (   732 PWs)   bands (ev):

    -2.8847  -0.2167   2.2263   3.5496   9.4209   9.9800  10.9939  13.7835

          k = 0.5010-0.1670 0.8350 (   730 PWs)   bands (ev):

    -2.5105  -0.6618   2.1332   3.4151   9.5309   9.7925  12.3327  12.7962

          k = 0.6680-0.1670 1.0020 (   730 PWs)   bands (ev):

    -2.5694  -0.4356   2.3761   3.0127   8.8717   9.2613  11.6460  14.6046

          k = 0.5845-0.0835 0.9185 (   726 PWs)   bands (ev):

    -2.0293  -0.9529   2.0450   2.8528   9.2101  10.4803  11.3740  12.7625

          k = 0.5010 0.0000 0.8350 (   728 PWs)   bands (ev):

    -2.2656  -0.7202   1.9155   3.0860   9.5159  10.6901  11.2441  12.5076

          k =-0.3340-1.0020 0.0000 (   732 PWs)   bands (ev):

    -1.5074  -1.5074   2.5014   2.5014   8.9292   8.9292  13.0364  13.0365

          k =-0.5010-1.0020 0.0000 (   724 PWs)   bands (ev):

    -1.4592  -1.4592   2.2820   2.2820  10.4520  10.4520  11.2746  11.2746

     highest occupied, lowest unoccupied level (ev):     6.2634    6.6962

!    total energy              =     -19.26048785 Ry
     estimated scf accuracy    <          7.2E-10 Ry

     The total energy is the sum of the following terms:
     one-electron contribution =       5.23035013 Ry
     hartree contribution      =       1.09324222 Ry
     xc contribution           =      -8.65045437 Ry
     ewald contribution        =     -16.93362582 Ry

     convergence has been achieved in   5 iterations

     Forces acting on atoms (cartesian axes, Ry/au):

     atom    1 type  1   force =     0.00000000    0.00000000    0.00000000
     atom    2 type  1   force =    -0.00000000   -0.00000000   -0.00000000

     Total force =     0.000000     Total SCF correction =     0.000000


     Computing stress (Cartesian axis) and pressure

          total   stress  (Ry/bohr**3)                   (kbar)     P=        7.37
   0.00005011   0.00000000   0.00000000            7.37        0.00        0.00
   0.00000000   0.00005011  -0.00000000            0.00        7.37       -0.00
  -0.00000000  -0.00000000   0.00005011           -0.00       -0.00        7.37


     Writing all to output data dir ./Si_isotropic_etam0p002.save/ :
     XML data file, charge density, pseudopotentials, collected wavefunctions
 
     init_run     :      0.14s CPU      0.21s WALL (       1 calls)
     electrons    :      2.29s CPU      2.50s WALL (       1 calls)
     forces       :      0.03s CPU      0.04s WALL (       1 calls)
     stress       :      0.19s CPU      0.20s WALL (       1 calls)

     Called by init_run:
     wfcinit      :      0.06s CPU      0.08s WALL (       1 calls)
     potinit      :      0.00s CPU      0.01s WALL (       1 calls)
     hinit0       :      0.04s CPU      0.07s WALL (       1 calls)

     Called by electrons:
     c_bands      :      1.96s CPU      2.13s WALL (       6 calls)
     sum_band     :      0.26s CPU      0.28s WALL (       6 calls)
     v_of_rho     :      0.01s CPU      0.01s WALL (       6 calls)
     newd         :      0.07s CPU      0.07s WALL (       6 calls)
     mix_rho      :      0.00s CPU      0.01s WALL (       6 calls)

     Called by c_bands:
     init_us_2    :      0.03s CPU      0.03s WALL (    1080 calls)
     init_us_2:cp :      0.02s CPU      0.03s WALL (    1080 calls)
     ccgdiagg     :      1.74s CPU      1.88s WALL (     432 calls)
     wfcrot       :      0.25s CPU      0.29s WALL (     360 calls)

     Called by *cgdiagg:
     h_psi        :      1.14s CPU      1.24s WALL (   10105 calls)
     s_psi        :      0.08s CPU      0.09s WALL (   19850 calls)

     Called by h_psi:
     h_psi:calbec :      0.17s CPU      0.18s WALL (   10105 calls)
     vloc_psi     :      0.86s CPU      0.93s WALL (   10105 calls)
     add_vuspsi   :      0.05s CPU      0.05s WALL (   10105 calls)
     hs_1psi      :      1.04s CPU      1.13s WALL (    9745 calls)
     s_1psi       :      0.22s CPU      0.23s WALL (    9745 calls)

     General routines
     calbec       :      0.29s CPU      0.32s WALL (   20642 calls)
     fft          :      0.01s CPU      0.03s WALL (      43 calls)
     ffts         :      0.00s CPU      0.00s WALL (      12 calls)
     fftw         :      0.77s CPU      0.84s WALL (   28706 calls)
     interpolate  :      0.00s CPU      0.01s WALL (       6 calls)
 
     Parallel routines
 
     PWSCF        :      2.78s CPU      3.45s WALL

 
   This run was terminated on:  16:23:36  18Oct2025            

=------------------------------------------------------------------------------=
   JOB DONE.
=------------------------------------------------------------------------------=
TACC:  Shutdown complete. Exiting. 
