TACC:  Starting up job 2475241 
TACC:  Starting parallel tasks... 

     Program PWSCF v.7.3 starts on 17Oct2025 at 21:44:15 

     This program is part of the open-source Quantum ESPRESSO suite
     for quantum simulation of materials; please cite
         "P. Giannozzi et al., J. Phys.:Condens. Matter 21 395502 (2009);
         "P. Giannozzi et al., J. Phys.:Condens. Matter 29 465901 (2017);
         "P. Giannozzi et al., J. Chem. Phys. 152 154105 (2020);
          URL http://www.quantum-espresso.org", 
     in publications or presentations arising from this work. More details at
     http://www.quantum-espresso.org/quote

     Parallel version (MPI & OpenMP), running on      10 processor cores
     Number of MPI processes:                10
     Threads/MPI process:                     1

     MPI processes distributed on     1 nodes
     189049 MiB available memory on the printing compute node when the environment starts
 
     Waiting for input...
     Reading input from standard input

     Current dimensions of program PWSCF are:
     Max number of different atomic species (ntypx) = 10
     Max number of k-points (npk) =  40000
     Max angular momentum in pseudopotentials (lmaxx) =  4
 
     R & G space division:  proc/nbgrp/npool/nimage =      10
     Subspace diagonalization in iterative solution of the eigenvalue problem:
     a serial algorithm will be used

 
     Parallelization info
     --------------------
     sticks:   dense  smooth     PW     G-vecs:    dense   smooth      PW
     Min         162      43     13                 4273      595     106
     Max         163      44     14                 4274      598     107
     Sum        1627     433    139                42735     5961    1067
 
     Using Slab Decomposition
 


     bravais-lattice index     =            2
     lattice parameter (alat)  =      10.2000  a.u.
     unit-cell volume          =     265.3020 (a.u.)^3
     number of atoms/cell      =            2
     number of atomic types    =            1
     number of electrons       =         8.00
     number of Kohn-Sham states=            8
     kinetic-energy cutoff     =      30.0000  Ry
     charge density cutoff     =     450.0000  Ry
     scf convergence threshold =      1.0E-08
     mixing beta               =       0.7000
     number of iterations used =            8  plain     mixing
     Exchange-correlation= SLA  PZ   NOGX NOGC
                           (   1   1   0   0   0   0   0)

     celldm(1)=  10.200000  celldm(2)=   0.000000  celldm(3)=   0.000000
     celldm(4)=   0.000000  celldm(5)=   0.000000  celldm(6)=   0.000000

     crystal axes: (cart. coord. in units of alat)
               a(1) = (  -0.500000   0.000000   0.500000 )  
               a(2) = (   0.000000   0.500000   0.500000 )  
               a(3) = (  -0.500000   0.500000   0.000000 )  

     reciprocal axes: (cart. coord. in units 2 pi/alat)
               b(1) = ( -1.000000 -1.000000  1.000000 )  
               b(2) = (  1.000000  1.000000  1.000000 )  
               b(3) = ( -1.000000  1.000000 -1.000000 )  


     PseudoPot. # 1 for Si read from file:
     /scratch/11018/zhc/Assisgnment2/Q1/1A/energy_cutoff_test/Si_LDA.UPF
     MD5 check sum: b5ade7b37ee992b02096e360e546dc2d
     Pseudo is Ultrasoft + core correction, Zval =  4.0
     Generated by new atomic code, or converted to UPF format
     Using radial grid of  899 points,  6 beta functions with: 
                l(1) =   0
                l(2) =   0
                l(3) =   1
                l(4) =   1
                l(5) =   2
                l(6) =   2
     Q(r) pseudized with  8 coefficients,  rinner =    0.900   0.900   0.900
                                                       0.900   0.900

     atomic species   valence    mass     pseudopotential
     Si                4.00    28.08550     Si( 1.00)

      2 Sym. Ops. (no inversion) found



   Cartesian axes

     site n.     atom                  positions (alat units)
         1        Si     tau(   1) = (   0.0000000   0.0000000   0.0000000  )
         2        Si     tau(   2) = (  -0.2400000   0.2400000   0.2500000  )

     number of k points=    39
                       cart. coord. in units 2pi/alat
        k(    1) = (   0.0000000   0.0000000   0.0000000), wk =   0.0160000
        k(    2) = (  -0.2000000   0.2000000  -0.2000000), wk =   0.0320000
        k(    3) = (  -0.4000000   0.4000000  -0.4000000), wk =   0.0320000
        k(    4) = (   0.0000000   0.4000000   0.0000000), wk =   0.0640000
        k(    5) = (  -0.2000000   0.6000000  -0.2000000), wk =   0.0640000
        k(    6) = (   0.6000000  -0.2000000   0.6000000), wk =   0.0640000
        k(    7) = (   0.4000000   0.0000000   0.4000000), wk =   0.0640000
        k(    8) = (   0.0000000   0.8000000   0.0000000), wk =   0.0640000
        k(    9) = (   0.8000000   0.0000000   0.8000000), wk =   0.0640000
        k(   10) = (   0.6000000  -0.2000000   1.0000000), wk =   0.0640000
        k(   11) = (   0.2000000   0.2000000   0.2000000), wk =   0.0640000
        k(   12) = (  -0.2000000   0.2000000   0.2000000), wk =   0.0320000
        k(   13) = (   0.4000000   0.4000000   0.4000000), wk =   0.0640000
        k(   14) = (  -0.4000000   0.4000000   0.4000000), wk =   0.0320000
        k(   15) = (   0.0000000   0.0000000   0.4000000), wk =   0.0320000
        k(   16) = (   0.2000000   0.6000000   0.2000000), wk =   0.0640000
        k(   17) = (  -0.2000000  -0.6000000   0.2000000), wk =   0.0640000
        k(   18) = (  -0.6000000   0.2000000   0.2000000), wk =   0.0640000
        k(   19) = (   0.2000000  -0.2000000   0.6000000), wk =   0.0320000
        k(   20) = (   0.2000000   0.2000000  -0.6000000), wk =   0.0640000
        k(   21) = (  -0.2000000   0.2000000   0.6000000), wk =   0.0320000
        k(   22) = (  -0.6000000  -0.2000000  -0.6000000), wk =   0.0640000
        k(   23) = (   0.6000000   0.2000000  -0.6000000), wk =   0.0640000
        k(   24) = (   0.2000000  -0.6000000  -0.6000000), wk =   0.0640000
        k(   25) = (  -0.6000000   0.6000000  -0.2000000), wk =   0.0320000
        k(   26) = (  -0.6000000  -0.6000000   0.2000000), wk =   0.0640000
        k(   27) = (   0.6000000  -0.6000000  -0.2000000), wk =   0.0320000
        k(   28) = (   0.4000000  -0.0000000  -0.4000000), wk =   0.0640000
        k(   29) = (  -0.4000000   0.4000000   0.0000000), wk =   0.0320000
        k(   30) = (  -0.4000000  -0.4000000  -0.0000000), wk =   0.0320000
        k(   31) = (   0.0000000   0.0000000   0.8000000), wk =   0.0320000
        k(   32) = (   0.8000000   0.0000000  -0.8000000), wk =   0.0640000
        k(   33) = (  -0.8000000   0.8000000   0.0000000), wk =   0.0320000
        k(   34) = (  -0.8000000  -0.8000000   0.0000000), wk =   0.0320000
        k(   35) = (  -0.6000000  -0.2000000  -1.0000000), wk =   0.0640000
        k(   36) = (   1.0000000   0.2000000   0.6000000), wk =   0.0640000
        k(   37) = (  -1.0000000   0.2000000  -0.6000000), wk =   0.0640000
        k(   38) = (  -0.6000000   1.0000000  -0.2000000), wk =   0.0640000
        k(   39) = (  -0.6000000  -1.0000000   0.2000000), wk =   0.0640000

     Dense  grid:    42735 G-vectors     FFT dimensions: (  50,  50,  50)

     Smooth grid:     5961 G-vectors     FFT dimensions: (  25,  25,  25)

     Estimated max dynamical RAM per process >      17.81 MB

     Estimated total dynamical RAM >     178.15 MB

     Initial potential from superposition of free atoms

     starting charge       7.9988, renormalised to       8.0000
     Starting wfcs are    8 randomized atomic wfcs

     total cpu time spent up to now is        0.3 secs

     Self-consistent Calculation

     iteration #  1     ecut=    30.00 Ry     beta= 0.70
     CG style diagonalization
     ethr =  1.00E-02,  avg # of iterations =  3.6

     Threshold (ethr) on eigenvalues was too large:
     Diagonalizing with lowered threshold

     CG style diagonalization
     ethr =  7.63E-04,  avg # of iterations =  2.0

     total cpu time spent up to now is        0.8 secs

     total energy              =     -19.24877682 Ry
     estimated scf accuracy    <       0.06199181 Ry

     iteration #  2     ecut=    30.00 Ry     beta= 0.70
     CG style diagonalization
     ethr =  7.75E-04,  avg # of iterations =  3.0

     total cpu time spent up to now is        1.0 secs

     total energy              =     -19.25218302 Ry
     estimated scf accuracy    <       0.00183968 Ry

     iteration #  3     ecut=    30.00 Ry     beta= 0.70
     CG style diagonalization
     ethr =  2.30E-05,  avg # of iterations =  4.0

     total cpu time spent up to now is        1.2 secs

     total energy              =     -19.25242181 Ry
     estimated scf accuracy    <       0.00003889 Ry

     iteration #  4     ecut=    30.00 Ry     beta= 0.70
     CG style diagonalization
     ethr =  4.86E-07,  avg # of iterations =  4.4

     total cpu time spent up to now is        1.5 secs

     total energy              =     -19.25245174 Ry
     estimated scf accuracy    <       0.00000101 Ry

     iteration #  5     ecut=    30.00 Ry     beta= 0.70
     CG style diagonalization
     ethr =  1.26E-08,  avg # of iterations =  3.8

     total cpu time spent up to now is        1.8 secs

     total energy              =     -19.25245259 Ry
     estimated scf accuracy    <       0.00000001 Ry

     iteration #  6     ecut=    30.00 Ry     beta= 0.70
     CG style diagonalization
     ethr =  1.81E-10,  avg # of iterations =  3.8

     total cpu time spent up to now is        2.0 secs

     End of self-consistent calculation

          k = 0.0000 0.0000 0.0000 (   725 PWs)   bands (ev):

    -5.8823   5.8534   6.2260   6.5949   8.5280   8.7218   8.9610   9.6033

          k =-0.2000 0.2000-0.2000 (   733 PWs)   bands (ev):

    -5.3666   3.3428   5.3787   5.6750   8.3011   9.3783   9.6519  12.3412

          k =-0.4000 0.4000-0.4000 (   745 PWs)   bands (ev):

    -4.0349   0.0535   4.8676   5.1534   7.7156   9.3136   9.6466  13.7771

          k = 0.0000 0.4000 0.0000 (   725 PWs)   bands (ev):

    -5.1765   3.5572   4.5808   4.8357   7.5666  10.0301  11.0919  11.1364

          k =-0.2000 0.6000-0.2000 (   750 PWs)   bands (ev):

    -4.0473   1.0119   3.4922   4.0879   7.7652  10.3460  11.0795  11.5927

          k = 0.6000-0.2000 0.6000 (   729 PWs)   bands (ev):

    -3.2206  -0.3145   2.6651   4.3584   8.0377  10.6972  10.9978  13.8696

          k = 0.4000 0.0000 0.4000 (   734 PWs)   bands (ev):

    -4.5331   1.8753   3.1004   5.1838   8.9205  10.3431  10.4010  11.9562

          k = 0.0000 0.8000 0.0000 (   749 PWs)   bands (ev):

    -3.1339  -0.0014   3.3789   3.5673   6.6310   7.4005  14.7303  14.7477

          k = 0.8000 0.0000 0.8000 (   736 PWs)   bands (ev):

    -2.0451  -1.1170   2.1255   3.4956   6.9713   9.3984  14.4401  14.7364

          k = 0.6000-0.2000 1.0000 (   737 PWs)   bands (ev):

    -2.6817  -0.3941   2.1355   3.1441   9.5007   9.9024  10.6410  13.9623

          k = 0.2000 0.2000 0.2000 (   733 PWs)   bands (ev):

    -5.3569   3.1543   5.3862   5.8858   8.3758   9.3420   9.7704  12.2619

          k =-0.2000 0.2000 0.2000 (   733 PWs)   bands (ev):

    -5.3470   2.9738   5.5883   5.8683   8.4858   9.4820   9.7008  12.1813

          k = 0.4000 0.4000 0.4000 (   745 PWs)   bands (ev):

    -3.9682  -0.1525   4.8436   5.3228   7.7709   9.2984   9.8587  13.8542

          k =-0.4000 0.4000 0.4000 (   745 PWs)   bands (ev):

    -3.8956  -0.3613   5.0057   5.2728   7.8494   9.5251   9.8398  13.9515

          k = 0.0000 0.0000 0.4000 (   725 PWs)   bands (ev):

    -5.1762   3.5210   4.6963   4.7648   7.5718  10.0107  11.0912  11.1224

          k = 0.2000 0.6000 0.2000 (   750 PWs)   bands (ev):

    -4.0090   0.7899   3.7206   4.0715   7.7490  10.2990  11.1587  11.7994

          k =-0.2000-0.6000 0.2000 (   750 PWs)   bands (ev):

    -4.0252   0.9209   3.3216   4.3163   8.0080  10.0919  11.1483  11.5114

          k =-0.6000 0.2000 0.2000 (   750 PWs)   bands (ev):

    -3.9855   0.6929   3.5553   4.2928   7.9981  10.0919  11.1762  11.7219

          k = 0.2000-0.2000 0.6000 (   750 PWs)   bands (ev):

    -4.0541   1.0799   3.2959   4.2057   7.9045  10.1892  11.1423  11.4219

          k = 0.2000 0.2000-0.6000 (   750 PWs)   bands (ev):

    -4.0160   0.8437   3.4988   4.2338   7.8650  10.2236  11.0849  11.7006

          k =-0.2000 0.2000 0.6000 (   750 PWs)   bands (ev):

    -3.9760   0.6295   3.7657   4.1586   7.8778  10.1526  11.2259  11.8532

          k =-0.6000-0.2000-0.6000 (   729 PWs)   bands (ev):

    -3.1341  -0.5435   2.8280   4.3319   8.0267  10.7931  11.1967  13.7968

          k = 0.6000 0.2000-0.6000 (   729 PWs)   bands (ev):

    -3.0895  -0.6008   2.5790   4.6261   8.3131  10.6769  10.8371  13.7209

          k = 0.2000-0.6000-0.6000 (   729 PWs)   bands (ev):

    -2.9827  -0.8429   2.7330   4.5955   8.3034  10.8147  11.0262  13.5474

          k =-0.6000 0.6000-0.2000 (   729 PWs)   bands (ev):

    -3.1997  -0.3431   2.5439   4.5027   8.1926  10.6623  10.7796  13.8318

          k =-0.6000-0.6000 0.2000 (   729 PWs)   bands (ev):

    -3.1117  -0.5713   2.6820   4.5074   8.1453  10.7020  11.0742  13.7428

          k = 0.6000-0.6000-0.2000 (   729 PWs)   bands (ev):

    -3.0073  -0.8132   2.8610   4.4453   8.1718  10.8703  11.1924  13.5803

          k = 0.4000-0.0000-0.4000 (   734 PWs)   bands (ev):

    -4.4903   1.5217   3.1579   5.5526   9.1715  10.0482  10.5439  11.8532

          k =-0.4000 0.4000 0.0000 (   734 PWs)   bands (ev):

    -4.5120   1.6832   3.1448   5.3633   9.0710  10.1641  10.4711  11.9035

          k =-0.4000-0.4000-0.0000 (   734 PWs)   bands (ev):

    -4.5123   1.7069   3.0984   5.3987   8.9979  10.2461  10.4467  11.9134

          k = 0.0000 0.0000 0.8000 (   749 PWs)   bands (ev):

    -3.1291  -0.0199   3.4705   3.4968   6.6505   7.3725  14.7225  14.7446

          k = 0.8000 0.0000-0.8000 (   736 PWs)   bands (ev):

    -1.7513  -1.4495   1.9538   3.6939   7.2341   9.1527  14.1963  14.9048

          k =-0.8000 0.8000 0.0000 (   736 PWs)   bands (ev):

    -1.9007  -1.2937   2.0550   3.5925   7.1111   9.2624  14.2942  14.8436

          k =-0.8000-0.8000 0.0000 (   736 PWs)   bands (ev):

    -1.9089  -1.2805   2.0343   3.6171   7.0847   9.2849  14.3435  14.9548

          k =-0.6000-0.2000-1.0000 (   737 PWs)   bands (ev):

    -2.6836  -0.3837   2.1030   3.1708   9.4403   9.9648  10.6290  13.9874

          k = 1.0000 0.2000 0.6000 (   737 PWs)   bands (ev):

    -2.6173  -0.5302   2.1065   3.2579   9.4431  10.0040  10.6820  13.8560

          k =-1.0000 0.2000-0.6000 (   737 PWs)   bands (ev):

    -2.7460  -0.2371   2.1324   3.0411   9.5110   9.8559  10.5845  14.0614

          k =-0.6000 1.0000-0.2000 (   737 PWs)   bands (ev):

    -2.7416  -0.2519   2.1467   3.0395   9.5559   9.7995  10.5916  14.0788

          k =-0.6000-1.0000 0.2000 (   737 PWs)   bands (ev):

    -2.6119  -0.5444   2.1171   3.2586   9.4656   9.9653  10.6957  13.8609

     highest occupied, lowest unoccupied level (ev):     6.5949    6.6310

!    total energy              =     -19.25245260 Ry
     estimated scf accuracy    <          9.2E-10 Ry

     The total energy is the sum of the following terms:
     one-electron contribution =       5.18053011 Ry
     hartree contribution      =       1.10923226 Ry
     xc contribution           =      -8.64771604 Ry
     ewald contribution        =     -16.89449894 Ry

     convergence has been achieved in   6 iterations

     Forces acting on atoms (cartesian axes, Ry/au):

     atom    1 type  1   force =     0.02916455   -0.02916455   -0.00421842
     atom    2 type  1   force =    -0.02916455    0.02916455    0.00421842

     Total force =     0.058633     Total SCF correction =     0.000005


     Computing stress (Cartesian axis) and pressure

          total   stress  (Ry/bohr**3)                   (kbar)     P=        5.82
   0.00003512  -0.00001841  -0.00014749            5.17       -2.71      -21.70
  -0.00001841   0.00003512   0.00014749           -2.71        5.17       21.70
  -0.00014749   0.00014749   0.00004853          -21.70       21.70        7.14


     Writing all to output data dir ./Si_k5.save/ :
     XML data file, charge density, pseudopotentials, collected wavefunctions
 
     init_run     :      0.10s CPU      0.17s WALL (       1 calls)
     electrons    :      1.53s CPU      1.68s WALL (       1 calls)
     forces       :      0.03s CPU      0.03s WALL (       1 calls)
     stress       :      0.13s CPU      0.14s WALL (       1 calls)

     Called by init_run:
     wfcinit      :      0.03s CPU      0.05s WALL (       1 calls)
     potinit      :      0.00s CPU      0.01s WALL (       1 calls)
     hinit0       :      0.04s CPU      0.07s WALL (       1 calls)

     Called by electrons:
     c_bands      :      1.24s CPU      1.36s WALL (       7 calls)
     sum_band     :      0.21s CPU      0.22s WALL (       7 calls)
     v_of_rho     :      0.01s CPU      0.01s WALL (       7 calls)
     newd         :      0.07s CPU      0.08s WALL (       7 calls)
     mix_rho      :      0.00s CPU      0.01s WALL (       7 calls)

     Called by c_bands:
     init_us_2    :      0.02s CPU      0.02s WALL (     663 calls)
     init_us_2:cp :      0.02s CPU      0.02s WALL (     663 calls)
     ccgdiagg     :      1.09s CPU      1.19s WALL (     273 calls)
     wfcrot       :      0.16s CPU      0.20s WALL (     234 calls)

     Called by *cgdiagg:
     h_psi        :      0.72s CPU      0.79s WALL (    6344 calls)
     s_psi        :      0.05s CPU      0.06s WALL (   12454 calls)

     Called by h_psi:
     h_psi:calbec :      0.11s CPU      0.12s WALL (    6344 calls)
     vloc_psi     :      0.54s CPU      0.59s WALL (    6344 calls)
     add_vuspsi   :      0.03s CPU      0.03s WALL (    6344 calls)
     hs_1psi      :      0.65s CPU      0.71s WALL (    6110 calls)
     s_1psi       :      0.14s CPU      0.15s WALL (    6110 calls)

     General routines
     calbec       :      0.18s CPU      0.20s WALL (   12922 calls)
     fft          :      0.01s CPU      0.03s WALL (      49 calls)
     ffts         :      0.00s CPU      0.00s WALL (      14 calls)
     fftw         :      0.49s CPU      0.53s WALL (   18148 calls)
     interpolate  :      0.00s CPU      0.01s WALL (       7 calls)
 
     Parallel routines
 
     PWSCF        :      1.89s CPU      2.44s WALL

 
   This run was terminated on:  21:44:18  17Oct2025            

=------------------------------------------------------------------------------=
   JOB DONE.
=------------------------------------------------------------------------------=
TACC:  Shutdown complete. Exiting. 
