TACC:  Starting up job 2386213 
TACC:  Starting parallel tasks... 

     Program PWSCF v.7.3 starts on 19Sep2025 at  9:35:41 

     This program is part of the open-source Quantum ESPRESSO suite
     for quantum simulation of materials; please cite
         "P. Giannozzi et al., J. Phys.:Condens. Matter 21 395502 (2009);
         "P. Giannozzi et al., J. Phys.:Condens. Matter 29 465901 (2017);
         "P. Giannozzi et al., J. Chem. Phys. 152 154105 (2020);
          URL http://www.quantum-espresso.org", 
     in publications or presentations arising from this work. More details at
     http://www.quantum-espresso.org/quote

     Parallel version (MPI & OpenMP), running on      10 processor cores
     Number of MPI processes:                10
     Threads/MPI process:                     1

     MPI processes distributed on     1 nodes
     189076 MiB available memory on the printing compute node when the environment starts
 
     Waiting for input...
     Reading input from standard input
Warning: card &CELL ignored
Warning: card  CELL_DYNAMICS = 'BFGS', ignored
Warning: card  PRESS=0.D0, ignored
Warning: card / ignored
     Message from routine read_cards :
     DEPRECATED: no units specified in ATOMIC_POSITIONS card
     Message from routine read_cards :
     ATOMIC_POSITIONS: units set to alat

     Current dimensions of program PWSCF are:
     Max number of different atomic species (ntypx) = 10
     Max number of k-points (npk) =  40000
     Max angular momentum in pseudopotentials (lmaxx) =  4
 
     R & G space division:  proc/nbgrp/npool/nimage =      10
     Subspace diagonalization in iterative solution of the eigenvalue problem:
     a serial algorithm will be used

 
     Parallelization info
     --------------------
     sticks:   dense  smooth     PW     G-vecs:    dense   smooth      PW
     Min         344     136     40                15177     3848     604
     Max         345     137     42                15178     3851     605
     Sum        3441    1369    405               151779    38497    6043
 
     Using Slab Decomposition
 


     bravais-lattice index     =            1
     lattice parameter (alat)  =       7.3573  a.u.
     unit-cell volume          =     398.2496 (a.u.)^3
     number of atoms/cell      =            5
     number of atomic types    =            3
     number of electrons       =        40.00
     number of Kohn-Sham states=           20
     kinetic-energy cutoff     =      80.0000  Ry
     charge density cutoff     =     800.0000  Ry
     scf convergence threshold =      1.0E-08
     mixing beta               =       0.7000
     number of iterations used =            8  plain     mixing
     Exchange-correlation= SLA  PZ   NOGX NOGC
                           (   1   1   0   0   0   0   0)

     celldm(1)=   7.357300  celldm(2)=   0.000000  celldm(3)=   0.000000
     celldm(4)=   0.000000  celldm(5)=   0.000000  celldm(6)=   0.000000

     crystal axes: (cart. coord. in units of alat)
               a(1) = (   1.000000   0.000000   0.000000 )  
               a(2) = (   0.000000   1.000000   0.000000 )  
               a(3) = (   0.000000   0.000000   1.000000 )  

     reciprocal axes: (cart. coord. in units 2 pi/alat)
               b(1) = (  1.000000  0.000000  0.000000 )  
               b(2) = (  0.000000  1.000000  0.000000 )  
               b(3) = (  0.000000  0.000000  1.000000 )  


     PseudoPot. # 1 for Ca read from file:
     /scratch/11018/zhc/assisgnment1/CaTiO3/Ca_LDA.UPF
     MD5 check sum: d2d4e7693e10d071152e9eeb7dd009f3
     Pseudo is Ultrasoft + core correction, Zval = 10.0
     Generated by new atomic code, or converted to UPF format
     Using radial grid of  845 points,  6 beta functions with: 
                l(1) =   0
                l(2) =   0
                l(3) =   1
                l(4) =   1
                l(5) =   2
                l(6) =   2
     Q(r) pseudized with  8 coefficients,  rinner =    1.500   1.500   1.500
                                                       1.500   1.500

     PseudoPot. # 2 for Ti read from file:
     /scratch/11018/zhc/assisgnment1/CaTiO3/Ti_LDA.UPF
     MD5 check sum: 0d9f225c038fe889ca2a701dcc8d72cb
     Pseudo is Ultrasoft + core correction, Zval = 12.0
     Generated by new atomic code, or converted to UPF format
     Using radial grid of  851 points,  6 beta functions with: 
                l(1) =   0
                l(2) =   0
                l(3) =   1
                l(4) =   1
                l(5) =   2
                l(6) =   2
     Q(r) pseudized with  6 coefficients,  rinner =    1.000   1.000   1.000
                                                       1.000   1.000

     PseudoPot. # 3 for O  read from file:
     /scratch/11018/zhc/assisgnment1/CaTiO3/O_LDA.UPF
     MD5 check sum: 194b818514d2a7dbb603bb78519a4f40
     Pseudo is Ultrasoft + core correction, Zval =  6.0
     Generated by new atomic code, or converted to UPF format
     Using radial grid of  737 points,  5 beta functions with: 
                l(1) =   0
                l(2) =   0
                l(3) =   1
                l(4) =   1
                l(5) =   2
     Q(r) pseudized with  8 coefficients,  rinner =    0.900   0.900   0.900
                                                       0.900   0.900

     atomic species   valence    mass     pseudopotential
     Ca               10.00    40.07800     Ca( 1.00)
     Ti               12.00    47.88000     Ti( 1.00)
     O                 6.00    16.00000     O ( 1.00)

     48 Sym. Ops., with inversion, found



   Cartesian axes

     site n.     atom                  positions (alat units)
         1        Ca     tau(   1) = (   0.0000000   0.0000000   0.0000000  )
         2        Ti     tau(   2) = (   0.5000000   0.5000000   0.5000000  )
         3        O      tau(   3) = (   0.5000000   0.5000000   0.0000000  )
         4        O      tau(   4) = (   0.5000000   0.0000000   0.5000000  )
         5        O      tau(   5) = (   0.0000000   0.5000000   0.5000000  )

     number of k points=     4
                       cart. coord. in units 2pi/alat
        k(    1) = (   0.0000000   0.0000000   0.0000000), wk =   0.2500000
        k(    2) = (   0.0000000   0.0000000  -0.5000000), wk =   0.7500000
        k(    3) = (   0.0000000  -0.5000000  -0.5000000), wk =   0.7500000
        k(    4) = (  -0.5000000  -0.5000000  -0.5000000), wk =   0.2500000

     Dense  grid:   151779 G-vectors     FFT dimensions: (  72,  72,  72)

     Smooth grid:    38497 G-vectors     FFT dimensions: (  45,  45,  45)

     Estimated max dynamical RAM per process >      64.64 MB

     Estimated total dynamical RAM >     646.40 MB

     Check: negative core charge=   -0.000002

     Initial potential from superposition of free atoms

     starting charge      38.9952, renormalised to      40.0000

     negative rho (up, down):  7.217E-04 0.000E+00
     Starting wfcs are   32 randomized atomic wfcs

     total cpu time spent up to now is        0.8 secs

     Self-consistent Calculation

     iteration #  1     ecut=    80.00 Ry     beta= 0.70
     CG style diagonalization
     ethr =  1.00E-02,  avg # of iterations =  2.2

     negative rho (up, down):  1.416E-03 0.000E+00

     total cpu time spent up to now is        1.1 secs

     total energy              =    -291.22591152 Ry
     estimated scf accuracy    <       0.88375434 Ry

     iteration #  2     ecut=    80.00 Ry     beta= 0.70
     CG style diagonalization
     ethr =  2.21E-03,  avg # of iterations =  4.6

     negative rho (up, down):  5.980E-04 0.000E+00

     total cpu time spent up to now is        1.5 secs

     total energy              =    -290.87996114 Ry
     estimated scf accuracy    <       4.22935456 Ry

     iteration #  3     ecut=    80.00 Ry     beta= 0.70
     CG style diagonalization
     ethr =  2.21E-03,  avg # of iterations =  4.1

     negative rho (up, down):  6.970E-04 0.000E+00

     total cpu time spent up to now is        1.8 secs

     total energy              =    -291.67874151 Ry
     estimated scf accuracy    <       0.12897598 Ry

     iteration #  4     ecut=    80.00 Ry     beta= 0.70
     CG style diagonalization
     ethr =  3.22E-04,  avg # of iterations =  3.6

     negative rho (up, down):  7.716E-04 0.000E+00

     total cpu time spent up to now is        2.1 secs

     total energy              =    -291.69052535 Ry
     estimated scf accuracy    <       0.02201769 Ry

     iteration #  5     ecut=    80.00 Ry     beta= 0.70
     CG style diagonalization
     ethr =  5.50E-05,  avg # of iterations =  3.5

     negative rho (up, down):  7.648E-04 0.000E+00

     total cpu time spent up to now is        2.5 secs

     total energy              =    -291.69691053 Ry
     estimated scf accuracy    <       0.00150397 Ry

     iteration #  6     ecut=    80.00 Ry     beta= 0.70
     CG style diagonalization
     ethr =  3.76E-06,  avg # of iterations =  3.6

     negative rho (up, down):  7.661E-04 0.000E+00

     total cpu time spent up to now is        2.8 secs

     total energy              =    -291.69724537 Ry
     estimated scf accuracy    <       0.00004792 Ry

     iteration #  7     ecut=    80.00 Ry     beta= 0.70
     CG style diagonalization
     ethr =  1.20E-07,  avg # of iterations =  3.9

     negative rho (up, down):  7.660E-04 0.000E+00

     total cpu time spent up to now is        3.1 secs

     total energy              =    -291.69726661 Ry
     estimated scf accuracy    <       0.00000164 Ry

     iteration #  8     ecut=    80.00 Ry     beta= 0.70
     CG style diagonalization
     ethr =  4.11E-09,  avg # of iterations =  4.4

     negative rho (up, down):  7.663E-04 0.000E+00

     total cpu time spent up to now is        3.5 secs

     total energy              =    -291.69726821 Ry
     estimated scf accuracy    <       0.00000040 Ry

     iteration #  9     ecut=    80.00 Ry     beta= 0.70
     CG style diagonalization
     ethr =  9.99E-10,  avg # of iterations =  3.6

     negative rho (up, down):  7.664E-04 0.000E+00

     total cpu time spent up to now is        3.8 secs

     total energy              =    -291.69726826 Ry
     estimated scf accuracy    <       0.00000005 Ry

     iteration # 10     ecut=    80.00 Ry     beta= 0.70
     CG style diagonalization
     ethr =  1.21E-10,  avg # of iterations =  4.0

     negative rho (up, down):  7.664E-04 0.000E+00

     total cpu time spent up to now is        4.1 secs

     End of self-consistent calculation

          k = 0.0000 0.0000 0.0000 (  4801 PWs)   bands (ev):

   -47.5574 -30.1999 -24.1247 -24.1247 -24.1247 -11.3941 -11.3941 -11.3941
    -8.4754  -7.3528  -7.3528   5.6357   5.6357   5.6357   7.6003   7.6003
     7.6003   8.3076   8.3076   8.3076

          k = 0.0000 0.0000-0.5000 (  4828 PWs)   bands (ev):

   -47.5563 -30.1941 -24.1913 -24.1214 -24.1214 -11.6211 -11.3831 -11.3831
    -7.8333  -7.3115  -7.0370   4.2353   5.8961   5.8961   5.9903   6.1058
     6.1058   6.7923   8.0175   8.0175

          k = 0.0000-0.5000-0.5000 (  4812 PWs)   bands (ev):

   -47.5552 -30.1876 -24.1895 -24.1895 -24.1184 -11.5219 -11.5219 -11.3696
    -7.7027  -6.8689  -6.8689   3.8130   4.0889   4.3615   5.8210   5.8210
     6.8134   6.8134   6.9907   8.6861

          k =-0.5000-0.5000-0.5000 (  4776 PWs)   bands (ev):

   -47.5541 -30.1818 -24.1856 -24.1856 -24.1856 -11.4718 -11.4718 -11.4718
    -6.9577  -6.9577  -6.9577   4.0118   4.3224   4.3224   4.3224   4.3790
     4.3790   8.7844   8.7844   8.7844

     highest occupied level (ev):     8.7844

!    total energy              =    -291.69726827 Ry
     estimated scf accuracy    <          1.9E-09 Ry

     The total energy is the sum of the following terms:
     one-electron contribution =     -93.05908591 Ry
     hartree contribution      =      65.71945543 Ry
     xc contribution           =     -51.21307342 Ry
     ewald contribution        =    -213.14456438 Ry

     convergence has been achieved in  10 iterations

     negative rho (up, down):  7.664E-04 0.000E+00

     Forces acting on atoms (cartesian axes, Ry/au):

     atom    1 type  1   force =     0.00000000    0.00000000    0.00000000
     atom    2 type  2   force =     0.00000000    0.00000000    0.00000000
     atom    3 type  3   force =     0.00000000    0.00000000    0.00000000
     atom    4 type  3   force =     0.00000000    0.00000000    0.00000000
     atom    5 type  3   force =     0.00000000    0.00000000    0.00000000

     Total force =     0.000000     Total SCF correction =     0.000000


     Computing stress (Cartesian axis) and pressure


     negative rho (up, down):  7.664E-04 0.000E+00
          total   stress  (Ry/bohr**3)                   (kbar)     P=      -99.07
  -0.00067344   0.00000000   0.00000000          -99.07        0.00        0.00
   0.00000000  -0.00067344   0.00000000            0.00      -99.07        0.00
   0.00000000   0.00000000  -0.00067344            0.00        0.00      -99.07


     Writing all to output data dir ./CTO.save/ :
     XML data file, charge density, pseudopotentials, collected wavefunctions
 
     init_run     :      0.46s CPU      0.55s WALL (       1 calls)
     electrons    :      3.16s CPU      3.41s WALL (       1 calls)
     forces       :      0.13s CPU      0.13s WALL (       1 calls)
     stress       :      0.61s CPU      0.64s WALL (       1 calls)

     Called by init_run:
     wfcinit      :      0.04s CPU      0.07s WALL (       1 calls)
     potinit      :      0.01s CPU      0.02s WALL (       1 calls)
     hinit0       :      0.13s CPU      0.16s WALL (       1 calls)

     Called by electrons:
     c_bands      :      1.31s CPU      1.38s WALL (      10 calls)
     sum_band     :      1.01s CPU      1.07s WALL (      10 calls)
     v_of_rho     :      0.03s CPU      0.03s WALL (      11 calls)
     newd         :      0.84s CPU      0.94s WALL (      11 calls)
     mix_rho      :      0.02s CPU      0.02s WALL (      10 calls)

     Called by c_bands:
     init_us_2    :      0.02s CPU      0.02s WALL (      92 calls)
     init_us_2:cp :      0.02s CPU      0.02s WALL (      92 calls)
     ccgdiagg     :      1.10s CPU      1.15s WALL (      40 calls)
     wfcrot       :      0.24s CPU      0.28s WALL (      40 calls)

     Called by *cgdiagg:
     h_psi        :      0.94s CPU      0.99s WALL (    2319 calls)
     s_psi        :      0.10s CPU      0.11s WALL (    4598 calls)

     Called by h_psi:
     h_psi:calbec :      0.11s CPU      0.12s WALL (    2319 calls)
     vloc_psi     :      0.75s CPU      0.79s WALL (    2319 calls)
     add_vuspsi   :      0.06s CPU      0.06s WALL (    2319 calls)
     hs_1psi      :      0.79s CPU      0.83s WALL (    2279 calls)
     s_1psi       :      0.13s CPU      0.14s WALL (    2279 calls)

     General routines
     calbec       :      0.19s CPU      0.20s WALL (    4658 calls)
     fft          :      0.04s CPU      0.05s WALL (      72 calls)
     ffts         :      0.00s CPU      0.01s WALL (      21 calls)
     fftw         :      0.68s CPU      0.71s WALL (    7054 calls)
     interpolate  :      0.01s CPU      0.01s WALL (      11 calls)
 
     Parallel routines
 
     PWSCF        :      4.54s CPU      5.13s WALL

 
   This run was terminated on:   9:35:47  19Sep2025            

=------------------------------------------------------------------------------=
   JOB DONE.
=------------------------------------------------------------------------------=
TACC:  Shutdown complete. Exiting. 
