TACC:  Starting up job 2547119 
TACC:  Starting parallel tasks... 

     Program PWSCF v.7.3 starts on 13Nov2025 at  0:18:12 

     This program is part of the open-source Quantum ESPRESSO suite
     for quantum simulation of materials; please cite
         "P. Giannozzi et al., J. Phys.:Condens. Matter 21 395502 (2009);
         "P. Giannozzi et al., J. Phys.:Condens. Matter 29 465901 (2017);
         "P. Giannozzi et al., J. Chem. Phys. 152 154105 (2020);
          URL http://www.quantum-espresso.org", 
     in publications or presentations arising from this work. More details at
     http://www.quantum-espresso.org/quote

     Parallel version (MPI & OpenMP), running on      10 processor cores
     Number of MPI processes:                10
     Threads/MPI process:                     1

     MPI processes distributed on     1 nodes
     186659 MiB available memory on the printing compute node when the environment starts
 
     Waiting for input...
     Reading input from standard input
Warning: card &CELL ignored
Warning: card  CELL_DYNAMICS = 'BFGS', ignored
Warning: card  PRESS=0.D0, ignored
Warning: card / ignored

     Current dimensions of program PWSCF are:
     Max number of different atomic species (ntypx) = 10
     Max number of k-points (npk) =  40000
     Max angular momentum in pseudopotentials (lmaxx) =  4
     Message from routine setup:
     using ibrav=0 with symmetry is DISCOURAGED, use correct ibrav instead
 
     R & G space division:  proc/nbgrp/npool/nimage =      10
     Subspace diagonalization in iterative solution of the eigenvalue problem:
     a serial algorithm will be used

 
     Parallelization info
     --------------------
     sticks:   dense  smooth     PW     G-vecs:    dense   smooth      PW
     Min         174      68     22                 5678     1438     248
     Max         175      69     23                 5681     1441     250
     Sum        1741     681    221                56797    14391    2485
 
     Using Slab Decomposition
 


     bravais-lattice index     =            0
     lattice parameter (alat)  =       7.3699  a.u.
     unit-cell volume          =     420.8329 (a.u.)^3
     number of atoms/cell      =            5
     number of atomic types    =            3
     number of electrons       =        44.00
     number of Kohn-Sham states=           22
     kinetic-energy cutoff     =      40.0000  Ry
     charge density cutoff     =     400.0000  Ry
     scf convergence threshold =      1.0E-08
     mixing beta               =       0.7000
     number of iterations used =            8  plain     mixing
     energy convergence thresh.=      1.0E-04
     force convergence thresh. =      1.0E-03
     Exchange-correlation= SLA  PZ   NOGX NOGC
                           (   1   1   0   0   0   0   0)
     nstep                     =           50


     celldm(1)=   7.369932  celldm(2)=   0.000000  celldm(3)=   0.000000
     celldm(4)=   0.000000  celldm(5)=   0.000000  celldm(6)=   0.000000

     crystal axes: (cart. coord. in units of alat)
               a(1) = (   1.000000   0.000000   0.000000 )  
               a(2) = (   0.000000   1.000000   0.000000 )  
               a(3) = (   0.000000   0.000000   1.051282 )  

     reciprocal axes: (cart. coord. in units 2 pi/alat)
               b(1) = (  1.000000  0.000000  0.000000 )  
               b(2) = (  0.000000  1.000000  0.000000 )  
               b(3) = (  0.000000  0.000000  0.951220 )  


     PseudoPot. # 1 for Pb read from file:
     /scratch/11018/zhc/assisgnment3/input_files/Pb_LDA.UPF
     MD5 check sum: 062a37469794d955244864f8fe2e5624
     Pseudo is Ultrasoft + core correction, Zval = 14.0
     Generated by new atomic code, or converted to UPF format
     Using radial grid of  899 points,  6 beta functions with: 
                l(1) =   0
                l(2) =   0
                l(3) =   1
                l(4) =   1
                l(5) =   2
                l(6) =   2
     Q(r) pseudized with  6 coefficients,  rinner =    1.000   1.000   1.000
                                                       1.000   1.000

     PseudoPot. # 2 for Ti read from file:
     /scratch/11018/zhc/assisgnment3/input_files/Ti_LDA.UPF
     MD5 check sum: 0d9f225c038fe889ca2a701dcc8d72cb
     Pseudo is Ultrasoft + core correction, Zval = 12.0
     Generated by new atomic code, or converted to UPF format
     Using radial grid of  851 points,  6 beta functions with: 
                l(1) =   0
                l(2) =   0
                l(3) =   1
                l(4) =   1
                l(5) =   2
                l(6) =   2
     Q(r) pseudized with  6 coefficients,  rinner =    1.000   1.000   1.000
                                                       1.000   1.000

     PseudoPot. # 3 for O  read from file:
     /scratch/11018/zhc/assisgnment3/input_files/O_LDA.UPF
     MD5 check sum: 194b818514d2a7dbb603bb78519a4f40
     Pseudo is Ultrasoft + core correction, Zval =  6.0
     Generated by new atomic code, or converted to UPF format
     Using radial grid of  737 points,  5 beta functions with: 
                l(1) =   0
                l(2) =   0
                l(3) =   1
                l(4) =   1
                l(5) =   2
     Q(r) pseudized with  8 coefficients,  rinner =    0.900   0.900   0.900
                                                       0.900   0.900

     atomic species   valence    mass     pseudopotential
     Pb               14.00   207.20000     Pb( 1.00)
     Ti               12.00    47.88000     Ti( 1.00)
     O                 6.00    16.00000     O ( 1.00)

      8 Sym. Ops. (no inversion) found



   Cartesian axes

     site n.     atom                  positions (alat units)
         1        Pb     tau(   1) = (   0.0000000   0.0000000   1.0580339  )
         2        Ti     tau(   2) = (   0.5000000   0.5000000   0.5681377  )
         3        O      tau(   3) = (   0.5000000   0.5000000   0.1036357  )
         4        O      tau(   4) = (   0.5000000   0.0000000   0.6422586  )
         5        O      tau(   5) = (   0.0000000   0.5000000   0.6422586  )

     number of k points=    30
                       cart. coord. in units 2pi/alat
        k(    1) = (   0.0000000   0.0000000   0.0000000), wk =   0.0138889
        k(    2) = (   0.0000000   0.0000000   0.2378049), wk =   0.0277778
        k(    3) = (   0.0000000   0.0000000  -0.4756098), wk =   0.0138889
        k(    4) = (   0.0000000   0.1666667   0.0000000), wk =   0.0555556
        k(    5) = (   0.0000000   0.1666667   0.2378049), wk =   0.1111111
        k(    6) = (   0.0000000   0.1666667  -0.4756098), wk =   0.0555556
        k(    7) = (   0.0000000   0.3333333   0.0000000), wk =   0.0555556
        k(    8) = (   0.0000000   0.3333333   0.2378049), wk =   0.1111111
        k(    9) = (   0.0000000   0.3333333  -0.4756098), wk =   0.0555556
        k(   10) = (   0.0000000  -0.5000000   0.0000000), wk =   0.0277778
        k(   11) = (   0.0000000  -0.5000000   0.2378049), wk =   0.0555556
        k(   12) = (   0.0000000  -0.5000000  -0.4756098), wk =   0.0277778
        k(   13) = (   0.1666667   0.1666667   0.0000000), wk =   0.0555556
        k(   14) = (   0.1666667   0.1666667   0.2378049), wk =   0.1111111
        k(   15) = (   0.1666667   0.1666667  -0.4756098), wk =   0.0555556
        k(   16) = (   0.1666667   0.3333333   0.0000000), wk =   0.1111111
        k(   17) = (   0.1666667   0.3333333   0.2378049), wk =   0.2222222
        k(   18) = (   0.1666667   0.3333333  -0.4756098), wk =   0.1111111
        k(   19) = (   0.1666667  -0.5000000   0.0000000), wk =   0.0555556
        k(   20) = (   0.1666667  -0.5000000   0.2378049), wk =   0.1111111
        k(   21) = (   0.1666667  -0.5000000  -0.4756098), wk =   0.0555556
        k(   22) = (   0.3333333   0.3333333   0.0000000), wk =   0.0555556
        k(   23) = (   0.3333333   0.3333333   0.2378049), wk =   0.1111111
        k(   24) = (   0.3333333   0.3333333  -0.4756098), wk =   0.0555556
        k(   25) = (   0.3333333  -0.5000000   0.0000000), wk =   0.0555556
        k(   26) = (   0.3333333  -0.5000000   0.2378049), wk =   0.1111111
        k(   27) = (   0.3333333  -0.5000000  -0.4756098), wk =   0.0555556
        k(   28) = (  -0.5000000  -0.5000000   0.0000000), wk =   0.0138889
        k(   29) = (  -0.5000000  -0.5000000   0.2378049), wk =   0.0277778
        k(   30) = (  -0.5000000  -0.5000000  -0.4756098), wk =   0.0138889

     Dense  grid:    56797 G-vectors     FFT dimensions: (  48,  48,  50)

     Smooth grid:    14391 G-vectors     FFT dimensions: (  30,  30,  32)

     Estimated max dynamical RAM per process >      27.77 MB

     Estimated total dynamical RAM >     277.71 MB

     Check: negative core charge=   -0.000004

     Initial potential from superposition of free atoms

     starting charge      42.9982, renormalised to      44.0000

     negative rho (up, down):  1.696E-02 0.000E+00
     Starting wfcs are   31 randomized atomic wfcs

     total cpu time spent up to now is        0.6 secs

     Self-consistent Calculation

     iteration #  1     ecut=    40.00 Ry     beta= 0.70
     CG style diagonalization
     ethr =  1.00E-02,  avg # of iterations =  2.1

     negative rho (up, down):  1.432E-02 0.000E+00

     total cpu time spent up to now is        1.1 secs

     total energy              =    -380.04412881 Ry
     estimated scf accuracy    <       1.03527134 Ry

     iteration #  2     ecut=    40.00 Ry     beta= 0.70
     CG style diagonalization
     ethr =  2.35E-03,  avg # of iterations =  4.9

     negative rho (up, down):  1.486E-02 0.000E+00

     total cpu time spent up to now is        2.0 secs

     total energy              =    -379.54821267 Ry
     estimated scf accuracy    <       5.16447383 Ry

     iteration #  3     ecut=    40.00 Ry     beta= 0.70
     CG style diagonalization
     ethr =  2.35E-03,  avg # of iterations =  4.4

     negative rho (up, down):  1.551E-02 0.000E+00

     total cpu time spent up to now is        2.8 secs

     total energy              =    -380.53096232 Ry
     estimated scf accuracy    <       0.36831185 Ry

     iteration #  4     ecut=    40.00 Ry     beta= 0.70
     CG style diagonalization
     ethr =  8.37E-04,  avg # of iterations =  3.4

     negative rho (up, down):  1.551E-02 0.000E+00

     total cpu time spent up to now is        3.4 secs

     total energy              =    -380.55189263 Ry
     estimated scf accuracy    <       0.07024001 Ry

     iteration #  5     ecut=    40.00 Ry     beta= 0.70
     CG style diagonalization
     ethr =  1.60E-04,  avg # of iterations =  3.7

     negative rho (up, down):  1.551E-02 0.000E+00

     total cpu time spent up to now is        4.1 secs

     total energy              =    -380.56470755 Ry
     estimated scf accuracy    <       0.00884177 Ry

     iteration #  6     ecut=    40.00 Ry     beta= 0.70
     CG style diagonalization
     ethr =  2.01E-05,  avg # of iterations =  4.1

     negative rho (up, down):  1.552E-02 0.000E+00

     total cpu time spent up to now is        4.8 secs

     total energy              =    -380.56918938 Ry
     estimated scf accuracy    <       0.00624521 Ry

     iteration #  7     ecut=    40.00 Ry     beta= 0.70
     CG style diagonalization
     ethr =  1.42E-05,  avg # of iterations =  3.2

     negative rho (up, down):  1.553E-02 0.000E+00

     total cpu time spent up to now is        5.4 secs

     total energy              =    -380.56900491 Ry
     estimated scf accuracy    <       0.00226115 Ry

     iteration #  8     ecut=    40.00 Ry     beta= 0.70
     CG style diagonalization
     ethr =  5.14E-06,  avg # of iterations =  3.6

     negative rho (up, down):  1.554E-02 0.000E+00

     total cpu time spent up to now is        6.0 secs

     total energy              =    -380.56940338 Ry
     estimated scf accuracy    <       0.00001151 Ry

     iteration #  9     ecut=    40.00 Ry     beta= 0.70
     CG style diagonalization
     c_bands:  1 eigenvalues not converged
     c_bands:  1 eigenvalues not converged
     c_bands:  1 eigenvalues not converged
     ethr =  2.62E-08,  avg # of iterations =  7.7

     negative rho (up, down):  1.557E-02 0.000E+00

     total cpu time spent up to now is        7.4 secs

     total energy              =    -380.56946720 Ry
     estimated scf accuracy    <       0.00002049 Ry

     iteration # 10     ecut=    40.00 Ry     beta= 0.70
     CG style diagonalization
     ethr =  2.62E-08,  avg # of iterations =  3.2

     negative rho (up, down):  1.564E-02 0.000E+00

     total cpu time spent up to now is        7.9 secs

     total energy              =    -380.56946254 Ry
     estimated scf accuracy    <       0.00001254 Ry

     iteration # 11     ecut=    40.00 Ry     beta= 0.70
     CG style diagonalization
     ethr =  2.62E-08,  avg # of iterations =  3.8

     negative rho (up, down):  1.565E-02 0.000E+00

     total cpu time spent up to now is        8.6 secs

     total energy              =    -380.56946578 Ry
     estimated scf accuracy    <       0.00000268 Ry

     iteration # 12     ecut=    40.00 Ry     beta= 0.70
     CG style diagonalization
     ethr =  6.10E-09,  avg # of iterations =  4.4

     negative rho (up, down):  1.565E-02 0.000E+00

     total cpu time spent up to now is        9.4 secs

     total energy              =    -380.56946681 Ry
     estimated scf accuracy    <       0.00000004 Ry

     iteration # 13     ecut=    40.00 Ry     beta= 0.70
     CG style diagonalization
     c_bands:  1 eigenvalues not converged
     c_bands:  1 eigenvalues not converged
     c_bands:  1 eigenvalues not converged
     c_bands:  1 eigenvalues not converged
     c_bands:  1 eigenvalues not converged
     c_bands:  1 eigenvalues not converged
     c_bands:  1 eigenvalues not converged
     c_bands:  1 eigenvalues not converged
     ethr =  1.00E-10,  avg # of iterations = 11.9

     negative rho (up, down):  1.565E-02 0.000E+00

     total cpu time spent up to now is       11.5 secs

     total energy              =    -380.56946768 Ry
     estimated scf accuracy    <       0.00000002 Ry

     iteration # 14     ecut=    40.00 Ry     beta= 0.70
     CG style diagonalization
     ethr =  3.85E-11,  avg # of iterations =  4.9

     negative rho (up, down):  1.566E-02 0.000E+00

     total cpu time spent up to now is       12.4 secs

     End of self-consistent calculation

          k = 0.0000 0.0000 0.0000 (  1815 PWs)   bands (ev):

   -45.8564 -22.4915 -22.4292 -22.4292  -7.5146  -6.4348  -6.2016  -5.0254
    -5.0254  -4.9904  -4.8694  -4.7651   4.2245   6.3084   6.3084   6.6269
     8.2756   8.2756   8.4921   8.7802   8.9408   8.9408

          k = 0.0000 0.0000 0.2378 (  1824 PWs)   bands (ev):

   -45.8561 -22.5109 -22.4285 -22.4285  -7.3218  -6.3760  -6.1438  -5.0406
    -5.0406  -4.9892  -4.8617  -4.8362   3.4627   6.3777   6.3777   6.7890
     8.0090   8.0090   8.4081   8.8284   9.0470   9.0470

          k = 0.0000 0.0000-0.4756 (  1792 PWs)   bands (ev):

   -45.8559 -22.5301 -22.4277 -22.4277  -7.1111  -6.3113  -6.0940  -5.0557
    -5.0557  -4.9879  -4.9133  -4.8558   2.9648   6.1486   6.4342   6.4342
     7.8252   7.8252   8.3278   9.1171   9.1171   9.9996

          k = 0.0000 0.1667 0.0000 (  1807 PWs)   bands (ev):

   -45.8561 -22.4908 -22.4464 -22.4285  -7.3796  -6.4055  -6.1727  -5.0461
    -5.0240  -5.0032  -4.8744  -4.7558   3.7960   6.3517   6.4174   6.6738
     8.1871   8.2993   8.4924   8.5707   8.6719   9.0393

          k = 0.0000 0.1667 0.2378 (  1798 PWs)   bands (ev):

   -45.8558 -22.5100 -22.4455 -22.4277  -7.2026  -6.3624  -6.1096  -5.0442
    -5.0397  -5.0024  -4.8715  -4.7923   3.2513   6.1636   6.4940   6.8893
     7.6651   7.9998   8.2728   8.6937   8.7211   9.3674

          k = 0.0000 0.1667-0.4756 (  1808 PWs)   bands (ev):

   -45.8556 -22.5292 -22.4447 -22.4270  -7.0186  -6.3134  -6.0454  -5.0553
    -5.0397  -5.0016  -4.8792  -4.8254   2.8362   5.8592   6.5533   6.5794
     7.4675   7.8280   8.3388   8.7481   8.7955   9.9287

          k = 0.0000 0.3333 0.0000 (  1791 PWs)   bands (ev):

   -45.8554 -22.4896 -22.4801 -22.4271  -7.0861  -6.3425  -6.1289  -5.0792
    -5.0287  -5.0212  -4.8721  -4.7639   3.2191   5.9812   6.6734   6.7032
     7.8555   7.8769   8.3467   8.4092   8.7769   9.6145

          k = 0.0000 0.3333 0.2378 (  1797 PWs)   bands (ev):

   -45.8552 -22.5083 -22.4794 -22.4263  -6.9717  -6.3036  -6.0462  -5.0493
    -5.0380  -5.0287  -4.8684  -4.7380   2.8954   5.8691   6.5595   6.8004
     7.3100   7.7486   7.8617   8.4063   8.9379   9.6829

          k = 0.0000 0.3333-0.4756 (  1804 PWs)   bands (ev):

   -45.8550 -22.5272 -22.4784 -22.4255  -6.8868  -6.2412  -5.9360  -5.0544
    -5.0289  -5.0114  -4.9050  -4.6890   2.6074   5.5750   6.3171   6.8553
     7.2015   7.3664   7.6898   8.4131   9.3292   9.5172

          k = 0.0000-0.5000 0.0000 (  1810 PWs)   bands (ev):

   -45.8551 -22.4976 -22.4883 -22.4264  -6.9235  -6.2957  -6.1305  -5.0945
    -5.0412  -5.0199  -4.8459  -4.7978   3.0110   5.6189   6.9609   6.9713
     7.3506   7.4695   8.2697   8.4496   8.8129  10.3573

          k = 0.0000-0.5000 0.2378 (  1784 PWs)   bands (ev):

   -45.8549 -22.5072 -22.4964 -22.4255  -6.8715  -6.2246  -6.0381  -5.0621
    -5.0418  -5.0370  -4.8387  -4.7341   2.7521   5.5910   6.5923   6.8586
     7.1653   7.3172   7.9709   8.3946   8.9310   9.8630

          k = 0.0000-0.5000-0.4756 (  1796 PWs)   bands (ev):

   -45.8547 -22.5260 -22.4953 -22.4247  -6.8566  -6.1483  -5.8841  -5.0539
    -5.0423  -5.0222  -4.8916  -4.6330   2.5130   5.4251   6.0405   6.9197
     7.1695   7.3713   7.3753   8.3583   9.1481   9.6543

          k = 0.1667 0.1667 0.0000 (  1799 PWs)   bands (ev):

   -45.8558 -22.4901 -22.4457 -22.4454  -7.2474  -6.3752  -6.1653  -5.0516
    -5.0382  -5.0054  -4.8531  -4.7470   3.4998   6.2932   6.5229   6.7219
     7.7680   7.8520   8.5454   8.5686   8.8880   9.2670

          k = 0.1667 0.1667 0.2378 (  1801 PWs)   bands (ev):

   -45.8555 -22.5092 -22.4449 -22.4446  -7.0813  -6.3514  -6.1028  -5.0541
    -5.0336  -4.9987  -4.8445  -4.7613   3.1382   6.1087   6.1893   6.8524
     7.5513   7.5538   8.3759   8.7478   8.9726   9.3188

          k = 0.1667 0.1667-0.4756 (  1806 PWs)   bands (ev):

   -45.8553 -22.5283 -22.4440 -22.4438  -6.9153  -6.3273  -6.0301  -5.0652
    -5.0149  -4.9758  -4.8521  -4.7808   2.8094   5.9093   5.9196   6.5862
     7.4570   7.4717   8.2687   8.8180   9.0327   9.6366

          k = 0.1667 0.3333 0.0000 (  1793 PWs)   bands (ev):

   -45.8551 -22.4889 -22.4792 -22.4440  -6.9627  -6.3135  -6.1646  -5.0739
    -5.0284  -4.9888  -4.8303  -4.7545   3.0308   5.9858   6.5413   6.8259
     7.2123   7.8053   8.0618   8.7226   8.9005   9.6955

          k = 0.1667 0.3333 0.2378 (  1802 PWs)   bands (ev):

   -45.8549 -22.5075 -22.4785 -22.4432  -6.8459  -6.3067  -6.0953  -5.0520
    -5.0290  -4.9654  -4.8124  -4.7141   2.9033   5.8360   6.0053   6.4900
     6.9305   7.5771   8.4113   8.7027   9.0272   9.4122

          k = 0.1667 0.3333-0.4756 (  1796 PWs)   bands (ev):

   -45.8547 -22.5263 -22.4776 -22.4424  -6.7641  -6.2865  -5.9909  -5.0489
    -5.0062  -4.9266  -4.8248  -4.6632   2.7386   5.5167   5.9221   6.2230
     6.4325   7.4299   8.5154   8.7409   8.9222   9.4507

          k = 0.1667-0.5000 0.0000 (  1800 PWs)   bands (ev):

   -45.8548 -22.4966 -22.4876 -22.4433  -6.8066  -6.2687  -6.1874  -5.0770
    -5.0213  -4.9671  -4.8111  -4.7889   2.8445   5.6354   6.6969   6.8514
     7.1900   7.4661   7.9765   8.7820   8.8802   9.9774

          k = 0.1667-0.5000 0.2378 (  1798 PWs)   bands (ev):

   -45.8546 -22.5065 -22.4955 -22.4424  -6.7451  -6.2376  -6.1161  -5.0508
    -5.0168  -4.9429  -4.7938  -4.7075   2.7944   5.5969   5.9127   6.2784
     6.8774   7.7205   8.1798   8.7175   9.0184   9.3839

          k = 0.1667-0.5000-0.4756 (  1800 PWs)   bands (ev):

   -45.8544 -22.5253 -22.4945 -22.4416  -6.7333  -6.2079  -5.9761  -5.0442
    -4.9795  -4.9195  -4.8092  -4.6078   2.7040   5.3946   5.7828   5.8881
     6.3067   7.5413   8.3026   8.6587   8.6663   9.6624

          k = 0.3333 0.3333 0.0000 (  1804 PWs)   bands (ev):

   -45.8545 -22.4877 -22.4777 -22.4772  -6.7188  -6.2561  -6.2178  -5.0563
    -5.0106  -4.9208  -4.7578  -4.7515   2.6721   5.9498   6.0857   6.9505
     7.0879   7.2652   7.8811   8.5195   9.3860   9.4070

          k = 0.3333 0.3333 0.2378 (  1797 PWs)   bands (ev):

   -45.8543 -22.5059 -22.4769 -22.4768  -6.5960  -6.3045  -6.1835  -5.0201
    -5.0041  -4.8610  -4.7073  -4.6809   2.8543   5.6002   5.6635   5.9400
     6.6069   7.0680   8.3851   8.9919   9.0209   9.4022

          k = 0.3333 0.3333-0.4756 (  1794 PWs)   bands (ev):

   -45.8540 -22.5246 -22.4760 -22.4760  -6.5342  -6.3493  -6.0777  -4.9978
    -4.9838  -4.7963  -4.6625  -4.6066   3.0209   5.2166   5.2361   5.7019
     6.3528   6.5141   7.6511   9.3571   9.3710   9.5327

          k = 0.3333-0.5000 0.0000 (  1794 PWs)   bands (ev):

   -45.8542 -22.4947 -22.4863 -22.4765  -6.6083  -6.2342  -6.2195  -5.0491
    -4.9892  -4.8591  -4.7907  -4.7176   2.5049   5.6152   6.1210   6.7806
     7.3025   7.4054   7.5003   8.4948   9.0796   9.5738

          k = 0.3333-0.5000 0.2378 (  1790 PWs)   bands (ev):

   -45.8540 -22.5049 -22.4937 -22.4760  -6.4888  -6.2668  -6.2396  -5.0121
    -4.9787  -4.7712  -4.7100  -4.6484   2.7978   5.4978   5.5747   5.6832
     6.3902   7.1419   7.9052   8.9884   9.0194   9.5545

          k = 0.3333-0.5000-0.4756 (  1800 PWs)   bands (ev):

   -45.8537 -22.5236 -22.4928 -22.4752  -6.4828  -6.3105  -6.1157  -4.9840
    -4.9612  -4.7082  -4.6292  -4.5539   3.1668   4.9608   5.1468   5.4575
     6.1418   6.5292   6.8817   9.4570   9.5263   9.6841

          k =-0.5000-0.5000 0.0000 (  1764 PWs)   bands (ev):

   -45.8539 -22.4937 -22.4937 -22.4850  -6.5579  -6.1977  -6.1977  -5.0395
    -4.9473  -4.8082  -4.8082  -4.6704   2.3358   5.4601   5.9635   6.9997
     6.9997   7.5194   7.5194   8.2495   8.5821   9.8312

          k =-0.5000-0.5000 0.2378 (  1780 PWs)   bands (ev):

   -45.8537 -22.5039 -22.4929 -22.4929  -6.3677  -6.2826  -6.2826  -5.0013
    -4.9455  -4.6700  -4.6700  -4.6366   2.7457   5.4136   5.6171   5.6171
     5.9696   7.0827   7.2566   9.0202   9.0202   9.8157

          k =-0.5000-0.5000-0.4756 (  1808 PWs)   bands (ev):

   -45.8534 -22.5226 -22.4920 -22.4920  -6.3560  -6.3560  -6.1734  -4.9632
    -4.9437  -4.5918  -4.5412  -4.5412   3.4115   4.9830   4.9830   5.2906
     5.8884   5.9758   6.2472   9.6950   9.6950   9.8003

     highest occupied level (ev):    10.3573

!    total energy              =    -380.56946768 Ry
     estimated scf accuracy    <          7.4E-09 Ry

     The total energy is the sum of the following terms:
     one-electron contribution =     -84.08285164 Ry
     hartree contribution      =      71.16920743 Ry
     xc contribution           =    -102.54166402 Ry
     ewald contribution        =    -265.11415945 Ry

     convergence has been achieved in  14 iterations

     negative rho (up, down):  1.566E-02 0.000E+00

     Forces acting on atoms (cartesian axes, Ry/au):

     atom    1 type  1   force =     0.00000000    0.00000000   -0.00789456
     atom    2 type  2   force =     0.00000000    0.00000000   -0.01219943
     atom    3 type  3   force =     0.00000000    0.00000000    0.02027726
     atom    4 type  3   force =     0.00000000    0.00000000   -0.00009163
     atom    5 type  3   force =     0.00000000    0.00000000   -0.00009163

     Total force =     0.024947     Total SCF correction =     0.000400


     Computing stress (Cartesian axis) and pressure


     negative rho (up, down):  1.566E-02 0.000E+00
          total   stress  (Ry/bohr**3)                   (kbar)     P=      -63.48
  -0.00041991   0.00000000   0.00000000          -61.77        0.00        0.00
   0.00000000  -0.00041991   0.00000000            0.00      -61.77        0.00
   0.00000000   0.00000000  -0.00045484            0.00        0.00      -66.91


     BFGS Geometry Optimization
     Energy error            =      0.0E+00 Ry
     Gradient error          =      2.0E-02 Ry/Bohr

     number of scf cycles    =   1
     number of bfgs steps    =   0

     energy             new  =    -380.5694676839 Ry

     new trust radius        =       0.0202772614 bohr
     new conv_thr            =       0.0000000100 Ry


ATOMIC_POSITIONS (crystal)
Pb               0.0000000000        0.0000000000        1.0054035754
Ti               0.5000000000        0.5000000000        0.5388491456
O                0.5000000000        0.5000000000        0.1011974387
O                0.5000000000        0.0000000000        0.6109170641
O                0.0000000000        0.5000000000        0.6109170641



     Writing config-only to output data dir ./pto_40.save/ :
     XML data file
     NEW-OLD atomic charge density approx. for the potential

     Check: negative core charge=   -0.000003

     negative rho (up, down):  1.580E-02 0.000E+00

     total cpu time spent up to now is       13.3 secs

     Self-consistent Calculation

     iteration #  1     ecut=    40.00 Ry     beta= 0.70
     CG style diagonalization
     c_bands:  1 eigenvalues not converged
     c_bands:  1 eigenvalues not converged
     c_bands:  1 eigenvalues not converged
     c_bands:  1 eigenvalues not converged
     ethr =  1.00E-06,  avg # of iterations =  6.6

     negative rho (up, down):  1.578E-02 0.000E+00

     total cpu time spent up to now is       14.6 secs

     total energy              =    -380.56983202 Ry
     estimated scf accuracy    <       0.00023530 Ry

     iteration #  2     ecut=    40.00 Ry     beta= 0.70
     CG style diagonalization
     ethr =  5.35E-07,  avg # of iterations =  4.7

     negative rho (up, down):  1.578E-02 0.000E+00

     total cpu time spent up to now is       15.4 secs

     total energy              =    -380.56980415 Ry
     estimated scf accuracy    <       0.00068244 Ry

     iteration #  3     ecut=    40.00 Ry     beta= 0.70
     CG style diagonalization
     ethr =  5.35E-07,  avg # of iterations =  4.2

     negative rho (up, down):  1.578E-02 0.000E+00

     total cpu time spent up to now is       16.2 secs

     total energy              =    -380.56993992 Ry
     estimated scf accuracy    <       0.00005312 Ry

     iteration #  4     ecut=    40.00 Ry     beta= 0.70
     CG style diagonalization
     ethr =  1.21E-07,  avg # of iterations =  3.8

     negative rho (up, down):  1.578E-02 0.000E+00

     total cpu time spent up to now is       16.8 secs

     total energy              =    -380.56995327 Ry
     estimated scf accuracy    <       0.00000551 Ry

     iteration #  5     ecut=    40.00 Ry     beta= 0.70
     CG style diagonalization
     ethr =  1.25E-08,  avg # of iterations =  4.3

     negative rho (up, down):  1.578E-02 0.000E+00

     total cpu time spent up to now is       17.6 secs

     total energy              =    -380.56995638 Ry
     estimated scf accuracy    <       0.00000067 Ry

     iteration #  6     ecut=    40.00 Ry     beta= 0.70
     CG style diagonalization
     ethr =  1.53E-09,  avg # of iterations =  4.5

     negative rho (up, down):  1.578E-02 0.000E+00

     total cpu time spent up to now is       18.4 secs

     total energy              =    -380.56995676 Ry
     estimated scf accuracy    <       0.00000030 Ry

     iteration #  7     ecut=    40.00 Ry     beta= 0.70
     CG style diagonalization
     ethr =  6.84E-10,  avg # of iterations =  3.9

     negative rho (up, down):  1.578E-02 0.000E+00

     total cpu time spent up to now is       19.1 secs

     total energy              =    -380.56995682 Ry
     estimated scf accuracy    <       0.00000007 Ry

     iteration #  8     ecut=    40.00 Ry     beta= 0.70
     CG style diagonalization
     ethr =  1.55E-10,  avg # of iterations =  4.4

     negative rho (up, down):  1.578E-02 0.000E+00

     total cpu time spent up to now is       19.9 secs

     End of self-consistent calculation

          k = 0.0000 0.0000 0.0000 (  1815 PWs)   bands (ev):

   -45.8213 -22.4786 -22.3936 -22.3936  -7.5118  -6.4287  -6.2123  -5.0280
    -5.0280  -4.9948  -4.8768  -4.7629   4.2147   6.3119   6.3119   6.6567
     8.2080   8.2080   8.4934   8.7234   8.9493   8.9493

          k = 0.0000 0.0000 0.2378 (  1824 PWs)   bands (ev):

   -45.8210 -22.4981 -22.3928 -22.3928  -7.3162  -6.3698  -6.1569  -5.0431
    -5.0431  -4.9936  -4.8691  -4.8341   3.4486   6.3717   6.3717   6.8042
     7.9666   7.9666   8.4089   8.8102   9.0524   9.0524

          k = 0.0000 0.0000-0.4756 (  1792 PWs)   bands (ev):

   -45.8208 -22.5174 -22.3920 -22.3920  -7.1015  -6.3049  -6.1105  -5.0582
    -5.0582  -4.9923  -4.9113  -4.8631   2.9437   6.1618   6.4154   6.4154
     7.8050   7.8050   8.3283   9.1223   9.1223  10.0027

          k = 0.0000 0.1667 0.0000 (  1807 PWs)   bands (ev):

   -45.8210 -22.4779 -22.4108 -22.3929  -7.3774  -6.4000  -6.1844  -5.0492
    -5.0266  -5.0076  -4.8797  -4.7536   3.7910   6.3539   6.4217   6.6859
     8.1554   8.2332   8.4849   8.5774   8.6520   9.0163

          k = 0.0000 0.1667 0.2378 (  1798 PWs)   bands (ev):

   -45.8207 -22.4972 -22.4099 -22.3921  -7.1974  -6.3570  -6.1237  -5.0469
    -5.0422  -5.0068  -4.8773  -4.7901   3.2416   6.1555   6.4891   6.9015
     7.6428   7.9601   8.2710   8.6777   8.7234   9.3661

          k = 0.0000 0.1667-0.4756 (  1808 PWs)   bands (ev):

   -45.8205 -22.5165 -22.4090 -22.3913  -7.0096  -6.3081  -6.0629  -5.0578
    -5.0421  -5.0060  -4.8847  -4.8238   2.8207   5.8464   6.5355   6.5900
     7.4567   7.8081   8.3452   8.7317   8.8005   9.9360

          k = 0.0000 0.3333 0.0000 (  1791 PWs)   bands (ev):

   -45.8204 -22.4763 -22.4449 -22.3914  -7.0845  -6.3388  -6.1431  -5.0820
    -5.0329  -5.0238  -4.8734  -4.7624   3.2170   5.9893   6.6713   6.7099
     7.8518   7.8845   8.3380   8.3474   8.7416   9.6021

          k = 0.0000 0.3333 0.2378 (  1797 PWs)   bands (ev):

   -45.8201 -22.4954 -22.4439 -22.3906  -6.9667  -6.3010  -6.0627  -5.0520
    -5.0405  -5.0329  -4.8710  -4.7355   2.8916   5.8681   6.5596   6.7988
     7.3049   7.7352   7.8608   8.3771   8.9231   9.6765

          k = 0.0000 0.3333-0.4756 (  1804 PWs)   bands (ev):

   -45.8199 -22.5144 -22.4428 -22.3898  -6.8790  -6.2383  -5.9557  -5.0569
    -5.0332  -5.0136  -4.9078  -4.6865   2.6015   5.5575   6.3295   6.8393
     7.1974   7.3783   7.6807   8.4039   9.2947   9.5297

          k = 0.0000-0.5000 0.0000 (  1810 PWs)   bands (ev):

   -45.8201 -22.4754 -22.4621 -22.3907  -6.9216  -6.2925  -6.1473  -5.0965
    -5.0454  -5.0224  -4.8432  -4.7991   3.0088   5.6348   6.9440   6.9812
     7.3618   7.4762   8.2693   8.3745   8.7762  10.3448

          k = 0.0000-0.5000 0.2378 (  1784 PWs)   bands (ev):

   -45.8198 -22.4944 -22.4609 -22.3899  -6.8661  -6.2218  -6.0584  -5.0639
    -5.0460  -5.0395  -4.8400  -4.7316   2.7501   5.6024   6.5864   6.8496
     7.1756   7.3034   7.9706   8.3522   8.9247   9.8467

          k = 0.0000-0.5000-0.4756 (  1796 PWs)   bands (ev):

   -45.8196 -22.5133 -22.4597 -22.3890  -6.8494  -6.1459  -5.9062  -5.0564
    -5.0466  -5.0237  -4.8928  -4.6306   2.5113   5.4181   6.0415   6.9149
     7.1429   7.3863   7.3884   8.3378   9.1453   9.6285

          k = 0.1667 0.1667 0.0000 (  1799 PWs)   bands (ev):

   -45.8207 -22.4771 -22.4102 -22.4098  -7.2460  -6.3702  -6.1774  -5.0546
    -5.0411  -5.0092  -4.8580  -4.7447   3.4966   6.3016   6.5263   6.7221
     7.7185   7.8511   8.5085   8.5728   8.8939   9.2258

          k = 0.1667 0.1667 0.2378 (  1801 PWs)   bands (ev):

   -45.8204 -22.4964 -22.4093 -22.4090  -7.0768  -6.3463  -6.1177  -5.0572
    -5.0365  -5.0022  -4.8499  -4.7589   3.1307   6.1028   6.1838   6.8552
     7.5393   7.5512   8.3363   8.7446   8.9707   9.3163

          k = 0.1667 0.1667-0.4756 (  1806 PWs)   bands (ev):

   -45.8202 -22.5155 -22.4084 -22.4082  -6.9071  -6.3222  -6.0484  -5.0685
    -5.0186  -4.9778  -4.8581  -4.7781   2.7966   5.8996   5.9046   6.5980
     7.4503   7.4742   8.2402   8.8151   9.0280   9.6440

          k = 0.1667 0.3333 0.0000 (  1793 PWs)   bands (ev):

   -45.8201 -22.4756 -22.4440 -22.4084  -6.9630  -6.3101  -6.1768  -5.0762
    -5.0312  -4.9929  -4.8332  -4.7526   3.0292   5.9967   6.5379   6.8319
     7.2092   7.7567   8.0646   8.7083   8.8941   9.6737

          k = 0.1667 0.3333 0.2378 (  1802 PWs)   bands (ev):

   -45.8198 -22.4946 -22.4430 -22.4076  -6.8423  -6.3038  -6.1106  -5.0549
    -5.0316  -4.9701  -4.8155  -4.7117   2.8997   5.8342   6.0010   6.4942
     6.9253   7.5755   8.3988   8.6842   9.0165   9.4047

          k = 0.1667 0.3333-0.4756 (  1796 PWs)   bands (ev):

   -45.8196 -22.5136 -22.4420 -22.4067  -6.7573  -6.2832  -6.0092  -5.0523
    -5.0093  -4.9312  -4.8275  -4.6609   2.7325   5.5000   5.9195   6.2274
     6.4410   7.4377   8.4825   8.7440   8.9239   9.4334

          k = 0.1667-0.5000 0.0000 (  1800 PWs)   bands (ev):

   -45.8197 -22.4747 -22.4611 -22.4077  -6.8075  -6.2658  -6.2002  -5.0791
    -5.0240  -4.9721  -4.8102  -4.7894   2.8427   5.6515   6.6777   6.8636
     7.2008   7.4741   7.9105   8.7804   8.8614   9.9706

          k = 0.1667-0.5000 0.2378 (  1798 PWs)   bands (ev):

   -45.8195 -22.4936 -22.4600 -22.4068  -6.7413  -6.2351  -6.1331  -5.0535
    -5.0190  -4.9497  -4.7939  -4.7058   2.7922   5.6078   5.9099   6.2718
     6.8741   7.7152   8.1810   8.6871   9.0203   9.3653

          k = 0.1667-0.5000-0.4756 (  1800 PWs)   bands (ev):

   -45.8192 -22.5125 -22.4589 -22.4060  -6.7273  -6.2056  -5.9945  -5.0475
    -4.9814  -4.9277  -4.8088  -4.6059   2.7016   5.3837   5.7836   5.8910
     6.3086   7.5522   8.2978   8.6374   8.6664   9.6393

          k = 0.3333 0.3333 0.0000 (  1804 PWs)   bands (ev):

   -45.8194 -22.4741 -22.4423 -22.4421  -6.7246  -6.2533  -6.2250  -5.0581
    -5.0139  -4.9231  -4.7575  -4.7554   2.6705   5.9557   6.1069   6.9342
     7.0882   7.2172   7.9038   8.5067   9.3890   9.3970

          k = 0.3333 0.3333 0.2378 (  1797 PWs)   bands (ev):

   -45.8192 -22.4929 -22.4414 -22.4413  -6.5960  -6.3017  -6.1957  -5.0219
    -5.0078  -4.8657  -4.7122  -4.6782   2.8512   5.5939   5.6604   5.9466
     6.6182   7.0666   8.3818   8.9802   8.9966   9.4033

          k = 0.3333 0.3333-0.4756 (  1794 PWs)   bands (ev):

   -45.8189 -22.5118 -22.4405 -22.4404  -6.5298  -6.3463  -6.0933  -5.0018
    -4.9858  -4.8043  -4.6659  -4.6038   3.0149   5.2075   5.2340   5.7050
     6.3565   6.5358   7.6498   9.3302   9.3770   9.5121

          k = 0.3333-0.5000 0.0000 (  1794 PWs)   bands (ev):

   -45.8191 -22.4731 -22.4592 -22.4413  -6.6186  -6.2371  -6.2175  -5.0508
    -4.9925  -4.8598  -4.7891  -4.7246   2.5030   5.6279   6.1430   6.7540
     7.2631   7.4155   7.5029   8.4907   9.0799   9.5797

          k = 0.3333-0.5000 0.2378 (  1790 PWs)   bands (ev):

   -45.8189 -22.4920 -22.4582 -22.4405  -6.4906  -6.2648  -6.2498  -5.0140
    -4.9824  -4.7781  -4.7082  -4.6509   2.7950   5.4915   5.5842   5.6816
     6.4024   7.1382   7.9109   8.9714   8.9980   9.5587

          k = 0.3333-0.5000-0.4756 (  1800 PWs)   bands (ev):

   -45.8186 -22.5108 -22.4572 -22.4396  -6.4793  -6.3085  -6.1298  -4.9871
    -4.9639  -4.7204  -4.6273  -4.5536   3.1617   4.9600   5.1339   5.4698
     6.1519   6.5419   6.8846   9.4322   9.5328   9.6622

          k =-0.5000-0.5000 0.0000 (  1764 PWs)   bands (ev):

   -45.8188 -22.4721 -22.4582 -22.4582  -6.5730  -6.1962  -6.1962  -5.0412
    -4.9514  -4.8050  -4.8050  -4.6826   2.3333   5.4708   5.9924   6.9666
     6.9666   7.5261   7.5261   8.2440   8.5950   9.8379

          k =-0.5000-0.5000 0.2378 (  1780 PWs)   bands (ev):

   -45.8186 -22.4910 -22.4573 -22.4573  -6.3817  -6.2808  -6.2808  -5.0031
    -4.9495  -4.6672  -4.6672  -4.6505   2.7423   5.4254   5.6059   5.6059
     5.9986   7.0784   7.2674   9.0028   9.0028   9.8224

          k =-0.5000-0.5000-0.4756 (  1808 PWs)   bands (ev):

   -45.8183 -22.5098 -22.4564 -22.4564  -6.3540  -6.3540  -6.1859  -4.9650
    -4.9477  -4.6081  -4.5389  -4.5389   3.4047   4.9746   4.9746   5.3039
     5.9015   6.0049   6.2430   9.6739   9.6739   9.8070

     highest occupied level (ev):    10.3448

!    total energy              =    -380.56995686 Ry
     estimated scf accuracy    <          3.3E-09 Ry

     The total energy is the sum of the following terms:
     one-electron contribution =     -84.29950532 Ry
     hartree contribution      =      71.28681981 Ry
     xc contribution           =    -102.55147149 Ry
     ewald contribution        =    -265.00579985 Ry

     convergence has been achieved in   8 iterations

     negative rho (up, down):  1.578E-02 0.000E+00

     Forces acting on atoms (cartesian axes, Ry/au):

     atom    1 type  1   force =     0.00000000    0.00000000   -0.00851216
     atom    2 type  2   force =     0.00000000    0.00000000   -0.00503079
     atom    3 type  3   force =     0.00000000    0.00000000    0.01131328
     atom    4 type  3   force =     0.00000000    0.00000000    0.00111483
     atom    5 type  3   force =     0.00000000    0.00000000    0.00111483

     Total force =     0.015108     Total SCF correction =     0.000108


     Computing stress (Cartesian axis) and pressure


     negative rho (up, down):  1.578E-02 0.000E+00
          total   stress  (Ry/bohr**3)                   (kbar)     P=      -58.15
  -0.00040840   0.00000000   0.00000000          -60.08        0.00        0.00
   0.00000000  -0.00040840   0.00000000            0.00      -60.08        0.00
   0.00000000   0.00000000  -0.00036912            0.00        0.00      -54.30

     Energy error            =      4.9E-04 Ry
     Gradient error          =      1.1E-02 Ry/Bohr

     number of scf cycles    =   2
     number of bfgs steps    =   1

     energy             old  =    -380.5694676839 Ry
     energy             new  =    -380.5699568554 Ry

     CASE: energy            _new < energy            _old

     new trust radius        =       0.0223049876 bohr
     new conv_thr            =       0.0000000005 Ry


ATOMIC_POSITIONS (crystal)
Pb               0.0000000000        0.0000000000        1.0033761136
Ti               0.5000000000        0.5000000000        0.5375090646
O                0.5000000000        0.5000000000        0.1040762902
O                0.5000000000        0.0000000000        0.6111614098
O                0.0000000000        0.5000000000        0.6111614098



     Writing config-only to output data dir ./pto_40.save/ :
     XML data file
     NEW-OLD atomic charge density approx. for the potential

     Check: negative core charge=   -0.000003

     negative rho (up, down):  1.609E-02 0.000E+00

     total cpu time spent up to now is       20.7 secs

     Self-consistent Calculation

     iteration #  1     ecut=    40.00 Ry     beta= 0.70
     CG style diagonalization
     c_bands:  1 eigenvalues not converged
     ethr =  1.00E-06,  avg # of iterations =  6.9

     negative rho (up, down):  1.605E-02 0.000E+00

     total cpu time spent up to now is       22.1 secs

     total energy              =    -380.57012512 Ry
     estimated scf accuracy    <       0.00024292 Ry

     iteration #  2     ecut=    40.00 Ry     beta= 0.70
     CG style diagonalization
     ethr =  5.52E-07,  avg # of iterations =  4.6

     negative rho (up, down):  1.605E-02 0.000E+00

     total cpu time spent up to now is       22.9 secs

     total energy              =    -380.57009313 Ry
     estimated scf accuracy    <       0.00070752 Ry

     iteration #  3     ecut=    40.00 Ry     beta= 0.70
     CG style diagonalization
     ethr =  5.52E-07,  avg # of iterations =  4.2

     negative rho (up, down):  1.605E-02 0.000E+00

     total cpu time spent up to now is       23.7 secs

     total energy              =    -380.57023236 Ry
     estimated scf accuracy    <       0.00005459 Ry

     iteration #  4     ecut=    40.00 Ry     beta= 0.70
     CG style diagonalization
     ethr =  1.24E-07,  avg # of iterations =  3.7

     negative rho (up, down):  1.605E-02 0.000E+00

     total cpu time spent up to now is       24.3 secs

     total energy              =    -380.57024602 Ry
     estimated scf accuracy    <       0.00000588 Ry

     iteration #  5     ecut=    40.00 Ry     beta= 0.70
     CG style diagonalization
     ethr =  1.34E-08,  avg # of iterations =  4.2

     negative rho (up, down):  1.604E-02 0.000E+00

     total cpu time spent up to now is       25.1 secs

     total energy              =    -380.57024933 Ry
     estimated scf accuracy    <       0.00000057 Ry

     iteration #  6     ecut=    40.00 Ry     beta= 0.70
     CG style diagonalization
     ethr =  1.28E-09,  avg # of iterations =  4.7

     negative rho (up, down):  1.604E-02 0.000E+00

     total cpu time spent up to now is       25.9 secs

     total energy              =    -380.57024973 Ry
     estimated scf accuracy    <       0.00000029 Ry

     iteration #  7     ecut=    40.00 Ry     beta= 0.70
     CG style diagonalization
     ethr =  6.65E-10,  avg # of iterations =  4.0

     negative rho (up, down):  1.604E-02 0.000E+00

     total cpu time spent up to now is       26.6 secs

     total energy              =    -380.57024981 Ry
     estimated scf accuracy    <       0.00000007 Ry

     iteration #  8     ecut=    40.00 Ry     beta= 0.70
     CG style diagonalization
     ethr =  1.62E-10,  avg # of iterations =  4.5

     negative rho (up, down):  1.605E-02 0.000E+00

     total cpu time spent up to now is       27.4 secs

     total energy              =    -380.57024984 Ry
     estimated scf accuracy    <          2.5E-09 Ry

     iteration #  9     ecut=    40.00 Ry     beta= 0.70
     CG style diagonalization
     ethr =  5.67E-12,  avg # of iterations =  7.5

     negative rho (up, down):  1.605E-02 0.000E+00

     total cpu time spent up to now is       28.8 secs

     total energy              =    -380.57024986 Ry
     estimated scf accuracy    <          7.0E-10 Ry

     iteration # 10     ecut=    40.00 Ry     beta= 0.70
     CG style diagonalization
     ethr =  1.59E-12,  avg # of iterations =  4.8

     negative rho (up, down):  1.605E-02 0.000E+00

     total cpu time spent up to now is       29.7 secs

     End of self-consistent calculation

          k = 0.0000 0.0000 0.0000 (  1815 PWs)   bands (ev):

   -45.7864 -22.4678 -22.3583 -22.3583  -7.5149  -6.4311  -6.2207  -5.0270
    -5.0270  -4.9948  -4.8824  -4.7539   4.2055   6.3099   6.3099   6.6968
     8.1402   8.1402   8.4912   8.6644   8.9506   8.9506

          k = 0.0000 0.0000 0.2378 (  1824 PWs)   bands (ev):

   -45.7861 -22.4873 -22.3575 -22.3575  -7.3176  -6.3728  -6.1670  -5.0421
    -5.0421  -4.9935  -4.8740  -4.8246   3.4370   6.3593   6.3593   6.8244
     7.9238   7.9238   8.4063   8.7916   9.0504   9.0504

          k = 0.0000 0.0000-0.4756 (  1792 PWs)   bands (ev):

   -45.7858 -22.5068 -22.3567 -22.3567  -7.1008  -6.3086  -6.1229  -5.0571
    -5.0571  -4.9922  -4.9010  -4.8673   2.9256   6.1784   6.3897   6.3897
     7.7848   7.7848   8.3253   9.1195   9.1195  10.0043

          k = 0.0000 0.1667 0.0000 (  1807 PWs)   bands (ev):

   -45.7860 -22.4670 -22.3755 -22.3576  -7.3809  -6.4031  -6.1946  -5.0487
    -5.0256  -5.0074  -4.8823  -4.7445   3.7867   6.3522   6.4203   6.7002
     8.1233   8.1653   8.4758   8.5787   8.6234   8.9950

          k = 0.0000 0.1667 0.2378 (  1798 PWs)   bands (ev):

   -45.7858 -22.4865 -22.3746 -22.3568  -7.1992  -6.3607  -6.1355  -5.0457
    -5.0412  -5.0067  -4.8800  -4.7808   3.2342   6.1430   6.4776   6.9145
     7.6185   7.9185   8.2639   8.6597   8.7200   9.3635

          k = 0.0000 0.1667-0.4756 (  1808 PWs)   bands (ev):

   -45.7855 -22.5058 -22.3738 -22.3560  -7.0094  -6.3123  -6.0766  -5.0567
    -5.0401  -5.0059  -4.8866  -4.8150   2.8083   5.8315   6.5106   6.5989
     7.4440   7.7873   8.3427   8.7129   8.7986   9.9440

          k = 0.0000 0.3333 0.0000 (  1791 PWs)   bands (ev):

   -45.7854 -22.4655 -22.4098 -22.3561  -7.0886  -6.3439  -6.1574  -5.0808
    -5.0327  -5.0227  -4.8699  -4.7542   3.2159   5.9925   6.6675   6.7102
     7.8431   7.8863   8.2658   8.3441   8.7024   9.5945

          k = 0.0000 0.3333 0.2378 (  1797 PWs)   bands (ev):

   -45.7852 -22.4847 -22.4087 -22.3553  -6.9688  -6.3071  -6.0780  -5.0503
    -5.0394  -5.0327  -4.8691  -4.7262   2.8901   5.8618   6.5577   6.7901
     7.2930   7.7151   7.8587   8.3474   8.9043   9.6736

          k = 0.0000 0.3333-0.4756 (  1804 PWs)   bands (ev):

   -45.7849 -22.5037 -22.4077 -22.3545  -6.8794  -6.2448  -5.9725  -5.0557
    -5.0330  -5.0112  -4.9057  -4.6780   2.5989   5.5362   6.3399   6.8159
     7.1854   7.3864   7.6666   8.3917   9.2599   9.5440

          k = 0.0000-0.5000 0.0000 (  1810 PWs)   bands (ev):

   -45.7851 -22.4646 -22.4269 -22.3554  -6.9257  -6.2977  -6.1653  -5.0942
    -5.0452  -5.0214  -4.8326  -4.7958   3.0078   5.6459   6.9229   6.9831
     7.3696   7.4793   8.2642   8.2975   8.7356  10.3357

          k = 0.0000-0.5000 0.2378 (  1784 PWs)   bands (ev):

   -45.7849 -22.4837 -22.4257 -22.3546  -6.8680  -6.2281  -6.0772  -5.0613
    -5.0458  -5.0384  -4.8360  -4.7225   2.7506   5.6082   6.5785   6.8327
     7.1774   7.2845   7.9682   8.3090   8.9134   9.8364

          k = 0.0000-0.5000-0.4756 (  1796 PWs)   bands (ev):

   -45.7846 -22.5026 -22.4246 -22.3537  -6.8501  -6.1535  -5.9255  -5.0553
    -5.0464  -5.0206  -4.8882  -4.6226   2.5131   5.4052   6.0417   6.8984
     7.1118   7.3877   7.4042   8.3157   9.1454   9.6032

          k = 0.1667 0.1667 0.0000 (  1799 PWs)   bands (ev):

   -45.7857 -22.4663 -22.3749 -22.3745  -7.2501  -6.3739  -6.1886  -5.0539
    -5.0403  -5.0086  -4.8593  -4.7354   3.4932   6.3050   6.5263   6.7218
     7.6681   7.8437   8.4733   8.5732   8.8931   9.1851

          k = 0.1667 0.1667 0.2378 (  1801 PWs)   bands (ev):

   -45.7855 -22.4856 -22.3740 -22.3737  -7.0793  -6.3502  -6.1305  -5.0563
    -5.0352  -5.0015  -4.8518  -4.7494   3.1246   6.0922   6.1738   6.8569
     7.5234   7.5451   8.2961   8.7358   8.9636   9.3147

          k = 0.1667 0.1667-0.4756 (  1806 PWs)   bands (ev):

   -45.7852 -22.5048 -22.3731 -22.3729  -6.9076  -6.3262  -6.0629  -5.0678
    -5.0179  -4.9761  -4.8605  -4.7683   2.7862   5.8857   5.8883   6.6055
     7.4346   7.4749   8.2123   8.8057   9.0180   9.6533

          k = 0.1667 0.3333 0.0000 (  1793 PWs)   bands (ev):

   -45.7851 -22.4647 -22.4089 -22.3732  -6.9683  -6.3157  -6.1896  -5.0745
    -5.0302  -4.9926  -4.8312  -4.7436   3.0264   6.0026   6.5300   6.8354
     7.2016   7.7055   8.0662   8.6909   8.8814   9.6551

          k = 0.1667 0.3333 0.2378 (  1802 PWs)   bands (ev):

   -45.7849 -22.4838 -22.4079 -22.3723  -6.8455  -6.3096  -6.1245  -5.0536
    -5.0301  -4.9707  -4.8139  -4.7027   2.8964   5.8275   5.9913   6.4951
     6.9182   7.5713   8.3783   8.6646   9.0010   9.4010

          k = 0.1667 0.3333-0.4756 (  1796 PWs)   bands (ev):

   -45.7846 -22.5028 -22.4069 -22.3715  -6.7588  -6.2888  -6.0241  -5.0518
    -5.0082  -4.9321  -4.8253  -4.6526   2.7280   5.4800   5.9101   6.2300
     6.4446   7.4420   8.4480   8.7400   8.9274   9.4150

          k = 0.1667-0.5000 0.0000 (  1800 PWs)   bands (ev):

   -45.7848 -22.4638 -22.4259 -22.3724  -6.8133  -6.2718  -6.2149  -5.0769
    -5.0228  -4.9729  -4.8017  -4.7845   2.8397   5.6628   6.6533   6.8709
     7.2083   7.4794   7.8457   8.7725   8.8377   9.9673

          k = 0.1667-0.5000 0.2378 (  1798 PWs)   bands (ev):

   -45.7845 -22.4828 -22.4248 -22.3716  -6.7446  -6.2415  -6.1484  -5.0520
    -5.0172  -4.9525  -4.7887  -4.6977   2.7900   5.6134   5.9005   6.2624
     6.8694   7.7073   8.1757   8.6547   9.0158   9.3535

          k = 0.1667-0.5000-0.4756 (  1800 PWs)   bands (ev):

   -45.7843 -22.5018 -22.4237 -22.3707  -6.7291  -6.2124  -6.0094  -5.0468
    -4.9794  -4.9322  -4.8029  -4.5985   2.7007   5.3676   5.7741   5.8930
     6.3090   7.5590   8.2959   8.6071   8.6690   9.6143

          k = 0.3333 0.3333 0.0000 (  1804 PWs)   bands (ev):

   -45.7845 -22.4631 -22.4072 -22.4070  -6.7330  -6.2602  -6.2355  -5.0557
    -5.0129  -4.9207  -4.7587  -4.7456   2.6643   5.9564   6.1239   6.9111
     7.0906   7.1717   7.9211   8.4931   9.3837   9.3907

          k = 0.3333 0.3333 0.2378 (  1797 PWs)   bands (ev):

   -45.7842 -22.4821 -22.4063 -22.4061  -6.6017  -6.3076  -6.2073  -5.0196
    -5.0074  -4.8668  -4.7123  -4.6691   2.8438   5.5837   5.6547   5.9489
     6.6280   7.0649   8.3798   8.9649   8.9734   9.3969

          k = 0.3333 0.3333-0.4756 (  1794 PWs)   bands (ev):

   -45.7840 -22.5010 -22.4053 -22.4052  -6.5335  -6.3514  -6.1048  -5.0017
    -4.9837  -4.8096  -4.6644  -4.5955   3.0055   5.1976   5.2242   5.7058
     6.3590   6.5548   7.6564   9.3011   9.3741   9.4888

          k = 0.3333-0.5000 0.0000 (  1794 PWs)   bands (ev):

   -45.7842 -22.4622 -22.4240 -22.4062  -6.6286  -6.2467  -6.2252  -5.0484
    -4.9914  -4.8549  -4.7810  -4.7262   2.4950   5.6357   6.1609   6.7263
     7.2211   7.4222   7.5069   8.4848   9.0851   9.5771

          k = 0.3333-0.5000 0.2378 (  1790 PWs)   bands (ev):

   -45.7839 -22.4812 -22.4230 -22.4053  -6.4972  -6.2715  -6.2601  -5.0118
    -4.9818  -4.7821  -4.7007  -4.6474   2.7852   5.4834   5.5876   5.6790
     6.4129   7.1343   7.9223   8.9532   8.9742   9.5546

          k = 0.3333-0.5000-0.4756 (  1800 PWs)   bands (ev):

   -45.7837 -22.5000 -22.4221 -22.4045  -6.4835  -6.3144  -6.1397  -4.9862
    -4.9625  -4.7301  -4.6207  -4.5480   3.1491   4.9544   5.1201   5.4791
     6.1595   6.5523   6.8999   9.4050   9.5301   9.6381

          k =-0.5000-0.5000 0.0000 (  1764 PWs)   bands (ev):

   -45.7839 -22.4612 -22.4231 -22.4231  -6.5841  -6.2049  -6.2049  -5.0387
    -4.9511  -4.7941  -4.7941  -4.6919   2.3226   5.4766   6.0176   6.9338
     6.9338   7.5305   7.5305   8.2392   8.6120   9.8355

          k =-0.5000-0.5000 0.2378 (  1780 PWs)   bands (ev):

   -45.7836 -22.4802 -22.4222 -22.4222  -6.3915  -6.2877  -6.2877  -5.0008
    -4.9492  -4.6619  -4.6586  -4.6586   2.7282   5.4328   5.5950   5.5950
     6.0239   7.0742   7.2871   8.9834   8.9834   9.8201

          k =-0.5000-0.5000-0.4756 (  1808 PWs)   bands (ev):

   -45.7834 -22.4991 -22.4213 -22.4213  -6.3597  -6.3597  -6.1939  -4.9628
    -4.9474  -4.6222  -4.5320  -4.5320   3.3793   4.9671   4.9671   5.3142
     5.9323   6.0302   6.2373   9.6506   9.6506   9.8048

     highest occupied level (ev):    10.3357

!    total energy              =    -380.57024986 Ry
     estimated scf accuracy    <          7.3E-11 Ry

     The total energy is the sum of the following terms:
     one-electron contribution =     -84.63706439 Ry
     hartree contribution      =      71.46481016 Ry
     xc contribution           =    -102.56366137 Ry
     ewald contribution        =    -264.83433426 Ry

     convergence has been achieved in  10 iterations

     negative rho (up, down):  1.605E-02 0.000E+00

     Forces acting on atoms (cartesian axes, Ry/au):

     atom    1 type  1   force =     0.00000000    0.00000000   -0.00848214
     atom    2 type  2   force =     0.00000000    0.00000000    0.00274865
     atom    3 type  3   force =     0.00000000    0.00000000    0.00121642
     atom    4 type  3   force =     0.00000000    0.00000000    0.00225854
     atom    5 type  3   force =     0.00000000    0.00000000    0.00225854

     Total force =     0.009549     Total SCF correction =     0.000016


     Computing stress (Cartesian axis) and pressure


     negative rho (up, down):  1.605E-02 0.000E+00
          total   stress  (Ry/bohr**3)                   (kbar)     P=      -51.74
  -0.00039213   0.00000000   0.00000000          -57.68        0.00        0.00
   0.00000000  -0.00039213   0.00000000            0.00      -57.68        0.00
   0.00000000   0.00000000  -0.00027085            0.00        0.00      -39.84

     Energy error            =      2.9E-04 Ry
     Gradient error          =      8.5E-03 Ry/Bohr

     number of scf cycles    =   3
     number of bfgs steps    =   2

     energy             old  =    -380.5699568554 Ry
     energy             new  =    -380.5702498576 Ry

     CASE: energy            _new < energy            _old

     new trust radius        =       0.0189118257 bohr
     new conv_thr            =       0.0000000003 Ry


ATOMIC_POSITIONS (crystal)
Pb               0.0000000000        0.0000000000        1.0009352095
Ti               0.5000000000        0.5000000000        0.5372556176
O                0.5000000000        0.5000000000        0.1057804805
O                0.5000000000        0.0000000000        0.6116564903
O                0.0000000000        0.5000000000        0.6116564903



     Writing config-only to output data dir ./pto_40.save/ :
     XML data file
     NEW-OLD atomic charge density approx. for the potential

     Check: negative core charge=   -0.000003

     negative rho (up, down):  1.625E-02 0.000E+00

     total cpu time spent up to now is       30.5 secs

     Self-consistent Calculation

     iteration #  1     ecut=    40.00 Ry     beta= 0.70
     CG style diagonalization
     ethr =  1.00E-06,  avg # of iterations =  5.6

     negative rho (up, down):  1.622E-02 0.000E+00

     total cpu time spent up to now is       31.6 secs

     total energy              =    -380.57035796 Ry
     estimated scf accuracy    <       0.00005744 Ry

     iteration #  2     ecut=    40.00 Ry     beta= 0.70
     CG style diagonalization
     ethr =  1.31E-07,  avg # of iterations =  4.8

     negative rho (up, down):  1.622E-02 0.000E+00

     total cpu time spent up to now is       32.5 secs

     total energy              =    -380.57036081 Ry
     estimated scf accuracy    <       0.00014103 Ry

     iteration #  3     ecut=    40.00 Ry     beta= 0.70
     CG style diagonalization
     ethr =  1.31E-07,  avg # of iterations =  4.2

     negative rho (up, down):  1.621E-02 0.000E+00

     total cpu time spent up to now is       33.2 secs

     total energy              =    -380.57039023 Ry
     estimated scf accuracy    <       0.00001595 Ry

     iteration #  4     ecut=    40.00 Ry     beta= 0.70
     CG style diagonalization
     ethr =  3.63E-08,  avg # of iterations =  3.7

     negative rho (up, down):  1.621E-02 0.000E+00

     total cpu time spent up to now is       33.9 secs

     total energy              =    -380.57039390 Ry
     estimated scf accuracy    <       0.00000199 Ry

     iteration #  5     ecut=    40.00 Ry     beta= 0.70
     CG style diagonalization
     ethr =  4.51E-09,  avg # of iterations =  4.1

     negative rho (up, down):  1.621E-02 0.000E+00

     total cpu time spent up to now is       34.6 secs

     total energy              =    -380.57039494 Ry
     estimated scf accuracy    <       0.00000009 Ry

     iteration #  6     ecut=    40.00 Ry     beta= 0.70
     CG style diagonalization
     ethr =  2.12E-10,  avg # of iterations =  5.9

     negative rho (up, down):  1.621E-02 0.000E+00

     total cpu time spent up to now is       35.7 secs

     total energy              =    -380.57039510 Ry
     estimated scf accuracy    <       0.00000014 Ry

     iteration #  7     ecut=    40.00 Ry     beta= 0.70
     CG style diagonalization
     ethr =  2.12E-10,  avg # of iterations =  3.9

     negative rho (up, down):  1.621E-02 0.000E+00

     total cpu time spent up to now is       36.4 secs

     total energy              =    -380.57039512 Ry
     estimated scf accuracy    <       0.00000003 Ry

     iteration #  8     ecut=    40.00 Ry     beta= 0.70
     CG style diagonalization
     ethr =  6.71E-11,  avg # of iterations =  4.2

     negative rho (up, down):  1.621E-02 0.000E+00

     total cpu time spent up to now is       37.1 secs

     total energy              =    -380.57039513 Ry
     estimated scf accuracy    <          3.6E-09 Ry

     iteration #  9     ecut=    40.00 Ry     beta= 0.70
     CG style diagonalization
     ethr =  8.23E-12,  avg # of iterations =  5.4

     negative rho (up, down):  1.621E-02 0.000E+00

     total cpu time spent up to now is       38.1 secs

     End of self-consistent calculation

          k = 0.0000 0.0000 0.0000 (  1815 PWs)   bands (ev):

   -45.7733 -22.4656 -22.3456 -22.3456  -7.5252  -6.4455  -6.2215  -5.0211
    -5.0211  -4.9877  -4.8821  -4.7396   4.2021   6.3006   6.3006   6.7302
     8.1115   8.1115   8.4847   8.6360   8.9393   8.9393

          k = 0.0000 0.0000 0.2378 (  1824 PWs)   bands (ev):

   -45.7731 -22.4852 -22.3449 -22.3449  -7.3293  -6.3885  -6.1672  -5.0362
    -5.0362  -4.9865  -4.8726  -4.8088   3.4362   6.3452   6.3452   6.8413
     7.9054   7.9054   8.3997   8.7832   9.0374   9.0374

          k = 0.0000 0.0000-0.4756 (  1792 PWs)   bands (ev):

   -45.7728 -22.5046 -22.3441 -22.3441  -7.1147  -6.3260  -6.1219  -5.0511
    -5.0511  -4.9852  -4.8835  -4.8645   2.9229   6.1910   6.3698   6.3698
     7.7760   7.7760   8.3186   9.1053   9.1053  10.0023

          k = 0.0000 0.1667 0.0000 (  1807 PWs)   bands (ev):

   -45.7730 -22.4648 -22.3629 -22.3449  -7.3913  -6.4181  -6.1972  -5.0430
    -5.0197  -5.0004  -4.8792  -4.7299   3.7859   6.3448   6.4108   6.7112
     8.1126   8.1362   8.4657   8.5684   8.6037   8.9830

          k = 0.0000 0.1667 0.2378 (  1798 PWs)   bands (ev):

   -45.7727 -22.4843 -22.3620 -22.3441  -7.2111  -6.3765  -6.1373  -5.0390
    -5.0352  -4.9996  -4.8766  -4.7657   3.2350   6.1310   6.4636   6.9221
     7.6065   7.8995   8.2531   8.6478   8.7082   9.3603

          k = 0.0000 0.1667-0.4756 (  1808 PWs)   bands (ev):

   -45.7725 -22.5036 -22.3612 -22.3433  -7.0232  -6.3292  -6.0771  -5.0507
    -5.0324  -4.9989  -4.8820  -4.8001   2.8081   5.8219   6.4908   6.6008
     7.4366   7.7769   8.3275   8.7012   8.7864   9.9487

          k = 0.0000 0.3333 0.0000 (  1791 PWs)   bands (ev):

   -45.7724 -22.4633 -22.3973 -22.3435  -7.0992  -6.3598  -6.1645  -5.0741
    -5.0256  -5.0167  -4.8609  -4.7400   3.2172   5.9859   6.6647   6.7002
     7.8324   7.8799   8.2319   8.3352   8.6807   9.5987

          k = 0.0000 0.3333 0.2378 (  1797 PWs)   bands (ev):

   -45.7721 -22.4825 -22.3962 -22.3427  -6.9809  -6.3232  -6.0834  -5.0429
    -5.0334  -5.0256  -4.8615  -4.7116   2.8935   5.8510   6.5541   6.7765
     7.2782   7.6997   7.8559   8.3300   8.8909   9.6774

          k = 0.0000 0.3333-0.4756 (  1804 PWs)   bands (ev):

   -45.7719 -22.5016 -22.3951 -22.3418  -6.8927  -6.2624  -5.9759  -5.0497
    -5.0259  -5.0029  -4.8972  -4.6649   2.6033   5.5214   6.3408   6.7973
     7.1684   7.3842   7.6531   8.3801   9.2460   9.5528

          k = 0.0000-0.5000 0.0000 (  1810 PWs)   bands (ev):

   -45.7721 -22.4624 -22.4144 -22.3428  -6.9367  -6.3133  -6.1757  -5.0866
    -5.0380  -5.0154  -4.8157  -4.7871   3.0097   5.6425   6.9097   6.9712
     7.3665   7.4755   8.2540   8.2615   8.7130  10.3376

          k = 0.0000-0.5000 0.2378 (  1784 PWs)   bands (ev):

   -45.7718 -22.4815 -22.4132 -22.3419  -6.8804  -6.2453  -6.0839  -5.0532
    -5.0386  -5.0323  -4.8263  -4.7082   2.7551   5.6025   6.5711   6.8144
     7.1643   7.2715   7.9638   8.2872   8.9026   9.8404

          k = 0.0000-0.5000-0.4756 (  1796 PWs)   bands (ev):

   -45.7716 -22.5004 -22.4121 -22.3411  -6.8629  -6.1728  -5.9300  -5.0492
    -5.0393  -5.0121  -4.8771  -4.6104   2.5198   5.3928   6.0373   6.8739
     7.0943   7.3732   7.4094   8.3024   9.1555   9.5892

          k = 0.1667 0.1667 0.0000 (  1799 PWs)   bands (ev):

   -45.7727 -22.4641 -22.3623 -22.3619  -7.2605  -6.3895  -6.1926  -5.0478
    -5.0342  -5.0015  -4.8546  -4.7205   3.4916   6.2989   6.5204   6.7228
     7.6467   7.8320   8.4593   8.5678   8.8808   9.1694

          k = 0.1667 0.1667 0.2378 (  1801 PWs)   bands (ev):

   -45.7724 -22.4834 -22.3614 -22.3611  -7.0912  -6.3662  -6.1332  -5.0499
    -5.0283  -4.9947  -4.8475  -4.7345   3.1248   6.0816   6.1626   6.8566
     7.5149   7.5343   8.2775   8.7244   8.9505   9.3158

          k = 0.1667 0.1667-0.4756 (  1806 PWs)   bands (ev):

   -45.7722 -22.5027 -22.3605 -22.3603  -6.9217  -6.3426  -6.0637  -5.0613
    -5.0108  -4.9694  -4.8560  -4.7531   2.7862   5.8728   5.8804   6.6023
     7.4157   7.4725   8.2005   8.7931   9.0038   9.6603

          k = 0.1667 0.3333 0.0000 (  1793 PWs)   bands (ev):

   -45.7721 -22.4625 -22.3964 -22.3606  -6.9786  -6.3323  -6.1971  -5.0674
    -5.0238  -4.9856  -4.8228  -4.7289   3.0236   5.9971   6.5214   6.8335
     7.1904   7.6851   8.0617   8.6786   8.8661   9.6523

          k = 0.1667 0.3333 0.2378 (  1802 PWs)   bands (ev):

   -45.7718 -22.4816 -22.3954 -22.3597  -6.8577  -6.3257  -6.1292  -5.0467
    -5.0232  -4.9647  -4.8063  -4.6885   2.8958   5.8175   5.9796   6.4909
     6.9118   7.5668   8.3621   8.6504   8.9876   9.4043

          k = 0.1667 0.3333-0.4756 (  1796 PWs)   bands (ev):

   -45.7716 -22.5007 -22.3943 -22.3589  -6.7726  -6.3053  -6.0257  -5.0454
    -5.0012  -4.9266  -4.8169  -4.6397   2.7291   5.4668   5.8958   6.2287
     6.4379   7.4387   8.4331   8.7260   8.9335   9.4042

          k = 0.1667-0.5000 0.0000 (  1800 PWs)   bands (ev):

   -45.7718 -22.4616 -22.4134 -22.3598  -6.8233  -6.2883  -6.2250  -5.0695
    -5.0163  -4.9665  -4.7865  -4.7742   2.8363   5.6597   6.6377   6.8660
     7.2053   7.4772   7.8202   8.7590   8.8220   9.9713

          k = 0.1667-0.5000 0.2378 (  1798 PWs)   bands (ev):

   -45.7715 -22.4807 -22.4123 -22.3590  -6.7570  -6.2585  -6.1532  -5.0449
    -5.0102  -4.9476  -4.7783  -4.6842   2.7893   5.6078   5.8870   6.2544
     6.8647   7.7010   8.1643   8.6367   9.0055   9.3574

          k = 0.1667-0.5000-0.4756 (  1800 PWs)   bands (ev):

   -45.7713 -22.4996 -22.4112 -22.3581  -6.7423  -6.2299  -6.0109  -5.0404
    -4.9722  -4.9284  -4.7918  -4.5868   2.7029   5.3548   5.7541   5.8898
     6.3077   7.5559   8.3010   8.5920   8.6629   9.6000

          k = 0.3333 0.3333 0.0000 (  1804 PWs)   bands (ev):

   -45.7714 -22.4609 -22.3947 -22.3944  -6.7403  -6.2784  -6.2461  -5.0483
    -5.0058  -4.9120  -4.7519  -4.7302   2.6542   5.9486   6.1243   6.9001
     7.0874   7.1582   7.9195   8.4866   9.3683   9.3945

          k = 0.3333 0.3333 0.2378 (  1797 PWs)   bands (ev):

   -45.7712 -22.4799 -22.3938 -22.3935  -6.6129  -6.3240  -6.2118  -5.0121
    -5.0008  -4.8614  -4.7052  -4.6553   2.8337   5.5745   5.6500   5.9429
     6.6293   7.0641   8.3835   8.9532   8.9640   9.3815

          k = 0.3333 0.3333-0.4756 (  1794 PWs)   bands (ev):

   -45.7709 -22.4988 -22.3928 -22.3926  -6.5479  -6.3664  -6.1038  -4.9954
    -4.9763  -4.8073  -4.6569  -4.5832   2.9963   5.1931   5.2083   5.7026
     6.3580   6.5583   7.6733   9.2855   9.3592   9.4748

          k = 0.3333-0.5000 0.0000 (  1794 PWs)   bands (ev):

   -45.7711 -22.4599 -22.4115 -22.3937  -6.6323  -6.2619  -6.2438  -5.0409
    -4.9842  -4.8443  -4.7672  -4.7188   2.4818   5.6311   6.1615   6.7173
     7.2089   7.4172   7.5024   8.4807   9.0947   9.5627

          k = 0.3333-0.5000 0.2378 (  1790 PWs)   bands (ev):

   -45.7709 -22.4789 -22.4105 -22.3928  -6.5071  -6.2883  -6.2654  -5.0043
    -4.9750  -4.7787  -4.6887  -4.6370   2.7701   5.4785   5.5821   5.6759
     6.4132   7.1328   7.9372   8.9432   8.9601   9.5394

          k = 0.3333-0.5000-0.4756 (  1800 PWs)   bands (ev):

   -45.7706 -22.4978 -22.4095 -22.3919  -6.4976  -6.3297  -6.1375  -4.9794
    -4.9553  -4.7304  -4.6104  -4.5380   3.1316   4.9452   5.1143   5.4781
     6.1588   6.5527   6.9266   9.3904   9.5146   9.6250

          k =-0.5000-0.5000 0.0000 (  1764 PWs)   bands (ev):

   -45.7708 -22.4590 -22.4105 -22.4105  -6.5831  -6.2246  -6.2246  -5.0312
    -4.9442  -4.7777  -4.7777  -4.6917   2.3050   5.4713   6.0218   6.9272
     6.9272   7.5233   7.5233   8.2389   8.6259   9.8202

          k =-0.5000-0.5000 0.2378 (  1780 PWs)   bands (ev):

   -45.7706 -22.4780 -22.4096 -22.4096  -6.3894  -6.3044  -6.3044  -4.9933
    -4.9424  -4.6631  -4.6457  -4.6457   2.7051   5.4286   5.5926   5.5926
     6.0281   7.0726   7.3095   8.9720   8.9720   9.8050

          k =-0.5000-0.5000-0.4756 (  1808 PWs)   bands (ev):

   -45.7703 -22.4969 -22.4087 -22.4087  -6.3742  -6.3742  -6.1904  -4.9554
    -4.9405  -4.6251  -4.5219  -4.5219   3.3395   4.9666   4.9666   5.3134
     5.9731   6.0344   6.2327   9.6382   9.6382   9.7897

     highest occupied level (ev):    10.3376

!    total energy              =    -380.57039513 Ry
     estimated scf accuracy    <          2.9E-10 Ry

     The total energy is the sum of the following terms:
     one-electron contribution =     -84.95068245 Ry
     hartree contribution      =      71.62502043 Ry
     xc contribution           =    -102.57196298 Ry
     ewald contribution        =    -264.67277013 Ry

     convergence has been achieved in   9 iterations

     negative rho (up, down):  1.621E-02 0.000E+00

     Forces acting on atoms (cartesian axes, Ry/au):

     atom    1 type  1   force =     0.00000000    0.00000000   -0.00707550
     atom    2 type  2   force =     0.00000000    0.00000000    0.00534525
     atom    3 type  3   force =     0.00000000    0.00000000   -0.00357811
     atom    4 type  3   force =     0.00000000    0.00000000    0.00265418
     atom    5 type  3   force =     0.00000000    0.00000000    0.00265418

     Total force =     0.010273     Total SCF correction =     0.000032


     Computing stress (Cartesian axis) and pressure


     negative rho (up, down):  1.621E-02 0.000E+00
          total   stress  (Ry/bohr**3)                   (kbar)     P=      -47.45
  -0.00037606   0.00000000   0.00000000          -55.32        0.00        0.00
   0.00000000  -0.00037606   0.00000000            0.00      -55.32        0.00
   0.00000000   0.00000000  -0.00021554            0.00        0.00      -31.71

     Energy error            =      1.5E-04 Ry
     Gradient error          =      7.1E-03 Ry/Bohr

     number of scf cycles    =   4
     number of bfgs steps    =   3

     energy             old  =    -380.5702498576 Ry
     energy             new  =    -380.5703951335 Ry

     CASE: energy            _new < energy            _old

     new trust radius        =       0.0208030083 bohr
     new conv_thr            =       0.0000000001 Ry


ATOMIC_POSITIONS (crystal)
Pb               0.0000000000        0.0000000000        0.9982502148
Ti               0.5000000000        0.5000000000        0.5375337511
O                0.5000000000        0.5000000000        0.1068312587
O                0.5000000000        0.0000000000        0.6123345317
O                0.0000000000        0.5000000000        0.6123345317



     Writing config-only to output data dir ./pto_40.save/ :
     XML data file
     NEW-OLD atomic charge density approx. for the potential

     Check: negative core charge=   -0.000003

     negative rho (up, down):  1.616E-02 0.000E+00

     total cpu time spent up to now is       38.9 secs

     Self-consistent Calculation

     iteration #  1     ecut=    40.00 Ry     beta= 0.70
     CG style diagonalization
     ethr =  1.00E-06,  avg # of iterations =  5.4

     Threshold (ethr) on eigenvalues was too large:
     Diagonalizing with lowered threshold

     CG style diagonalization
     c_bands:  1 eigenvalues not converged
     c_bands:  1 eigenvalues not converged
     c_bands:  1 eigenvalues not converged
     c_bands:  2 eigenvalues not converged
     c_bands:  1 eigenvalues not converged
     c_bands:  1 eigenvalues not converged
     c_bands:  1 eigenvalues not converged
     c_bands:  1 eigenvalues not converged
     ethr =  4.17E-08,  avg # of iterations =  5.9

     negative rho (up, down):  1.613E-02 0.000E+00

     total cpu time spent up to now is       41.1 secs

     total energy              =    -380.57051480 Ry
     estimated scf accuracy    <       0.00002044 Ry

     iteration #  2     ecut=    40.00 Ry     beta= 0.70
     CG style diagonalization
     ethr =  4.64E-08,  avg # of iterations =  4.2

     negative rho (up, down):  1.612E-02 0.000E+00

     total cpu time spent up to now is       41.9 secs

     total energy              =    -380.57051434 Ry
     estimated scf accuracy    <       0.00001567 Ry

     iteration #  3     ecut=    40.00 Ry     beta= 0.70
     CG style diagonalization
     ethr =  3.56E-08,  avg # of iterations =  4.1

     negative rho (up, down):  1.612E-02 0.000E+00

     total cpu time spent up to now is       42.6 secs

     total energy              =    -380.57051857 Ry
     estimated scf accuracy    <       0.00001064 Ry

     iteration #  4     ecut=    40.00 Ry     beta= 0.70
     CG style diagonalization
     ethr =  2.42E-08,  avg # of iterations =  3.5

     negative rho (up, down):  1.612E-02 0.000E+00

     total cpu time spent up to now is       43.2 secs

     total energy              =    -380.57052024 Ry
     estimated scf accuracy    <       0.00000012 Ry

     iteration #  5     ecut=    40.00 Ry     beta= 0.70
     CG style diagonalization
     ethr =  2.66E-10,  avg # of iterations =  5.8

     negative rho (up, down):  1.612E-02 0.000E+00

     total cpu time spent up to now is       44.3 secs

     total energy              =    -380.57052048 Ry
     estimated scf accuracy    <       0.00000022 Ry

     iteration #  6     ecut=    40.00 Ry     beta= 0.70
     CG style diagonalization
     ethr =  2.66E-10,  avg # of iterations =  3.9

     negative rho (up, down):  1.612E-02 0.000E+00

     total cpu time spent up to now is       44.9 secs

     total energy              =    -380.57052050 Ry
     estimated scf accuracy    <       0.00000003 Ry

     iteration #  7     ecut=    40.00 Ry     beta= 0.70
     CG style diagonalization
     ethr =  5.78E-11,  avg # of iterations =  4.3

     negative rho (up, down):  1.612E-02 0.000E+00

     total cpu time spent up to now is       45.7 secs

     total energy              =    -380.57052051 Ry
     estimated scf accuracy    <          6.1E-09 Ry

     iteration #  8     ecut=    40.00 Ry     beta= 0.70
     CG style diagonalization
     ethr =  1.39E-11,  avg # of iterations =  4.8

     negative rho (up, down):  1.612E-02 0.000E+00

     total cpu time spent up to now is       46.6 secs

     total energy              =    -380.57052051 Ry
     estimated scf accuracy    <          4.9E-10 Ry

     iteration #  9     ecut=    40.00 Ry     beta= 0.70
     CG style diagonalization
     ethr =  1.12E-12,  avg # of iterations =  6.7

     negative rho (up, down):  1.612E-02 0.000E+00

     total cpu time spent up to now is       47.8 secs

     End of self-consistent calculation

          k = 0.0000 0.0000 0.0000 (  1815 PWs)   bands (ev):

   -45.7725 -22.4677 -22.3457 -22.3457  -7.5402  -6.4670  -6.2182  -5.0122
    -5.0122  -4.9766  -4.8785  -4.7216   4.2022   6.2866   6.2866   6.7603
     8.1037   8.1037   8.4752   8.6239   8.9205   8.9205

          k = 0.0000 0.0000 0.2378 (  1824 PWs)   bands (ev):

   -45.7722 -22.4872 -22.3449 -22.3449  -7.3473  -6.4116  -6.1621  -5.0273
    -5.0273  -4.9754  -4.8676  -4.7891   3.4416   6.3293   6.3293   6.8566
     7.9004   7.9004   8.3903   8.7802   9.0178   9.0178

          k = 0.0000 0.0000-0.4756 (  1792 PWs)   bands (ev):

   -45.7719 -22.5067 -22.3441 -22.3441  -7.1371  -6.3513  -6.1138  -5.0422
    -5.0422  -4.9741  -4.8616  -4.8577   2.9291   6.2014   6.3520   6.3520
     7.7737   7.7737   8.3093   9.0844   9.0844   9.9984

          k = 0.0000 0.1667 0.0000 (  1807 PWs)   bands (ev):

   -45.7721 -22.4669 -22.3630 -22.3450  -7.4062  -6.4401  -6.1958  -5.0341
    -5.0108  -4.9893  -4.8728  -4.7116   3.7872   6.3336   6.3963   6.7211
     8.1140   8.1281   8.4536   8.5509   8.5900   8.9749

          k = 0.0000 0.1667 0.2378 (  1798 PWs)   bands (ev):

   -45.7719 -22.4864 -22.3621 -22.3442  -7.2291  -6.3995  -6.1339  -5.0290
    -5.0263  -4.9885  -4.8698  -4.7469   3.2406   6.1185   6.4474   6.9271
     7.6015   7.8929   8.2401   8.6384   8.6910   9.3570

          k = 0.0000 0.1667-0.4756 (  1808 PWs)   bands (ev):

   -45.7716 -22.5057 -22.3612 -22.3434  -7.0454  -6.3536  -6.0706  -5.0418
    -5.0215  -4.9877  -4.8736  -4.7812   2.8150   5.8146   6.4730   6.5989
     7.4326   7.7726   8.3050   8.6926   8.7682   9.9521

          k = 0.0000 0.3333 0.0000 (  1791 PWs)   bands (ev):

   -45.7715 -22.4653 -22.3974 -22.3435  -7.1142  -6.3823  -6.1679  -5.0641
    -5.0144  -5.0078  -4.8487  -4.7221   3.2199   5.9738   6.6634   6.6841
     7.8211   7.8691   8.2176   8.3223   8.6685   9.6094

          k = 0.0000 0.3333 0.2378 (  1797 PWs)   bands (ev):

   -45.7713 -22.4845 -22.3963 -22.3427  -6.9992  -6.3457  -6.0836  -5.0322
    -5.0245  -5.0145  -4.8504  -4.6935   2.8997   5.8376   6.5499   6.7597
     7.2620   7.6872   7.8525   8.3183   8.8803   9.6848

          k = 0.0000 0.3333-0.4756 (  1804 PWs)   bands (ev):

   -45.7710 -22.5036 -22.3952 -22.3419  -6.9134  -6.2869  -5.9723  -5.0408
    -5.0147  -4.9912  -4.8848  -4.6487   2.6118   5.5095   6.3370   6.7805
     7.1476   7.3771   7.6398   8.3687   9.2430   9.5595

          k = 0.0000-0.5000 0.0000 (  1810 PWs)   bands (ev):

   -45.7712 -22.4645 -22.4146 -22.3428  -6.9522  -6.3353  -6.1820  -5.0757
    -5.0268  -5.0065  -4.7949  -4.7751   3.0130   5.6314   6.9024   6.9514
     7.3571   7.4674   8.2399   8.2472   8.6999  10.3459

          k = 0.0000-0.5000 0.2378 (  1784 PWs)   bands (ev):

   -45.7709 -22.4835 -22.4134 -22.3420  -6.8991  -6.2693  -6.0841  -5.0418
    -5.0275  -5.0234  -4.8131  -4.6906   2.7619   5.5906   6.5639   6.7959
     7.1428   7.2616   7.9582   8.2766   8.8925   9.8522

          k = 0.0000-0.5000-0.4756 (  1796 PWs)   bands (ev):

   -45.7707 -22.5025 -22.4122 -22.3411  -6.8827  -6.1991  -5.9268  -5.0403
    -5.0281  -5.0003  -4.8622  -4.5953   2.5294   5.3806   6.0303   6.8449
     7.0836   7.3496   7.4088   8.2940   9.1733   9.5800

          k = 0.1667 0.1667 0.0000 (  1799 PWs)   bands (ev):

   -45.7718 -22.4662 -22.3624 -22.3620  -7.2752  -6.4121  -6.1929  -5.0386
    -5.0249  -4.9907  -4.8464  -4.7020   3.4908   6.2871   6.5106   6.7250
     7.6413   7.8180   8.4561   8.5591   8.8620   9.1674

          k = 0.1667 0.1667 0.2378 (  1801 PWs)   bands (ev):

   -45.7716 -22.4855 -22.3615 -22.3612  -7.1092  -6.3893  -6.1306  -5.0402
    -5.0180  -4.9843  -4.8395  -4.7159   3.1284   6.0706   6.1501   6.8554
     7.5111   7.5208   8.2704   8.7109   8.9336   9.3189

          k = 0.1667 0.1667-0.4756 (  1806 PWs)   bands (ev):

   -45.7713 -22.5047 -22.3605 -22.3604  -6.9438  -6.3663  -6.0574  -5.0515
    -4.9998  -4.9597  -4.8476  -4.7343   2.7920   5.8627   5.8737   6.5935
     7.3951   7.4692   8.1974   8.7781   8.9869   9.6667

          k = 0.1667 0.3333 0.0000 (  1793 PWs)   bands (ev):

   -45.7712 -22.4646 -22.3965 -22.3607  -6.9923  -6.3556  -6.2016  -5.0572
    -5.0143  -4.9747  -4.8108  -4.7105   3.0204   5.9853   6.5124   6.8293
     7.1766   7.6821   8.0537   8.6686   8.8493   9.6582

          k = 0.1667 0.3333 0.2378 (  1802 PWs)   bands (ev):

   -45.7709 -22.4837 -22.3955 -22.3598  -6.8756  -6.3483  -6.1289  -5.0364
    -5.0130  -4.9547  -4.7952  -4.6708   2.8966   5.8058   5.9667   6.4837
     6.9060   7.5627   8.3490   8.6377   8.9753   9.4114

          k = 0.1667 0.3333-0.4756 (  1796 PWs)   bands (ev):

   -45.7707 -22.5027 -22.3944 -22.3589  -6.7935  -6.3285  -6.0203  -5.0357
    -4.9907  -4.9175  -4.8049  -4.6237   2.7334   5.4569   5.8782   6.2258
     6.4261   7.4315   8.4289   8.7058   8.9426   9.3967

          k = 0.1667-0.5000 0.0000 (  1800 PWs)   bands (ev):

   -45.7709 -22.4637 -22.4136 -22.3599  -6.8366  -6.3113  -6.2323  -5.0589
    -5.0066  -4.9559  -4.7672  -4.7606   2.8325   5.6489   6.6276   6.8539
     7.1970   7.4709   7.8158   8.7417   8.8108   9.9799

          k = 0.1667-0.5000 0.2378 (  1798 PWs)   bands (ev):

   -45.7706 -22.4827 -22.4125 -22.3590  -6.7752  -6.2821  -6.1522  -5.0346
    -5.0001  -4.9384  -4.7646  -4.6673   2.7892   5.5965   5.8716   6.2470
     6.8598   7.6964   8.1498   8.6257   8.9926   9.3691

          k = 0.1667-0.5000-0.4756 (  1800 PWs)   bands (ev):

   -45.7704 -22.5016 -22.4114 -22.3582  -6.7622  -6.2540  -6.0053  -5.0307
    -4.9619  -4.9200  -4.7774  -4.5724   2.7069   5.3440   5.7285   5.8834
     6.3057   7.5479   8.3088   8.5850   8.6541   9.5910

          k = 0.3333 0.3333 0.0000 (  1804 PWs)   bands (ev):

   -45.7706 -22.4629 -22.3949 -22.3945  -6.7483  -6.3035  -6.2564  -5.0379
    -4.9952  -4.8997  -4.7406  -4.7111   2.6416   5.9362   6.1156   6.8967
     7.0805   7.1624   7.9080   8.4844   9.3468   9.4041

          k = 0.3333 0.3333 0.2378 (  1797 PWs)   bands (ev):

   -45.7703 -22.4819 -22.3939 -22.3936  -6.6283  -6.3469  -6.2121  -5.0015
    -4.9905  -4.8521  -4.6940  -4.6384   2.8216   5.5660   5.6461   5.9318
     6.6267   7.0643   8.3915   8.9432   8.9616   9.3607

          k = 0.3333 0.3333-0.4756 (  1794 PWs)   bands (ev):

   -45.7701 -22.5009 -22.3929 -22.3927  -6.5689  -6.3874  -6.0961  -4.9854
    -4.9658  -4.8006  -4.6461  -4.5683   2.9867   5.1896   5.1919   5.6963
     6.3558   6.5539   7.6972   9.2768   9.3370   9.4660

          k = 0.3333-0.5000 0.0000 (  1794 PWs)   bands (ev):

   -45.7703 -22.4620 -22.4117 -22.3938  -6.6338  -6.2796  -6.2690  -5.0304
    -4.9733  -4.8303  -4.7500  -4.7061   2.4652   5.6200   6.1526   6.7193
     7.2141   7.4061   7.4925   8.4781   9.1071   9.5413

          k = 0.3333-0.5000 0.2378 (  1790 PWs)   bands (ev):

   -45.7700 -22.4810 -22.4107 -22.3929  -6.5206  -6.3113  -6.2669  -4.9938
    -4.9646  -4.7710  -4.6738  -4.6228   2.7513   5.4759   5.5722   5.6721
     6.4082   7.1334   7.9550   8.9377   8.9511   9.5177

          k = 0.3333-0.5000-0.4756 (  1800 PWs)   bands (ev):

   -45.7698 -22.4999 -22.4097 -22.3920  -6.5177  -6.3508  -6.1289  -4.9691
    -4.9449  -4.7254  -4.5977  -4.5253   3.1106   4.9350   5.1129   5.4712
     6.1542   6.5483   6.9605   9.3826   9.4915   9.6176

          k =-0.5000-0.5000 0.0000 (  1764 PWs)   bands (ev):

   -45.7700 -22.4611 -22.4107 -22.4107  -6.5756  -6.2510  -6.2510  -5.0207
    -4.9335  -4.7579  -4.7579  -4.6863   2.2826   5.4599   6.0150   6.9359
     6.9359   7.5094   7.5094   8.2414   8.6389   9.7974

          k =-0.5000-0.5000 0.2378 (  1780 PWs)   bands (ev):

   -45.7697 -22.4801 -22.4098 -22.4098  -6.3811  -6.3271  -6.3271  -4.9828
    -4.9316  -4.6586  -4.6301  -4.6301   2.6762   5.4182   5.5954   5.5954
     6.0213   7.0729   7.3344   8.9649   8.9649   9.7823

          k =-0.5000-0.5000-0.4756 (  1808 PWs)   bands (ev):

   -45.7695 -22.4989 -22.4089 -22.4089  -6.3942  -6.3942  -6.1808  -4.9448
    -4.9298  -4.6220  -4.5095  -4.5095   3.2911   4.9705   4.9705   5.3060
     6.0204   6.0276   6.2294   9.6317   9.6317   9.7672

     highest occupied level (ev):    10.3459

!    total energy              =    -380.57052052 Ry
     estimated scf accuracy    <          2.9E-11 Ry

     The total energy is the sum of the following terms:
     one-electron contribution =     -85.25264617 Ry
     hartree contribution      =      71.77612042 Ry
     xc contribution           =    -102.57809554 Ry
     ewald contribution        =    -264.51589922 Ry

     convergence has been achieved in   9 iterations

     negative rho (up, down):  1.612E-02 0.000E+00

     Forces acting on atoms (cartesian axes, Ry/au):

     atom    1 type  1   force =     0.00000000    0.00000000   -0.00481851
     atom    2 type  2   force =     0.00000000    0.00000000    0.00478405
     atom    3 type  3   force =     0.00000000    0.00000000   -0.00504580
     atom    4 type  3   force =     0.00000000    0.00000000    0.00254013
     atom    5 type  3   force =     0.00000000    0.00000000    0.00254013

     Total force =     0.009191     Total SCF correction =     0.000010


     Computing stress (Cartesian axis) and pressure


     negative rho (up, down):  1.612E-02 0.000E+00
          total   stress  (Ry/bohr**3)                   (kbar)     P=      -44.39
  -0.00035984   0.00000000   0.00000000          -52.93        0.00        0.00
   0.00000000  -0.00035984   0.00000000            0.00      -52.93        0.00
   0.00000000   0.00000000  -0.00018553            0.00        0.00      -27.29

     Energy error            =      1.3E-04 Ry
     Gradient error          =      5.0E-03 Ry/Bohr

     number of scf cycles    =   5
     number of bfgs steps    =   4

     energy             old  =    -380.5703951335 Ry
     energy             new  =    -380.5705205152 Ry

     CASE: energy            _new < energy            _old

     new trust radius        =       0.0312045124 bohr
     new conv_thr            =       0.0000000001 Ry


ATOMIC_POSITIONS (crystal)
Pb               0.0000000000        0.0000000000        0.9942227229
Ti               0.5000000000        0.5000000000        0.5383131369
O                0.5000000000        0.5000000000        0.1076147849
O                0.5000000000        0.0000000000        0.6135668216
O                0.0000000000        0.5000000000        0.6135668216



     Writing config-only to output data dir ./pto_40.save/ :
     XML data file
     NEW-OLD atomic charge density approx. for the potential

     Check: negative core charge=   -0.000003

     negative rho (up, down):  1.575E-02 0.000E+00

     total cpu time spent up to now is       48.6 secs

     Self-consistent Calculation

     iteration #  1     ecut=    40.00 Ry     beta= 0.70
     CG style diagonalization
     ethr =  1.00E-06,  avg # of iterations =  6.7

     negative rho (up, down):  1.572E-02 0.000E+00

     total cpu time spent up to now is       50.0 secs

     total energy              =    -380.57060771 Ry
     estimated scf accuracy    <       0.00004479 Ry

     iteration #  2     ecut=    40.00 Ry     beta= 0.70
     CG style diagonalization
     ethr =  1.02E-07,  avg # of iterations =  4.5

     negative rho (up, down):  1.570E-02 0.000E+00

     total cpu time spent up to now is       50.8 secs

     total energy              =    -380.57062483 Ry
     estimated scf accuracy    <       0.00002744 Ry

     iteration #  3     ecut=    40.00 Ry     beta= 0.70
     CG style diagonalization
     ethr =  6.24E-08,  avg # of iterations =  4.3

     negative rho (up, down):  1.569E-02 0.000E+00

     total cpu time spent up to now is       51.5 secs

     total energy              =    -380.57063227 Ry
     estimated scf accuracy    <       0.00002090 Ry

     iteration #  4     ecut=    40.00 Ry     beta= 0.70
     CG style diagonalization
     ethr =  4.75E-08,  avg # of iterations =  3.6

     negative rho (up, down):  1.569E-02 0.000E+00

     total cpu time spent up to now is       52.2 secs

     total energy              =    -380.57063610 Ry
     estimated scf accuracy    <       0.00000150 Ry

     iteration #  5     ecut=    40.00 Ry     beta= 0.70
     CG style diagonalization
     ethr =  3.40E-09,  avg # of iterations =  4.3

     negative rho (up, down):  1.569E-02 0.000E+00

     total cpu time spent up to now is       52.9 secs

     total energy              =    -380.57063689 Ry
     estimated scf accuracy    <       0.00000031 Ry

     iteration #  6     ecut=    40.00 Ry     beta= 0.70
     CG style diagonalization
     ethr =  7.02E-10,  avg # of iterations =  4.6

     negative rho (up, down):  1.569E-02 0.000E+00

     total cpu time spent up to now is       53.8 secs

     total energy              =    -380.57063707 Ry
     estimated scf accuracy    <       0.00000005 Ry

     iteration #  7     ecut=    40.00 Ry     beta= 0.70
     CG style diagonalization
     ethr =  1.11E-10,  avg # of iterations =  5.1

     negative rho (up, down):  1.569E-02 0.000E+00

     total cpu time spent up to now is       54.7 secs

     total energy              =    -380.57063713 Ry
     estimated scf accuracy    <          7.7E-09 Ry

     iteration #  8     ecut=    40.00 Ry     beta= 0.70
     CG style diagonalization
     ethr =  1.76E-11,  avg # of iterations =  5.4

     negative rho (up, down):  1.569E-02 0.000E+00

     total cpu time spent up to now is       55.6 secs

     total energy              =    -380.57063714 Ry
     estimated scf accuracy    <          8.1E-10 Ry

     iteration #  9     ecut=    40.00 Ry     beta= 0.70
     CG style diagonalization
     ethr =  1.83E-12,  avg # of iterations =  6.6

     negative rho (up, down):  1.569E-02 0.000E+00

     total cpu time spent up to now is       56.8 secs

     End of self-consistent calculation

          k = 0.0000 0.0000 0.0000 (  1815 PWs)   bands (ev):

   -45.7832 -22.4748 -22.3582 -22.3582  -7.5671  -6.5048  -6.2093  -4.9965
    -4.9965  -4.9564  -4.8697  -4.6915   4.2064   6.2609   6.2609   6.8001
     8.1112   8.1112   8.4581   8.6218   8.8859   8.8859

          k = 0.0000 0.0000 0.2378 (  1824 PWs)   bands (ev):

   -45.7829 -22.4943 -22.3574 -22.3574  -7.3798  -6.4522  -6.1498  -5.0115
    -5.0115  -4.9552  -4.8564  -4.7562   3.4560   6.3030   6.3030   6.8764
     7.9060   7.9060   8.3735   8.7813   8.9830   8.9830

          k = 0.0000 0.0000-0.4756 (  1792 PWs)   bands (ev):

   -45.7827 -22.5137 -22.3566 -22.3566  -7.1777  -6.3952  -6.0959  -5.0264
    -5.0264  -4.9539  -4.8437  -4.8251   2.9468   6.2141   6.3257   6.3257
     7.7784   7.7784   8.2926   9.0476   9.0476   9.9914

          k = 0.0000 0.1667 0.0000 (  1807 PWs)   bands (ev):

   -45.7829 -22.4740 -22.3755 -22.3575  -7.4330  -6.4786  -6.1898  -5.0180
    -4.9950  -4.9691  -4.8602  -4.6811   3.7912   6.3133   6.3696   6.7348
     8.1262   8.1358   8.4334   8.5181   8.5755   8.9682

          k = 0.0000 0.1667 0.2378 (  1798 PWs)   bands (ev):

   -45.7826 -22.4934 -22.3746 -22.3567  -7.2616  -6.4396  -6.1239  -5.0114
    -5.0105  -4.9683  -4.8562  -4.7154   3.2533   6.0989   6.4203   6.9320
     7.6005   7.8951   8.2192   8.6266   8.6613   9.3532

          k = 0.0000 0.1667-0.4756 (  1808 PWs)   bands (ev):

   -45.7824 -22.5127 -22.3737 -22.3559  -7.0854  -6.3960  -6.0547  -5.0259
    -5.0025  -4.9675  -4.8577  -4.7494   2.8319   5.8048   6.4465   6.5922
     7.4310   7.7733   8.2655   8.6828   8.7365   9.9568

          k = 0.0000 0.3333 0.0000 (  1791 PWs)   bands (ev):

   -45.7822 -22.4725 -22.4100 -22.3560  -7.1411  -6.4214  -6.1686  -5.0462
    -4.9943  -4.9919  -4.8281  -4.6919   3.2245   5.9516   6.6543   6.6644
     7.8047   7.8481   8.2156   8.2987   8.6598   9.6310

          k = 0.0000 0.3333 0.2378 (  1797 PWs)   bands (ev):

   -45.7820 -22.4916 -22.4089 -22.3552  -7.0321  -6.3849  -6.0785  -5.0131
    -5.0086  -4.9943  -4.8309  -4.6637   2.9111   5.8159   6.5437   6.7310
     7.2384   7.6711   7.8467   8.3076   8.8678   9.6994

          k = 0.0000 0.3333-0.4756 (  1804 PWs)   bands (ev):

   -45.7817 -22.5106 -22.4078 -22.3544  -6.9506  -6.3295  -5.9605  -5.0250
    -4.9945  -4.9708  -4.8631  -4.6217   2.6280   5.4943   6.3286   6.7554
     7.1132   7.3637   7.6210   8.3539   9.2478   9.5691

          k = 0.0000-0.5000 0.0000 (  1810 PWs)   bands (ev):

   -45.7819 -22.4716 -22.4272 -22.3553  -6.9801  -6.3740  -6.1863  -5.0567
    -5.0066  -4.9906  -4.7611  -4.7541   3.0185   5.6092   6.9002   6.9155
     7.3376   7.4501   8.2149   8.2466   8.6900  10.3641

          k = 0.0000-0.5000 0.2378 (  1784 PWs)   bands (ev):

   -45.7817 -22.4906 -22.4260 -22.3545  -6.9326  -6.3109  -6.0783  -5.0221
    -5.0076  -5.0073  -4.7902  -4.6618   2.7737   5.5683   6.5542   6.7699
     7.1038   7.2480   7.9485   8.2726   8.8792   9.8764

          k = 0.0000-0.5000-0.4756 (  1796 PWs)   bands (ev):

   -45.7814 -22.5095 -22.4248 -22.3536  -6.9179  -6.2443  -5.9156  -5.0244
    -5.0079  -4.9800  -4.8366  -4.5705   2.5460   5.3630   6.0191   6.7996
     7.0722   7.3069   7.4022   8.2881   9.2076   9.5705

          k = 0.1667 0.1667 0.0000 (  1799 PWs)   bands (ev):

   -45.7826 -22.4733 -22.3749 -22.3745  -7.3013  -6.4516  -6.1893  -5.0219
    -5.0083  -4.9712  -4.8309  -4.6712   3.4903   6.2636   6.4923   6.7299
     7.6479   7.7958   8.4615   8.5433   8.8291   9.1774

          k = 0.1667 0.1667 0.2378 (  1801 PWs)   bands (ev):

   -45.7823 -22.4926 -22.3740 -22.3737  -7.1414  -6.4296  -6.1217  -5.0230
    -4.9996  -4.9655  -4.8244  -4.6850   3.1369   6.0528   6.1301   6.8525
     7.4994   7.5110   8.2707   8.6879   8.9069   9.3263

          k = 0.1667 0.1667-0.4756 (  1806 PWs)   bands (ev):

   -45.7820 -22.5117 -22.3731 -22.3729  -6.9835  -6.4074  -6.0418  -5.0340
    -4.9800  -4.9424  -4.8315  -4.7030   2.8061   5.8491   5.8636   6.5763
     7.3628   7.4650   8.2017   8.7520   8.9615   9.6766

          k = 0.1667 0.3333 0.0000 (  1793 PWs)   bands (ev):

   -45.7819 -22.4717 -22.4091 -22.3732  -7.0171  -6.3959  -6.2044  -5.0390
    -4.9972  -4.9549  -4.7899  -4.6798   3.0150   5.9628   6.4979   6.8220
     7.1545   7.6943   8.0394   8.6557   8.8242   9.6751

          k = 0.1667 0.3333 0.2378 (  1802 PWs)   bands (ev):

   -45.7817 -22.4908 -22.4080 -22.3723  -6.9076  -6.3875  -6.1232  -5.0182
    -4.9949  -4.9363  -4.7754  -4.6416   2.8985   5.7869   5.9471   6.4696
     6.8987   7.5585   8.3330   8.6206   8.9589   9.4259

          k = 0.1667 0.3333-0.4756 (  1796 PWs)   bands (ev):

   -45.7814 -22.5097 -22.4070 -22.3714  -6.8308  -6.3687  -6.0062  -5.0182
    -4.9718  -4.9004  -4.7839  -4.5972   2.7422   5.4448   5.8491   6.2198
     6.4056   7.4186   8.4318   8.6707   8.9608   9.3886

          k = 0.1667-0.5000 0.0000 (  1800 PWs)   bands (ev):

   -45.7816 -22.4708 -22.4262 -22.3724  -6.8607  -6.3514  -6.2388  -5.0402
    -4.9894  -4.9365  -4.7373  -4.7352   2.8257   5.6272   6.6184   6.8284
     7.1820   7.4583   7.8293   8.7123   8.7994   9.9970

          k = 0.1667-0.5000 0.2378 (  1798 PWs)   bands (ev):

   -45.7814 -22.4898 -22.4251 -22.3715  -6.8078  -6.3230  -6.1452  -5.0163
    -4.9822  -4.9205  -4.7413  -4.6394   2.7890   5.5754   5.8485   6.2362
     6.8521   7.6927   8.1266   8.6162   8.9723   9.3932

          k = 0.1667-0.5000-0.4756 (  1800 PWs)   bands (ev):

   -45.7811 -22.5086 -22.4240 -22.3707  -6.7976  -6.2956  -5.9911  -5.0133
    -4.9438  -4.9031  -4.7533  -4.5484   2.7140   5.3299   5.6872   5.8713
     6.3022   7.5328   8.3182   8.5820   8.6441   9.5829

          k = 0.3333 0.3333 0.0000 (  1804 PWs)   bands (ev):

   -45.7813 -22.4700 -22.4074 -22.4071  -6.7633  -6.3464  -6.2691  -5.0195
    -4.9764  -4.8783  -4.7196  -4.6797   2.6202   5.9138   6.0948   6.8975
     7.0701   7.1849   7.8834   8.4863   9.3099   9.4239

          k = 0.3333 0.3333 0.2378 (  1797 PWs)   bands (ev):

   -45.7810 -22.4890 -22.4064 -22.4062  -6.6567  -6.3864  -6.2075  -4.9829
    -4.9722  -4.8346  -4.6737  -4.6106   2.8013   5.5552   5.6405   5.9111
     6.6209   7.0665   8.4081   8.9300   8.9650   9.3259

          k = 0.3333 0.3333-0.4756 (  1794 PWs)   bands (ev):

   -45.7808 -22.5079 -22.4055 -22.4053  -6.6059  -6.4240  -6.0793  -4.9674
    -4.9472  -4.7862  -4.6269  -4.5437   2.9714   5.1612   5.1928   5.6833
     6.3527   6.5421   7.7395   9.2704   9.2973   9.4585

          k = 0.3333-0.5000 0.0000 (  1794 PWs)   bands (ev):

   -45.7810 -22.4691 -22.4243 -22.4063  -6.6372  -6.3121  -6.3052  -5.0119
    -4.9541  -4.8070  -4.7215  -4.6822   2.4371   5.5984   6.1315   6.7321
     7.2367   7.3860   7.4747   8.4767   9.1279   9.5042

          k = 0.3333-0.5000 0.2378 (  1790 PWs)   bands (ev):

   -45.7807 -22.4880 -22.4233 -22.4055  -6.5470  -6.3508  -6.2633  -4.9753
    -4.9459  -4.7552  -4.6492  -4.5983   2.7197   5.4751   5.5536   5.6662
     6.3973   7.1369   7.9843   8.9339   8.9432   9.4802

          k = 0.3333-0.5000-0.4756 (  1800 PWs)   bands (ev):

   -45.7805 -22.5069 -22.4223 -22.4046  -6.5528  -6.3874  -6.1111  -4.9507
    -4.9264  -4.7127  -4.5766  -4.5037   3.0755   4.9212   5.1152   5.4547
     6.1450   6.5395   7.0166   9.3771   9.4512   9.6122

          k =-0.5000-0.5000 0.0000 (  1764 PWs)   bands (ev):

   -45.7807 -22.4682 -22.4233 -22.4233  -6.5594  -6.2955  -6.2955  -5.0022
    -4.9141  -4.7259  -4.7259  -4.6731   2.2453   5.4383   5.9966   6.9614
     6.9614   7.4849   7.4849   8.2481   8.6583   9.7572

          k =-0.5000-0.5000 0.2378 (  1780 PWs)   bands (ev):

   -45.7804 -22.4871 -22.4224 -22.4224  -6.3661  -6.3661  -6.3636  -4.9643
    -4.9123  -4.6466  -4.6046  -4.6046   2.6283   5.3974   5.6045   5.6045
     6.0028   7.0758   7.3740   8.9590   8.9590   9.7423

          k =-0.5000-0.5000-0.4756 (  1808 PWs)   bands (ev):

   -45.7802 -22.5059 -22.4215 -22.4215  -6.4290  -6.4290  -6.1618  -4.9263
    -4.9104  -4.6114  -4.4892  -4.4892   3.2134   4.9807   4.9807   5.2887
     6.0091   6.0947   6.2272   9.6277   9.6277   9.7274

     highest occupied level (ev):    10.3641

!    total energy              =    -380.57063714 Ry
     estimated scf accuracy    <          8.0E-11 Ry

     The total energy is the sum of the following terms:
     one-electron contribution =     -85.67719766 Ry
     hartree contribution      =      71.98542055 Ry
     xc contribution           =    -102.58479622 Ry
     ewald contribution        =    -264.29406381 Ry

     convergence has been achieved in   9 iterations

     negative rho (up, down):  1.569E-02 0.000E+00

     Forces acting on atoms (cartesian axes, Ry/au):

     atom    1 type  1   force =     0.00000000    0.00000000   -0.00070101
     atom    2 type  2   force =     0.00000000    0.00000000    0.00103319
     atom    3 type  3   force =     0.00000000    0.00000000   -0.00364218
     atom    4 type  3   force =     0.00000000    0.00000000    0.00165500
     atom    5 type  3   force =     0.00000000    0.00000000    0.00165500

     Total force =     0.004506     Total SCF correction =     0.000051


     Computing stress (Cartesian axis) and pressure


     negative rho (up, down):  1.569E-02 0.000E+00
          total   stress  (Ry/bohr**3)                   (kbar)     P=      -41.24
  -0.00033669   0.00000000   0.00000000          -49.53        0.00        0.00
   0.00000000  -0.00033669   0.00000000            0.00      -49.53        0.00
   0.00000000   0.00000000  -0.00016769            0.00        0.00      -24.67

     Energy error            =      1.2E-04 Ry
     Gradient error          =      3.6E-03 Ry/Bohr

     number of scf cycles    =   6
     number of bfgs steps    =   5

     energy             old  =    -380.5705205152 Ry
     energy             new  =    -380.5706371391 Ry

     CASE: energy            _new < energy            _old

     new trust radius        =       0.0054602161 bohr
     new conv_thr            =       0.0000000001 Ry


ATOMIC_POSITIONS (crystal)
Pb               0.0000000000        0.0000000000        0.9935179859
Ti               0.5000000000        0.5000000000        0.5385112776
O                0.5000000000        0.5000000000        0.1072825796
O                0.5000000000        0.0000000000        0.6139862225
O                0.0000000000        0.5000000000        0.6139862225



     Writing config-only to output data dir ./pto_40.save/ :
     XML data file
     NEW-OLD atomic charge density approx. for the potential

     Check: negative core charge=   -0.000003

     negative rho (up, down):  1.566E-02 0.000E+00

     total cpu time spent up to now is       57.8 secs

     Self-consistent Calculation

     iteration #  1     ecut=    40.00 Ry     beta= 0.70
     CG style diagonalization
     ethr =  1.00E-06,  avg # of iterations =  3.7

     Threshold (ethr) on eigenvalues was too large:
     Diagonalizing with lowered threshold

     CG style diagonalization
     c_bands:  1 eigenvalues not converged
     c_bands:  1 eigenvalues not converged
     c_bands:  3 eigenvalues not converged
     c_bands:  1 eigenvalues not converged
     c_bands:  2 eigenvalues not converged
     c_bands:  1 eigenvalues not converged
     c_bands:  1 eigenvalues not converged
     c_bands:  2 eigenvalues not converged
     c_bands:  1 eigenvalues not converged
     ethr =  2.03E-08,  avg # of iterations =  6.5

     negative rho (up, down):  1.566E-02 0.000E+00

     total cpu time spent up to now is       59.7 secs

     total energy              =    -380.57064885 Ry
     estimated scf accuracy    <       0.00001052 Ry

     iteration #  2     ecut=    40.00 Ry     beta= 0.70
     CG style diagonalization
     ethr =  2.39E-08,  avg # of iterations =  4.6

     negative rho (up, down):  1.565E-02 0.000E+00

     total cpu time spent up to now is       60.6 secs

     total energy              =    -380.57064803 Ry
     estimated scf accuracy    <       0.00002950 Ry

     iteration #  3     ecut=    40.00 Ry     beta= 0.70
     CG style diagonalization
     ethr =  2.39E-08,  avg # of iterations =  4.2

     negative rho (up, down):  1.565E-02 0.000E+00

     total cpu time spent up to now is       61.3 secs

     total energy              =    -380.57065388 Ry
     estimated scf accuracy    <       0.00000222 Ry

     iteration #  4     ecut=    40.00 Ry     beta= 0.70
     CG style diagonalization
     ethr =  5.05E-09,  avg # of iterations =  3.6

     negative rho (up, down):  1.565E-02 0.000E+00

     total cpu time spent up to now is       61.9 secs

     total energy              =    -380.57065442 Ry
     estimated scf accuracy    <       0.00000022 Ry

     iteration #  5     ecut=    40.00 Ry     beta= 0.70
     CG style diagonalization
     ethr =  4.95E-10,  avg # of iterations =  4.1

     negative rho (up, down):  1.565E-02 0.000E+00

     total cpu time spent up to now is       62.7 secs

     total energy              =    -380.57065453 Ry
     estimated scf accuracy    <       0.00000005 Ry

     iteration #  6     ecut=    40.00 Ry     beta= 0.70
     CG style diagonalization
     ethr =  1.15E-10,  avg # of iterations =  4.2

     negative rho (up, down):  1.565E-02 0.000E+00

     total cpu time spent up to now is       63.4 secs

     total energy              =    -380.57065455 Ry
     estimated scf accuracy    <          6.5E-09 Ry

     iteration #  7     ecut=    40.00 Ry     beta= 0.70
     CG style diagonalization
     ethr =  1.48E-11,  avg # of iterations =  4.7

     negative rho (up, down):  1.565E-02 0.000E+00

     total cpu time spent up to now is       64.3 secs

     total energy              =    -380.57065455 Ry
     estimated scf accuracy    <          1.2E-09 Ry

     iteration #  8     ecut=    40.00 Ry     beta= 0.70
     CG style diagonalization
     ethr =  2.63E-12,  avg # of iterations =  4.9

     negative rho (up, down):  1.565E-02 0.000E+00

     total cpu time spent up to now is       65.2 secs

     End of self-consistent calculation

          k = 0.0000 0.0000 0.0000 (  1815 PWs)   bands (ev):

   -45.7910 -22.4782 -22.3663 -22.3663  -7.5739  -6.5135  -6.2058  -4.9920
    -4.9920  -4.9506  -4.8661  -4.6840   4.2099   6.2536   6.2536   6.8039
     8.1202   8.1202   8.4530   8.6284   8.8768   8.8768

          k = 0.0000 0.0000 0.2378 (  1824 PWs)   bands (ev):

   -45.7907 -22.4977 -22.3656 -22.3656  -7.3880  -6.4614  -6.1455  -5.0070
    -5.0070  -4.9494  -4.8523  -4.7481   3.4618   6.2959   6.2959   6.8781
     7.9131   7.9131   8.3684   8.7841   8.9744   8.9744

          k = 0.0000 0.0000-0.4756 (  1792 PWs)   bands (ev):

   -45.7904 -22.5171 -22.3648 -22.3648  -7.1879  -6.4052  -6.0902  -5.0220
    -5.0220  -4.9481  -4.8390  -4.8163   2.9541   6.2147   6.3190   6.3190
     7.7843   7.7843   8.2876   9.0388   9.0388   9.9900

          k = 0.0000 0.1667 0.0000 (  1807 PWs)   bands (ev):

   -45.7906 -22.4775 -22.3837 -22.3656  -7.4397  -6.4875  -6.1868  -5.0134
    -4.9906  -4.9633  -4.8560  -4.6736   3.7933   6.3084   6.3621   6.7359
     8.1327   8.1452   8.4285   8.5090   8.5749   8.9698

          k = 0.0000 0.1667 0.2378 (  1798 PWs)   bands (ev):

   -45.7904 -22.4968 -22.3828 -22.3648  -7.2697  -6.4488  -6.1200  -5.0065
    -5.0061  -4.9625  -4.8518  -4.7077   3.2580   6.0943   6.4130   6.9313
     7.6035   7.9010   8.2154   8.6249   8.6545   9.3533

          k = 0.0000 0.1667-0.4756 (  1808 PWs)   bands (ev):

   -45.7901 -22.5161 -22.3819 -22.3640  -7.0954  -6.4057  -6.0494  -5.0215
    -4.9973  -4.9617  -4.8528  -4.7415   2.8381   5.8026   6.4397   6.5886
     7.4339   7.7781   8.2560   8.6816   8.7292   9.9582

          k = 0.0000 0.3333 0.0000 (  1791 PWs)   bands (ev):

   -45.7900 -22.4759 -22.4181 -22.3642  -7.1478  -6.4305  -6.1669  -5.0412
    -4.9887  -4.9873  -4.8226  -4.6845   3.2258   5.9464   6.6464   6.6666
     7.8034   7.8418   8.2230   8.2921   8.6620   9.6372

          k = 0.0000 0.3333 0.2378 (  1797 PWs)   bands (ev):

   -45.7898 -22.4950 -22.4170 -22.3634  -7.0401  -6.3941  -6.0753  -5.0079
    -5.0042  -4.9885  -4.8255  -4.6564   2.9144   5.8113   6.5432   6.7234
     7.2355   7.6688   7.8452   8.3095   8.8670   9.7036

          k = 0.0000 0.3333-0.4756 (  1804 PWs)   bands (ev):

   -45.7895 -22.5140 -22.4159 -22.3625  -6.9596  -6.3395  -5.9559  -5.0205
    -4.9888  -4.9653  -4.8572  -4.6151   2.6327   5.4921   6.3275   6.7492
     7.1067   7.3591   7.6186   8.3535   9.2526   9.5713

          k = 0.0000-0.5000 0.0000 (  1810 PWs)   bands (ev):

   -45.7897 -22.4750 -22.4353 -22.3635  -6.9870  -6.3834  -6.1849  -5.0515
    -5.0008  -4.9862  -4.7531  -4.7486   3.0199   5.6041   6.9054   6.9068
     7.3322   7.4438   8.2081   8.2549   8.6920  10.3699

          k = 0.0000-0.5000 0.2378 (  1784 PWs)   bands (ev):

   -45.7894 -22.4940 -22.4341 -22.3626  -6.9406  -6.3210  -6.0748  -5.0168
    -5.0031  -5.0015  -4.7842  -4.6548   2.7768   5.5632   6.5535   6.7670
     7.0944   7.2442   7.9462   8.2779   8.8778   9.8836

          k = 0.0000-0.5000-0.4756 (  1796 PWs)   bands (ev):

   -45.7892 -22.5128 -22.4329 -22.3618  -6.9262  -6.2551  -5.9111  -5.0200
    -5.0022  -4.9746  -4.8300  -4.5644   2.5504   5.3599   6.0185   6.7910
     7.0698   7.2968   7.3985   8.2916   9.2178   9.5706

          k = 0.1667 0.1667 0.0000 (  1799 PWs)   bands (ev):

   -45.7903 -22.4767 -22.3831 -22.3827  -7.3079  -6.4607  -6.1868  -5.0172
    -5.0036  -4.9656  -4.8262  -4.6636   3.4910   6.2564   6.4883   6.7302
     7.6554   7.7912   8.4669   8.5388   8.8219   9.1846

          k = 0.1667 0.1667 0.2378 (  1801 PWs)   bands (ev):

   -45.7901 -22.4960 -22.3821 -22.3819  -7.1496  -6.4388  -6.1180  -5.0182
    -4.9945  -4.9602  -4.8196  -4.6775   3.1402   6.0481   6.1260   6.8508
     7.4949   7.5145   8.2758   8.6822   8.9017   9.3295

          k = 0.1667 0.1667-0.4756 (  1806 PWs)   bands (ev):

   -45.7898 -22.5151 -22.3812 -22.3810  -6.9934  -6.4168  -6.0366  -5.0290
    -4.9744  -4.9377  -4.8265  -4.6953   2.8112   5.8460   5.8611   6.5718
     7.3556   7.4664   8.2072   8.7456   8.9567   9.6794

          k = 0.1667 0.3333 0.0000 (  1793 PWs)   bands (ev):

   -45.7897 -22.4751 -22.4172 -22.3813  -7.0233  -6.4053  -6.2032  -5.0340
    -4.9924  -4.9492  -4.7842  -4.6723   3.0141   5.9572   6.4944   6.8211
     7.1499   7.7039   8.0367   8.6540   8.8200   9.6816

          k = 0.1667 0.3333 0.2378 (  1802 PWs)   bands (ev):

   -45.7894 -22.4942 -22.4162 -22.3805  -6.9156  -6.3967  -6.1201  -5.0131
    -4.9899  -4.9308  -4.7700  -4.6345   2.8996   5.7830   5.9436   6.4655
     6.8985   7.5596   8.3322   8.6185   8.9567   9.4304

          k = 0.1667 0.3333-0.4756 (  1796 PWs)   bands (ev):

   -45.7892 -22.5131 -22.4151 -22.3796  -6.8399  -6.3782  -6.0013  -5.0133
    -4.9665  -4.8953  -4.7782  -4.5907   2.7453   5.4433   5.8429   6.2179
     6.4017   7.4162   8.4367   8.6627   8.9663   9.3883

          k = 0.1667-0.5000 0.0000 (  1800 PWs)   bands (ev):

   -45.7894 -22.4742 -22.4343 -22.3805  -6.8668  -6.3611  -6.2382  -5.0351
    -4.9846  -4.9307  -4.7313  -4.7275   2.8243   5.6221   6.6195   6.8200
     7.1799   7.4554   7.8403   8.7052   8.7997  10.0020

          k = 0.1667-0.5000 0.2378 (  1798 PWs)   bands (ev):

   -45.7891 -22.4932 -22.4332 -22.3797  -6.8157  -6.3328  -6.1417  -5.0113
    -4.9773  -4.9149  -4.7353  -4.6326   2.7894   5.5706   5.8448   6.2342
     6.8504   7.6946   8.1229   8.6171   8.9684   9.3999

          k = 0.1667-0.5000-0.4756 (  1800 PWs)   bands (ev):

   -45.7889 -22.5120 -22.4321 -22.3788  -6.8059  -6.3055  -5.9863  -5.0084
    -4.9389  -4.8977  -4.7472  -4.5424   2.7162   5.3280   5.6789   5.8690
     6.3012   7.5300   8.3206   8.5846   8.6429   9.5837

          k = 0.3333 0.3333 0.0000 (  1804 PWs)   bands (ev):

   -45.7891 -22.4735 -22.4155 -22.4152  -6.7673  -6.3565  -6.2704  -5.0145
    -4.9711  -4.8723  -4.7136  -4.6722   2.6157   5.9084   6.0884   6.8994
     7.0699   7.1959   7.8771   8.4896   9.3014   9.4298

          k = 0.3333 0.3333 0.2378 (  1797 PWs)   bands (ev):

   -45.7888 -22.4924 -22.4146 -22.4143  -6.6639  -6.3957  -6.2049  -4.9778
    -4.9670  -4.8292  -4.6680  -4.6039   2.7972   5.5543   5.6395   5.9056
     6.6209   7.0684   8.4143   8.9286   8.9680   9.3182

          k = 0.3333 0.3333-0.4756 (  1794 PWs)   bands (ev):

   -45.7886 -22.5113 -22.4136 -22.4134  -6.6148  -6.4327  -6.0743  -4.9622
    -4.9421  -4.7812  -4.6216  -4.5378   2.9688   5.1563   5.1941   5.6784
     6.3537   6.5395   7.7506   9.2720   9.2877   9.4593

          k = 0.3333-0.5000 0.0000 (  1794 PWs)   bands (ev):

   -45.7888 -22.4725 -22.4324 -22.4145  -6.6383  -6.3223  -6.3097  -5.0069
    -4.9487  -4.8007  -4.7146  -4.6755   2.4311   5.5933   6.1252   6.7380
     7.2463   7.3826   7.4720   8.4782   9.1329   9.4954

          k = 0.3333-0.5000 0.2378 (  1790 PWs)   bands (ev):

   -45.7885 -22.4914 -22.4314 -22.4136  -6.5538  -6.3603  -6.2609  -4.9702
    -4.9406  -4.7498  -4.6432  -4.5920   2.7131   5.4767   5.5491   5.6652
     6.3954   7.1396   7.9914   8.9353   8.9442   9.4714

          k = 0.3333-0.5000-0.4756 (  1800 PWs)   bands (ev):

   -45.7883 -22.5103 -22.4304 -22.4127  -6.5612  -6.3961  -6.1061  -4.9455
    -4.9213  -4.7075  -4.5714  -4.4983   3.0683   4.9195   5.1176   5.4489
     6.1437   6.5388   7.0295   9.3787   9.4416   9.6137

          k =-0.5000-0.5000 0.0000 (  1764 PWs)   bands (ev):

   -45.7884 -22.4716 -22.4314 -22.4314  -6.5546  -6.3060  -6.3060  -4.9971
    -4.9086  -4.7183  -4.7183  -4.6678   2.2374   5.4333   5.9915   6.9703
     6.9703   7.4809   7.4809   8.2511   8.6624   9.7475

          k =-0.5000-0.5000 0.2378 (  1780 PWs)   bands (ev):

   -45.7882 -22.4905 -22.4305 -22.4305  -6.3753  -6.3753  -6.3587  -4.9592
    -4.9067  -4.6413  -4.5985  -4.5985   2.6181   5.3919   5.6086   5.6086
     5.9977   7.0780   7.3823   8.9603   8.9603   9.7327

          k =-0.5000-0.5000-0.4756 (  1808 PWs)   bands (ev):

   -45.7880 -22.5093 -22.4296 -22.4296  -6.4373  -6.4373  -6.1566  -4.9213
    -4.9049  -4.6062  -4.4842  -4.4842   3.1972   4.9850   4.9850   5.2827
     6.0040   6.1102   6.2294   9.6294   9.6294   9.7179

     highest occupied level (ev):    10.3699

!    total energy              =    -380.57065456 Ry
     estimated scf accuracy    <          1.1E-10 Ry

     The total energy is the sum of the following terms:
     one-electron contribution =     -85.73048260 Ry
     hartree contribution      =      72.01028187 Ry
     xc contribution           =    -102.58468477 Ry
     ewald contribution        =    -264.26576905 Ry

     convergence has been achieved in   8 iterations

     negative rho (up, down):  1.565E-02 0.000E+00

     Forces acting on atoms (cartesian axes, Ry/au):

     atom    1 type  1   force =     0.00000000    0.00000000    0.00025914
     atom    2 type  2   force =     0.00000000    0.00000000   -0.00077224
     atom    3 type  3   force =     0.00000000    0.00000000   -0.00153569
     atom    4 type  3   force =     0.00000000    0.00000000    0.00102440
     atom    5 type  3   force =     0.00000000    0.00000000    0.00102440

     Total force =     0.002263     Total SCF correction =     0.000022


     Computing stress (Cartesian axis) and pressure


     negative rho (up, down):  1.565E-02 0.000E+00
          total   stress  (Ry/bohr**3)                   (kbar)     P=      -41.45
  -0.00033411   0.00000000   0.00000000          -49.15        0.00        0.00
   0.00000000  -0.00033411   0.00000000            0.00      -49.15        0.00
   0.00000000   0.00000000  -0.00017718            0.00        0.00      -26.06

     Energy error            =      1.7E-05 Ry
     Gradient error          =      1.5E-03 Ry/Bohr

     number of scf cycles    =   7
     number of bfgs steps    =   6

     energy             old  =    -380.5706371391 Ry
     energy             new  =    -380.5706545551 Ry

     CASE: energy            _new < energy            _old

     new trust radius        =       0.0032705093 bohr
     new conv_thr            =            1.0E-10 Ry


ATOMIC_POSITIONS (crystal)
Pb               0.0000000000        0.0000000000        0.9935257240
Ti               0.5000000000        0.5000000000        0.5384182680
O                0.5000000000        0.5000000000        0.1068604628
O                0.5000000000        0.0000000000        0.6142399167
O                0.0000000000        0.5000000000        0.6142399167



     Writing config-only to output data dir ./pto_40.save/ :
     XML data file
     NEW-OLD atomic charge density approx. for the potential

     Check: negative core charge=   -0.000003

     negative rho (up, down):  1.565E-02 0.000E+00

     total cpu time spent up to now is       66.0 secs

     Self-consistent Calculation

     iteration #  1     ecut=    40.00 Ry     beta= 0.70
     CG style diagonalization
     ethr =  1.00E-06,  avg # of iterations =  2.8

     Threshold (ethr) on eigenvalues was too large:
     Diagonalizing with lowered threshold

     CG style diagonalization
     c_bands:  1 eigenvalues not converged
     c_bands:  1 eigenvalues not converged
     c_bands:  1 eigenvalues not converged
     c_bands:  2 eigenvalues not converged
     c_bands:  1 eigenvalues not converged
     c_bands:  1 eigenvalues not converged
     c_bands:  1 eigenvalues not converged
     ethr =  4.21E-09,  avg # of iterations =  6.1

     negative rho (up, down):  1.565E-02 0.000E+00

     total cpu time spent up to now is       67.8 secs

     total energy              =    -380.57065697 Ry
     estimated scf accuracy    <       0.00000443 Ry

     iteration #  2     ecut=    40.00 Ry     beta= 0.70
     CG style diagonalization
     ethr =  1.01E-08,  avg # of iterations =  4.6

     negative rho (up, down):  1.565E-02 0.000E+00

     total cpu time spent up to now is       68.6 secs

     total energy              =    -380.57065600 Ry
     estimated scf accuracy    <       0.00001657 Ry

     iteration #  3     ecut=    40.00 Ry     beta= 0.70
     CG style diagonalization
     ethr =  1.01E-08,  avg # of iterations =  4.3

     negative rho (up, down):  1.565E-02 0.000E+00

     total cpu time spent up to now is       69.4 secs

     total energy              =    -380.57065900 Ry
     estimated scf accuracy    <       0.00000072 Ry

     iteration #  4     ecut=    40.00 Ry     beta= 0.70
     CG style diagonalization
     ethr =  1.64E-09,  avg # of iterations =  3.7

     negative rho (up, down):  1.565E-02 0.000E+00

     total cpu time spent up to now is       70.0 secs

     total energy              =    -380.57065919 Ry
     estimated scf accuracy    <       0.00000008 Ry

     iteration #  5     ecut=    40.00 Ry     beta= 0.70
     CG style diagonalization
     ethr =  1.91E-10,  avg # of iterations =  3.9

     negative rho (up, down):  1.565E-02 0.000E+00

     total cpu time spent up to now is       70.7 secs

     total energy              =    -380.57065922 Ry
     estimated scf accuracy    <       0.00000001 Ry

     iteration #  6     ecut=    40.00 Ry     beta= 0.70
     CG style diagonalization
     ethr =  2.57E-11,  avg # of iterations =  4.2

     negative rho (up, down):  1.565E-02 0.000E+00

     total cpu time spent up to now is       71.5 secs

     total energy              =    -380.57065923 Ry
     estimated scf accuracy    <          2.2E-09 Ry

     iteration #  7     ecut=    40.00 Ry     beta= 0.70
     CG style diagonalization
     ethr =  5.10E-12,  avg # of iterations =  4.3

     negative rho (up, down):  1.565E-02 0.000E+00

     total cpu time spent up to now is       72.2 secs

     total energy              =    -380.57065923 Ry
     estimated scf accuracy    <          3.0E-10 Ry

     iteration #  8     ecut=    40.00 Ry     beta= 0.70
     CG style diagonalization
     ethr =  6.71E-13,  avg # of iterations =  5.1

     negative rho (up, down):  1.565E-02 0.000E+00

     total cpu time spent up to now is       73.2 secs

     End of self-consistent calculation

          k = 0.0000 0.0000 0.0000 (  1815 PWs)   bands (ev):

   -45.7950 -22.4799 -22.3703 -22.3703  -7.5754  -6.5144  -6.2045  -4.9903
    -4.9903  -4.9484  -4.8642  -4.6816   4.2126   6.2511   6.2511   6.8013
     8.1235   8.1235   8.4507   8.6323   8.8744   8.8744

          k = 0.0000 0.0000 0.2378 (  1824 PWs)   bands (ev):

   -45.7948 -22.4994 -22.3696 -22.3696  -7.3897  -6.4624  -6.1442  -5.0053
    -5.0053  -4.9472  -4.8502  -4.7456   3.4646   6.2926   6.2926   6.8765
     7.9169   7.9169   8.3661   8.7859   8.9727   8.9727

          k = 0.0000 0.0000-0.4756 (  1792 PWs)   bands (ev):

   -45.7945 -22.5188 -22.3688 -22.3688  -7.1898  -6.4063  -6.0888  -5.0202
    -5.0202  -4.9459  -4.8369  -4.8136   2.9572   6.2134   6.3149   6.3149
     7.7891   7.7891   8.2853   9.0371   9.0371   9.9903

          k = 0.0000 0.1667 0.0000 (  1807 PWs)   bands (ev):

   -45.7947 -22.4792 -22.3876 -22.3696  -7.4412  -6.4885  -6.1856  -5.0116
    -4.9888  -4.9611  -4.8541  -4.6712   3.7948   6.3076   6.3597   6.7343
     8.1354   8.1488   8.4268   8.5065   8.5755   8.9716

          k = 0.0000 0.1667 0.2378 (  1798 PWs)   bands (ev):

   -45.7944 -22.4985 -22.3867 -22.3688  -7.2714  -6.4500  -6.1187  -5.0047
    -5.0044  -4.9603  -4.8498  -4.7052   3.2600   6.0926   6.4099   6.9299
     7.6058   7.9043   8.2157   8.6241   8.6534   9.3543

          k = 0.0000 0.1667-0.4756 (  1808 PWs)   bands (ev):

   -45.7942 -22.5178 -22.3859 -22.3680  -7.0972  -6.4070  -6.0481  -5.0198
    -4.9954  -4.9595  -4.8507  -4.7391   2.8407   5.8010   6.4358   6.5866
     7.4372   7.7823   8.2544   8.6808   8.7283   9.9597

          k = 0.0000 0.3333 0.0000 (  1791 PWs)   bands (ev):

   -45.7941 -22.4776 -22.4220 -22.3682  -7.1493  -6.4320  -6.1657  -5.0393
    -4.9867  -4.9855  -4.8208  -4.6822   3.2264   5.9462   6.6444   6.6687
     7.8056   7.8399   8.2261   8.2899   8.6635   9.6386

          k = 0.0000 0.3333 0.2378 (  1797 PWs)   bands (ev):

   -45.7938 -22.4967 -22.4209 -22.3674  -7.0416  -6.3957  -6.0742  -5.0059
    -5.0024  -4.9864  -4.8236  -4.6542   2.9156   5.8109   6.5440   6.7207
     7.2374   7.6685   7.8447   8.3122   8.8676   9.7048

          k = 0.0000 0.3333-0.4756 (  1804 PWs)   bands (ev):

   -45.7936 -22.5157 -22.4199 -22.3665  -6.9610  -6.3414  -5.9547  -5.0188
    -4.9866  -4.9633  -4.8552  -4.6130   2.6344   5.4914   6.3295   6.7456
     7.1067   7.3575   7.6195   8.3559   9.2542   9.5729

          k = 0.0000-0.5000 0.0000 (  1810 PWs)   bands (ev):

   -45.7938 -22.4767 -22.4392 -22.3675  -6.9883  -6.3854  -6.1836  -5.0497
    -4.9987  -4.9845  -4.7509  -4.7466   3.0202   5.6048   6.9057   6.9109
     7.3313   7.4407   8.2057   8.2586   8.6935  10.3715

          k = 0.0000-0.5000 0.2378 (  1784 PWs)   bands (ev):

   -45.7935 -22.4957 -22.4380 -22.3666  -6.9418  -6.3231  -6.0735  -5.0149
    -5.0014  -4.9993  -4.7821  -4.6527   2.7778   5.5635   6.5547   6.7688
     7.0933   7.2411   7.9456   8.2820   8.8785   9.8855

          k = 0.0000-0.5000-0.4756 (  1796 PWs)   bands (ev):

   -45.7933 -22.5145 -22.4368 -22.3658  -6.9273  -6.2574  -5.9099  -5.0183
    -5.0000  -4.9727  -4.8278  -4.5624   2.5520   5.3595   6.0213   6.7908
     7.0667   7.2955   7.3969   8.2960   9.2216   9.5713

          k = 0.1667 0.1667 0.0000 (  1799 PWs)   bands (ev):

   -45.7944 -22.4784 -22.3870 -22.3867  -7.3095  -6.4619  -6.1856  -5.0153
    -5.0018  -4.9635  -4.8243  -4.6612   3.4919   6.2539   6.4883   6.7290
     7.6588   7.7908   8.4696   8.5370   8.8217   9.1875

          k = 0.1667 0.1667 0.2378 (  1801 PWs)   bands (ev):

   -45.7941 -22.4977 -22.3861 -22.3858  -7.1513  -6.4401  -6.1167  -5.0163
    -4.9925  -4.9581  -4.8177  -4.6751   3.1417   6.0457   6.1252   6.8494
     7.4946   7.5178   8.2788   8.6805   8.9013   9.3315

          k = 0.1667 0.1667-0.4756 (  1806 PWs)   bands (ev):

   -45.7939 -22.5168 -22.3852 -22.3850  -6.9953  -6.4181  -6.0352  -5.0272
    -4.9723  -4.9359  -4.8244  -4.6930   2.8134   5.8438   5.8597   6.5714
     7.3536   7.4696   8.2107   8.7440   8.9559   9.6814

          k = 0.1667 0.3333 0.0000 (  1793 PWs)   bands (ev):

   -45.7938 -22.4768 -22.4211 -22.3853  -7.0248  -6.4069  -6.2023  -5.0322
    -4.9906  -4.9470  -4.7822  -4.6700   3.0143   5.9567   6.4931   6.8224
     7.1492   7.7085   8.0376   8.6539   8.8201   9.6836

          k = 0.1667 0.3333 0.2378 (  1802 PWs)   bands (ev):

   -45.7935 -22.4959 -22.4201 -22.3844  -6.9172  -6.3983  -6.1190  -5.0112
    -4.9880  -4.9287  -4.7680  -4.6323   2.9004   5.7825   5.9436   6.4639
     6.8997   7.5619   8.3341   8.6186   8.9568   9.4318

          k = 0.1667 0.3333-0.4756 (  1796 PWs)   bands (ev):

   -45.7933 -22.5148 -22.4191 -22.3836  -6.8415  -6.3800  -6.0002  -5.0114
    -4.9646  -4.8932  -4.7762  -4.5886   2.7467   5.4429   5.8420   6.2170
     6.4027   7.4172   8.4397   8.6617   8.9682   9.3886

          k = 0.1667-0.5000 0.0000 (  1800 PWs)   bands (ev):

   -45.7934 -22.4759 -22.4382 -22.3845  -6.8681  -6.3632  -6.2373  -5.0333
    -4.9828  -4.9284  -4.7293  -4.7253   2.8244   5.6228   6.6213   6.8166
     7.1820   7.4559   7.8450   8.7035   8.8008  10.0035

          k = 0.1667-0.5000 0.2378 (  1798 PWs)   bands (ev):

   -45.7932 -22.4949 -22.4371 -22.3837  -6.8171  -6.3349  -6.1406  -5.0094
    -4.9755  -4.9126  -4.7333  -4.6305   2.7899   5.5709   5.8456   6.2337
     6.8500   7.6975   8.1241   8.6179   8.9684   9.4012

          k = 0.1667-0.5000-0.4756 (  1800 PWs)   bands (ev):

   -45.7930 -22.5137 -22.4360 -22.3828  -6.8072  -6.3077  -5.9853  -5.0065
    -4.9371  -4.8954  -4.7452  -4.5404   2.7174   5.3280   5.6785   5.8696
     6.3009   7.5313   8.3226   8.5859   8.6430   9.5846

          k = 0.3333 0.3333 0.0000 (  1804 PWs)   bands (ev):

   -45.7931 -22.4752 -22.4194 -22.4192  -6.7685  -6.3583  -6.2702  -5.0128
    -4.9691  -4.8701  -4.7113  -4.6699   2.6154   5.9078   6.0875   6.9000
     7.0722   7.2000   7.8774   8.4923   9.3000   9.4316

          k = 0.3333 0.3333 0.2378 (  1797 PWs)   bands (ev):

   -45.7929 -22.4941 -22.4185 -22.4183  -6.6656  -6.3974  -6.2041  -4.9760
    -4.9650  -4.8270  -4.6659  -4.6018   2.7971   5.5551   5.6395   5.9046
     6.6235   7.0700   8.4178   8.9292   8.9688   9.3170

          k = 0.3333 0.3333-0.4756 (  1794 PWs)   bands (ev):

   -45.7926 -22.5130 -22.4175 -22.4174  -6.6166  -6.4342  -6.0733  -4.9603
    -4.9403  -4.7789  -4.6196  -4.5359   2.9691   5.1566   5.1947   5.6757
     6.3562   6.5416   7.7541   9.2731   9.2860   9.4600

          k = 0.3333-0.5000 0.0000 (  1794 PWs)   bands (ev):

   -45.7928 -22.4742 -22.4363 -22.4184  -6.6389  -6.3245  -6.3102  -5.0051
    -4.9467  -4.7983  -4.7125  -4.6731   2.4306   5.5936   6.1246   6.7397
     7.2489   7.3846   7.4739   8.4800   9.1343   9.4940

          k = 0.3333-0.5000 0.2378 (  1790 PWs)   bands (ev):

   -45.7926 -22.4931 -22.4353 -22.4175  -6.5553  -6.3622  -6.2602  -4.9684
    -4.9386  -4.7474  -4.6413  -4.5899   2.7125   5.4783   5.5490   5.6653
     6.3971   7.1418   7.9938   8.9363   8.9455   9.4700

          k = 0.3333-0.5000-0.4756 (  1800 PWs)   bands (ev):

   -45.7923 -22.5120 -22.4343 -22.4166  -6.5627  -6.3979  -6.1052  -4.9435
    -4.9194  -4.7050  -4.5697  -4.4964   3.0678   4.9203   5.1190   5.4466
     6.1455   6.5417   7.0324   9.3796   9.4401   9.6147

          k =-0.5000-0.5000 0.0000 (  1764 PWs)   bands (ev):

   -45.7925 -22.4733 -22.4353 -22.4353  -6.5538  -6.3082  -6.3082  -4.9953
    -4.9065  -4.7162  -4.7162  -4.6652   2.2366   5.4335   5.9927   6.9719
     6.9719   7.4830   7.4830   8.2528   8.6640   9.7459

          k =-0.5000-0.5000 0.2378 (  1780 PWs)   bands (ev):

   -45.7923 -22.4922 -22.4344 -22.4344  -6.3772  -6.3772  -6.3579  -4.9574
    -4.9046  -4.6386  -4.5967  -4.5967   2.6169   5.3914   5.6107   5.6107
     5.9990   7.0798   7.3842   8.9617   8.9617   9.7311

          k =-0.5000-0.5000-0.4756 (  1808 PWs)   bands (ev):

   -45.7920 -22.5110 -22.4335 -22.4335  -6.4390  -6.4390  -6.1559  -4.9195
    -4.9028  -4.6034  -4.4827  -4.4827   3.1951   4.9872   4.9872   5.2806
     6.0053   6.1129   6.2325   9.6305   9.6305   9.7163

     highest occupied level (ev):    10.3715

!    total energy              =    -380.57065923 Ry
     estimated scf accuracy    <          3.2E-11 Ry

     The total energy is the sum of the following terms:
     one-electron contribution =     -85.71155013 Ry
     hartree contribution      =      72.00016679 Ry
     xc contribution           =    -102.58376973 Ry
     ewald contribution        =    -264.27550616 Ry

     convergence has been achieved in   8 iterations

     negative rho (up, down):  1.565E-02 0.000E+00

     Forces acting on atoms (cartesian axes, Ry/au):

     atom    1 type  1   force =     0.00000000    0.00000000    0.00030655
     atom    2 type  2   force =     0.00000000    0.00000000   -0.00124161
     atom    3 type  3   force =     0.00000000    0.00000000   -0.00010770
     atom    4 type  3   force =     0.00000000    0.00000000    0.00052137
     atom    5 type  3   force =     0.00000000    0.00000000    0.00052137

     Total force =     0.001480     Total SCF correction =     0.000016


     Computing stress (Cartesian axis) and pressure


     negative rho (up, down):  1.565E-02 0.000E+00
          total   stress  (Ry/bohr**3)                   (kbar)     P=      -42.03
  -0.00033602   0.00000000   0.00000000          -49.43        0.00        0.00
   0.00000000  -0.00033602   0.00000000            0.00      -49.43        0.00
   0.00000000   0.00000000  -0.00018517            0.00        0.00      -27.24

     Energy error            =      4.7E-06 Ry
     Gradient error          =      1.2E-03 Ry/Bohr

     number of scf cycles    =   8
     number of bfgs steps    =   7

     energy             old  =    -380.5706545551 Ry
     energy             new  =    -380.5706592278 Ry

     CASE: energy            _new < energy            _old

     new trust radius        =       0.0018147549 bohr
     new conv_thr            =            1.0E-10 Ry


ATOMIC_POSITIONS (crystal)
Pb               0.0000000000        0.0000000000        0.9935841581
Ti               0.5000000000        0.5000000000        0.5381888286
O                0.5000000000        0.5000000000        0.1066262367
O                0.5000000000        0.0000000000        0.6144425323
O                0.0000000000        0.5000000000        0.6144425323



     Writing config-only to output data dir ./pto_40.save/ :
     XML data file
     NEW-OLD atomic charge density approx. for the potential

     Check: negative core charge=   -0.000003

     negative rho (up, down):  1.565E-02 0.000E+00

     total cpu time spent up to now is       74.0 secs

     Self-consistent Calculation

     iteration #  1     ecut=    40.00 Ry     beta= 0.70
     CG style diagonalization
     ethr =  1.00E-06,  avg # of iterations =  2.9

     Threshold (ethr) on eigenvalues was too large:
     Diagonalizing with lowered threshold

     CG style diagonalization
     c_bands:  1 eigenvalues not converged
     c_bands:  1 eigenvalues not converged
     c_bands:  2 eigenvalues not converged
     c_bands:  1 eigenvalues not converged
     c_bands:  1 eigenvalues not converged
     ethr =  1.68E-09,  avg # of iterations =  7.4

     negative rho (up, down):  1.565E-02 0.000E+00

     total cpu time spent up to now is       76.0 secs

     total energy              =    -380.57066155 Ry
     estimated scf accuracy    <       0.00000096 Ry

     iteration #  2     ecut=    40.00 Ry     beta= 0.70
     CG style diagonalization
     ethr =  2.19E-09,  avg # of iterations =  4.5

     negative rho (up, down):  1.565E-02 0.000E+00

     total cpu time spent up to now is       76.8 secs

     total energy              =    -380.57066137 Ry
     estimated scf accuracy    <       0.00000309 Ry

     iteration #  3     ecut=    40.00 Ry     beta= 0.70
     CG style diagonalization
     ethr =  2.19E-09,  avg # of iterations =  4.1

     negative rho (up, down):  1.565E-02 0.000E+00

     total cpu time spent up to now is       77.6 secs

     total energy              =    -380.57066197 Ry
     estimated scf accuracy    <       0.00000014 Ry

     iteration #  4     ecut=    40.00 Ry     beta= 0.70
     CG style diagonalization
     ethr =  3.20E-10,  avg # of iterations =  3.7

     negative rho (up, down):  1.565E-02 0.000E+00

     total cpu time spent up to now is       78.2 secs

     total energy              =    -380.57066200 Ry
     estimated scf accuracy    <       0.00000001 Ry

     iteration #  5     ecut=    40.00 Ry     beta= 0.70
     CG style diagonalization
     ethr =  3.17E-11,  avg # of iterations =  4.5

     negative rho (up, down):  1.565E-02 0.000E+00

     total cpu time spent up to now is       79.0 secs

     total energy              =    -380.57066201 Ry
     estimated scf accuracy    <          4.0E-09 Ry

     iteration #  6     ecut=    40.00 Ry     beta= 0.70
     CG style diagonalization
     ethr =  8.99E-12,  avg # of iterations =  4.1

     negative rho (up, down):  1.565E-02 0.000E+00

     total cpu time spent up to now is       79.8 secs

     total energy              =    -380.57066201 Ry
     estimated scf accuracy    <          7.8E-10 Ry

     iteration #  7     ecut=    40.00 Ry     beta= 0.70
     CG style diagonalization
     ethr =  1.78E-12,  avg # of iterations =  4.4

     negative rho (up, down):  1.565E-02 0.000E+00

     total cpu time spent up to now is       80.6 secs

     total energy              =    -380.57066201 Ry
     estimated scf accuracy    <          1.4E-10 Ry

     iteration #  8     ecut=    40.00 Ry     beta= 0.70
     CG style diagonalization
     ethr =  3.26E-13,  avg # of iterations =  4.9

     negative rho (up, down):  1.565E-02 0.000E+00

     total cpu time spent up to now is       81.4 secs

     End of self-consistent calculation

          k = 0.0000 0.0000 0.0000 (  1815 PWs)   bands (ev):

   -45.7957 -22.4805 -22.3708 -22.3708  -7.5757  -6.5136  -6.2043  -4.9893
    -4.9893  -4.9472  -4.8631  -4.6800   4.2145   6.2498   6.2498   6.7999
     8.1209   8.1209   8.4491   8.6317   8.8740   8.8740

          k = 0.0000 0.0000 0.2378 (  1824 PWs)   bands (ev):

   -45.7955 -22.5000 -22.3700 -22.3700  -7.3898  -6.4616  -6.1443  -5.0043
    -5.0043  -4.9460  -4.8491  -4.7439   3.4657   6.2898   6.2898   6.8755
     7.9169   7.9169   8.3645   8.7863   8.9727   8.9727

          k = 0.0000 0.0000-0.4756 (  1792 PWs)   bands (ev):

   -45.7952 -22.5193 -22.3692 -22.3692  -7.1896  -6.4055  -6.0893  -5.0193
    -5.0193  -4.9447  -4.8358  -4.8120   2.9581   6.2128   6.3104   6.3104
     7.7918   7.7918   8.2837   9.0372   9.0372   9.9910

          k = 0.0000 0.1667 0.0000 (  1807 PWs)   bands (ev):

   -45.7954 -22.4797 -22.3881 -22.3701  -7.4416  -6.4879  -6.1854  -5.0106
    -4.9879  -4.9599  -4.8531  -4.6696   3.7958   6.3077   6.3586   6.7329
     8.1352   8.1466   8.4254   8.5058   8.5746   8.9719

          k = 0.0000 0.1667 0.2378 (  1798 PWs)   bands (ev):

   -45.7951 -22.4991 -22.3872 -22.3693  -7.2716  -6.4494  -6.1188  -5.0036
    -5.0034  -4.9591  -4.8488  -4.7037   3.2608   6.0910   6.4073   6.9291
     7.6062   7.9041   8.2165   8.6225   8.6536   9.3551

          k = 0.0000 0.1667-0.4756 (  1808 PWs)   bands (ev):

   -45.7949 -22.5183 -22.3863 -22.3685  -7.0971  -6.4064  -6.0486  -5.0188
    -4.9943  -4.9584  -4.8496  -4.7376   2.8413   5.7988   6.4315   6.5857
     7.4393   7.7847   8.2546   8.6791   8.7288   9.9615

          k = 0.0000 0.3333 0.0000 (  1791 PWs)   bands (ev):

   -45.7948 -22.4781 -22.4224 -22.3687  -7.1496  -6.4319  -6.1657  -5.0383
    -4.9856  -4.9844  -4.8198  -4.6807   3.2267   5.9474   6.6439   6.6703
     7.8078   7.8394   8.2235   8.2887   8.6624   9.6382

          k = 0.0000 0.3333 0.2378 (  1797 PWs)   bands (ev):

   -45.7945 -22.4973 -22.4214 -22.3678  -7.0416  -6.3957  -6.0745  -5.0049
    -5.0015  -4.9852  -4.8225  -4.6528   2.9161   5.8112   6.5448   6.7188
     7.2394   7.6675   7.8443   8.3129   8.8673   9.7050

          k = 0.0000 0.3333-0.4756 (  1804 PWs)   bands (ev):

   -45.7943 -22.5163 -22.4203 -22.3670  -6.9605  -6.3416  -5.9553  -5.0178
    -4.9855  -4.9622  -4.8540  -4.6116   2.6351   5.4900   6.3327   6.7418
     7.1073   7.3574   7.6202   8.3580   9.2528   9.5752

          k = 0.0000-0.5000 0.0000 (  1810 PWs)   bands (ev):

   -45.7945 -22.4772 -22.4396 -22.3680  -6.9884  -6.3858  -6.1836  -5.0487
    -4.9976  -4.9835  -4.7496  -4.7455   3.0203   5.6074   6.9065   6.9144
     7.3320   7.4389   8.2045   8.2563   8.6923  10.3715

          k = 0.0000-0.5000 0.2378 (  1784 PWs)   bands (ev):

   -45.7942 -22.4962 -22.4384 -22.3671  -6.9415  -6.3237  -6.0740  -5.0138
    -5.0004  -4.9982  -4.7810  -4.6514   2.7783   5.5652   6.5559   6.7704
     7.0942   7.2373   7.9452   8.2828   8.8789   9.8854

          k = 0.0000-0.5000-0.4756 (  1796 PWs)   bands (ev):

   -45.7939 -22.5151 -22.4372 -22.3663  -6.9266  -6.2581  -5.9108  -5.0173
    -4.9989  -4.9716  -4.8265  -4.5610   2.5528   5.3590   6.0246   6.7915
     7.0620   7.2966   7.3968   8.2988   9.2232   9.5708

          k = 0.1667 0.1667 0.0000 (  1799 PWs)   bands (ev):

   -45.7951 -22.4790 -22.3875 -22.3871  -7.3100  -6.4614  -6.1855  -5.0143
    -5.0008  -4.9624  -4.8233  -4.6597   3.4926   6.2529   6.4889   6.7275
     7.6580   7.7908   8.4695   8.5359   8.8231   9.1866

          k = 0.1667 0.1667 0.2378 (  1801 PWs)   bands (ev):

   -45.7948 -22.4982 -22.3866 -22.3863  -7.1515  -6.4396  -6.1169  -5.0153
    -4.9915  -4.9570  -4.8166  -4.6736   3.1424   6.0435   6.1246   6.8481
     7.4949   7.5197   8.2786   8.6795   8.9014   9.3330

          k = 0.1667 0.1667-0.4756 (  1806 PWs)   bands (ev):

   -45.7946 -22.5174 -22.3856 -22.3855  -6.9953  -6.4176  -6.0358  -5.0261
    -4.9712  -4.9348  -4.8233  -4.6914   2.8140   5.8411   5.8578   6.5724
     7.3522   7.4729   8.2116   8.7433   8.9553   9.6835

          k = 0.1667 0.3333 0.0000 (  1793 PWs)   bands (ev):

   -45.7944 -22.4774 -22.4215 -22.3857  -7.0253  -6.4069  -6.2023  -5.0311
    -4.9896  -4.9459  -4.7812  -4.6685   3.0147   5.9579   6.4921   6.8242
     7.1488   7.7082   8.0395   8.6531   8.8202   9.6834

          k = 0.1667 0.3333 0.2378 (  1802 PWs)   bands (ev):

   -45.7942 -22.4964 -22.4205 -22.3849  -6.9174  -6.3984  -6.1193  -5.0102
    -4.9870  -4.9275  -4.7669  -4.6309   2.9009   5.7826   5.9438   6.4632
     6.9007   7.5638   8.3353   8.6180   8.9564   9.4321

          k = 0.1667 0.3333-0.4756 (  1796 PWs)   bands (ev):

   -45.7940 -22.5154 -22.4195 -22.3840  -6.8413  -6.3801  -6.0008  -5.0103
    -4.9635  -4.8922  -4.7750  -4.5873   2.7473   5.4417   5.8418   6.2164
     6.4050   7.4192   8.4400   8.6619   8.9692   9.3881

          k = 0.1667-0.5000 0.0000 (  1800 PWs)   bands (ev):

   -45.7941 -22.4765 -22.4386 -22.3850  -6.8685  -6.3636  -6.2373  -5.0323
    -4.9818  -4.9272  -4.7282  -4.7240   2.8245   5.6254   6.6216   6.8151
     7.1851   7.4576   7.8439   8.7028   8.8005  10.0037

          k = 0.1667-0.5000 0.2378 (  1798 PWs)   bands (ev):

   -45.7939 -22.4954 -22.4375 -22.3841  -6.8170  -6.3354  -6.1411  -5.0084
    -4.9745  -4.9115  -4.7322  -4.6292   2.7903   5.5726   5.8467   6.2331
     6.8497   7.6998   8.1260   8.6166   8.9688   9.4004

          k = 0.1667-0.5000-0.4756 (  1800 PWs)   bands (ev):

   -45.7936 -22.5143 -22.4364 -22.3833  -6.8067  -6.3082  -5.9861  -5.0055
    -4.9361  -4.8943  -4.7440  -4.5391   2.7181   5.3275   5.6793   5.8710
     6.3008   7.5338   8.3241   8.5849   8.6436   9.5839

          k = 0.3333 0.3333 0.0000 (  1804 PWs)   bands (ev):

   -45.7938 -22.4757 -22.4199 -22.4196  -6.7693  -6.3585  -6.2704  -5.0117
    -4.9680  -4.8689  -4.7102  -4.6685   2.6157   5.9083   6.0891   6.8992
     7.0746   7.1993   7.8802   8.4937   9.3000   9.4318

          k = 0.3333 0.3333 0.2378 (  1797 PWs)   bands (ev):

   -45.7936 -22.4947 -22.4189 -22.4187  -6.6662  -6.3975  -6.2045  -4.9750
    -4.9639  -4.8259  -4.6647  -4.6005   2.7974   5.5556   5.6393   5.9048
     6.6271   7.0712   8.4202   8.9291   8.9677   9.3170

          k = 0.3333 0.3333-0.4756 (  1794 PWs)   bands (ev):

   -45.7933 -22.5135 -22.4179 -22.4178  -6.6169  -6.4343  -6.0740  -4.9592
    -4.9393  -4.7779  -4.6185  -4.5346   2.9696   5.1574   5.1946   5.6739
     6.3590   6.5457   7.7560   9.2722   9.2861   9.4590

          k = 0.3333-0.5000 0.0000 (  1794 PWs)   bands (ev):

   -45.7935 -22.4748 -22.4367 -22.4188  -6.6397  -6.3250  -6.3104  -5.0040
    -4.9456  -4.7970  -4.7112  -4.6719   2.4308   5.5956   6.1266   6.7386
     7.2472   7.3878   7.4767   8.4811   9.1351   9.4942

          k = 0.3333-0.5000 0.2378 (  1790 PWs)   bands (ev):

   -45.7933 -22.4937 -22.4357 -22.4179  -6.5557  -6.3627  -6.2607  -4.9674
    -4.9375  -4.7462  -4.6401  -4.5887   2.7128   5.4792   5.5501   5.6655
     6.4002   7.1434   7.9955   8.9360   8.9451   9.4701

          k = 0.3333-0.5000-0.4756 (  1800 PWs)   bands (ev):

   -45.7930 -22.5125 -22.4347 -22.4171  -6.5628  -6.3983  -6.1060  -4.9425
    -4.9183  -4.7040  -4.5687  -4.4953   3.0682   4.9213   5.1192   5.4460
     6.1483   6.5456   7.0336   9.3785   9.4404   9.6140

          k =-0.5000-0.5000 0.0000 (  1764 PWs)   bands (ev):

   -45.7932 -22.4738 -22.4357 -22.4357  -6.5546  -6.3088  -6.3088  -4.9943
    -4.9053  -4.7148  -4.7148  -4.6640   2.2368   5.4353   5.9967   6.9697
     6.9697   7.4862   7.4862   8.2536   8.6659   9.7462

          k =-0.5000-0.5000 0.2378 (  1780 PWs)   bands (ev):

   -45.7930 -22.4928 -22.4348 -22.4348  -6.3777  -6.3777  -6.3586  -4.9564
    -4.9035  -4.6375  -4.5955  -4.5955   2.6171   5.3926   5.6114   5.6114
     6.0030   7.0810   7.3855   8.9617   8.9617   9.7313

          k =-0.5000-0.5000-0.4756 (  1808 PWs)   bands (ev):

   -45.7927 -22.5116 -22.4339 -22.4339  -6.4393  -6.4393  -6.1566  -4.9185
    -4.9017  -4.6022  -4.4817  -4.4817   3.1952   4.9883   4.9883   5.2802
     6.0093   6.1141   6.2351   9.6297   9.6297   9.7165

     highest occupied level (ev):    10.3715

!    total energy              =    -380.57066201 Ry
     estimated scf accuracy    <          4.3E-12 Ry

     The total energy is the sum of the following terms:
     one-electron contribution =     -85.69859270 Ry
     hartree contribution      =      71.99396105 Ry
     xc contribution           =    -102.58352496 Ry
     ewald contribution        =    -264.28250539 Ry

     convergence has been achieved in   8 iterations

     negative rho (up, down):  1.565E-02 0.000E+00

     Forces acting on atoms (cartesian axes, Ry/au):

     atom    1 type  1   force =     0.00000000    0.00000000    0.00016205
     atom    2 type  2   force =     0.00000000    0.00000000   -0.00083800
     atom    3 type  3   force =     0.00000000    0.00000000    0.00036887
     atom    4 type  3   force =     0.00000000    0.00000000    0.00015354
     atom    5 type  3   force =     0.00000000    0.00000000    0.00015354

     Total force =     0.000955     Total SCF correction =     0.000007


     Computing stress (Cartesian axis) and pressure


     negative rho (up, down):  1.565E-02 0.000E+00
          total   stress  (Ry/bohr**3)                   (kbar)     P=      -42.22
  -0.00033767   0.00000000   0.00000000          -49.67        0.00        0.00
   0.00000000  -0.00033767   0.00000000            0.00      -49.67        0.00
   0.00000000   0.00000000  -0.00018566            0.00        0.00      -27.31

     Energy error            =      2.8E-06 Ry
     Gradient error          =      8.4E-04 Ry/Bohr

     bfgs converged in   9 scf cycles and   8 bfgs steps
     (criteria: energy <  1.0E-04 Ry, force <  1.0E-03 Ry/Bohr)

     End of BFGS Geometry Optimization

     Final energy             =    -380.5706620067 Ry

     File ./pto_40.bfgs deleted, as requested
Begin final coordinates

ATOMIC_POSITIONS (crystal)
Pb               0.0000000000        0.0000000000        0.9935841581
Ti               0.5000000000        0.5000000000        0.5381888286
O                0.5000000000        0.5000000000        0.1066262367
O                0.5000000000        0.0000000000        0.6144425323
O                0.0000000000        0.5000000000        0.6144425323
End final coordinates



     Writing all to output data dir ./pto_40.save/ :
     XML data file, charge density, pseudopotentials, collected wavefunctions
 
     init_run     :      0.31s CPU      0.39s WALL (       1 calls)
     electrons    :     69.40s CPU     73.92s WALL (       9 calls)
     update_pot   :      0.02s CPU      0.03s WALL (       8 calls)
     forces       :      0.71s CPU      0.73s WALL (       9 calls)
     stress       :      6.37s CPU      6.43s WALL (       9 calls)

     Called by init_run:
     wfcinit      :      0.14s CPU      0.17s WALL (       1 calls)
     potinit      :      0.01s CPU      0.01s WALL (       1 calls)
     hinit0       :      0.10s CPU      0.13s WALL (       1 calls)

     Called by electrons:
     c_bands      :     60.05s CPU     64.15s WALL (      87 calls)
     sum_band     :      6.66s CPU      6.81s WALL (      87 calls)
     v_of_rho     :      0.10s CPU      0.10s WALL (      92 calls)
     newd         :      2.73s CPU      2.83s WALL (      92 calls)
     mix_rho      :      0.07s CPU      0.08s WALL (      87 calls)

     Called by c_bands:
     init_us_2    :      0.42s CPU      0.44s WALL (    5790 calls)
     init_us_2:cp :      0.41s CPU      0.43s WALL (    5790 calls)
     ccgdiagg     :     53.96s CPU     57.72s WALL (    2610 calls)
     wfcrot       :      5.87s CPU      6.20s WALL (    2250 calls)

     Called by *cgdiagg:
     h_psi        :     33.74s CPU     36.01s WALL (  221610 calls)
     s_psi        :      4.00s CPU      4.29s WALL (  440970 calls)

     Called by h_psi:
     h_psi:calbec :      4.82s CPU      5.14s WALL (  221610 calls)
     vloc_psi     :     25.04s CPU     26.73s WALL (  221610 calls)
     add_vuspsi   :      2.18s CPU      2.34s WALL (  221610 calls)
     hs_1psi      :     32.26s CPU     34.49s WALL (  219360 calls)
     s_1psi       :      7.25s CPU      7.74s WALL (  219360 calls)

     General routines
     calbec       :      8.98s CPU      9.59s WALL (  444930 calls)
     fft          :      0.12s CPU      0.14s WALL (     618 calls)
     ffts         :      0.01s CPU      0.01s WALL (     179 calls)
     fftw         :     22.96s CPU     24.42s WALL (  595680 calls)
     interpolate  :      0.02s CPU      0.03s WALL (      92 calls)
 
     Parallel routines
 
     PWSCF        :   1m17.32s CPU   1m22.57s WALL

 
   This run was terminated on:   0:19:35  13Nov2025            

=------------------------------------------------------------------------------=
   JOB DONE.
=------------------------------------------------------------------------------=
TACC:  Shutdown complete. Exiting. 
