TACC:  Starting up job 2475243 
TACC:  Starting parallel tasks... 

     Program PWSCF v.7.3 starts on 17Oct2025 at 21:44:57 

     This program is part of the open-source Quantum ESPRESSO suite
     for quantum simulation of materials; please cite
         "P. Giannozzi et al., J. Phys.:Condens. Matter 21 395502 (2009);
         "P. Giannozzi et al., J. Phys.:Condens. Matter 29 465901 (2017);
         "P. Giannozzi et al., J. Chem. Phys. 152 154105 (2020);
          URL http://www.quantum-espresso.org", 
     in publications or presentations arising from this work. More details at
     http://www.quantum-espresso.org/quote

     Parallel version (MPI & OpenMP), running on      10 processor cores
     Number of MPI processes:                10
     Threads/MPI process:                     1

     MPI processes distributed on     1 nodes
     189017 MiB available memory on the printing compute node when the environment starts
 
     Waiting for input...
     Reading input from standard input

     Current dimensions of program PWSCF are:
     Max number of different atomic species (ntypx) = 10
     Max number of k-points (npk) =  40000
     Max angular momentum in pseudopotentials (lmaxx) =  4
 
     R & G space division:  proc/nbgrp/npool/nimage =      10
     Subspace diagonalization in iterative solution of the eigenvalue problem:
     a serial algorithm will be used

 
     Parallelization info
     --------------------
     sticks:   dense  smooth     PW     G-vecs:    dense   smooth      PW
     Min         162      43     13                 4273      595     106
     Max         163      44     14                 4274      598     107
     Sum        1627     433    139                42735     5961    1067
 
     Using Slab Decomposition
 


     bravais-lattice index     =            2
     lattice parameter (alat)  =      10.2000  a.u.
     unit-cell volume          =     265.3020 (a.u.)^3
     number of atoms/cell      =            2
     number of atomic types    =            1
     number of electrons       =         8.00
     number of Kohn-Sham states=            8
     kinetic-energy cutoff     =      30.0000  Ry
     charge density cutoff     =     450.0000  Ry
     scf convergence threshold =      1.0E-08
     mixing beta               =       0.7000
     number of iterations used =            8  plain     mixing
     Exchange-correlation= SLA  PZ   NOGX NOGC
                           (   1   1   0   0   0   0   0)

     celldm(1)=  10.200000  celldm(2)=   0.000000  celldm(3)=   0.000000
     celldm(4)=   0.000000  celldm(5)=   0.000000  celldm(6)=   0.000000

     crystal axes: (cart. coord. in units of alat)
               a(1) = (  -0.500000   0.000000   0.500000 )  
               a(2) = (   0.000000   0.500000   0.500000 )  
               a(3) = (  -0.500000   0.500000   0.000000 )  

     reciprocal axes: (cart. coord. in units 2 pi/alat)
               b(1) = ( -1.000000 -1.000000  1.000000 )  
               b(2) = (  1.000000  1.000000  1.000000 )  
               b(3) = ( -1.000000  1.000000 -1.000000 )  


     PseudoPot. # 1 for Si read from file:
     /scratch/11018/zhc/Assisgnment2/Q1/1A/energy_cutoff_test/Si_LDA.UPF
     MD5 check sum: b5ade7b37ee992b02096e360e546dc2d
     Pseudo is Ultrasoft + core correction, Zval =  4.0
     Generated by new atomic code, or converted to UPF format
     Using radial grid of  899 points,  6 beta functions with: 
                l(1) =   0
                l(2) =   0
                l(3) =   1
                l(4) =   1
                l(5) =   2
                l(6) =   2
     Q(r) pseudized with  8 coefficients,  rinner =    0.900   0.900   0.900
                                                       0.900   0.900

     atomic species   valence    mass     pseudopotential
     Si                4.00    28.08550     Si( 1.00)

      2 Sym. Ops. (no inversion) found



   Cartesian axes

     site n.     atom                  positions (alat units)
         1        Si     tau(   1) = (   0.0000000   0.0000000   0.0000000  )
         2        Si     tau(   2) = (  -0.2400000   0.2400000   0.2500000  )

     number of k points=   100

     Number of k-points >= 100: set verbosity='high' to print them.

     Dense  grid:    42735 G-vectors     FFT dimensions: (  50,  50,  50)

     Smooth grid:     5961 G-vectors     FFT dimensions: (  25,  25,  25)

     Estimated max dynamical RAM per process >      18.36 MB

     Estimated total dynamical RAM >     183.58 MB

     Initial potential from superposition of free atoms

     starting charge       7.9988, renormalised to       8.0000
     Starting wfcs are    8 randomized atomic wfcs

     total cpu time spent up to now is        0.4 secs

     Self-consistent Calculation

     iteration #  1     ecut=    30.00 Ry     beta= 0.70
     CG style diagonalization
     ethr =  1.00E-02,  avg # of iterations =  3.7

     Threshold (ethr) on eigenvalues was too large:
     Diagonalizing with lowered threshold

     CG style diagonalization
     ethr =  7.38E-04,  avg # of iterations =  2.1

     total cpu time spent up to now is        1.4 secs

     total energy              =     -19.25317263 Ry
     estimated scf accuracy    <       0.05992418 Ry

     iteration #  2     ecut=    30.00 Ry     beta= 0.70
     CG style diagonalization
     ethr =  7.49E-04,  avg # of iterations =  3.0

     total cpu time spent up to now is        1.9 secs

     total energy              =     -19.25659179 Ry
     estimated scf accuracy    <       0.00172665 Ry

     iteration #  3     ecut=    30.00 Ry     beta= 0.70
     CG style diagonalization
     ethr =  2.16E-05,  avg # of iterations =  3.9

     total cpu time spent up to now is        2.5 secs

     total energy              =     -19.25681115 Ry
     estimated scf accuracy    <       0.00003932 Ry

     iteration #  4     ecut=    30.00 Ry     beta= 0.70
     CG style diagonalization
     ethr =  4.91E-07,  avg # of iterations =  4.4

     total cpu time spent up to now is        3.2 secs

     total energy              =     -19.25684156 Ry
     estimated scf accuracy    <       0.00000050 Ry

     iteration #  5     ecut=    30.00 Ry     beta= 0.70
     CG style diagonalization
     ethr =  6.26E-09,  avg # of iterations =  4.0

     total cpu time spent up to now is        3.8 secs

     total energy              =     -19.25684231 Ry
     estimated scf accuracy    <       0.00000001 Ry

     iteration #  6     ecut=    30.00 Ry     beta= 0.70
     CG style diagonalization
     ethr =  1.28E-10,  avg # of iterations =  3.7

     total cpu time spent up to now is        4.3 secs

     End of self-consistent calculation

     Number of k-points >= 100: set verbosity='high' to print the bands.

     highest occupied, lowest unoccupied level (ev):     6.5793    6.6064

!    total energy              =     -19.25684232 Ry
     estimated scf accuracy    <          5.8E-10 Ry

     The total energy is the sum of the following terms:
     one-electron contribution =       5.18085558 Ry
     hartree contribution      =       1.10101941 Ry
     xc contribution           =      -8.64421837 Ry
     ewald contribution        =     -16.89449894 Ry

     convergence has been achieved in   6 iterations

     Forces acting on atoms (cartesian axes, Ry/au):

     atom    1 type  1   force =     0.02880864   -0.02880864   -0.00419527
     atom    2 type  1   force =    -0.02880864    0.02880864    0.00419527

     Total force =     0.057922     Total SCF correction =     0.000003


     Computing stress (Cartesian axis) and pressure

          total   stress  (Ry/bohr**3)                   (kbar)     P=        3.88
   0.00002178  -0.00001789  -0.00015004            3.20       -2.63      -22.07
  -0.00001789   0.00002178   0.00015004           -2.63        3.20       22.07
  -0.00015004   0.00015004   0.00003550          -22.07       22.07        5.22


     Writing all to output data dir ./Si_k7.save/ :
     XML data file, charge density, pseudopotentials, collected wavefunctions
 
     init_run     :      0.16s CPU      0.23s WALL (       1 calls)
     electrons    :      3.67s CPU      4.01s WALL (       1 calls)
     forces       :      0.04s CPU      0.05s WALL (       1 calls)
     stress       :      0.25s CPU      0.25s WALL (       1 calls)

     Called by init_run:
     wfcinit      :      0.09s CPU      0.11s WALL (       1 calls)
     potinit      :      0.00s CPU      0.01s WALL (       1 calls)
     hinit0       :      0.04s CPU      0.07s WALL (       1 calls)

     Called by electrons:
     c_bands      :      3.20s CPU      3.48s WALL (       7 calls)
     sum_band     :      0.39s CPU      0.41s WALL (       7 calls)
     v_of_rho     :      0.01s CPU      0.01s WALL (       7 calls)
     newd         :      0.08s CPU      0.08s WALL (       7 calls)
     mix_rho      :      0.00s CPU      0.01s WALL (       7 calls)

     Called by c_bands:
     init_us_2    :      0.04s CPU      0.05s WALL (    1700 calls)
     init_us_2:cp :      0.04s CPU      0.04s WALL (    1700 calls)
     ccgdiagg     :      2.81s CPU      3.06s WALL (     700 calls)
     wfcrot       :      0.43s CPU      0.47s WALL (     600 calls)

     Called by *cgdiagg:
     h_psi        :      1.88s CPU      2.04s WALL (   16396 calls)
     s_psi        :      0.13s CPU      0.15s WALL (   32192 calls)

     Called by h_psi:
     h_psi:calbec :      0.27s CPU      0.30s WALL (   16396 calls)
     vloc_psi     :      1.41s CPU      1.52s WALL (   16396 calls)
     add_vuspsi   :      0.08s CPU      0.08s WALL (   16396 calls)
     hs_1psi      :      1.69s CPU      1.84s WALL (   15796 calls)
     s_1psi       :      0.35s CPU      0.38s WALL (   15796 calls)

     General routines
     calbec       :      0.48s CPU      0.52s WALL (   33392 calls)
     fft          :      0.01s CPU      0.03s WALL (      49 calls)
     ffts         :      0.00s CPU      0.00s WALL (      14 calls)
     fftw         :      1.27s CPU      1.37s WALL (   46792 calls)
     interpolate  :      0.00s CPU      0.01s WALL (       7 calls)
 
     Parallel routines
 
     PWSCF        :      4.27s CPU      5.23s WALL

 
   This run was terminated on:  21:45: 2  17Oct2025            

=------------------------------------------------------------------------------=
   JOB DONE.
=------------------------------------------------------------------------------=
TACC:  Shutdown complete. Exiting. 
