TACC:  Starting up job 2476653 
TACC:  Starting parallel tasks... 

     Program PWSCF v.7.3 starts on 18Oct2025 at 16:23:15 

     This program is part of the open-source Quantum ESPRESSO suite
     for quantum simulation of materials; please cite
         "P. Giannozzi et al., J. Phys.:Condens. Matter 21 395502 (2009);
         "P. Giannozzi et al., J. Phys.:Condens. Matter 29 465901 (2017);
         "P. Giannozzi et al., J. Chem. Phys. 152 154105 (2020);
          URL http://www.quantum-espresso.org", 
     in publications or presentations arising from this work. More details at
     http://www.quantum-espresso.org/quote

     Parallel version (MPI & OpenMP), running on      10 processor cores
     Number of MPI processes:                10
     Threads/MPI process:                     1

     MPI processes distributed on     1 nodes
     187402 MiB available memory on the printing compute node when the environment starts
 
     Waiting for input...
     Reading input from standard input

     Current dimensions of program PWSCF are:
     Max number of different atomic species (ntypx) = 10
     Max number of k-points (npk) =  40000
     Max angular momentum in pseudopotentials (lmaxx) =  4
     Message from routine setup:
     using ibrav=0 with symmetry is DISCOURAGED, use correct ibrav instead
 
     R & G space division:  proc/nbgrp/npool/nimage =      10
     Subspace diagonalization in iterative solution of the eigenvalue problem:
     a serial algorithm will be used

 
     Parallelization info
     --------------------
     sticks:   dense  smooth     PW     G-vecs:    dense   smooth      PW
     Min         161      43     13                 4225      581     106
     Max         162      44     14                 4226      584     107
     Sum        1615     433    139                42255     5817    1067
 
     Using Slab Decomposition
 


     bravais-lattice index     =            0
     lattice parameter (alat)  =      10.2000  a.u.
     unit-cell volume          =     262.1311 (a.u.)^3
     number of atoms/cell      =            2
     number of atomic types    =            1
     number of electrons       =         8.00
     number of Kohn-Sham states=            8
     kinetic-energy cutoff     =      30.0000  Ry
     charge density cutoff     =     450.0000  Ry
     scf convergence threshold =      1.0E-08
     mixing beta               =       0.7000
     number of iterations used =            8  plain     mixing
     Exchange-correlation= SLA  PZ   NOGX NOGC
                           (   1   1   0   0   0   0   0)

     celldm(1)=  10.200000  celldm(2)=   0.000000  celldm(3)=   0.000000
     celldm(4)=   0.000000  celldm(5)=   0.000000  celldm(6)=   0.000000

     crystal axes: (cart. coord. in units of alat)
               a(1) = (  -0.498000   0.000000   0.498000 )  
               a(2) = (   0.000000   0.498000   0.498000 )  
               a(3) = (  -0.498000   0.498000   0.000000 )  

     reciprocal axes: (cart. coord. in units 2 pi/alat)
               b(1) = ( -1.004016 -1.004016  1.004016 )  
               b(2) = (  1.004016  1.004016  1.004016 )  
               b(3) = ( -1.004016  1.004016 -1.004016 )  


     PseudoPot. # 1 for Si read from file:
     /scratch/11018/zhc/Assisgnment2/Q1/1A/energy_cutoff_test/Si_LDA.UPF
     MD5 check sum: b5ade7b37ee992b02096e360e546dc2d
     Pseudo is Ultrasoft + core correction, Zval =  4.0
     Generated by new atomic code, or converted to UPF format
     Using radial grid of  899 points,  6 beta functions with: 
                l(1) =   0
                l(2) =   0
                l(3) =   1
                l(4) =   1
                l(5) =   2
                l(6) =   2
     Q(r) pseudized with  8 coefficients,  rinner =    0.900   0.900   0.900
                                                       0.900   0.900

     atomic species   valence    mass     pseudopotential
     Si                4.00    28.08550     Si( 1.00)

     48 Sym. Ops., with inversion, found (24 have fractional translation)



   Cartesian axes

     site n.     atom                  positions (alat units)
         1        Si     tau(   1) = (   0.0000000   0.0000000   0.0000000  )
         2        Si     tau(   2) = (  -0.2490000   0.2490000   0.2490000  )

     number of k points=    72
                       cart. coord. in units 2pi/alat
        k(    1) = (   0.0000000   0.0000000   0.0000000), wk =   0.0011574
        k(    2) = (  -0.0836680   0.0836680  -0.0836680), wk =   0.0092593
        k(    3) = (  -0.1673360   0.1673360  -0.1673360), wk =   0.0092593
        k(    4) = (  -0.2510040   0.2510040  -0.2510040), wk =   0.0092593
        k(    5) = (  -0.3346720   0.3346720  -0.3346720), wk =   0.0092593
        k(    6) = (  -0.4183400   0.4183400  -0.4183400), wk =   0.0092593
        k(    7) = (   0.5020080  -0.5020080   0.5020080), wk =   0.0046296
        k(    8) = (   0.0000000   0.1673360   0.0000000), wk =   0.0069444
        k(    9) = (  -0.0836680   0.2510040  -0.0836680), wk =   0.0277778
        k(   10) = (  -0.1673360   0.3346720  -0.1673360), wk =   0.0277778
        k(   11) = (  -0.2510040   0.4183400  -0.2510040), wk =   0.0277778
        k(   12) = (  -0.3346720   0.5020080  -0.3346720), wk =   0.0277778
        k(   13) = (   0.5856760  -0.4183400   0.5856760), wk =   0.0277778
        k(   14) = (   0.5020080  -0.3346720   0.5020080), wk =   0.0277778
        k(   15) = (   0.4183400  -0.2510040   0.4183400), wk =   0.0277778
        k(   16) = (   0.3346720  -0.1673360   0.3346720), wk =   0.0277778
        k(   17) = (   0.2510040  -0.0836680   0.2510040), wk =   0.0277778
        k(   18) = (   0.1673360  -0.0000000   0.1673360), wk =   0.0138889
        k(   19) = (   0.0000000   0.3346720   0.0000000), wk =   0.0069444
        k(   20) = (  -0.0836680   0.4183400  -0.0836680), wk =   0.0277778
        k(   21) = (  -0.1673360   0.5020080  -0.1673360), wk =   0.0277778
        k(   22) = (  -0.2510040   0.5856760  -0.2510040), wk =   0.0277778
        k(   23) = (   0.6693440  -0.3346720   0.6693440), wk =   0.0277778
        k(   24) = (   0.5856760  -0.2510040   0.5856760), wk =   0.0277778
        k(   25) = (   0.5020080  -0.1673360   0.5020080), wk =   0.0277778
        k(   26) = (   0.4183400  -0.0836680   0.4183400), wk =   0.0277778
        k(   27) = (   0.3346720   0.0000000   0.3346720), wk =   0.0138889
        k(   28) = (   0.0000000   0.5020080   0.0000000), wk =   0.0069444
        k(   29) = (  -0.0836680   0.5856760  -0.0836680), wk =   0.0277778
        k(   30) = (  -0.1673360   0.6693440  -0.1673360), wk =   0.0277778
        k(   31) = (   0.7530120  -0.2510040   0.7530120), wk =   0.0277778
        k(   32) = (   0.6693440  -0.1673360   0.6693440), wk =   0.0277778
        k(   33) = (   0.5856760  -0.0836680   0.5856760), wk =   0.0277778
        k(   34) = (   0.5020080   0.0000000   0.5020080), wk =   0.0138889
        k(   35) = (   0.0000000   0.6693440   0.0000000), wk =   0.0069444
        k(   36) = (  -0.0836680   0.7530120  -0.0836680), wk =   0.0277778
        k(   37) = (   0.8366801  -0.1673360   0.8366801), wk =   0.0277778
        k(   38) = (   0.7530120  -0.0836680   0.7530120), wk =   0.0277778
        k(   39) = (   0.6693440  -0.0000000   0.6693440), wk =   0.0138889
        k(   40) = (   0.0000000   0.8366801   0.0000000), wk =   0.0069444
        k(   41) = (   0.9203481  -0.0836680   0.9203481), wk =   0.0277778
        k(   42) = (   0.8366801   0.0000000   0.8366801), wk =   0.0138889
        k(   43) = (   0.0000000  -1.0040161   0.0000000), wk =   0.0034722
        k(   44) = (  -0.1673360   0.3346720  -0.0000000), wk =   0.0277778
        k(   45) = (  -0.2510040   0.4183400  -0.0836680), wk =   0.0555556
        k(   46) = (  -0.3346720   0.5020080  -0.1673360), wk =   0.0555556
        k(   47) = (   0.5856760  -0.4183400   0.7530120), wk =   0.0555556
        k(   48) = (   0.5020080  -0.3346720   0.6693440), wk =   0.0277778
        k(   49) = (  -0.1673360   0.5020080   0.0000000), wk =   0.0277778
        k(   50) = (  -0.2510040   0.5856760  -0.0836680), wk =   0.0555556
        k(   51) = (   0.6693440  -0.3346720   0.8366801), wk =   0.0555556
        k(   52) = (   0.5856760  -0.2510040   0.7530120), wk =   0.0555556
        k(   53) = (   0.5020080  -0.1673360   0.6693440), wk =   0.0555556
        k(   54) = (   0.4183400  -0.0836680   0.5856760), wk =   0.0555556
        k(   55) = (   0.3346720   0.0000000   0.5020080), wk =   0.0277778
        k(   56) = (  -0.1673360   0.6693440  -0.0000000), wk =   0.0277778
        k(   57) = (   0.7530120  -0.2510040   0.9203481), wk =   0.0555556
        k(   58) = (   0.6693440  -0.1673360   0.8366801), wk =   0.0555556
        k(   59) = (   0.5856760  -0.0836680   0.7530120), wk =   0.0555556
        k(   60) = (   0.5020080  -0.0000000   0.6693440), wk =   0.0277778
        k(   61) = (   0.8366801  -0.1673360   1.0040161), wk =   0.0277778
        k(   62) = (   0.7530120  -0.0836680   0.9203481), wk =   0.0555556
        k(   63) = (   0.6693440   0.0000000   0.8366801), wk =   0.0277778
        k(   64) = (  -0.1673360  -1.0040161   0.0000000), wk =   0.0138889
        k(   65) = (   0.6693440  -0.3346720   1.0040161), wk =   0.0277778
        k(   66) = (   0.5856760  -0.2510040   0.9203481), wk =   0.0555556
        k(   67) = (   0.5020080  -0.1673360   0.8366801), wk =   0.0277778
        k(   68) = (   0.6693440  -0.1673360   1.0040161), wk =   0.0277778
        k(   69) = (   0.5856760  -0.0836680   0.9203481), wk =   0.0555556
        k(   70) = (   0.5020080   0.0000000   0.8366801), wk =   0.0277778
        k(   71) = (  -0.3346720  -1.0040161   0.0000000), wk =   0.0138889
        k(   72) = (  -0.5020080  -1.0040161   0.0000000), wk =   0.0069444

     Dense  grid:    42255 G-vectors     FFT dimensions: (  50,  50,  50)

     Smooth grid:     5817 G-vectors     FFT dimensions: (  25,  25,  25)

     Estimated max dynamical RAM per process >      17.93 MB

     Estimated total dynamical RAM >     179.32 MB

     Initial potential from superposition of free atoms

     starting charge       7.9988, renormalised to       8.0000
     Starting wfcs are    8 randomized atomic wfcs

     total cpu time spent up to now is        0.3 secs

     Self-consistent Calculation

     iteration #  1     ecut=    30.00 Ry     beta= 0.70
     CG style diagonalization
     ethr =  1.00E-02,  avg # of iterations =  3.7

     Threshold (ethr) on eigenvalues was too large:
     Diagonalizing with lowered threshold

     CG style diagonalization
     ethr =  7.47E-04,  avg # of iterations =  2.0

     total cpu time spent up to now is        1.1 secs

     total energy              =     -19.25655154 Ry
     estimated scf accuracy    <       0.06060920 Ry

     iteration #  2     ecut=    30.00 Ry     beta= 0.70
     CG style diagonalization
     ethr =  7.58E-04,  avg # of iterations =  3.0

     total cpu time spent up to now is        1.4 secs

     total energy              =     -19.26013163 Ry
     estimated scf accuracy    <       0.00168695 Ry

     iteration #  3     ecut=    30.00 Ry     beta= 0.70
     CG style diagonalization
     ethr =  2.11E-05,  avg # of iterations =  3.8

     total cpu time spent up to now is        1.9 secs

     total energy              =     -19.26034181 Ry
     estimated scf accuracy    <       0.00003991 Ry

     iteration #  4     ecut=    30.00 Ry     beta= 0.70
     CG style diagonalization
     ethr =  4.99E-07,  avg # of iterations =  4.3

     total cpu time spent up to now is        2.3 secs

     total energy              =     -19.26037403 Ry
     estimated scf accuracy    <       0.00000018 Ry

     iteration #  5     ecut=    30.00 Ry     beta= 0.70
     CG style diagonalization
     ethr =  2.27E-09,  avg # of iterations =  4.2

     total cpu time spent up to now is        2.8 secs

     End of self-consistent calculation

          k = 0.0000 0.0000 0.0000 (   725 PWs)   bands (ev):

    -5.8460   6.3276   6.3276   6.3276   8.8686   8.8686   8.8686   9.8596

          k =-0.0837 0.0837-0.0837 (   731 PWs)   bands (ev):

    -5.7526   5.4558   6.1787   6.1787   8.9321   9.0868   9.0868  10.4974

          k =-0.1673 0.1673-0.1673 (   718 PWs)   bands (ev):

    -5.4752   3.9042   5.8636   5.8636   8.6824   9.5318   9.5318  11.8970

          k =-0.2510 0.2510-0.2510 (   733 PWs)   bands (ev):

    -5.0245   2.3240   5.5484   5.5484   8.3558   9.8207   9.8207  13.3297

          k =-0.3347 0.3347-0.3347 (   745 PWs)   bands (ev):

    -4.4293   0.8819   5.3044   5.3044   8.0867   9.8027   9.8027  14.1182

          k =-0.4183 0.4183-0.4183 (   739 PWs)   bands (ev):

    -3.7843  -0.2830   5.1546   5.1546   7.9169   9.6753   9.6753  13.9841

          k = 0.5020-0.5020 0.5020 (   718 PWs)   bands (ev):

    -3.4319  -0.8103   5.1045   5.1045   7.8594   9.6158   9.6158  13.8915

          k = 0.0000 0.1673 0.0000 (   729 PWs)   bands (ev):

    -5.7214   5.6423   5.8794   5.8794   8.5736   9.4673   9.4673  10.4851

          k =-0.0837 0.2510-0.0837 (   722 PWs)   bands (ev):

    -5.5048   4.3773   5.5046   5.7101   8.5925   9.5808  10.0176  11.3060

          k =-0.1673 0.3347-0.1673 (   725 PWs)   bands (ev):

    -5.1104   2.8400   5.1850   5.3782   8.7366   9.5585  10.4020  11.7008

          k =-0.2510 0.4183-0.2510 (   731 PWs)   bands (ev):

    -4.5584   1.3675   4.9728   5.0167   8.6076   9.6043  10.4074  12.2693

          k =-0.3347 0.5020-0.3347 (   729 PWs)   bands (ev):

    -3.9105   0.1014   4.7133   4.8840   8.4468   9.5449  10.1930  13.3294

          k = 0.5857-0.4183 0.5857 (   728 PWs)   bands (ev):

    -3.3955  -0.6989   4.5019   4.9188   8.3706   9.5348   9.9814  14.1564

          k = 0.5020-0.3347 0.5020 (   734 PWs)   bands (ev):

    -3.5232  -0.5130   4.4015   5.0678   8.4025   9.6513   9.8677  14.2523

          k = 0.4183-0.2510 0.4183 (   739 PWs)   bands (ev):

    -4.1305   0.4935   4.4254   5.3145   8.5404   9.8434   9.8724  13.7970

          k = 0.3347-0.1673 0.3347 (   734 PWs)   bands (ev):

    -4.7586   1.8441   4.5844   5.6325   8.7709   9.7782  10.0481  12.8619

          k = 0.2510-0.0837 0.2510 (   729 PWs)   bands (ev):

    -5.2615   3.3396   4.8910   5.9698   9.0579   9.4855   9.8539  12.1270

          k = 0.1673-0.0000 0.1673 (   721 PWs)   bands (ev):

    -5.5977   4.7228   5.4254   6.2101   9.1225   9.2727   9.2891  11.2716

          k = 0.0000 0.3347 0.0000 (   709 PWs)   bands (ev):

    -5.3493   4.2949   5.0929   5.0929   7.9529  10.6385  10.6971  10.6971

          k =-0.0837 0.4183-0.0837 (   728 PWs)   bands (ev):

    -5.0134   3.1780   4.7410   4.7505   7.9713  10.1964  11.0132  11.2659

          k =-0.1673 0.5020-0.1673 (   731 PWs)   bands (ev):

    -4.5113   1.8288   4.2764   4.5282   8.2134  10.3768  10.8364  11.4211

          k =-0.2510 0.5857-0.2510 (   726 PWs)   bands (ev):

    -3.8836   0.5561   3.8254   4.4446   8.2534  10.6021  11.2219  11.3469

          k = 0.6693-0.3347 0.6693 (   732 PWs)   bands (ev):

    -3.2750  -0.4132   3.4705   4.5024   8.2879  10.4425  10.9350  12.7497

          k = 0.5857-0.2510 0.5857 (   731 PWs)   bands (ev):

    -3.1537  -0.5812   3.2476   4.6937   8.4462  10.3833  10.7023  14.3231

          k = 0.5020-0.1673 0.5020 (   726 PWs)   bands (ev):

    -3.6767   0.2089   3.1837   4.9987   8.7344  10.4272  10.5400  13.6420

          k = 0.4183-0.0837 0.4183 (   733 PWs)   bands (ev):

    -4.3230   1.3945   3.3225   5.3787   9.0964  10.3240  10.4786  12.4747

          k = 0.3347 0.0000 0.3347 (   732 PWs)   bands (ev):

    -4.8708   2.5677   3.8195   5.7541   9.3856   9.8811  10.1523  12.0021

          k = 0.0000 0.5020 0.0000 (   729 PWs)   bands (ev):

    -4.7358   2.7995   4.3782   4.3782   7.3472   9.3629  12.1311  12.1312

          k =-0.0837 0.5857-0.0837 (   726 PWs)   bands (ev):

    -4.2873   1.8688   3.8933   4.1264   7.4323   8.9965  12.4274  12.6121

          k =-0.1673 0.6693-0.1673 (   724 PWs)   bands (ev):

    -3.6946   0.8096   3.2357   4.0180   7.6435   9.4944  12.2946  12.5540

          k = 0.7530-0.2510 0.7530 (   724 PWs)   bands (ev):

    -3.0472  -0.1505   2.6710   4.0594   7.7277  10.7173  12.1304  12.2623

          k = 0.6693-0.1673 0.6693 (   723 PWs)   bands (ev):

    -2.7056  -0.5863   2.2946   4.2459   7.9154  11.7556  11.9586  12.5432

          k = 0.5857-0.0837 0.5857 (   726 PWs)   bands (ev):

    -3.0984  -0.0700   2.1648   4.5608   8.2583  11.6630  11.7609  13.5428

          k = 0.5020 0.0000 0.5020 (   716 PWs)   bands (ev):

    -3.7431   0.7794   2.4316   4.9661   8.7145  11.1336  11.4434  12.5094

          k = 0.0000 0.6693 0.0000 (   717 PWs)   bands (ev):

    -3.8919   1.2793   3.8382   3.8382   6.9209   8.1810  13.6560  13.6560

          k =-0.0837 0.7530-0.0837 (   728 PWs)   bands (ev):

    -3.3423   0.4767   3.3249   3.6927   7.0842   8.0582  13.9884  14.0211

          k = 0.8367-0.1673 0.8367 (   729 PWs)   bands (ev):

    -2.6927  -0.3105   2.5577   3.7000   7.2505   8.9561  13.8262  13.8788

          k = 0.7530-0.0837 0.7530 (   723 PWs)   bands (ev):

    -2.2006  -0.8211   1.9509   3.8588   7.4325  10.4353  13.4708  13.7042

          k = 0.6693-0.0000 0.6693 (   718 PWs)   bands (ev):

    -2.4798  -0.5304   1.7399   4.1564   7.7750  12.0777  12.8509  13.4684

          k = 0.0000 0.8367 0.0000 (   725 PWs)   bands (ev):

    -2.8353  -0.2044   3.5057   3.5057   6.7499   7.3483  15.2376  15.2376

          k = 0.9203-0.0837 0.9203 (   728 PWs)   bands (ev):

    -2.2043  -0.9080   3.0451   3.4716   6.9492   7.5380  15.4835  15.5918

          k = 0.8367 0.0000 0.8367 (   728 PWs)   bands (ev):

    -1.7262  -1.3262   2.3335   3.5923   7.1119   8.7816  14.9373  15.4943

          k = 0.0000-1.0040 0.0000 (   740 PWs)   bands (ev):

    -1.5931  -1.5931   3.3937   3.3937   6.8802   6.8802  16.5610  16.5611

          k =-0.1673 0.3347-0.0000 (   728 PWs)   bands (ev):

    -5.2289   3.5764   4.6284   5.6066   8.6134   9.9205  10.4951  11.2080

          k =-0.2510 0.4183-0.0837 (   729 PWs)   bands (ev):

    -4.7803   2.3037   4.0856   5.3226   8.9028   9.8713  10.8980  11.1661

          k =-0.3347 0.5020-0.1673 (   730 PWs)   bands (ev):

    -4.1872   0.9634   3.8171   4.9836   8.9575   9.6922  10.9529  11.8401

          k = 0.5857-0.4183 0.7530 (   727 PWs)   bands (ev):

    -3.5414  -0.1632   3.6922   4.7277   8.9162   9.4610  10.8635  13.0858

          k = 0.5020-0.3347 0.6693 (   732 PWs)   bands (ev):

    -3.1849  -0.6837   3.6580   4.6323   8.9042   9.3583  10.8157  14.3916

          k =-0.1673 0.5020 0.0000 (   727 PWs)   bands (ev):

    -4.6219   2.3778   3.9127   4.6531   8.0369   9.7812  11.1694  12.0035

          k =-0.2510 0.5857-0.0837 (   732 PWs)   bands (ev):

    -4.0736   1.2993   3.3611   4.3508   8.3716  10.0017  10.9075  12.3881

          k = 0.6693-0.3347 0.8367 (   727 PWs)   bands (ev):

    -3.4265   0.2078   3.0003   4.1304   8.4872  10.5061  11.1293  12.3652

          k = 0.5857-0.2510 0.7530 (   725 PWs)   bands (ev):

    -2.9061  -0.5300   2.7488   4.1117   8.6197  10.2345  12.2422  12.6217

          k = 0.5020-0.1673 0.6693 (   724 PWs)   bands (ev):

    -3.0484  -0.3342   2.6229   4.2916   8.8836  10.0370  12.1692  12.9903

          k = 0.4183-0.0837 0.5857 (   727 PWs)   bands (ev):

    -3.6630   0.5786   2.6897   4.6214   9.2678   9.8919  11.6108  12.1042

          k = 0.3347 0.0000 0.5020 (   733 PWs)   bands (ev):

    -4.2851   1.5870   3.1105   5.0191   9.5033   9.6833  10.9471  11.6844

          k =-0.1673 0.6693-0.0000 (   721 PWs)   bands (ev):

    -3.7895   1.0986   3.3892   3.8363   7.6171   8.6889  12.4346  13.6015

          k = 0.7530-0.2510 0.9203 (   728 PWs)   bands (ev):

    -3.1649   0.2432   2.7743   3.6083   7.9488   9.2487  12.1210  13.9736

          k = 0.6693-0.1673 0.8367 (   722 PWs)   bands (ev):

    -2.5517  -0.4975   2.2313   3.6172   8.1021  10.5695  11.8211  13.9090

          k = 0.5857-0.0837 0.7530 (   721 PWs)   bands (ev):

    -2.4741  -0.5744   1.9286   3.8235   8.3691  11.3580  12.3804  13.0993

          k = 0.5020-0.0000 0.6693 (   724 PWs)   bands (ev):

    -3.0328   0.0347   2.0165   4.1819   8.7802  10.9546  11.8239  13.1869

          k = 0.8367-0.1673 1.0040 (   731 PWs)   bands (ev):

    -2.7540  -0.2392   3.0977   3.3013   7.4305   7.9322  13.8243  15.2349

          k = 0.7530-0.0837 0.9203 (   729 PWs)   bands (ev):

    -2.1035  -0.8967   2.4312   3.2555   7.7210   8.8804  13.4922  15.0071

          k = 0.6693 0.0000 0.8367 (   720 PWs)   bands (ev):

    -1.9341  -1.0194   1.9066   3.4597   7.9665  10.4415  13.0280  13.4111

          k =-0.1673-1.0040 0.0000 (   728 PWs)   bands (ev):

    -1.5512  -1.5512   3.0616   3.0616   7.5232   7.5232  15.3177  15.3177

          k = 0.6693-0.3347 1.0040 (   728 PWs)   bands (ev):

    -3.4921   0.6254   2.6238   3.9502   9.1228   9.9466  10.5809  13.4440

          k = 0.5857-0.2510 0.9203 (   726 PWs)   bands (ev):

    -2.8456  -0.1670   2.2668   3.5966   9.4864  10.0504  11.0719  13.8715

          k = 0.5020-0.1673 0.8367 (   730 PWs)   bands (ev):

    -2.4682  -0.6159   2.1738   3.4610   9.5925   9.8683  12.4092  12.8847

          k = 0.6693-0.1673 1.0040 (   730 PWs)   bands (ev):

    -2.5290  -0.3842   2.4163   3.0558   8.9367   9.3243  11.7287  14.6980

          k = 0.5857-0.0837 0.9203 (   723 PWs)   bands (ev):

    -1.9849  -0.9043   2.0823   2.8950   9.2749  10.5471  11.4574  12.8479

          k = 0.5020 0.0000 0.8367 (   726 PWs)   bands (ev):

    -2.2225  -0.6708   1.9520   3.1299   9.5814  10.7609  11.3236  12.5922

          k =-0.3347-1.0040 0.0000 (   718 PWs)   bands (ev):

    -1.4610  -1.4610   2.5416   2.5416   8.9929   8.9929  13.1232  13.1232

          k =-0.5020-1.0040 0.0000 (   724 PWs)   bands (ev):

    -1.4120  -1.4120   2.3201   2.3201  10.5161  10.5161  11.3599  11.3599

     highest occupied, lowest unoccupied level (ev):     6.3276    6.7499

!    total energy              =     -19.26037459 Ry
     estimated scf accuracy    <          7.3E-10 Ry

     The total energy is the sum of the following terms:
     one-electron contribution =       5.27713621 Ry
     hartree contribution      =       1.08811693 Ry
     xc contribution           =      -8.65799864 Ry
     ewald contribution        =     -16.96762909 Ry

     convergence has been achieved in   5 iterations

     Forces acting on atoms (cartesian axes, Ry/au):

     atom    1 type  1   force =     0.00000000    0.00000000   -0.00000000
     atom    2 type  1   force =     0.00000000    0.00000000    0.00000000

     Total force =     0.000000     Total SCF correction =     0.000000


     Computing stress (Cartesian axis) and pressure

          total   stress  (Ry/bohr**3)                   (kbar)     P=       13.45
   0.00009142   0.00000000   0.00000000           13.45        0.00        0.00
   0.00000000   0.00009142   0.00000000            0.00       13.45        0.00
   0.00000000   0.00000000   0.00009142            0.00        0.00       13.45


     Writing all to output data dir ./Si_isotropic_etam0p004.save/ :
     XML data file, charge density, pseudopotentials, collected wavefunctions
 
     init_run     :      0.13s CPU      0.20s WALL (       1 calls)
     electrons    :      2.31s CPU      2.51s WALL (       1 calls)
     forces       :      0.03s CPU      0.04s WALL (       1 calls)
     stress       :      0.19s CPU      0.20s WALL (       1 calls)

     Called by init_run:
     wfcinit      :      0.06s CPU      0.08s WALL (       1 calls)
     potinit      :      0.00s CPU      0.01s WALL (       1 calls)
     hinit0       :      0.03s CPU      0.07s WALL (       1 calls)

     Called by electrons:
     c_bands      :      1.99s CPU      2.14s WALL (       6 calls)
     sum_band     :      0.26s CPU      0.28s WALL (       6 calls)
     v_of_rho     :      0.01s CPU      0.01s WALL (       6 calls)
     newd         :      0.06s CPU      0.07s WALL (       6 calls)
     mix_rho      :      0.00s CPU      0.00s WALL (       6 calls)

     Called by c_bands:
     init_us_2    :      0.03s CPU      0.03s WALL (    1080 calls)
     init_us_2:cp :      0.02s CPU      0.03s WALL (    1080 calls)
     ccgdiagg     :      1.76s CPU      1.90s WALL (     432 calls)
     wfcrot       :      0.25s CPU      0.29s WALL (     360 calls)

     Called by *cgdiagg:
     h_psi        :      1.15s CPU      1.25s WALL (   10128 calls)
     s_psi        :      0.08s CPU      0.09s WALL (   19896 calls)

     Called by h_psi:
     h_psi:calbec :      0.17s CPU      0.18s WALL (   10128 calls)
     vloc_psi     :      0.87s CPU      0.93s WALL (   10128 calls)
     add_vuspsi   :      0.05s CPU      0.05s WALL (   10128 calls)
     hs_1psi      :      1.05s CPU      1.13s WALL (    9768 calls)
     s_1psi       :      0.22s CPU      0.24s WALL (    9768 calls)

     General routines
     calbec       :      0.30s CPU      0.32s WALL (   20688 calls)
     fft          :      0.01s CPU      0.03s WALL (      43 calls)
     ffts         :      0.00s CPU      0.00s WALL (      12 calls)
     fftw         :      0.78s CPU      0.84s WALL (   28752 calls)
     interpolate  :      0.00s CPU      0.01s WALL (       6 calls)
 
     Parallel routines
 
     PWSCF        :      2.80s CPU      3.43s WALL

 
   This run was terminated on:  16:23:19  18Oct2025            

=------------------------------------------------------------------------------=
   JOB DONE.
=------------------------------------------------------------------------------=
TACC:  Shutdown complete. Exiting. 
