TACC:  Starting up job 2410649 
TACC:  Starting parallel tasks... 

     Program PWSCF v.7.3 starts on 24Sep2025 at 20: 6:45 

     This program is part of the open-source Quantum ESPRESSO suite
     for quantum simulation of materials; please cite
         "P. Giannozzi et al., J. Phys.:Condens. Matter 21 395502 (2009);
         "P. Giannozzi et al., J. Phys.:Condens. Matter 29 465901 (2017);
         "P. Giannozzi et al., J. Chem. Phys. 152 154105 (2020);
          URL http://www.quantum-espresso.org", 
     in publications or presentations arising from this work. More details at
     http://www.quantum-espresso.org/quote

     Parallel version (MPI & OpenMP), running on      10 processor cores
     Number of MPI processes:                10
     Threads/MPI process:                     1

     MPI processes distributed on     1 nodes
     186317 MiB available memory on the printing compute node when the environment starts
 
     Waiting for input...
     Reading input from standard input
Warning: card &CELL ignored
Warning: card  CELL_DYNAMICS = 'BFGS', ignored
Warning: card  PRESS=0.D0, ignored
Warning: card / ignored
     Message from routine read_cards :
     DEPRECATED: no units specified in ATOMIC_POSITIONS card
     Message from routine read_cards :
     ATOMIC_POSITIONS: units set to alat

     Current dimensions of program PWSCF are:
     Max number of different atomic species (ntypx) = 10
     Max number of k-points (npk) =  40000
     Max angular momentum in pseudopotentials (lmaxx) =  4
 
     R & G space division:  proc/nbgrp/npool/nimage =      10
     Subspace diagonalization in iterative solution of the eigenvalue problem:
     a serial algorithm will be used

 
     Parallelization info
     --------------------
     sticks:   dense  smooth     PW     G-vecs:    dense   smooth      PW
     Min         394     157     45                18563     4689     724
     Max         396     159     47                18564     4691     725
     Sum        3945    1581    457               185639    46897    7249
 
     Using Slab Decomposition
 


     bravais-lattice index     =            1
     lattice parameter (alat)  =       7.0309  a.u.
     unit-cell volume          =     347.5680 (a.u.)^3
     number of atoms/cell      =            5
     number of atomic types    =            3
     number of electrons       =        40.00
     number of Kohn-Sham states=           20
     kinetic-energy cutoff     =     100.0000  Ry
     charge density cutoff     =    1000.0000  Ry
     scf convergence threshold =      1.0E-08
     mixing beta               =       0.7000
     number of iterations used =            8  plain     mixing
     Exchange-correlation= SLA  PZ   NOGX NOGC
                           (   1   1   0   0   0   0   0)

     celldm(1)=   7.030938  celldm(2)=   0.000000  celldm(3)=   0.000000
     celldm(4)=   0.000000  celldm(5)=   0.000000  celldm(6)=   0.000000

     crystal axes: (cart. coord. in units of alat)
               a(1) = (   1.000000   0.000000   0.000000 )  
               a(2) = (   0.000000   1.000000   0.000000 )  
               a(3) = (   0.000000   0.000000   1.000000 )  

     reciprocal axes: (cart. coord. in units 2 pi/alat)
               b(1) = (  1.000000  0.000000  0.000000 )  
               b(2) = (  0.000000  1.000000  0.000000 )  
               b(3) = (  0.000000  0.000000  1.000000 )  


     PseudoPot. # 1 for Ca read from file:
     /scratch/11018/zhc/assisgnment1/CaTiO3/Ca_LDA.UPF
     MD5 check sum: d2d4e7693e10d071152e9eeb7dd009f3
     Pseudo is Ultrasoft + core correction, Zval = 10.0
     Generated by new atomic code, or converted to UPF format
     Using radial grid of  845 points,  6 beta functions with: 
                l(1) =   0
                l(2) =   0
                l(3) =   1
                l(4) =   1
                l(5) =   2
                l(6) =   2
     Q(r) pseudized with  8 coefficients,  rinner =    1.500   1.500   1.500
                                                       1.500   1.500

     PseudoPot. # 2 for Ti read from file:
     /scratch/11018/zhc/assisgnment1/CaTiO3/Ti_LDA.UPF
     MD5 check sum: 0d9f225c038fe889ca2a701dcc8d72cb
     Pseudo is Ultrasoft + core correction, Zval = 12.0
     Generated by new atomic code, or converted to UPF format
     Using radial grid of  851 points,  6 beta functions with: 
                l(1) =   0
                l(2) =   0
                l(3) =   1
                l(4) =   1
                l(5) =   2
                l(6) =   2
     Q(r) pseudized with  6 coefficients,  rinner =    1.000   1.000   1.000
                                                       1.000   1.000

     PseudoPot. # 3 for O  read from file:
     /scratch/11018/zhc/assisgnment1/CaTiO3/O_LDA.UPF
     MD5 check sum: 194b818514d2a7dbb603bb78519a4f40
     Pseudo is Ultrasoft + core correction, Zval =  6.0
     Generated by new atomic code, or converted to UPF format
     Using radial grid of  737 points,  5 beta functions with: 
                l(1) =   0
                l(2) =   0
                l(3) =   1
                l(4) =   1
                l(5) =   2
     Q(r) pseudized with  8 coefficients,  rinner =    0.900   0.900   0.900
                                                       0.900   0.900

     atomic species   valence    mass     pseudopotential
     Ca               10.00    40.07800     Ca( 1.00)
     Ti               12.00    47.88000     Ti( 1.00)
     O                 6.00    16.00000     O ( 1.00)

     48 Sym. Ops., with inversion, found



   Cartesian axes

     site n.     atom                  positions (alat units)
         1        Ca     tau(   1) = (   0.0000000   0.0000000   0.0000000  )
         2        Ti     tau(   2) = (   0.5000000   0.5000000   0.5000000  )
         3        O      tau(   3) = (   0.5000000   0.5000000   0.0000000  )
         4        O      tau(   4) = (   0.5000000   0.0000000   0.5000000  )
         5        O      tau(   5) = (   0.0000000   0.5000000   0.5000000  )

     number of k points=    20
                       cart. coord. in units 2pi/alat
        k(    1) = (   0.0000000   0.0000000   0.0000000), wk =   0.0092593
        k(    2) = (   0.0000000   0.0000000   0.1666667), wk =   0.0555556
        k(    3) = (   0.0000000   0.0000000   0.3333333), wk =   0.0555556
        k(    4) = (   0.0000000   0.0000000  -0.5000000), wk =   0.0277778
        k(    5) = (   0.0000000   0.1666667   0.1666667), wk =   0.1111111
        k(    6) = (   0.0000000   0.1666667   0.3333333), wk =   0.2222222
        k(    7) = (   0.0000000   0.1666667  -0.5000000), wk =   0.1111111
        k(    8) = (   0.0000000   0.3333333   0.3333333), wk =   0.1111111
        k(    9) = (   0.0000000   0.3333333  -0.5000000), wk =   0.1111111
        k(   10) = (   0.0000000  -0.5000000  -0.5000000), wk =   0.0277778
        k(   11) = (   0.1666667   0.1666667   0.1666667), wk =   0.0740741
        k(   12) = (   0.1666667   0.1666667   0.3333333), wk =   0.2222222
        k(   13) = (   0.1666667   0.1666667  -0.5000000), wk =   0.1111111
        k(   14) = (   0.1666667   0.3333333   0.3333333), wk =   0.2222222
        k(   15) = (   0.1666667   0.3333333  -0.5000000), wk =   0.2222222
        k(   16) = (   0.1666667  -0.5000000  -0.5000000), wk =   0.0555556
        k(   17) = (   0.3333333   0.3333333   0.3333333), wk =   0.0740741
        k(   18) = (   0.3333333   0.3333333  -0.5000000), wk =   0.1111111
        k(   19) = (   0.3333333  -0.5000000  -0.5000000), wk =   0.0555556
        k(   20) = (  -0.5000000  -0.5000000  -0.5000000), wk =   0.0092593

     Dense  grid:   185639 G-vectors     FFT dimensions: (  72,  72,  72)

     Smooth grid:    46897 G-vectors     FFT dimensions: (  45,  45,  45)

     Estimated max dynamical RAM per process >      80.56 MB

     Estimated total dynamical RAM >     805.65 MB

     Check: negative core charge=   -0.000001

     Initial potential from superposition of free atoms

     starting charge      38.9952, renormalised to      40.0000

     negative rho (up, down):  6.753E-04 0.000E+00
     Starting wfcs are   32 randomized atomic wfcs

     total cpu time spent up to now is        1.1 secs

     Self-consistent Calculation

     iteration #  1     ecut=   100.00 Ry     beta= 0.70
     CG style diagonalization
     ethr =  1.00E-02,  avg # of iterations =  2.2

     negative rho (up, down):  1.331E-03 0.000E+00

     total cpu time spent up to now is        1.9 secs

     total energy              =    -291.31504613 Ry
     estimated scf accuracy    <       0.82790326 Ry

     iteration #  2     ecut=   100.00 Ry     beta= 0.70
     CG style diagonalization
     ethr =  2.07E-03,  avg # of iterations =  4.8

     negative rho (up, down):  5.591E-04 0.000E+00

     total cpu time spent up to now is        3.2 secs

     total energy              =    -291.04004098 Ry
     estimated scf accuracy    <       3.50667427 Ry

     iteration #  3     ecut=   100.00 Ry     beta= 0.70
     CG style diagonalization
     ethr =  2.07E-03,  avg # of iterations =  4.3

     negative rho (up, down):  6.478E-04 0.000E+00

     total cpu time spent up to now is        4.3 secs

     total energy              =    -291.73389751 Ry
     estimated scf accuracy    <       0.10848348 Ry

     iteration #  4     ecut=   100.00 Ry     beta= 0.70
     CG style diagonalization
     ethr =  2.71E-04,  avg # of iterations =  3.6

     negative rho (up, down):  7.842E-04 0.000E+00

     total cpu time spent up to now is        5.3 secs

     total energy              =    -291.74549802 Ry
     estimated scf accuracy    <       0.01720655 Ry

     iteration #  5     ecut=   100.00 Ry     beta= 0.70
     CG style diagonalization
     ethr =  4.30E-05,  avg # of iterations =  3.6

     negative rho (up, down):  8.249E-04 0.000E+00

     total cpu time spent up to now is        6.3 secs

     total energy              =    -291.75037387 Ry
     estimated scf accuracy    <       0.00029854 Ry

     iteration #  6     ecut=   100.00 Ry     beta= 0.70
     CG style diagonalization
     ethr =  7.46E-07,  avg # of iterations =  4.6

     negative rho (up, down):  8.061E-04 0.000E+00

     total cpu time spent up to now is        7.5 secs

     total energy              =    -291.75073564 Ry
     estimated scf accuracy    <       0.00047862 Ry

     iteration #  7     ecut=   100.00 Ry     beta= 0.70
     CG style diagonalization
     ethr =  7.46E-07,  avg # of iterations =  3.4

     negative rho (up, down):  7.962E-04 0.000E+00

     total cpu time spent up to now is        8.5 secs

     total energy              =    -291.75073790 Ry
     estimated scf accuracy    <       0.00009987 Ry

     iteration #  8     ecut=   100.00 Ry     beta= 0.70
     CG style diagonalization
     ethr =  2.50E-07,  avg # of iterations =  3.6

     negative rho (up, down):  7.932E-04 0.000E+00

     total cpu time spent up to now is        9.5 secs

     total energy              =    -291.75075388 Ry
     estimated scf accuracy    <       0.00000307 Ry

     iteration #  9     ecut=   100.00 Ry     beta= 0.70
     CG style diagonalization
     ethr =  7.68E-09,  avg # of iterations =  4.2

     negative rho (up, down):  7.924E-04 0.000E+00

     total cpu time spent up to now is       10.6 secs

     total energy              =    -291.75075579 Ry
     estimated scf accuracy    <       0.00000021 Ry

     iteration # 10     ecut=   100.00 Ry     beta= 0.70
     CG style diagonalization
     ethr =  5.15E-10,  avg # of iterations =  4.0

     negative rho (up, down):  7.926E-04 0.000E+00

     total cpu time spent up to now is       11.7 secs

     total energy              =    -291.75075593 Ry
     estimated scf accuracy    <       0.00000010 Ry

     iteration # 11     ecut=   100.00 Ry     beta= 0.70
     CG style diagonalization
     ethr =  2.55E-10,  avg # of iterations =  3.8

     negative rho (up, down):  7.925E-04 0.000E+00

     total cpu time spent up to now is       12.7 secs

     total energy              =    -291.75075596 Ry
     estimated scf accuracy    <       0.00000001 Ry

     iteration # 12     ecut=   100.00 Ry     beta= 0.70
     CG style diagonalization
     ethr =  2.74E-11,  avg # of iterations =  3.9

     negative rho (up, down):  7.925E-04 0.000E+00

     total cpu time spent up to now is       13.7 secs

     End of self-consistent calculation

          k = 0.0000 0.0000 0.0000 (  5887 PWs)   bands (ev):

   -44.6627 -27.8447 -21.3832 -21.3832 -21.3832  -9.0711  -9.0711  -9.0711
    -7.1819  -5.9343  -5.9343   7.3399   7.3399   7.3399   9.1969   9.1969
     9.1969  10.2430  10.2430  10.2430

          k = 0.0000 0.0000 0.1667 (  5855 PWs)   bands (ev):

   -44.6620 -27.8419 -21.4174 -21.3814 -21.3814  -9.2203  -9.0664  -9.0664
    -6.9205  -5.9191  -5.7872   6.9884   7.3252   7.3252   8.7739   8.7739
     8.9081   9.2974  10.0954  10.0954

          k = 0.0000 0.0000 0.3333 (  5874 PWs)   bands (ev):

   -44.6607 -27.8363 -21.4846 -21.3778 -21.3778  -9.4656  -9.0568  -9.0568
    -6.4285  -5.8886  -5.4764   6.1926   7.3454   7.3454   7.9957   8.0495
     8.0495   8.4155   9.9611   9.9611

          k = 0.0000 0.0000-0.5000 (  5846 PWs)   bands (ev):

   -44.6601 -27.8335 -21.5176 -21.3760 -21.3760  -9.5716  -9.0520  -9.0520
    -6.1953  -5.8732  -5.3008   5.7237   7.5132   7.5132   7.5339   7.5865
     7.5865   8.1990   9.9159   9.9159

          k = 0.0000 0.1667 0.1667 (  5858 PWs)   bands (ev):

   -44.6614 -27.8389 -21.4166 -21.4152 -21.3796  -9.2443  -9.1400  -9.0612
    -6.7092  -5.8448  -5.7073   6.7105   7.1905   7.3025   8.0085   8.4817
     9.1613   9.1670   9.5438   9.8540

          k = 0.0000 0.1667 0.3333 (  5868 PWs)   bands (ev):

   -44.6601 -27.8330 -21.4838 -21.4130 -21.3761  -9.4177  -9.1348  -9.0507
    -6.3241  -5.7802  -5.4133   6.0944   6.6811   7.2989   7.3583   7.8933
     8.2720   9.1714   9.3799   9.6371

          k = 0.0000 0.1667-0.5000 (  5868 PWs)   bands (ev):

   -44.6594 -27.8301 -21.5172 -21.4116 -21.3744  -9.5071  -9.1198  -9.0455
    -6.1676  -5.7379  -5.2250   5.7203   6.2658   7.2553   7.4428   7.4813
     8.0011   9.1910   9.2280   9.5749

          k = 0.0000 0.3333 0.3333 (  5888 PWs)   bands (ev):

   -44.6588 -27.8265 -21.4829 -21.4815 -21.3728  -9.3453  -9.2583  -9.0386
    -6.2516  -5.4335  -5.2462   5.5535   6.3341   6.3552   7.2262   7.5452
     8.3441   8.5634   9.2719  10.0322

          k = 0.0000 0.3333-0.5000 (  5886 PWs)   bands (ev):

   -44.6581 -27.8232 -21.5162 -21.4814 -21.3711  -9.3766  -9.2485  -9.0325
    -6.2561  -5.2805  -5.0780   5.2865   5.7120   6.3135   7.2780   7.2812
     8.2745   8.5330   9.1591  10.1967

          k = 0.0000-0.5000-0.5000 (  5856 PWs)   bands (ev):

   -44.6575 -27.8198 -21.5157 -21.5157 -21.3694  -9.3100  -9.3100  -9.0259
    -6.3189  -5.0062  -5.0062   4.9325   5.6470   5.7793   7.1857   7.1857
     8.4108   8.4108   9.0224  10.4935

          k = 0.1667 0.1667 0.1667 (  5845 PWs)   bands (ev):

   -44.6607 -27.8359 -21.4147 -21.4147 -21.4137  -9.2520  -9.1281  -9.1281
    -6.5185  -5.7100  -5.7100   6.4742   7.1160   7.1160   7.8855   7.8855
     8.7475   9.4893   9.4893   9.5186

          k = 0.1667 0.1667 0.3333 (  5884 PWs)   bands (ev):

   -44.6594 -27.8298 -21.4826 -21.4117 -21.4109  -9.3760  -9.1388  -9.1038
    -6.1659  -5.7157  -5.3860   6.0002   6.6234   6.7902   7.1075   7.5136
     8.4918   9.1872   9.3995   9.5043

          k = 0.1667 0.1667-0.5000 (  5888 PWs)   bands (ev):

   -44.6588 -27.8268 -21.5162 -21.4105 -21.4089  -9.4521  -9.1245  -9.0915
    -6.0138  -5.7188  -5.1801   5.7203   6.1405   6.5849   6.9198   7.4672
     8.5812   8.9958   9.3646   9.3915

          k = 0.1667 0.3333 0.3333 (  5861 PWs)   bands (ev):

   -44.6582 -27.8234 -21.4807 -21.4800 -21.4078  -9.3132  -9.2369  -9.0939
    -6.0196  -5.4308  -5.2798   5.6037   6.3215   6.3331   6.7132   6.8709
     8.0663   9.2409   9.2839  10.0610

          k = 0.1667 0.3333-0.5000 (  5864 PWs)   bands (ev):

   -44.6575 -27.8202 -21.5143 -21.4792 -21.4060  -9.3417  -9.2297  -9.0828
    -6.0123  -5.3297  -5.0946   5.4059   5.7202   6.2842   6.5054   6.7876
     8.0913   9.1832   9.2613  10.2216

          k = 0.1667-0.5000-0.5000 (  5900 PWs)   bands (ev):

   -44.6569 -27.8169 -21.5134 -21.5134 -21.4042  -9.2858  -9.2858  -9.0727
    -6.0647  -5.0538  -5.0538   5.0966   5.6671   5.7848   6.5279   6.5279
     8.0778   9.2246   9.2246  10.5235

          k = 0.3333 0.3333 0.3333 (  5854 PWs)   bands (ev):

   -44.6569 -27.8173 -21.4774 -21.4762 -21.4762  -9.2588  -9.1931  -9.1931
    -5.5895  -5.3484  -5.3484   5.6101   6.0670   6.0670   6.4388   6.4388
     6.6459   9.8546   9.8546  10.2247

          k = 0.3333 0.3333-0.5000 (  5864 PWs)   bands (ev):

   -44.6562 -27.8142 -21.5105 -21.4756 -21.4740  -9.2714  -9.2017  -9.1705
    -5.5230  -5.3835  -5.1309   5.5760   5.7348   5.8425   6.0061   6.4194
     6.5986   9.9528  10.0740  10.3505

          k = 0.3333-0.5000-0.5000 (  5868 PWs)   bands (ev):

   -44.6556 -27.8112 -21.5086 -21.5086 -21.4726  -9.2358  -9.2358  -9.1647
    -5.5086  -5.1505  -5.1505   5.4336   5.7055   5.7959   5.8495   5.8495
     6.4851  10.2164  10.2164  10.5849

          k =-0.5000-0.5000-0.5000 (  5904 PWs)   bands (ev):

   -44.6550 -27.8083 -21.5062 -21.5062 -21.5062  -9.2099  -9.2099  -9.2099
    -5.1998  -5.1998  -5.1998   5.6070   5.6070   5.6070   5.6811   5.8014
     5.8014  10.6164  10.6164  10.6164

     highest occupied level (ev):    10.6164

!    total energy              =    -291.75075596 Ry
     estimated scf accuracy    <          8.0E-10 Ry

     The total energy is the sum of the following terms:
     one-electron contribution =     -78.76117080 Ry
     hartree contribution      =      61.75639987 Ry
     xc contribution           =     -51.70768504 Ry
     ewald contribution        =    -223.03829999 Ry

     convergence has been achieved in  12 iterations

     negative rho (up, down):  7.925E-04 0.000E+00

     Forces acting on atoms (cartesian axes, Ry/au):

     atom    1 type  1   force =     0.00000000    0.00000000    0.00000000
     atom    2 type  2   force =     0.00000000    0.00000000    0.00000000
     atom    3 type  3   force =     0.00000000    0.00000000    0.00000000
     atom    4 type  3   force =     0.00000000    0.00000000    0.00000000
     atom    5 type  3   force =     0.00000000    0.00000000    0.00000000

     Total force =     0.000000     Total SCF correction =     0.000000


     Computing stress (Cartesian axis) and pressure


     negative rho (up, down):  7.925E-04 0.000E+00
          total   stress  (Ry/bohr**3)                   (kbar)     P=      164.63
   0.00111916   0.00000000   0.00000000          164.63        0.00        0.00
   0.00000000   0.00111916   0.00000000            0.00      164.63        0.00
   0.00000000   0.00000000   0.00111916            0.00        0.00      164.63


     Writing all to output data dir ./CTO_module_6.save/ :
     XML data file, charge density, pseudopotentials, collected wavefunctions
 
     init_run     :      0.78s CPU      0.88s WALL (       1 calls)
     electrons    :     11.84s CPU     12.66s WALL (       1 calls)
     forces       :      0.19s CPU      0.22s WALL (       1 calls)
     stress       :      1.54s CPU      1.59s WALL (       1 calls)

     Called by init_run:
     wfcinit      :      0.23s CPU      0.26s WALL (       1 calls)
     potinit      :      0.01s CPU      0.02s WALL (       1 calls)
     hinit0       :      0.15s CPU      0.17s WALL (       1 calls)

     Called by electrons:
     c_bands      :      8.62s CPU      8.93s WALL (      12 calls)
     sum_band     :      2.09s CPU      2.26s WALL (      12 calls)
     v_of_rho     :      0.04s CPU      0.04s WALL (      13 calls)
     newd         :      1.13s CPU      1.47s WALL (      13 calls)
     mix_rho      :      0.03s CPU      0.03s WALL (      12 calls)

     Called by c_bands:
     init_us_2    :      0.12s CPU      0.13s WALL (     540 calls)
     init_us_2:cp :      0.12s CPU      0.13s WALL (     540 calls)
     ccgdiagg     :      7.24s CPU      7.51s WALL (     240 calls)
     wfcrot       :      1.50s CPU      1.55s WALL (     240 calls)

     Called by *cgdiagg:
     h_psi        :      6.07s CPU      6.28s WALL (   14260 calls)
     s_psi        :      0.76s CPU      0.79s WALL (   28280 calls)

     Called by h_psi:
     h_psi:calbec :      0.77s CPU      0.80s WALL (   14260 calls)
     vloc_psi     :      4.73s CPU      4.88s WALL (   14260 calls)
     add_vuspsi   :      0.44s CPU      0.46s WALL (   14260 calls)
     hs_1psi      :      5.21s CPU      5.40s WALL (   14020 calls)
     s_1psi       :      0.95s CPU      0.98s WALL (   14020 calls)

     General routines
     calbec       :      1.33s CPU      1.38s WALL (   28620 calls)
     fft          :      0.05s CPU      0.06s WALL (      84 calls)
     ffts         :      0.00s CPU      0.01s WALL (      25 calls)
     fftw         :      4.22s CPU      4.35s WALL (   42920 calls)
     interpolate  :      0.01s CPU      0.02s WALL (      13 calls)
 
     Parallel routines
 
     PWSCF        :     14.57s CPU     16.01s WALL

 
   This run was terminated on:  20: 7: 1  24Sep2025            

=------------------------------------------------------------------------------=
   JOB DONE.
=------------------------------------------------------------------------------=
TACC:  Shutdown complete. Exiting. 
