TACC:  Starting up job 2553086 
TACC:  Starting parallel tasks... 

     Program PWSCF v.7.3 starts on 15Nov2025 at  2:29:21 

     This program is part of the open-source Quantum ESPRESSO suite
     for quantum simulation of materials; please cite
         "P. Giannozzi et al., J. Phys.:Condens. Matter 21 395502 (2009);
         "P. Giannozzi et al., J. Phys.:Condens. Matter 29 465901 (2017);
         "P. Giannozzi et al., J. Chem. Phys. 152 154105 (2020);
          URL http://www.quantum-espresso.org", 
     in publications or presentations arising from this work. More details at
     http://www.quantum-espresso.org/quote

     Parallel version (MPI & OpenMP), running on      10 processor cores
     Number of MPI processes:                10
     Threads/MPI process:                     1

     MPI processes distributed on     1 nodes
     185502 MiB available memory on the printing compute node when the environment starts
 
     Waiting for input...
     Reading input from standard input
Warning: card &CELL ignored
Warning: card  CELL_DYNAMICS = 'BFGS', ignored
Warning: card  PRESS=0.D0, ignored
Warning: card / ignored

     Current dimensions of program PWSCF are:
     Max number of different atomic species (ntypx) = 10
     Max number of k-points (npk) =  40000
     Max angular momentum in pseudopotentials (lmaxx) =  4
     Message from routine setup:
     using ibrav=0 with symmetry is DISCOURAGED, use correct ibrav instead
 
     R & G space division:  proc/nbgrp/npool/nimage =      10
     Subspace diagonalization in iterative solution of the eigenvalue problem:
     a serial algorithm will be used

 
     Parallelization info
     --------------------
     sticks:   dense  smooth     PW     G-vecs:    dense   smooth      PW
     Min         216      86     24                 7944     2004     313
     Max         217      87     26                 7947     2007     317
     Sum        2161     869    249                79447    20063    3139
 
     Using Slab Decomposition
 


     bravais-lattice index     =            0
     lattice parameter (alat)  =       7.3699  a.u.
     unit-cell volume          =     420.8329 (a.u.)^3
     number of atoms/cell      =            5
     number of atomic types    =            3
     number of electrons       =        44.00
     number of Kohn-Sham states=           22
     kinetic-energy cutoff     =      50.0000  Ry
     charge density cutoff     =     500.0000  Ry
     scf convergence threshold =      1.0E-08
     mixing beta               =       0.7000
     number of iterations used =            8  plain     mixing
     energy convergence thresh.=      1.0E-04
     force convergence thresh. =      1.0E-03
     Exchange-correlation= SLA  PZ   NOGX NOGC
                           (   1   1   0   0   0   0   0)
     nstep                     =           50


     celldm(1)=   7.369932  celldm(2)=   0.000000  celldm(3)=   0.000000
     celldm(4)=   0.000000  celldm(5)=   0.000000  celldm(6)=   0.000000

     crystal axes: (cart. coord. in units of alat)
               a(1) = (   1.000000   0.000000   0.000000 )  
               a(2) = (   0.000000   1.000000   0.000000 )  
               a(3) = (   0.000000   0.000000   1.051282 )  

     reciprocal axes: (cart. coord. in units 2 pi/alat)
               b(1) = (  1.000000  0.000000  0.000000 )  
               b(2) = (  0.000000  1.000000  0.000000 )  
               b(3) = (  0.000000  0.000000  0.951220 )  


     PseudoPot. # 1 for Pb read from file:
     /scratch/11018/zhc/assisgnment3/input_files/Pb_LDA.UPF
     MD5 check sum: 062a37469794d955244864f8fe2e5624
     Pseudo is Ultrasoft + core correction, Zval = 14.0
     Generated by new atomic code, or converted to UPF format
     Using radial grid of  899 points,  6 beta functions with: 
                l(1) =   0
                l(2) =   0
                l(3) =   1
                l(4) =   1
                l(5) =   2
                l(6) =   2
     Q(r) pseudized with  6 coefficients,  rinner =    1.000   1.000   1.000
                                                       1.000   1.000

     PseudoPot. # 2 for Ti read from file:
     /scratch/11018/zhc/assisgnment3/input_files/Ti_LDA.UPF
     MD5 check sum: 0d9f225c038fe889ca2a701dcc8d72cb
     Pseudo is Ultrasoft + core correction, Zval = 12.0
     Generated by new atomic code, or converted to UPF format
     Using radial grid of  851 points,  6 beta functions with: 
                l(1) =   0
                l(2) =   0
                l(3) =   1
                l(4) =   1
                l(5) =   2
                l(6) =   2
     Q(r) pseudized with  6 coefficients,  rinner =    1.000   1.000   1.000
                                                       1.000   1.000

     PseudoPot. # 3 for O  read from file:
     /scratch/11018/zhc/assisgnment3/input_files/O_LDA.UPF
     MD5 check sum: 194b818514d2a7dbb603bb78519a4f40
     Pseudo is Ultrasoft + core correction, Zval =  6.0
     Generated by new atomic code, or converted to UPF format
     Using radial grid of  737 points,  5 beta functions with: 
                l(1) =   0
                l(2) =   0
                l(3) =   1
                l(4) =   1
                l(5) =   2
     Q(r) pseudized with  8 coefficients,  rinner =    0.900   0.900   0.900
                                                       0.900   0.900

     atomic species   valence    mass     pseudopotential
     Pb               14.00   207.20000     Pb( 1.00)
     Ti               12.00    47.88000     Ti( 1.00)
     O                 6.00    16.00000     O ( 1.00)

      8 Sym. Ops. (no inversion) found



   Cartesian axes

     site n.     atom                  positions (alat units)
         1        Pb     tau(   1) = (   0.0000000   0.0000000   1.0580339  )
         2        Ti     tau(   2) = (   0.5000000   0.5000000   0.5681377  )
         3        O      tau(   3) = (   0.5000000   0.5000000   0.1036357  )
         4        O      tau(   4) = (   0.5000000   0.0000000   0.6422586  )
         5        O      tau(   5) = (   0.0000000   0.5000000   0.6422586  )

     number of k points=    18
                       cart. coord. in units 2pi/alat
        k(    1) = (   0.0000000   0.0000000   0.0000000), wk =   0.0160000
        k(    2) = (   0.0000000   0.0000000   0.1902439), wk =   0.0320000
        k(    3) = (   0.0000000   0.0000000   0.3804878), wk =   0.0320000
        k(    4) = (   0.0000000   0.2000000   0.0000000), wk =   0.0640000
        k(    5) = (   0.0000000   0.2000000   0.1902439), wk =   0.1280000
        k(    6) = (   0.0000000   0.2000000   0.3804878), wk =   0.1280000
        k(    7) = (   0.0000000   0.4000000   0.0000000), wk =   0.0640000
        k(    8) = (   0.0000000   0.4000000   0.1902439), wk =   0.1280000
        k(    9) = (   0.0000000   0.4000000   0.3804878), wk =   0.1280000
        k(   10) = (   0.2000000   0.2000000   0.0000000), wk =   0.0640000
        k(   11) = (   0.2000000   0.2000000   0.1902439), wk =   0.1280000
        k(   12) = (   0.2000000   0.2000000   0.3804878), wk =   0.1280000
        k(   13) = (   0.2000000   0.4000000   0.0000000), wk =   0.1280000
        k(   14) = (   0.2000000   0.4000000   0.1902439), wk =   0.2560000
        k(   15) = (   0.2000000   0.4000000   0.3804878), wk =   0.2560000
        k(   16) = (   0.4000000   0.4000000   0.0000000), wk =   0.0640000
        k(   17) = (   0.4000000   0.4000000   0.1902439), wk =   0.1280000
        k(   18) = (   0.4000000   0.4000000   0.3804878), wk =   0.1280000

     Dense  grid:    79447 G-vectors     FFT dimensions: (  54,  54,  60)

     Smooth grid:    20063 G-vectors     FFT dimensions: (  36,  36,  36)

     Estimated max dynamical RAM per process >      36.59 MB

     Estimated total dynamical RAM >     365.87 MB

     Check: negative core charge=   -0.000004

     Initial potential from superposition of free atoms

     starting charge      42.9982, renormalised to      44.0000

     negative rho (up, down):  1.690E-02 0.000E+00
     Starting wfcs are   31 randomized atomic wfcs

     total cpu time spent up to now is        0.6 secs

     Self-consistent Calculation

     iteration #  1     ecut=    50.00 Ry     beta= 0.70
     CG style diagonalization
     ethr =  1.00E-02,  avg # of iterations =  2.1

     negative rho (up, down):  1.407E-02 0.000E+00

     total cpu time spent up to now is        1.0 secs

     total energy              =    -380.04721603 Ry
     estimated scf accuracy    <       1.03355687 Ry

     iteration #  2     ecut=    50.00 Ry     beta= 0.70
     CG style diagonalization
     ethr =  2.35E-03,  avg # of iterations =  4.9

     negative rho (up, down):  1.457E-02 0.000E+00

     total cpu time spent up to now is        1.7 secs

     total energy              =    -379.56703623 Ry
     estimated scf accuracy    <       5.04634093 Ry

     iteration #  3     ecut=    50.00 Ry     beta= 0.70
     CG style diagonalization
     ethr =  2.35E-03,  avg # of iterations =  4.5

     negative rho (up, down):  1.525E-02 0.000E+00

     total cpu time spent up to now is        2.2 secs

     total energy              =    -380.53306951 Ry
     estimated scf accuracy    <       0.35976003 Ry

     iteration #  4     ecut=    50.00 Ry     beta= 0.70
     CG style diagonalization
     ethr =  8.18E-04,  avg # of iterations =  3.4

     negative rho (up, down):  1.523E-02 0.000E+00

     total cpu time spent up to now is        2.7 secs

     total energy              =    -380.55331129 Ry
     estimated scf accuracy    <       0.06755366 Ry

     iteration #  5     ecut=    50.00 Ry     beta= 0.70
     CG style diagonalization
     ethr =  1.54E-04,  avg # of iterations =  3.7

     negative rho (up, down):  1.523E-02 0.000E+00

     total cpu time spent up to now is        3.2 secs

     total energy              =    -380.56687065 Ry
     estimated scf accuracy    <       0.00756211 Ry

     iteration #  6     ecut=    50.00 Ry     beta= 0.70
     CG style diagonalization
     ethr =  1.72E-05,  avg # of iterations =  4.1

     negative rho (up, down):  1.524E-02 0.000E+00

     total cpu time spent up to now is        3.7 secs

     total energy              =    -380.57085858 Ry
     estimated scf accuracy    <       0.00669560 Ry

     iteration #  7     ecut=    50.00 Ry     beta= 0.70
     CG style diagonalization
     ethr =  1.52E-05,  avg # of iterations =  3.2

     negative rho (up, down):  1.525E-02 0.000E+00

     total cpu time spent up to now is        4.1 secs

     total energy              =    -380.57060458 Ry
     estimated scf accuracy    <       0.00244884 Ry

     iteration #  8     ecut=    50.00 Ry     beta= 0.70
     CG style diagonalization
     ethr =  5.57E-06,  avg # of iterations =  3.6

     negative rho (up, down):  1.527E-02 0.000E+00

     total cpu time spent up to now is        4.6 secs

     total energy              =    -380.57104306 Ry
     estimated scf accuracy    <       0.00001114 Ry

     iteration #  9     ecut=    50.00 Ry     beta= 0.70
     CG style diagonalization
     c_bands:  1 eigenvalues not converged
     ethr =  2.53E-08,  avg # of iterations =  8.0

     negative rho (up, down):  1.531E-02 0.000E+00

     total cpu time spent up to now is        5.6 secs

     total energy              =    -380.57111326 Ry
     estimated scf accuracy    <       0.00002983 Ry

     iteration # 10     ecut=    50.00 Ry     beta= 0.70
     CG style diagonalization
     ethr =  2.53E-08,  avg # of iterations =  3.7

     negative rho (up, down):  1.538E-02 0.000E+00

     total cpu time spent up to now is        6.1 secs

     total energy              =    -380.57111208 Ry
     estimated scf accuracy    <       0.00000763 Ry

     iteration # 11     ecut=    50.00 Ry     beta= 0.70
     CG style diagonalization
     ethr =  1.73E-08,  avg # of iterations =  3.9

     negative rho (up, down):  1.539E-02 0.000E+00

     total cpu time spent up to now is        6.6 secs

     total energy              =    -380.57111420 Ry
     estimated scf accuracy    <       0.00000085 Ry

     iteration # 12     ecut=    50.00 Ry     beta= 0.70
     CG style diagonalization
     ethr =  1.93E-09,  avg # of iterations =  6.5

     negative rho (up, down):  1.540E-02 0.000E+00

     total cpu time spent up to now is        7.4 secs

     total energy              =    -380.57111547 Ry
     estimated scf accuracy    <       0.00000006 Ry

     iteration # 13     ecut=    50.00 Ry     beta= 0.70
     CG style diagonalization
     ethr =  1.41E-10,  avg # of iterations =  8.7

     negative rho (up, down):  1.541E-02 0.000E+00

     total cpu time spent up to now is        8.5 secs

     End of self-consistent calculation

          k = 0.0000 0.0000 0.0000 (  2525 PWs)   bands (ev):

   -45.8559 -22.4906 -22.4288 -22.4288  -7.5147  -6.4347  -6.2030  -5.0271
    -5.0271  -4.9922  -4.8711  -4.7665   4.2240   6.3075   6.3075   6.6257
     8.2736   8.2736   8.4913   8.7775   8.9401   8.9401

          k = 0.0000 0.0000 0.1902 (  2525 PWs)   bands (ev):

   -45.8557 -22.5040 -22.4283 -22.4283  -7.3830  -6.3946  -6.1626  -5.0376
    -5.0376  -4.9914  -4.8655  -4.8151   3.6552   6.3565   6.3565   6.8881
     8.0781   8.0781   8.4327   8.6523   9.0197   9.0197

          k = 0.0000 0.0000 0.3805 (  2514 PWs)   bands (ev):

   -45.8554 -22.5257 -22.4274 -22.4274  -7.1528  -6.3240  -6.1043  -5.0545
    -5.0545  -4.9899  -4.8995  -4.8584   3.0481   6.2820   6.4236   6.4236
     7.8540   7.8540   8.3419   9.1041   9.1041   9.6963

          k = 0.0000 0.2000 0.0000 (  2511 PWs)   bands (ev):

   -45.8555 -22.4896 -22.4525 -22.4278  -7.3264  -6.3942  -6.1637  -5.0547
    -5.0252  -5.0099  -4.8773  -4.7557   3.6638   6.3544   6.4622   6.6188
     8.2058   8.2917   8.4590   8.4626   8.6659   9.0640

          k = 0.0000 0.2000 0.1902 (  2511 PWs)   bands (ev):

   -45.8553 -22.5030 -22.4519 -22.4273  -7.2097  -6.3681  -6.1187  -5.0493
    -5.0362  -5.0094  -4.8745  -4.7733   3.3134   6.1735   6.5188   6.8512
     7.7768   8.0512   8.1871   8.5937   8.7039   9.3193

          k = 0.0000 0.2000 0.3805 (  2517 PWs)   bands (ev):

   -45.8550 -22.5244 -22.4509 -22.4264  -7.0190  -6.3190  -6.0409  -5.0537
    -5.0363  -5.0088  -4.8852  -4.7948   2.8569   5.8746   6.5920   6.6299
     7.4028   7.8455   8.0892   8.6832   8.8664   9.7685

          k = 0.0000 0.4000 0.0000 (  2510 PWs)   bands (ev):

   -45.8548 -22.4915 -22.4871 -22.4262  -6.9873  -6.3166  -6.1274  -5.0903
    -5.0382  -5.0221  -4.8630  -4.7805   3.0849   5.7605   6.8036   6.8403
     7.5889   7.6499   8.2983   8.4315   8.7983  10.0253

          k = 0.0000 0.4000 0.1902 (  2507 PWs)   bands (ev):

   -45.8546 -22.5011 -22.4899 -22.4257  -6.9283  -6.2811  -6.0705  -5.0683
    -5.0385  -5.0337  -4.8477  -4.7565   2.8876   5.7324   6.6517   6.9262
     7.1502   7.5755   8.1468   8.4010   8.7719   9.8842

          k = 0.0000 0.4000 0.3805 (  2521 PWs)   bands (ev):

   -45.8543 -22.5222 -22.4888 -22.4248  -6.8707  -6.2044  -5.9337  -5.0526
    -5.0389  -5.0260  -4.8903  -4.6697   2.5939   5.5558   6.2018   7.0004
     7.0272   7.4312   7.5395   8.3713   9.2643   9.5595

          k = 0.2000 0.2000 0.0000 (  2498 PWs)   bands (ev):

   -45.8550 -22.4887 -22.4515 -22.4513  -7.1441  -6.3523  -6.1657  -5.0615
    -5.0404  -5.0026  -4.8410  -4.7454   3.3061   6.2663   6.5774   6.6608
     7.5814   7.6497   8.4912   8.6016   8.9125   9.4101

          k = 0.2000 0.2000 0.1902 (  2504 PWs)   bands (ev):

   -45.8548 -22.5019 -22.4509 -22.4507  -7.0360  -6.3452  -6.1239  -5.0496
    -5.0467  -4.9933  -4.8306  -4.7422   3.1373   6.0871   6.1597   6.7800
     7.4442   7.4917   8.4601   8.7389   8.9839   9.3069

          k = 0.2000 0.2000 0.3805 (  2517 PWs)   bands (ev):

   -45.8545 -22.5232 -22.4500 -22.4498  -6.8679  -6.3343  -6.0397  -5.0586
    -5.0226  -4.9604  -4.8297  -4.7424   2.8470   5.8033   5.9409   6.4310
     7.1705   7.3236   8.4583   8.8736   9.1183   9.3788

          k = 0.2000 0.4000 0.0000 (  2524 PWs)   bands (ev):

   -45.8543 -22.4902 -22.4861 -22.4496  -6.8232  -6.2793  -6.1904  -5.0727
    -5.0244  -4.9604  -4.8081  -4.7681   2.8455   5.7797   6.5340   6.9023
     7.0233   7.7116   7.8135   8.7747   8.9708   9.7733

          k = 0.2000 0.4000 0.1902 (  2516 PWs)   bands (ev):

   -45.8541 -22.5001 -22.4886 -22.4491  -6.7551  -6.2788  -6.1523  -5.0528
    -5.0230  -4.9367  -4.7876  -4.7240   2.8468   5.7316   5.9506   6.3463
     6.9819   7.6190   8.2524   8.7692   9.0595   9.3819

          k = 0.2000 0.4000 0.3805 (  2507 PWs)   bands (ev):

   -45.8538 -22.5210 -22.4876 -22.4482  -6.6974  -6.2656  -6.0355  -5.0390
    -4.9941  -4.8972  -4.7810  -4.6349   2.7999   5.4846   5.6431   5.9839
     6.3386   7.3089   8.3796   8.8456   8.8947   9.5083

          k = 0.4000 0.4000 0.0000 (  2524 PWs)   bands (ev):

   -45.8536 -22.4887 -22.4874 -22.4836  -6.5982  -6.2242  -6.2197  -5.0480
    -4.9816  -4.8602  -4.7825  -4.7051   2.4635   5.6444   6.0077   6.9265
     7.1093   7.3226   7.6475   8.3844   8.9800   9.6479

          k = 0.4000 0.4000 0.1902 (  2522 PWs)   bands (ev):

   -45.8534 -22.4982 -22.4868 -22.4866  -6.4892  -6.2699  -6.2477  -5.0216
    -4.9751  -4.7930  -4.7062  -4.6726   2.6819   5.5885   5.7714   5.8342
     6.3173   7.3682   8.0908   8.7475   8.7894   9.6443

          k = 0.4000 0.4000 0.3805 (  2502 PWs)   bands (ev):

   -45.8532 -22.5191 -22.4858 -22.4858  -6.4199  -6.3423  -6.1651  -4.9789
    -4.9685  -4.7030  -4.5985  -4.5860   3.1431   5.0290   5.1556   5.5064
     6.1898   6.3878   6.9468   9.4922   9.5286   9.6411

     highest occupied level (ev):    10.0253

!    total energy              =    -380.57111579 Ry
     estimated scf accuracy    <          8.0E-09 Ry

     The total energy is the sum of the following terms:
     one-electron contribution =     -84.08326226 Ry
     hartree contribution      =      71.16815260 Ry
     xc contribution           =    -102.54184668 Ry
     ewald contribution        =    -265.11415945 Ry

     convergence has been achieved in  13 iterations

     negative rho (up, down):  1.541E-02 0.000E+00

     Forces acting on atoms (cartesian axes, Ry/au):

     atom    1 type  1   force =     0.00000000    0.00000000   -0.00776928
     atom    2 type  2   force =     0.00000000    0.00000000   -0.01192141
     atom    3 type  3   force =     0.00000000    0.00000000    0.02004263
     atom    4 type  3   force =     0.00000000    0.00000000   -0.00017597
     atom    5 type  3   force =     0.00000000    0.00000000   -0.00017597

     Total force =     0.024582     Total SCF correction =     0.000248


     Computing stress (Cartesian axis) and pressure


     negative rho (up, down):  1.541E-02 0.000E+00
          total   stress  (Ry/bohr**3)                   (kbar)     P=      -65.56
  -0.00043292   0.00000000   0.00000000          -63.69        0.00        0.00
   0.00000000  -0.00043292   0.00000000            0.00      -63.69        0.00
   0.00000000   0.00000000  -0.00047114            0.00        0.00      -69.31


     BFGS Geometry Optimization
     Energy error            =      0.0E+00 Ry
     Gradient error          =      2.0E-02 Ry/Bohr

     number of scf cycles    =   1
     number of bfgs steps    =   0

     energy             new  =    -380.5711157856 Ry

     new trust radius        =       0.0200426328 bohr
     new conv_thr            =       0.0000000100 Ry


ATOMIC_POSITIONS (crystal)
Pb               0.0000000000        0.0000000000        1.0054197452
Ti               0.5000000000        0.5000000000        0.5388850288
O                0.5000000000        0.5000000000        0.1011671558
O                0.5000000000        0.0000000000        0.6109061791
O                0.0000000000        0.5000000000        0.6109061791



     Writing config-only to output data dir ./pto_k5.save/ :
     XML data file
     NEW-OLD atomic charge density approx. for the potential

     Check: negative core charge=   -0.000004

     negative rho (up, down):  1.527E-02 0.000E+00

     total cpu time spent up to now is        9.4 secs

     Self-consistent Calculation

     iteration #  1     ecut=    50.00 Ry     beta= 0.70
     CG style diagonalization
     c_bands:  1 eigenvalues not converged
     c_bands:  1 eigenvalues not converged
     c_bands:  2 eigenvalues not converged
     c_bands:  2 eigenvalues not converged
     ethr =  1.00E-06,  avg # of iterations =  7.0

     negative rho (up, down):  1.525E-02 0.000E+00

     total cpu time spent up to now is       10.3 secs

     total energy              =    -380.57147556 Ry
     estimated scf accuracy    <       0.00022517 Ry

     iteration #  2     ecut=    50.00 Ry     beta= 0.70
     CG style diagonalization
     ethr =  5.12E-07,  avg # of iterations =  4.7

     negative rho (up, down):  1.526E-02 0.000E+00

     total cpu time spent up to now is       10.9 secs

     total energy              =    -380.57145060 Ry
     estimated scf accuracy    <       0.00063989 Ry

     iteration #  3     ecut=    50.00 Ry     beta= 0.70
     CG style diagonalization
     ethr =  5.12E-07,  avg # of iterations =  4.3

     negative rho (up, down):  1.526E-02 0.000E+00

     total cpu time spent up to now is       11.5 secs

     total energy              =    -380.57157818 Ry
     estimated scf accuracy    <       0.00005270 Ry

     iteration #  4     ecut=    50.00 Ry     beta= 0.70
     CG style diagonalization
     ethr =  1.20E-07,  avg # of iterations =  3.7

     negative rho (up, down):  1.525E-02 0.000E+00

     total cpu time spent up to now is       12.0 secs

     total energy              =    -380.57159094 Ry
     estimated scf accuracy    <       0.00000522 Ry

     iteration #  5     ecut=    50.00 Ry     beta= 0.70
     CG style diagonalization
     ethr =  1.19E-08,  avg # of iterations =  4.4

     negative rho (up, down):  1.525E-02 0.000E+00

     total cpu time spent up to now is       12.6 secs

     total energy              =    -380.57159413 Ry
     estimated scf accuracy    <       0.00000060 Ry

     iteration #  6     ecut=    50.00 Ry     beta= 0.70
     CG style diagonalization
     ethr =  1.36E-09,  avg # of iterations =  4.4

     negative rho (up, down):  1.525E-02 0.000E+00

     total cpu time spent up to now is       13.1 secs

     total energy              =    -380.57159439 Ry
     estimated scf accuracy    <       0.00000026 Ry

     iteration #  7     ecut=    50.00 Ry     beta= 0.70
     CG style diagonalization
     ethr =  5.99E-10,  avg # of iterations =  4.0

     negative rho (up, down):  1.525E-02 0.000E+00

     total cpu time spent up to now is       13.7 secs

     total energy              =    -380.57159446 Ry
     estimated scf accuracy    <       0.00000008 Ry

     iteration #  8     ecut=    50.00 Ry     beta= 0.70
     CG style diagonalization
     ethr =  1.79E-10,  avg # of iterations =  4.3

     negative rho (up, down):  1.525E-02 0.000E+00

     total cpu time spent up to now is       14.2 secs

     End of self-consistent calculation

          k = 0.0000 0.0000 0.0000 (  2525 PWs)   bands (ev):

   -45.8214 -22.4779 -22.3938 -22.3938  -7.5120  -6.4288  -6.2135  -5.0294
    -5.0294  -4.9964  -4.8782  -4.7642   4.2144   6.3110   6.3110   6.6550
     8.2072   8.2072   8.4927   8.7216   8.9485   8.9485

          k = 0.0000 0.0000 0.1902 (  2525 PWs)   bands (ev):

   -45.8212 -22.4915 -22.3932 -22.3932  -7.3784  -6.3886  -6.1746  -5.0399
    -5.0399  -4.9955  -4.8727  -4.8129   3.6431   6.3540   6.3540   6.9086
     8.0296   8.0296   8.4338   8.6227   9.0253   9.0253

          k = 0.0000 0.0000 0.3805 (  2514 PWs)   bands (ev):

   -45.8209 -22.5132 -22.3924 -22.3924  -7.1442  -6.3178  -6.1198  -5.0568
    -5.0568  -4.9941  -4.8975  -4.8655   3.0288   6.2941   6.4080   6.4080
     7.8298   7.8298   8.3425   9.1093   9.1093   9.6962

          k = 0.0000 0.2000 0.0000 (  2511 PWs)   bands (ev):

   -45.8210 -22.4769 -22.4175 -22.3928  -7.3243  -6.3891  -6.1756  -5.0576
    -5.0276  -5.0140  -4.8817  -4.7535   3.6599   6.3556   6.4668   6.6274
     8.1824   8.2345   8.4573   8.4575   8.6463   9.0413

          k = 0.0000 0.2000 0.1902 (  2511 PWs)   bands (ev):

   -45.8208 -22.4903 -22.4169 -22.3922  -7.2057  -6.3632  -6.1322  -5.0520
    -5.0385  -5.0136  -4.8793  -4.7709   3.3066   6.1692   6.5177   6.8577
     7.7615   8.0103   8.1797   8.5906   8.6880   9.3146

          k = 0.0000 0.2000 0.3805 (  2517 PWs)   bands (ev):

   -45.8205 -22.5119 -22.4159 -22.3913  -7.0111  -6.3142  -6.0576  -5.0560
    -5.0385  -5.0129  -4.8902  -4.7927   2.8447   5.8590   6.5778   6.6444
     7.3914   7.8227   8.0954   8.6862   8.8466   9.7755

          k = 0.0000 0.4000 0.0000 (  2510 PWs)   bands (ev):

   -45.8202 -22.4752 -22.4558 -22.3912  -6.9856  -6.3134  -6.1426  -5.0924
    -5.0422  -5.0244  -4.8625  -4.7798   3.0829   5.7730   6.7964   6.8483
     7.5908   7.6577   8.2984   8.3589   8.7626  10.0138

          k = 0.0000 0.4000 0.1902 (  2507 PWs)   bands (ev):

   -45.8201 -22.4884 -22.4550 -22.3906  -6.9240  -6.2787  -6.0874  -5.0704
    -5.0426  -5.0360  -4.8491  -4.7540   2.8852   5.7416   6.6473   6.9300
     7.1441   7.5705   8.1393   8.3544   8.7634   9.8723

          k = 0.0000 0.4000 0.3805 (  2521 PWs)   bands (ev):

   -45.8198 -22.5096 -22.4538 -22.3897  -6.8636  -6.2020  -5.9538  -5.0548
    -5.0430  -5.0278  -4.8918  -4.6672   2.5909   5.5475   6.2055   6.9875
     7.0219   7.4443   7.5355   8.3518   9.2549   9.5440

          k = 0.2000 0.2000 0.0000 (  2498 PWs)   bands (ev):

   -45.8205 -22.4759 -22.4166 -22.4162  -7.1434  -6.3477  -6.1776  -5.0640
    -5.0432  -5.0060  -4.8453  -4.7430   3.3039   6.2768   6.5736   6.6654
     7.5790   7.6005   8.5058   8.5708   8.9135   9.3740

          k = 0.2000 0.2000 0.1902 (  2504 PWs)   bands (ev):

   -45.8203 -22.4892 -22.4160 -22.4157  -7.0331  -6.3405  -6.1379  -5.0526
    -5.0491  -4.9967  -4.8352  -4.7397   3.1325   6.0858   6.1558   6.7797
     7.4277   7.4948   8.4226   8.7407   8.9789   9.2962

          k = 0.2000 0.2000 0.3805 (  2517 PWs)   bands (ev):

   -45.8200 -22.5107 -22.4150 -22.4148  -6.8611  -6.3295  -6.0571  -5.0619
    -5.0256  -4.9629  -4.8349  -4.7396   2.8373   5.7912   5.9297   6.4402
     7.1733   7.3284   8.4196   8.8766   9.1060   9.3868

          k = 0.2000 0.4000 0.0000 (  2524 PWs)   bands (ev):

   -45.8198 -22.4742 -22.4545 -22.4147  -6.8250  -6.2767  -6.2010  -5.0745
    -5.0271  -4.9645  -4.8104  -4.7665   2.8440   5.7934   6.5329   6.8939
     7.0332   7.6838   7.7951   8.7612   8.9685   9.7621

          k = 0.2000 0.4000 0.1902 (  2516 PWs)   bands (ev):

   -45.8196 -22.4873 -22.4538 -22.4141  -6.7534  -6.2768  -6.1654  -5.0549
    -5.0255  -4.9420  -4.7893  -4.7221   2.8446   5.7401   5.9458   6.3464
     6.9794   7.6086   8.2483   8.7456   9.0555   9.3719

          k = 0.2000 0.4000 0.3805 (  2507 PWs)   bands (ev):

   -45.8193 -22.5085 -22.4527 -22.4131  -6.6919  -6.2630  -6.0523  -5.0422
    -4.9962  -4.9041  -4.7819  -4.6328   2.7961   5.4724   5.6426   5.9902
     6.3410   7.3187   8.3719   8.8239   8.8990   9.4872

          k = 0.4000 0.4000 0.0000 (  2524 PWs)   bands (ev):

   -45.8191 -22.4723 -22.4524 -22.4524  -6.6097  -6.2257  -6.2177  -5.0495
    -4.9848  -4.8600  -4.7798  -4.7136   2.4615   5.6536   6.0330   6.9011
     7.0693   7.3261   7.6622   8.3776   8.9825   9.6531

          k = 0.4000 0.4000 0.1902 (  2522 PWs)   bands (ev):

   -45.8189 -22.4854 -22.4519 -22.4518  -6.4967  -6.2677  -6.2525  -5.0231
    -4.9787  -4.7955  -4.7034  -4.6797   2.6794   5.5956   5.7739   5.8274
     6.3269   7.3642   8.0959   8.7341   8.7706   9.6495

          k = 0.4000 0.4000 0.3805 (  2502 PWs)   bands (ev):

   -45.8186 -22.5065 -22.4509 -22.4508  -6.4174  -6.3399  -6.1784  -4.9805
    -4.9723  -4.7124  -4.6012  -4.5833   3.1382   5.0252   5.1475   5.5157
     6.2147   6.3862   6.9508   9.4685   9.5116   9.6442

     highest occupied level (ev):    10.0138

!    total energy              =    -380.57159449 Ry
     estimated scf accuracy    <          3.9E-09 Ry

     The total energy is the sum of the following terms:
     one-electron contribution =     -84.29635666 Ry
     hartree contribution      =      71.28363609 Ry
     xc contribution           =    -102.55145415 Ry
     ewald contribution        =    -265.00741977 Ry

     convergence has been achieved in   8 iterations

     negative rho (up, down):  1.525E-02 0.000E+00

     Forces acting on atoms (cartesian axes, Ry/au):

     atom    1 type  1   force =     0.00000000    0.00000000   -0.00851358
     atom    2 type  2   force =     0.00000000    0.00000000   -0.00488085
     atom    3 type  3   force =     0.00000000    0.00000000    0.01125927
     atom    4 type  3   force =     0.00000000    0.00000000    0.00106758
     atom    5 type  3   force =     0.00000000    0.00000000    0.00106758

     Total force =     0.015012     Total SCF correction =     0.000155


     Computing stress (Cartesian axis) and pressure


     negative rho (up, down):  1.525E-02 0.000E+00
          total   stress  (Ry/bohr**3)                   (kbar)     P=      -60.48
  -0.00042265   0.00000000   0.00000000          -62.17        0.00        0.00
   0.00000000  -0.00042265   0.00000000            0.00      -62.17        0.00
   0.00000000   0.00000000  -0.00038821            0.00        0.00      -57.11

     Energy error            =      4.8E-04 Ry
     Gradient error          =      1.1E-02 Ry/Bohr

     number of scf cycles    =   2
     number of bfgs steps    =   1

     energy             old  =    -380.5711157856 Ry
     energy             new  =    -380.5715944924 Ry

     CASE: energy            _new < energy            _old

     new trust radius        =       0.0220468961 bohr
     new conv_thr            =       0.0000000005 Ry


ATOMIC_POSITIONS (crystal)
Pb               0.0000000000        0.0000000000        1.0034137125
Ti               0.5000000000        0.5000000000        0.5375877679
O                0.5000000000        0.5000000000        0.1040126960
O                0.5000000000        0.0000000000        0.6111350558
O                0.0000000000        0.5000000000        0.6111350558



     Writing config-only to output data dir ./pto_k5.save/ :
     XML data file
     NEW-OLD atomic charge density approx. for the potential

     Check: negative core charge=   -0.000004

     negative rho (up, down):  1.515E-02 0.000E+00

     total cpu time spent up to now is       15.1 secs

     Self-consistent Calculation

     iteration #  1     ecut=    50.00 Ry     beta= 0.70
     CG style diagonalization
     c_bands:  1 eigenvalues not converged
     ethr =  1.00E-06,  avg # of iterations =  7.1

     negative rho (up, down):  1.512E-02 0.000E+00

     total cpu time spent up to now is       16.1 secs

     total energy              =    -380.57176764 Ry
     estimated scf accuracy    <       0.00023197 Ry

     iteration #  2     ecut=    50.00 Ry     beta= 0.70
     CG style diagonalization
     ethr =  5.27E-07,  avg # of iterations =  4.7

     negative rho (up, down):  1.512E-02 0.000E+00

     total cpu time spent up to now is       16.7 secs

     total energy              =    -380.57173923 Ry
     estimated scf accuracy    <       0.00065906 Ry

     iteration #  3     ecut=    50.00 Ry     beta= 0.70
     CG style diagonalization
     ethr =  5.27E-07,  avg # of iterations =  4.2

     negative rho (up, down):  1.512E-02 0.000E+00

     total cpu time spent up to now is       17.2 secs

     total energy              =    -380.57186977 Ry
     estimated scf accuracy    <       0.00005098 Ry

     iteration #  4     ecut=    50.00 Ry     beta= 0.70
     CG style diagonalization
     ethr =  1.16E-07,  avg # of iterations =  3.7

     negative rho (up, down):  1.511E-02 0.000E+00

     total cpu time spent up to now is       17.7 secs

     total energy              =    -380.57188304 Ry
     estimated scf accuracy    <       0.00000638 Ry

     iteration #  5     ecut=    50.00 Ry     beta= 0.70
     CG style diagonalization
     ethr =  1.45E-08,  avg # of iterations =  4.2

     negative rho (up, down):  1.511E-02 0.000E+00

     total cpu time spent up to now is       18.2 secs

     total energy              =    -380.57188654 Ry
     estimated scf accuracy    <       0.00000080 Ry

     iteration #  6     ecut=    50.00 Ry     beta= 0.70
     CG style diagonalization
     ethr =  1.83E-09,  avg # of iterations =  4.5

     negative rho (up, down):  1.511E-02 0.000E+00

     total cpu time spent up to now is       18.8 secs

     total energy              =    -380.57188700 Ry
     estimated scf accuracy    <       0.00000027 Ry

     iteration #  7     ecut=    50.00 Ry     beta= 0.70
     CG style diagonalization
     ethr =  6.17E-10,  avg # of iterations =  4.2

     negative rho (up, down):  1.511E-02 0.000E+00

     total cpu time spent up to now is       19.4 secs

     total energy              =    -380.57188710 Ry
     estimated scf accuracy    <       0.00000005 Ry

     iteration #  8     ecut=    50.00 Ry     beta= 0.70
     CG style diagonalization
     ethr =  1.12E-10,  avg # of iterations =  5.0

     negative rho (up, down):  1.511E-02 0.000E+00

     total cpu time spent up to now is       20.0 secs

     total energy              =    -380.57188714 Ry
     estimated scf accuracy    <          4.7E-09 Ry

     iteration #  9     ecut=    50.00 Ry     beta= 0.70
     CG style diagonalization
     ethr =  1.06E-11,  avg # of iterations =  6.6

     negative rho (up, down):  1.511E-02 0.000E+00

     total cpu time spent up to now is       20.8 secs

     total energy              =    -380.57188715 Ry
     estimated scf accuracy    <          4.8E-10 Ry

     iteration # 10     ecut=    50.00 Ry     beta= 0.70
     CG style diagonalization
     c_bands:  1 eigenvalues not converged
     ethr =  1.09E-12,  avg # of iterations =  7.3

     negative rho (up, down):  1.511E-02 0.000E+00

     total cpu time spent up to now is       21.7 secs

     End of self-consistent calculation

          k = 0.0000 0.0000 0.0000 (  2525 PWs)   bands (ev):

   -45.7873 -22.4675 -22.3593 -22.3593  -7.5150  -6.4313  -6.2217  -5.0285
    -5.0285  -4.9964  -4.8837  -4.7555   4.2052   6.3091   6.3091   6.6946
     8.1409   8.1409   8.4906   8.6639   8.9496   8.9496

          k = 0.0000 0.0000 0.1902 (  2525 PWs)   bands (ev):

   -45.7871 -22.4811 -22.3588 -22.3588  -7.3804  -6.3915  -6.1838  -5.0390
    -5.0390  -4.9955  -4.8778  -4.8037   3.6331   6.3454   6.3454   6.9355
     7.9808   7.9808   8.4314   8.5921   9.0236   9.0236

          k = 0.0000 0.0000 0.3805 (  2514 PWs)   bands (ev):

   -45.7868 -22.5029 -22.3579 -22.3579  -7.1441  -6.3214  -6.1313  -5.0558
    -5.0558  -4.9941  -4.8875  -4.8698   3.0124   6.3099   6.3857   6.3857
     7.8056   7.8056   8.3397   9.1066   9.1066   9.6952

          k = 0.0000 0.2000 0.0000 (  2511 PWs)   bands (ev):

   -45.7869 -22.4665 -22.3832 -22.3583  -7.3279  -6.3927  -6.1862  -5.0572
    -5.0266  -5.0138  -4.8832  -4.7445   3.6566   6.3523   6.4657   6.6373
     8.1575   8.1715   8.4502   8.4548   8.6195   9.0214

          k = 0.0000 0.2000 0.1902 (  2511 PWs)   bands (ev):

   -45.7867 -22.4800 -22.3826 -22.3578  -7.2082  -6.3672  -6.1437  -5.0510
    -5.0375  -5.0134  -4.8812  -4.7618   3.3017   6.1604   6.5103   6.8638
     7.7450   7.9662   8.1677   8.5836   8.6699   9.3092

          k = 0.0000 0.2000 0.3805 (  2517 PWs)   bands (ev):

   -45.7864 -22.5016 -22.3815 -22.3569  -7.0116  -6.3188  -6.0711  -5.0550
    -5.0366  -5.0128  -4.8917  -4.7840   2.8354   5.8408   6.5566   6.6577
     7.3778   7.7986   8.0935   8.6832   8.8247   9.7833

          k = 0.0000 0.4000 0.0000 (  2510 PWs)   bands (ev):

   -45.7862 -22.4647 -22.4216 -22.3567  -6.9897  -6.3189  -6.1583  -5.0907
    -5.0420  -5.0234  -4.8563  -4.7731   3.0820   5.7805   6.7860   6.8492
     7.5882   7.6609   8.2851   8.2942   8.7232  10.0067

          k = 0.0000 0.4000 0.1902 (  2507 PWs)   bands (ev):

   -45.7860 -22.4780 -22.4208 -22.3562  -6.9267  -6.2851  -6.1036  -5.0684
    -5.0423  -5.0350  -4.8460  -4.7448   2.8849   5.7454   6.6394   6.9265
     7.1324   7.5592   8.1296   8.3076   8.7507   9.8648

          k = 0.0000 0.4000 0.3805 (  2521 PWs)   bands (ev):

   -45.7857 -22.4993 -22.4195 -22.3552  -6.8645  -6.2092  -5.9713  -5.0538
    -5.0428  -5.0253  -4.8883  -4.6590   2.5910   5.5339   6.2079   6.9676
     7.0060   7.4564   7.5253   8.3305   9.2419   9.5342

          k = 0.2000 0.2000 0.0000 (  2498 PWs)   bands (ev):

   -45.7865 -22.4655 -22.3823 -22.3819  -7.1480  -6.3521  -6.1891  -5.0629
    -5.0424  -5.0053  -4.8460  -4.7337   3.3007   6.2825   6.5641   6.6705
     7.5516   7.5709   8.5155   8.5405   8.9076   9.3395

          k = 0.2000 0.2000 0.1902 (  2504 PWs)   bands (ev):

   -45.7863 -22.4788 -22.3816 -22.3813  -7.0366  -6.3449  -6.1503  -5.0518
    -5.0476  -4.9961  -4.8363  -4.7304   3.1282   6.0800   6.1477   6.7766
     7.4101   7.4941   8.3829   8.7366   8.9688   9.2877

          k = 0.2000 0.2000 0.3805 (  2517 PWs)   bands (ev):

   -45.7860 -22.5003 -22.3806 -22.3804  -6.8626  -6.3339  -6.0712  -5.0614
    -5.0245  -4.9619  -4.8364  -4.7302   2.8295   5.7758   5.9152   6.4460
     7.1688   7.3313   8.3807   8.8715   9.0900   9.3968

          k = 0.2000 0.4000 0.0000 (  2524 PWs)   bands (ev):

   -45.7857 -22.4636 -22.4203 -22.3803  -6.8312  -6.2833  -6.2133  -5.0725
    -5.0260  -4.9643  -4.8073  -4.7583   2.8403   5.8020   6.5265   6.8815
     7.0411   7.6393   7.7912   8.7444   8.9595   9.7540

          k = 0.2000 0.4000 0.1902 (  2516 PWs)   bands (ev):

   -45.7856 -22.4768 -22.4196 -22.3797  -6.7579  -6.2835  -6.1782  -5.0532
    -5.0242  -4.9436  -4.7862  -4.7136   2.8410   5.7434   5.9363   6.3429
     6.9752   7.5970   8.2387   8.7196   9.0449   9.3671

          k = 0.2000 0.4000 0.3805 (  2507 PWs)   bands (ev):

   -45.7853 -22.4981 -22.4184 -22.3787  -6.6944  -6.2692  -6.0659  -5.0416
    -4.9946  -4.9076  -4.7778  -4.6253   2.7927   5.4562   5.6341   5.9935
     6.3424   7.3253   8.3668   8.8005   8.8970   9.4645

          k = 0.4000 0.4000 0.0000 (  2524 PWs)   bands (ev):

   -45.7850 -22.4617 -22.4183 -22.4181  -6.6198  -6.2347  -6.2257  -5.0471
    -4.9839  -4.8543  -4.7700  -4.7180   2.4528   5.6578   6.0541   6.8741
     7.0313   7.3279   7.6728   8.3706   8.9896   9.6495

          k = 0.4000 0.4000 0.1902 (  2522 PWs)   bands (ev):

   -45.7849 -22.4749 -22.4176 -22.4175  -6.5051  -6.2746  -6.2614  -5.0208
    -4.9782  -4.7943  -4.6944  -4.6819   2.6693   5.5978   5.7732   5.8194
     6.3358   7.3604   8.1049   8.7184   8.7518   9.6459

          k = 0.4000 0.4000 0.3805 (  2502 PWs)   bands (ev):

   -45.7846 -22.4961 -22.4166 -22.4165  -6.4224  -6.3455  -6.1878  -4.9783
    -4.9722  -4.7198  -4.5988  -4.5757   3.1236   5.0187   5.1394   5.5218
     6.2363   6.3847   6.9646   9.4427   9.4910   9.6396

     highest occupied level (ev):    10.0067

!    total energy              =    -380.57188715 Ry
     estimated scf accuracy    <          1.8E-10 Ry

     The total energy is the sum of the following terms:
     one-electron contribution =     -84.62917855 Ry
     hartree contribution      =      71.45901458 Ry
     xc contribution           =    -102.56343475 Ry
     ewald contribution        =    -264.83828842 Ry

     convergence has been achieved in  10 iterations

     negative rho (up, down):  1.511E-02 0.000E+00

     Forces acting on atoms (cartesian axes, Ry/au):

     atom    1 type  1   force =     0.00000000    0.00000000   -0.00845185
     atom    2 type  2   force =     0.00000000    0.00000000    0.00264841
     atom    3 type  3   force =     0.00000000    0.00000000    0.00138499
     atom    4 type  3   force =     0.00000000    0.00000000    0.00220923
     atom    5 type  3   force =     0.00000000    0.00000000    0.00220923

     Total force =     0.009494     Total SCF correction =     0.000018


     Computing stress (Cartesian axis) and pressure


     negative rho (up, down):  1.511E-02 0.000E+00
          total   stress  (Ry/bohr**3)                   (kbar)     P=      -54.18
  -0.00040651   0.00000000   0.00000000          -59.80        0.00        0.00
   0.00000000  -0.00040651   0.00000000            0.00      -59.80        0.00
   0.00000000   0.00000000  -0.00029189            0.00        0.00      -42.94

     Energy error            =      2.9E-04 Ry
     Gradient error          =      8.5E-03 Ry/Bohr

     number of scf cycles    =   3
     number of bfgs steps    =   2

     energy             old  =    -380.5715944924 Ry
     energy             new  =    -380.5718871494 Ry

     CASE: energy            _new < energy            _old

     new trust radius        =       0.0191621436 bohr
     new conv_thr            =       0.0000000003 Ry


ATOMIC_POSITIONS (crystal)
Pb               0.0000000000        0.0000000000        1.0009405003
Ti               0.5000000000        0.5000000000        0.5373222857
O                0.5000000000        0.5000000000        0.1057779977
O                0.5000000000        0.0000000000        0.6116217521
O                0.0000000000        0.5000000000        0.6116217521



     Writing config-only to output data dir ./pto_k5.save/ :
     XML data file
     NEW-OLD atomic charge density approx. for the potential

     Check: negative core charge=   -0.000004

     negative rho (up, down):  1.493E-02 0.000E+00

     total cpu time spent up to now is       22.6 secs

     Self-consistent Calculation

     iteration #  1     ecut=    50.00 Ry     beta= 0.70
     CG style diagonalization
     ethr =  1.00E-06,  avg # of iterations =  5.7

     negative rho (up, down):  1.490E-02 0.000E+00

     total cpu time spent up to now is       23.4 secs

     total energy              =    -380.57199057 Ry
     estimated scf accuracy    <       0.00005875 Ry

     iteration #  2     ecut=    50.00 Ry     beta= 0.70
     CG style diagonalization
     ethr =  1.34E-07,  avg # of iterations =  4.8

     negative rho (up, down):  1.490E-02 0.000E+00

     total cpu time spent up to now is       24.1 secs

     total energy              =    -380.57199456 Ry
     estimated scf accuracy    <       0.00014535 Ry

     iteration #  3     ecut=    50.00 Ry     beta= 0.70
     CG style diagonalization
     ethr =  1.34E-07,  avg # of iterations =  4.2

     negative rho (up, down):  1.490E-02 0.000E+00

     total cpu time spent up to now is       24.6 secs

     total energy              =    -380.57202491 Ry
     estimated scf accuracy    <       0.00001729 Ry

     iteration #  4     ecut=    50.00 Ry     beta= 0.70
     CG style diagonalization
     ethr =  3.93E-08,  avg # of iterations =  3.6

     negative rho (up, down):  1.490E-02 0.000E+00

     total cpu time spent up to now is       25.1 secs

     total energy              =    -380.57202855 Ry
     estimated scf accuracy    <       0.00000239 Ry

     iteration #  5     ecut=    50.00 Ry     beta= 0.70
     CG style diagonalization
     ethr =  5.43E-09,  avg # of iterations =  4.1

     negative rho (up, down):  1.490E-02 0.000E+00

     total cpu time spent up to now is       25.6 secs

     total energy              =    -380.57202977 Ry
     estimated scf accuracy    <       0.00000012 Ry

     iteration #  6     ecut=    50.00 Ry     beta= 0.70
     CG style diagonalization
     ethr =  2.63E-10,  avg # of iterations =  5.8

     negative rho (up, down):  1.490E-02 0.000E+00

     total cpu time spent up to now is       26.3 secs

     total energy              =    -380.57202997 Ry
     estimated scf accuracy    <       0.00000024 Ry

     iteration #  7     ecut=    50.00 Ry     beta= 0.70
     CG style diagonalization
     ethr =  2.63E-10,  avg # of iterations =  4.0

     negative rho (up, down):  1.490E-02 0.000E+00

     total cpu time spent up to now is       26.9 secs

     total energy              =    -380.57202999 Ry
     estimated scf accuracy    <       0.00000005 Ry

     iteration #  8     ecut=    50.00 Ry     beta= 0.70
     CG style diagonalization
     ethr =  1.20E-10,  avg # of iterations =  4.0

     negative rho (up, down):  1.490E-02 0.000E+00

     total cpu time spent up to now is       27.4 secs

     total energy              =    -380.57203000 Ry
     estimated scf accuracy    <          4.2E-09 Ry

     iteration #  9     ecut=    50.00 Ry     beta= 0.70
     CG style diagonalization
     ethr =  9.58E-12,  avg # of iterations =  6.1

     negative rho (up, down):  1.490E-02 0.000E+00

     total cpu time spent up to now is       28.1 secs

     total energy              =    -380.57203001 Ry
     estimated scf accuracy    <          5.2E-10 Ry

     iteration # 10     ecut=    50.00 Ry     beta= 0.70
     CG style diagonalization
     ethr =  1.18E-12,  avg # of iterations =  5.7

     negative rho (up, down):  1.490E-02 0.000E+00

     total cpu time spent up to now is       28.9 secs

     End of self-consistent calculation

          k = 0.0000 0.0000 0.0000 (  2525 PWs)   bands (ev):

   -45.7738 -22.4652 -22.3461 -22.3461  -7.5253  -6.4457  -6.2226  -5.0227
    -5.0227  -4.9895  -4.8836  -4.7411   4.2016   6.2999   6.2999   6.7288
     8.1112   8.1112   8.4842   8.6345   8.9384   8.9384

          k = 0.0000 0.0000 0.1902 (  2525 PWs)   bands (ev):

   -45.7736 -22.4788 -22.3456 -22.3456  -7.3916  -6.4068  -6.1844  -5.0331
    -5.0331  -4.9886  -4.8769  -4.7885   3.6321   6.3328   6.3328   6.9582
     7.9586   7.9586   8.4249   8.5767   9.0110   9.0110

          k = 0.0000 0.0000 0.3805 (  2514 PWs)   bands (ev):

   -45.7733 -22.5007 -22.3447 -22.3447  -7.1574  -6.3385  -6.1308  -5.0498
    -5.0498  -4.9872  -4.8703  -4.8674   3.0100   6.3227   6.3668   6.3668
     7.7944   7.7944   8.3331   9.0927   9.0927   9.6932

          k = 0.0000 0.2000 0.0000 (  2511 PWs)   bands (ev):

   -45.7733 -22.4642 -22.3700 -22.3451  -7.3384  -6.4079  -6.1897  -5.0515
    -5.0207  -5.0069  -4.8791  -4.7299   3.6563   6.3431   6.4563   6.6456
     8.1421   8.1477   8.4398   8.4438   8.6004   9.0128

          k = 0.0000 0.2000 0.1902 (  2511 PWs)   bands (ev):

   -45.7731 -22.4777 -22.3694 -22.3446  -7.2196  -6.3829  -6.1467  -5.0445
    -5.0316  -5.0065  -4.8773  -4.7468   3.3028   6.1494   6.4978   6.8672
     7.7369   7.9442   8.1557   8.5713   8.6571   9.3057

          k = 0.0000 0.2000 0.3805 (  2517 PWs)   bands (ev):

   -45.7728 -22.4993 -22.3684 -22.3437  -7.0250  -6.3354  -6.0727  -5.0491
    -5.0289  -5.0058  -4.8869  -4.7694   2.8361   5.8281   6.5380   6.6624
     7.3693   7.7855   8.0797   8.6714   8.8114   9.7884

          k = 0.0000 0.4000 0.0000 (  2510 PWs)   bands (ev):

   -45.7726 -22.4624 -22.4085 -22.3435  -7.0005  -6.3348  -6.1676  -5.0835
    -5.0350  -5.0174  -4.8445  -4.7602   3.0837   5.7759   6.7783   6.8388
     7.5802   7.6557   8.2487   8.2846   8.7003  10.0104

          k = 0.0000 0.4000 0.1902 (  2507 PWs)   bands (ev):

   -45.7724 -22.4756 -22.4077 -22.3430  -6.9386  -6.3014  -6.1110  -5.0609
    -5.0353  -5.0290  -4.8372  -4.7299   2.8883   5.7390   6.6312   6.9143
     7.1191   7.5467   8.1220   8.2831   8.7388   9.8681

          k = 0.0000 0.4000 0.3805 (  2521 PWs)   bands (ev):

   -45.7721 -22.4970 -22.4064 -22.3420  -6.8774  -6.2272  -5.9761  -5.0478
    -5.0358  -5.0172  -4.8784  -4.6460   2.5965   5.5207   6.2054   6.9504
     6.9828   7.4607   7.5109   8.3164   9.2369   9.5335

          k = 0.2000 0.2000 0.0000 (  2498 PWs)   bands (ev):

   -45.7729 -22.4631 -22.3692 -22.3687  -7.1583  -6.3682  -6.1944  -5.0566
    -5.0363  -4.9983  -4.8404  -4.7187   3.2982   6.2779   6.5512   6.6748
     7.5306   7.5593   8.5136   8.5266   8.8931   9.3274

          k = 0.2000 0.2000 0.1902 (  2504 PWs)   bands (ev):

   -45.7727 -22.4765 -22.3685 -22.3681  -7.0481  -6.3610  -6.1544  -5.0455
    -5.0407  -4.9895  -4.8311  -4.7156   3.1271   6.0716   6.1375   6.7714
     7.4011   7.4886   8.3621   8.7267   8.9546   9.2875

          k = 0.2000 0.2000 0.3805 (  2517 PWs)   bands (ev):

   -45.7724 -22.4980 -22.3674 -22.3672  -6.8763  -6.3500  -6.0729  -5.0550
    -5.0174  -4.9556  -4.8313  -4.7155   2.8293   5.7649   5.9026   6.4441
     7.1560   7.3298   8.3634   8.8578   9.0759   9.4048

          k = 0.2000 0.4000 0.0000 (  2524 PWs)   bands (ev):

   -45.7721 -22.4613 -22.4072 -22.3672  -6.8408  -6.3003  -6.2228  -5.0653
    -5.0194  -4.9574  -4.7975  -4.7440   2.8353   5.7980   6.5181   6.8705
     7.0392   7.6195   7.7865   8.7324   8.9451   9.7553

          k = 0.2000 0.4000 0.1902 (  2516 PWs)   bands (ev):

   -45.7720 -22.4745 -22.4065 -22.3666  -6.7694  -6.2998  -6.1848  -5.0461
    -5.0174  -4.9382  -4.7771  -4.6995   2.8374   5.7373   5.9254   6.3366
     6.9700   7.5911   8.2274   8.7030   9.0306   9.3716

          k = 0.2000 0.4000 0.3805 (  2507 PWs)   bands (ev):

   -45.7717 -22.4958 -22.4053 -22.3656  -6.7078  -6.2856  -6.0676  -5.0352
    -4.9875  -4.9038  -4.7682  -4.6131   2.7919   5.4440   5.6182   5.9904
     6.3409   7.3237   8.3712   8.7878   8.8850   9.4512

          k = 0.4000 0.4000 0.0000 (  2524 PWs)   bands (ev):

   -45.7714 -22.4594 -22.4052 -22.4051  -6.6224  -6.2507  -6.2448  -5.0396
    -4.9768  -4.8429  -4.7542  -4.7135   2.4382   5.6517   6.0569   6.8651
     7.0212   7.3223   7.6684   8.3675   9.0000   9.6341

          k = 0.4000 0.4000 0.1902 (  2522 PWs)   bands (ev):

   -45.7713 -22.4726 -22.4045 -22.4044  -6.5103  -6.2919  -6.2724  -5.0134
    -4.9715  -4.7875  -4.6803  -4.6757   2.6528   5.5923   5.7706   5.8142
     6.3374   7.3594   8.1163   8.7074   8.7425   9.6305

          k = 0.4000 0.4000 0.3805 (  2502 PWs)   bands (ev):

   -45.7710 -22.4938 -22.4035 -22.4034  -6.4366  -6.3606  -6.1863  -4.9709
    -4.9656  -4.7194  -4.5905  -4.5643   3.1018   5.0127   5.1369   5.5192
     6.2405   6.3842   6.9873   9.4280   9.4780   9.6243

     highest occupied level (ev):    10.0104

!    total energy              =    -380.57203001 Ry
     estimated scf accuracy    <          2.3E-10 Ry

     The total energy is the sum of the following terms:
     one-electron contribution =     -84.94882215 Ry
     hartree contribution      =      71.62239203 Ry
     xc contribution           =    -102.57195201 Ry
     ewald contribution        =    -264.67364788 Ry

     convergence has been achieved in  10 iterations

     negative rho (up, down):  1.490E-02 0.000E+00

     Forces acting on atoms (cartesian axes, Ry/au):

     atom    1 type  1   force =     0.00000000    0.00000000   -0.00702301
     atom    2 type  2   force =     0.00000000    0.00000000    0.00533500
     atom    3 type  3   force =     0.00000000    0.00000000   -0.00359387
     atom    4 type  3   force =     0.00000000    0.00000000    0.00264094
     atom    5 type  3   force =     0.00000000    0.00000000    0.00264094

     Total force =     0.010230     Total SCF correction =     0.000033


     Computing stress (Cartesian axis) and pressure


     negative rho (up, down):  1.490E-02 0.000E+00
          total   stress  (Ry/bohr**3)                   (kbar)     P=      -49.75
  -0.00038990   0.00000000   0.00000000          -57.36        0.00        0.00
   0.00000000  -0.00038990   0.00000000            0.00      -57.36        0.00
   0.00000000   0.00000000  -0.00023476            0.00        0.00      -34.53

     Energy error            =      1.4E-04 Ry
     Gradient error          =      7.0E-03 Ry/Bohr

     number of scf cycles    =   4
     number of bfgs steps    =   3

     energy             old  =    -380.5718871494 Ry
     energy             new  =    -380.5720300106 Ry

     CASE: energy            _new < energy            _old

     new trust radius        =       0.0324909788 bohr
     new conv_thr            =       0.0000000001 Ry


ATOMIC_POSITIONS (crystal)
Pb               0.0000000000        0.0000000000        0.9967469673
Ti               0.5000000000        0.5000000000        0.5377645654
O                0.5000000000        0.5000000000        0.1074405220
O                0.5000000000        0.0000000000        0.6126661167
O                0.0000000000        0.5000000000        0.6126661167



     Writing config-only to output data dir ./pto_k5.save/ :
     XML data file
     NEW-OLD atomic charge density approx. for the potential

     Check: negative core charge=   -0.000004

     negative rho (up, down):  1.528E-02 0.000E+00

     total cpu time spent up to now is       29.9 secs

     Self-consistent Calculation

     iteration #  1     ecut=    50.00 Ry     beta= 0.70
     CG style diagonalization
     c_bands:  1 eigenvalues not converged
     ethr =  1.00E-06,  avg # of iterations =  6.7

     negative rho (up, down):  1.523E-02 0.000E+00

     total cpu time spent up to now is       30.8 secs

     total energy              =    -380.57217163 Ry
     estimated scf accuracy    <       0.00004740 Ry

     iteration #  2     ecut=    50.00 Ry     beta= 0.70
     CG style diagonalization
     ethr =  1.08E-07,  avg # of iterations =  4.5

     negative rho (up, down):  1.521E-02 0.000E+00

     total cpu time spent up to now is       31.4 secs

     total energy              =    -380.57218307 Ry
     estimated scf accuracy    <       0.00003258 Ry

     iteration #  3     ecut=    50.00 Ry     beta= 0.70
     CG style diagonalization
     ethr =  7.40E-08,  avg # of iterations =  4.3

     negative rho (up, down):  1.520E-02 0.000E+00

     total cpu time spent up to now is       31.9 secs

     total energy              =    -380.57219212 Ry
     estimated scf accuracy    <       0.00002827 Ry

     iteration #  4     ecut=    50.00 Ry     beta= 0.70
     CG style diagonalization
     ethr =  6.43E-08,  avg # of iterations =  3.6

     negative rho (up, down):  1.520E-02 0.000E+00

     total cpu time spent up to now is       32.4 secs

     total energy              =    -380.57219679 Ry
     estimated scf accuracy    <       0.00000029 Ry

     iteration #  5     ecut=    50.00 Ry     beta= 0.70
     CG style diagonalization
     ethr =  6.49E-10,  avg # of iterations =  6.3

     negative rho (up, down):  1.520E-02 0.000E+00

     total cpu time spent up to now is       33.2 secs

     total energy              =    -380.57219763 Ry
     estimated scf accuracy    <       0.00000037 Ry

     iteration #  6     ecut=    50.00 Ry     beta= 0.70
     CG style diagonalization
     ethr =  6.49E-10,  avg # of iterations =  3.6

     negative rho (up, down):  1.520E-02 0.000E+00

     total cpu time spent up to now is       33.7 secs

     total energy              =    -380.57219766 Ry
     estimated scf accuracy    <       0.00000006 Ry

     iteration #  7     ecut=    50.00 Ry     beta= 0.70
     CG style diagonalization
     ethr =  1.39E-10,  avg # of iterations =  4.4

     negative rho (up, down):  1.520E-02 0.000E+00

     total cpu time spent up to now is       34.2 secs

     total energy              =    -380.57219768 Ry
     estimated scf accuracy    <       0.00000003 Ry

     iteration #  8     ecut=    50.00 Ry     beta= 0.70
     CG style diagonalization
     ethr =  6.20E-11,  avg # of iterations =  4.4

     negative rho (up, down):  1.520E-02 0.000E+00

     total cpu time spent up to now is       34.8 secs

     total energy              =    -380.57219770 Ry
     estimated scf accuracy    <          2.1E-09 Ry

     iteration #  9     ecut=    50.00 Ry     beta= 0.70
     CG style diagonalization
     ethr =  4.68E-12,  avg # of iterations =  6.8

     negative rho (up, down):  1.520E-02 0.000E+00

     total cpu time spent up to now is       35.7 secs

     End of self-consistent calculation

          k = 0.0000 0.0000 0.0000 (  2525 PWs)   bands (ev):

   -45.7723 -22.4684 -22.3461 -22.3461  -7.5489  -6.4795  -6.2174  -5.0089
    -5.0089  -4.9722  -4.8780  -4.7130   4.2016   6.2780   6.2780   6.7762
     8.0990   8.0990   8.4695   8.6156   8.9090   8.9090

          k = 0.0000 0.0000 0.1902 (  2525 PWs)   bands (ev):

   -45.7721 -22.4820 -22.3455 -22.3455  -7.4182  -6.4423  -6.1775  -5.0193
    -5.0193  -4.9713  -4.8698  -4.7586   3.6393   6.3090   6.3090   6.9890
     7.9493   7.9493   8.4103   8.5673   8.9808   8.9808

          k = 0.0000 0.0000 0.3805 (  2514 PWs)   bands (ev):

   -45.7718 -22.5039 -22.3447 -22.3447  -7.1910  -6.3776  -6.1193  -5.0360
    -5.0360  -4.9699  -4.8574  -4.8368   3.0195   6.3395   6.3397   6.3397
     7.7898   7.7898   8.3186   9.0603   9.0603   9.6894

          k = 0.0000 0.2000 0.0000 (  2511 PWs)   bands (ev):

   -45.7718 -22.4674 -22.3701 -22.3451  -7.3618  -6.4427  -6.1888  -5.0374
    -5.0069  -4.9896  -4.8677  -4.7012   3.6587   6.3227   6.4332   6.6580
     8.1299   8.1471   8.4162   8.4189   8.5801   9.0087

          k = 0.0000 0.2000 0.1902 (  2511 PWs)   bands (ev):

   -45.7716 -22.4809 -22.3694 -22.3445  -7.2463  -6.4184  -6.1436  -5.0292
    -5.0178  -4.9892  -4.8658  -4.7176   3.3101   6.1298   6.4731   6.8707
     7.7322   7.9315   8.1373   8.5459   8.6410   9.3024

          k = 0.0000 0.2000 0.3805 (  2517 PWs)   bands (ev):

   -45.7713 -22.5025 -22.3684 -22.3436  -7.0582  -6.3728  -6.0645  -5.0352
    -5.0117  -4.9886  -4.8735  -4.7406   2.8470   5.8125   6.5107   6.6622
     7.3615   7.7762   8.0476   8.6449   8.7980   9.7944

          k = 0.0000 0.4000 0.0000 (  2510 PWs)   bands (ev):

   -45.7711 -22.4656 -22.4086 -22.3435  -7.0245  -6.3698  -6.1755  -5.0671
    -5.0176  -5.0036  -4.8216  -4.7337   3.0883   5.7580   6.7710   6.8114
     7.5630   7.6397   8.2266   8.2635   8.6805  10.0265

          k = 0.0000 0.4000 0.1902 (  2507 PWs)   bands (ev):

   -45.7709 -22.4788 -22.4078 -22.3429  -6.9663  -6.3368  -6.1141  -5.0439
    -5.0180  -5.0151  -4.8182  -4.7013   2.8969   5.7200   6.6186   6.8869
     7.0980   7.5270   8.1119   8.2650   8.7213   9.8830

          k = 0.0000 0.4000 0.3805 (  2521 PWs)   bands (ev):

   -45.7706 -22.5002 -22.4066 -22.3420  -6.9088  -6.2660  -5.9722  -5.0339
    -5.0185  -4.9992  -4.8572  -4.6212   2.6100   5.5010   6.1972   6.9259
     6.9409   7.4598   7.4844   8.3013   9.2390   9.5390

          k = 0.2000 0.2000 0.0000 (  2498 PWs)   bands (ev):

   -45.7714 -22.4664 -22.3692 -22.3687  -7.1808  -6.4044  -6.1967  -5.0416
    -5.0215  -4.9815  -4.8259  -4.6895   3.2945   6.2604   6.5281   6.6810
     7.5245   7.5385   8.5004   8.5201   8.8622   9.3297

          k = 0.2000 0.2000 0.1902 (  2504 PWs)   bands (ev):

   -45.7712 -22.4797 -22.3685 -22.3682  -7.0742  -6.3973  -6.1532  -5.0304
    -5.0246  -4.9733  -4.8172  -4.6869   3.1282   6.0560   6.1195   6.7611
     7.3960   7.4766   8.3478   8.7052   8.9287   9.2954

          k = 0.2000 0.2000 0.3805 (  2517 PWs)   bands (ev):

   -45.7709 -22.5012 -22.3674 -22.3672  -6.9095  -6.3862  -6.0645  -5.0398
    -5.0004  -4.9405  -4.8175  -4.6871   2.8360   5.7518   5.8836   6.4349
     7.1290   7.3247   8.3568   8.8275   9.0559   9.4163

          k = 0.2000 0.4000 0.0000 (  2524 PWs)   bands (ev):

   -45.7707 -22.4645 -22.4073 -22.3672  -6.8605  -6.3369  -6.2338  -5.0489
    -5.0040  -4.9404  -4.7763  -4.7157   2.8257   5.7806   6.5042   6.8547
     7.0270   7.6172   7.7739   8.7188   8.9174   9.7665

          k = 0.2000 0.4000 0.1902 (  2516 PWs)   bands (ev):

   -45.7705 -22.4777 -22.4066 -22.3666  -6.7950  -6.3349  -6.1882  -5.0297
    -5.0018  -4.9231  -4.7574  -4.6720   2.8312   5.7197   5.9084   6.3244
     6.9611   7.5887   8.2095   8.6852   9.0047   9.3871

          k = 0.2000 0.4000 0.3805 (  2507 PWs)   bands (ev):

   -45.7702 -22.4990 -22.4054 -22.3656  -6.7395  -6.3215  -6.0594  -5.0198
    -4.9713  -4.8909  -4.7481  -4.5893   2.7927   5.4290   5.5872   5.9792
     6.3367   7.3146   8.3877   8.7777   8.8579   9.4388

          k = 0.4000 0.4000 0.0000 (  2524 PWs)   bands (ev):

   -45.7699 -22.4626 -22.4053 -22.4052  -6.6215  -6.2853  -6.2808  -5.0231
    -4.9598  -4.8200  -4.7240  -4.6980   2.4092   5.6330   6.0448   6.8696
     7.0325   7.3063   7.6477   8.3672   9.0198   9.5991

          k = 0.4000 0.4000 0.1902 (  2522 PWs)   bands (ev):

   -45.7698 -22.4758 -22.4046 -22.4045  -6.5193  -6.3290  -6.2886  -4.9969
    -4.9551  -4.7715  -4.6581  -4.6536   2.6203   5.5769   5.7660   5.8098
     6.3336   7.3609   8.1369   8.6948   8.7370   9.5956

          k = 0.4000 0.4000 0.3805 (  2502 PWs)   bands (ev):

   -45.7695 -22.4969 -22.4036 -22.4035  -6.4680  -6.3932  -6.1740  -4.9545
    -4.9495  -4.7108  -4.5725  -4.5426   3.0602   5.0053   5.1389   5.5063
     6.2318   6.3846   7.0322   9.4155   9.4651   9.5901

     highest occupied level (ev):    10.0265

!    total energy              =    -380.57219770 Ry
     estimated scf accuracy    <          1.4E-10 Ry

     The total energy is the sum of the following terms:
     one-electron contribution =     -85.42555383 Ry
     hartree contribution      =      71.86091733 Ry
     xc contribution           =    -102.58163155 Ry
     ewald contribution        =    -264.42592965 Ry

     convergence has been achieved in   9 iterations

     negative rho (up, down):  1.520E-02 0.000E+00

     Forces acting on atoms (cartesian axes, Ry/au):

     atom    1 type  1   force =     0.00000000    0.00000000   -0.00346512
     atom    2 type  2   force =     0.00000000    0.00000000    0.00446473
     atom    3 type  3   force =     0.00000000    0.00000000   -0.00593875
     atom    4 type  3   force =     0.00000000    0.00000000    0.00246957
     atom    5 type  3   force =     0.00000000    0.00000000    0.00246957

     Total force =     0.008911     Total SCF correction =     0.000049


     Computing stress (Cartesian axis) and pressure


     negative rho (up, down):  1.520E-02 0.000E+00
          total   stress  (Ry/bohr**3)                   (kbar)     P=      -44.93
  -0.00036434   0.00000000   0.00000000          -53.60        0.00        0.00
   0.00000000  -0.00036434   0.00000000            0.00      -53.60        0.00
   0.00000000   0.00000000  -0.00018757            0.00        0.00      -27.59

     Energy error            =      1.7E-04 Ry
     Gradient error          =      5.9E-03 Ry/Bohr

     number of scf cycles    =   5
     number of bfgs steps    =   4

     energy             old  =    -380.5720300106 Ry
     energy             new  =    -380.5721977006 Ry

     CASE: energy            _new < energy            _old

     new trust radius        =       0.0223666086 bohr
     new conv_thr            =       0.0000000002 Ry


ATOMIC_POSITIONS (crystal)
Pb               0.0000000000        0.0000000000        0.9938601625
Ti               0.5000000000        0.5000000000        0.5384845485
O                0.5000000000        0.5000000000        0.1076806290
O                0.5000000000        0.0000000000        0.6136294740
O                0.0000000000        0.5000000000        0.6136294740



     Writing config-only to output data dir ./pto_k5.save/ :
     XML data file
     NEW-OLD atomic charge density approx. for the potential

     Check: negative core charge=   -0.000004

     negative rho (up, down):  1.557E-02 0.000E+00

     total cpu time spent up to now is       36.6 secs

     Self-consistent Calculation

     iteration #  1     ecut=    50.00 Ry     beta= 0.70
     CG style diagonalization
     c_bands:  1 eigenvalues not converged
     ethr =  1.00E-06,  avg # of iterations =  6.1

     Threshold (ethr) on eigenvalues was too large:
     Diagonalizing with lowered threshold

     CG style diagonalization
     c_bands:  1 eigenvalues not converged
     c_bands:  1 eigenvalues not converged
     c_bands:  1 eigenvalues not converged
     c_bands:  1 eigenvalues not converged
     ethr =  7.99E-08,  avg # of iterations =  5.5

     negative rho (up, down):  1.554E-02 0.000E+00

     total cpu time spent up to now is       38.1 secs

     total energy              =    -380.57225940 Ry
     estimated scf accuracy    <       0.00003425 Ry

     iteration #  2     ecut=    50.00 Ry     beta= 0.70
     CG style diagonalization
     ethr =  7.78E-08,  avg # of iterations =  4.5

     negative rho (up, down):  1.553E-02 0.000E+00

     total cpu time spent up to now is       38.7 secs

     total energy              =    -380.57226085 Ry
     estimated scf accuracy    <       0.00003801 Ry

     iteration #  3     ecut=    50.00 Ry     beta= 0.70
     CG style diagonalization
     ethr =  7.78E-08,  avg # of iterations =  4.0

     negative rho (up, down):  1.552E-02 0.000E+00

     total cpu time spent up to now is       39.2 secs

     total energy              =    -380.57226995 Ry
     estimated scf accuracy    <       0.00001263 Ry

     iteration #  4     ecut=    50.00 Ry     beta= 0.70
     CG style diagonalization
     ethr =  2.87E-08,  avg # of iterations =  3.6

     negative rho (up, down):  1.552E-02 0.000E+00

     total cpu time spent up to now is       39.7 secs

     total energy              =    -380.57227233 Ry
     estimated scf accuracy    <       0.00000110 Ry

     iteration #  5     ecut=    50.00 Ry     beta= 0.70
     CG style diagonalization
     ethr =  2.50E-09,  avg # of iterations =  4.1

     negative rho (up, down):  1.551E-02 0.000E+00

     total cpu time spent up to now is       40.2 secs

     total energy              =    -380.57227291 Ry
     estimated scf accuracy    <       0.00000025 Ry

     iteration #  6     ecut=    50.00 Ry     beta= 0.70
     CG style diagonalization
     ethr =  5.68E-10,  avg # of iterations =  4.2

     negative rho (up, down):  1.551E-02 0.000E+00

     total cpu time spent up to now is       40.8 secs

     total energy              =    -380.57227300 Ry
     estimated scf accuracy    <       0.00000004 Ry

     iteration #  7     ecut=    50.00 Ry     beta= 0.70
     CG style diagonalization
     ethr =  1.01E-10,  avg # of iterations =  5.0

     negative rho (up, down):  1.551E-02 0.000E+00

     total cpu time spent up to now is       41.4 secs

     total energy              =    -380.57227304 Ry
     estimated scf accuracy    <          3.9E-09 Ry

     iteration #  8     ecut=    50.00 Ry     beta= 0.70
     CG style diagonalization
     ethr =  8.79E-12,  avg # of iterations =  6.1

     negative rho (up, down):  1.552E-02 0.000E+00

     total cpu time spent up to now is       42.2 secs

     total energy              =    -380.57227305 Ry
     estimated scf accuracy    <          3.5E-10 Ry

     iteration #  9     ecut=    50.00 Ry     beta= 0.70
     CG style diagonalization
     ethr =  7.89E-13,  avg # of iterations =  7.1

     negative rho (up, down):  1.552E-02 0.000E+00

     total cpu time spent up to now is       43.1 secs

     End of self-consistent calculation

          k = 0.0000 0.0000 0.0000 (  2525 PWs)   bands (ev):

   -45.7850 -22.4752 -22.3602 -22.3602  -7.5697  -6.5087  -6.2095  -4.9966
    -4.9966  -4.9563  -4.8704  -4.6904   4.2062   6.2578   6.2578   6.8023
     8.1126   8.1126   8.4562   8.6208   8.8818   8.8818

          k = 0.0000 0.0000 0.1902 (  2525 PWs)   bands (ev):

   -45.7848 -22.4888 -22.3597 -22.3597  -7.4420  -6.4728  -6.1678  -5.0070
    -5.0070  -4.9555  -4.8610  -4.7345   3.6504   6.2891   6.2891   7.0052
     7.9598   7.9598   8.3971   8.5709   8.9541   8.9541

          k = 0.0000 0.0000 0.3805 (  2514 PWs)   bands (ev):

   -45.7845 -22.5105 -22.3588 -22.3588  -7.2213  -6.4107  -6.1051  -5.0237
    -5.0237  -4.9540  -4.8464  -4.8100   3.0351   6.3210   6.3210   6.3480
     7.7970   7.7970   8.3057   9.0322   9.0322   9.6867

          k = 0.0000 0.2000 0.0000 (  2511 PWs)   bands (ev):

   -45.7845 -22.4742 -22.3842 -22.3592  -7.3825  -6.4725  -6.1838  -5.0247
    -4.9946  -4.9738  -4.8565  -4.6783   3.6622   6.3053   6.4118   6.6662
     8.1439   8.1555   8.3904   8.4013   8.5731   9.0134

          k = 0.0000 0.2000 0.1902 (  2511 PWs)   bands (ev):

   -45.7843 -22.4876 -22.3836 -22.3587  -7.2700  -6.4487  -6.1363  -5.0155
    -5.0055  -4.9734  -4.8545  -4.6943   3.3188   6.1147   6.4522   6.8720
     7.7341   7.9373   8.1258   8.5257   8.6326   9.3026

          k = 0.0000 0.2000 0.3805 (  2517 PWs)   bands (ev):

   -45.7840 -22.5092 -22.3826 -22.3578  -7.0880  -6.4046  -6.0524  -5.0229
    -4.9967  -4.9727  -4.8606  -4.7175   2.8607   5.8039   6.4916   6.6572
     7.3609   7.7785   8.0199   8.6228   8.7936   9.7982

          k = 0.0000 0.4000 0.0000 (  2510 PWs)   bands (ev):

   -45.7838 -22.4723 -22.4228 -22.3576  -7.0457  -6.3995  -6.1759  -5.0527
    -5.0018  -4.9913  -4.8033  -4.7117   3.0922   5.7402   6.7715   6.7862
     7.5497   7.6229   8.2347   8.2445   8.6778  10.0436

          k = 0.0000 0.4000 0.1902 (  2507 PWs)   bands (ev):

   -45.7836 -22.4856 -22.4220 -22.3570  -6.9909  -6.3668  -6.1103  -5.0291
    -5.0032  -5.0018  -4.8019  -4.6786   2.9045   5.7024   6.6115   6.8629
     7.0853   7.5131   8.1062   8.2669   8.7107   9.8992

          k = 0.0000 0.4000 0.3805 (  2521 PWs)   bands (ev):

   -45.7833 -22.5068 -22.4207 -22.3561  -6.9365  -6.2988  -5.9624  -5.0216
    -5.0026  -4.9838  -4.8391  -4.6015   2.6221   5.4882   6.1906   6.9090
     6.9108   7.4541   7.4649   8.2978   9.2478   9.5468

          k = 0.2000 0.2000 0.0000 (  2498 PWs)   bands (ev):

   -45.7841 -22.4731 -22.3833 -22.3829  -7.2006  -6.4352  -6.1941  -5.0282
    -5.0083  -4.9662  -4.8124  -4.6663   3.2921   6.2416   6.5110   6.6849
     7.5238   7.5376   8.4854   8.5258   8.8375   9.3449

          k = 0.2000 0.2000 0.1902 (  2504 PWs)   bands (ev):

   -45.7839 -22.4864 -22.3827 -22.3823  -7.0974  -6.4281  -6.1471  -5.0168
    -5.0104  -4.9585  -4.8041  -4.6640   3.1308   6.0429   6.1067   6.7520
     7.3997   7.4675   8.3502   8.6859   8.9108   9.3065

          k = 0.2000 0.2000 0.3805 (  2517 PWs)   bands (ev):

   -45.7836 -22.5079 -22.3816 -22.3814  -6.9390  -6.4170  -6.0523  -5.0261
    -4.9853  -4.9269  -4.8042  -4.6646   2.8451   5.7445   5.8704   6.4259
     7.1067   7.3214   8.3660   8.8009   9.0451   9.4244

          k = 0.2000 0.4000 0.0000 (  2524 PWs)   bands (ev):

   -45.7834 -22.4712 -22.4215 -22.3813  -6.8779  -6.3677  -6.2375  -5.0347
    -4.9903  -4.9248  -4.7584  -4.6929   2.8180   5.7628   6.4937   6.8451
     7.0152   7.6345   7.7633   8.7138   8.8955   9.7802

          k = 0.2000 0.4000 0.1902 (  2516 PWs)   bands (ev):

   -45.7832 -22.4844 -22.4208 -22.3807  -6.8176  -6.3649  -6.1852  -5.0154
    -4.9880  -4.9085  -4.7406  -4.6501   2.8265   5.7036   5.8978   6.3140
     6.9550   7.5929   8.1988   8.6787   8.9852   9.4033

          k = 0.2000 0.4000 0.3805 (  2507 PWs)   bands (ev):

   -45.7829 -22.5057 -22.4196 -22.3797  -6.7671  -6.3519  -6.0475  -5.0061
    -4.9571  -4.8775  -4.7312  -4.5704   2.7944   5.4212   5.5638   5.9677
     6.3335   7.3059   8.4049   8.7766   8.8363   9.4360

          k = 0.4000 0.4000 0.0000 (  2524 PWs)   bands (ev):

   -45.7826 -22.4693 -22.4195 -22.4193  -6.6201  -6.3187  -6.3022  -5.0089
    -4.9447  -4.8014  -4.7005  -4.6821   2.3861   5.6153   6.0274   6.8834
     7.0569   7.2936   7.6271   8.3709   9.0356   9.5691

          k = 0.4000 0.4000 0.1902 (  2522 PWs)   bands (ev):

   -45.7825 -22.4825 -22.4188 -22.4187  -6.5294  -6.3599  -6.2956  -4.9826
    -4.9403  -4.7568  -4.6415  -4.6327   2.5946   5.5622   5.7622   5.8102
     6.3292   7.3648   8.1533   8.6903   8.7399   9.5657

          k = 0.4000 0.4000 0.3805 (  2502 PWs)   bands (ev):

   -45.7822 -22.5036 -22.4178 -22.4177  -6.4951  -6.4209  -6.1601  -4.9402
    -4.9349  -4.6995  -4.5572  -4.5255   3.0278   5.0028   5.1442   5.4916
     6.2181   6.3872   7.0683   9.4143   9.4604   9.5625

     highest occupied level (ev):    10.0436

!    total energy              =    -380.57227305 Ry
     estimated scf accuracy    <          4.2E-11 Ry

     The total energy is the sum of the following terms:
     one-electron contribution =     -85.71456313 Ry
     hartree contribution      =      72.00203584 Ry
     xc contribution           =    -102.58534008 Ry
     ewald contribution        =    -264.27440568 Ry

     convergence has been achieved in   9 iterations

     negative rho (up, down):  1.552E-02 0.000E+00

     Forces acting on atoms (cartesian axes, Ry/au):

     atom    1 type  1   force =     0.00000000    0.00000000   -0.00023001
     atom    2 type  2   force =     0.00000000    0.00000000    0.00053710
     atom    3 type  3   force =     0.00000000    0.00000000   -0.00345356
     atom    4 type  3   force =     0.00000000    0.00000000    0.00157324
     atom    5 type  3   force =     0.00000000    0.00000000    0.00157324

     Total force =     0.004150     Total SCF correction =     0.000017


     Computing stress (Cartesian axis) and pressure


     negative rho (up, down):  1.552E-02 0.000E+00
          total   stress  (Ry/bohr**3)                   (kbar)     P=      -43.28
  -0.00034822   0.00000000   0.00000000          -51.23        0.00        0.00
   0.00000000  -0.00034822   0.00000000            0.00      -51.23        0.00
   0.00000000   0.00000000  -0.00018612            0.00        0.00      -27.38

     Energy error            =      7.5E-05 Ry
     Gradient error          =      3.5E-03 Ry/Bohr

     number of scf cycles    =   6
     number of bfgs steps    =   5

     energy             old  =    -380.5721977006 Ry
     energy             new  =    -380.5722730476 Ry

     CASE: energy            _new < energy            _old

     new trust radius        =       0.0040000275 bohr
     new conv_thr            =            1.0E-10 Ry


ATOMIC_POSITIONS (crystal)
Pb               0.0000000000        0.0000000000        0.9935930970
Ti               0.5000000000        0.5000000000        0.5386176618
O                0.5000000000        0.5000000000        0.1071643550
O                0.5000000000        0.0000000000        0.6139545871
O                0.0000000000        0.5000000000        0.6139545871



     Writing config-only to output data dir ./pto_k5.save/ :
     XML data file
     NEW-OLD atomic charge density approx. for the potential

     Check: negative core charge=   -0.000004

     negative rho (up, down):  1.554E-02 0.000E+00

     total cpu time spent up to now is       44.0 secs

     Self-consistent Calculation

     iteration #  1     ecut=    50.00 Ry     beta= 0.70
     CG style diagonalization
     ethr =  1.00E-06,  avg # of iterations =  3.2

     Threshold (ethr) on eigenvalues was too large:
     Diagonalizing with lowered threshold

     CG style diagonalization
     c_bands:  1 eigenvalues not converged
     c_bands:  1 eigenvalues not converged
     c_bands:  2 eigenvalues not converged
     c_bands:  1 eigenvalues not converged
     c_bands:  1 eigenvalues not converged
     ethr =  2.33E-08,  avg # of iterations =  6.1

     negative rho (up, down):  1.555E-02 0.000E+00

     total cpu time spent up to now is       45.2 secs

     total energy              =    -380.57228118 Ry
     estimated scf accuracy    <       0.00001154 Ry

     iteration #  2     ecut=    50.00 Ry     beta= 0.70
     CG style diagonalization
     ethr =  2.62E-08,  avg # of iterations =  4.7

     negative rho (up, down):  1.554E-02 0.000E+00

     total cpu time spent up to now is       45.9 secs

     total energy              =    -380.57227918 Ry
     estimated scf accuracy    <       0.00004083 Ry

     iteration #  3     ecut=    50.00 Ry     beta= 0.70
     CG style diagonalization
     ethr =  2.62E-08,  avg # of iterations =  4.3

     negative rho (up, down):  1.554E-02 0.000E+00

     total cpu time spent up to now is       46.4 secs

     total energy              =    -380.57228679 Ry
     estimated scf accuracy    <       0.00000227 Ry

     iteration #  4     ecut=    50.00 Ry     beta= 0.70
     CG style diagonalization
     ethr =  5.15E-09,  avg # of iterations =  3.7

     negative rho (up, down):  1.554E-02 0.000E+00

     total cpu time spent up to now is       46.9 secs

     total energy              =    -380.57228733 Ry
     estimated scf accuracy    <       0.00000023 Ry

     iteration #  5     ecut=    50.00 Ry     beta= 0.70
     CG style diagonalization
     ethr =  5.12E-10,  avg # of iterations =  4.1

     negative rho (up, down):  1.554E-02 0.000E+00

     total cpu time spent up to now is       47.4 secs

     total energy              =    -380.57228743 Ry
     estimated scf accuracy    <       0.00000003 Ry

     iteration #  6     ecut=    50.00 Ry     beta= 0.70
     CG style diagonalization
     ethr =  7.93E-11,  avg # of iterations =  4.3

     negative rho (up, down):  1.554E-02 0.000E+00

     total cpu time spent up to now is       48.0 secs

     total energy              =    -380.57228745 Ry
     estimated scf accuracy    <          8.5E-09 Ry

     iteration #  7     ecut=    50.00 Ry     beta= 0.70
     CG style diagonalization
     ethr =  1.93E-11,  avg # of iterations =  4.2

     negative rho (up, down):  1.554E-02 0.000E+00

     total cpu time spent up to now is       48.5 secs

     total energy              =    -380.57228745 Ry
     estimated scf accuracy    <          1.6E-09 Ry

     iteration #  8     ecut=    50.00 Ry     beta= 0.70
     CG style diagonalization
     ethr =  3.68E-12,  avg # of iterations =  4.9

     negative rho (up, down):  1.554E-02 0.000E+00

     total cpu time spent up to now is       49.2 secs

     total energy              =    -380.57228745 Ry
     estimated scf accuracy    <          1.5E-10 Ry

     iteration #  9     ecut=    50.00 Ry     beta= 0.70
     CG style diagonalization
     ethr =  3.46E-13,  avg # of iterations =  6.2

     negative rho (up, down):  1.554E-02 0.000E+00

     total cpu time spent up to now is       49.9 secs

     End of self-consistent calculation

          k = 0.0000 0.0000 0.0000 (  2525 PWs)   bands (ev):

   -45.7928 -22.4782 -22.3682 -22.3682  -7.5738  -6.5135  -6.2066  -4.9935
    -4.9935  -4.9523  -4.8674  -4.6858   4.2097   6.2529   6.2529   6.8009
     8.1225   8.1225   8.4525   8.6292   8.8758   8.8758

          k = 0.0000 0.0000 0.1902 (  2525 PWs)   bands (ev):

   -45.7926 -22.4918 -22.3677 -22.3677  -7.4467  -6.4779  -6.1646  -5.0039
    -5.0039  -4.9514  -4.8577  -4.7297   3.6549   6.2844   6.2844   7.0039
     7.9681   7.9681   8.3935   8.5758   8.9488   8.9488

          k = 0.0000 0.0000 0.3805 (  2514 PWs)   bands (ev):

   -45.7923 -22.5136 -22.3668 -22.3668  -7.2273  -6.4162  -6.1011  -5.0206
    -5.0206  -4.9500  -4.8427  -4.8048   3.0411   6.3169   6.3169   6.3470
     7.8038   7.8038   8.3021   9.0270   9.0270   9.6867

          k = 0.0000 0.2000 0.0000 (  2511 PWs)   bands (ev):

   -45.7923 -22.4772 -22.3922 -22.3673  -7.3866  -6.4775  -6.1812  -5.0214
    -4.9915  -4.9697  -4.8532  -4.6737   3.6639   6.3024   6.4068   6.6664
     8.1544   8.1608   8.3843   8.3976   8.5747   9.0173

          k = 0.0000 0.2000 0.1902 (  2511 PWs)   bands (ev):

   -45.7921 -22.4906 -22.3916 -22.3667  -7.2747  -6.4539  -6.1333  -5.0121
    -5.0024  -4.9693  -4.8512  -4.6897   3.3217   6.1121   6.4474   6.8713
     7.7369   7.9438   8.1256   8.5227   8.6324   9.3039

          k = 0.0000 0.2000 0.3805 (  2517 PWs)   bands (ev):

   -45.7919 -22.5122 -22.3906 -22.3658  -7.0937  -6.4100  -6.0486  -5.0198
    -4.9932  -4.9687  -4.8569  -4.7129   2.8651   5.8029   6.4874   6.6545
     7.3639   7.7838   8.0149   8.6194   8.7944   9.7994

          k = 0.0000 0.4000 0.0000 (  2510 PWs)   bands (ev):

   -45.7916 -22.4754 -22.4307 -22.3657  -7.0497  -6.4049  -6.1738  -5.0493
    -4.9978  -4.9882  -4.7995  -4.7073   3.0932   5.7372   6.7753   6.7810
     7.5489   7.6181   8.2400   8.2446   8.6818  10.0478

          k = 0.0000 0.4000 0.1902 (  2507 PWs)   bands (ev):

   -45.7914 -22.4886 -22.4300 -22.3651  -6.9954  -6.3722  -6.1075  -5.0256
    -5.0000  -4.9979  -4.7982  -4.6742   2.9062   5.6996   6.6120   6.8578
     7.0860   7.5105   8.1060   8.2738   8.7103   9.9034

          k = 0.0000 0.4000 0.3805 (  2521 PWs)   bands (ev):

   -45.7911 -22.5099 -22.4287 -22.3641  -6.9415  -6.3048  -5.9588  -5.0185
    -4.9986  -4.9802  -4.8351  -4.5976   2.6250   5.4870   6.1914   6.9055
     6.9078   7.4512   7.4624   8.3020   9.2528   9.5490

          k = 0.2000 0.2000 0.0000 (  2498 PWs)   bands (ev):

   -45.7919 -22.4762 -22.3913 -22.3909  -7.2045  -6.4405  -6.1919  -5.0249
    -5.0050  -4.9624  -4.8088  -4.6618   3.2924   6.2364   6.5087   6.6852
     7.5223   7.5465   8.4815   8.5312   8.8341   9.3521

          k = 0.2000 0.2000 0.1902 (  2504 PWs)   bands (ev):

   -45.7917 -22.4895 -22.3906 -22.3903  -7.1020  -6.4334  -6.1443  -5.0134
    -5.0069  -4.9547  -4.8005  -4.6596   3.1323   6.0396   6.1055   6.7495
     7.4045   7.4665   8.3559   8.6819   8.9092   9.3106

          k = 0.2000 0.2000 0.3805 (  2517 PWs)   bands (ev):

   -45.7914 -22.5109 -22.3896 -22.3894  -6.9447  -6.4223  -6.0484  -5.0227
    -4.9815  -4.9234  -4.8005  -4.6602   2.8484   5.7432   5.8687   6.4241
     7.1025   7.3231   8.3731   8.7958   9.0448   9.4264

          k = 0.2000 0.4000 0.0000 (  2524 PWs)   bands (ev):

   -45.7912 -22.4743 -22.4294 -22.3893  -6.8813  -6.3733  -6.2363  -5.0313
    -4.9870  -4.9207  -4.7544  -4.6884   2.8170   5.7596   6.4917   6.8446
     7.0139   7.6447   7.7625   8.7153   8.8922   9.7842

          k = 0.2000 0.4000 0.1902 (  2516 PWs)   bands (ev):

   -45.7910 -22.4875 -22.4287 -22.3887  -6.8219  -6.3703  -6.1829  -5.0120
    -4.9846  -4.9045  -4.7368  -4.6458   2.8263   5.7009   5.8978   6.3116
     6.9551   7.5969   8.1998   8.6804   8.9824   9.4072

          k = 0.2000 0.4000 0.3805 (  2507 PWs)   bands (ev):

   -45.7907 -22.5087 -22.4275 -22.3877  -6.7722  -6.3574  -6.0439  -5.0026
    -4.9537  -4.8735  -4.7275  -4.5666   2.7956   5.4213   5.5611   5.9648
     6.3339   7.3056   8.4107   8.7788   8.8326   9.4379

          k = 0.4000 0.4000 0.0000 (  2524 PWs)   bands (ev):

   -45.7905 -22.4724 -22.4274 -22.4273  -6.6197  -6.3247  -6.3052  -5.0056
    -4.9409  -4.7971  -4.6960  -4.6778   2.3829   5.6122   6.0234   6.8885
     7.0659   7.2935   7.6241   8.3738   9.0386   9.5637

          k = 0.4000 0.4000 0.1902 (  2522 PWs)   bands (ev):

   -45.7903 -22.4855 -22.4268 -22.4267  -6.5316  -6.3654  -6.2955  -4.9793
    -4.9365  -4.7527  -4.6374  -4.6287   2.5910   5.5593   5.7619   5.8122
     6.3298   7.3670   8.1570   8.6920   8.7428   9.5604

          k = 0.4000 0.4000 0.3805 (  2502 PWs)   bands (ev):

   -45.7900 -22.5066 -22.4257 -22.4257  -6.5001  -6.4258  -6.1567  -4.9368
    -4.9311  -4.6953  -4.5537  -4.5222   3.0234   5.0040   5.1468   5.4874
     6.2157   6.3899   7.0748   9.4172   9.4615   9.5581

     highest occupied level (ev):    10.0478

!    total energy              =    -380.57228745 Ry
     estimated scf accuracy    <          2.1E-11 Ry

     The total energy is the sum of the following terms:
     one-electron contribution =     -85.71522321 Ry
     hartree contribution      =      72.00060724 Ry
     xc contribution           =    -102.58418431 Ry
     ewald contribution        =    -264.27348717 Ry

     convergence has been achieved in   9 iterations

     negative rho (up, down):  1.554E-02 0.000E+00

     Forces acting on atoms (cartesian axes, Ry/au):

     atom    1 type  1   force =     0.00000000    0.00000000    0.00029723
     atom    2 type  2   force =     0.00000000    0.00000000   -0.00110099
     atom    3 type  3   force =     0.00000000    0.00000000   -0.00111411
     atom    4 type  3   force =     0.00000000    0.00000000    0.00095894
     atom    5 type  3   force =     0.00000000    0.00000000    0.00095894

     Total force =     0.002093     Total SCF correction =     0.000015


     Computing stress (Cartesian axis) and pressure


     negative rho (up, down):  1.554E-02 0.000E+00
          total   stress  (Ry/bohr**3)                   (kbar)     P=      -44.03
  -0.00034873   0.00000000   0.00000000          -51.30        0.00        0.00
   0.00000000  -0.00034873   0.00000000            0.00      -51.30        0.00
   0.00000000   0.00000000  -0.00020049            0.00        0.00      -29.49

     Energy error            =      1.4E-05 Ry
     Gradient error          =      1.1E-03 Ry/Bohr

     number of scf cycles    =   7
     number of bfgs steps    =   6

     energy             old  =    -380.5722730476 Ry
     energy             new  =    -380.5722874536 Ry

     CASE: energy            _new < energy            _old

     new trust radius        =       0.0032052883 bohr
     new conv_thr            =            1.0E-10 Ry


ATOMIC_POSITIONS (crystal)
Pb               0.0000000000        0.0000000000        0.9936742278
Ti               0.5000000000        0.5000000000        0.5384647237
O                0.5000000000        0.5000000000        0.1067506561
O                0.5000000000        0.0000000000        0.6141973401
O                0.0000000000        0.5000000000        0.6141973401



     Writing config-only to output data dir ./pto_k5.save/ :
     XML data file
     NEW-OLD atomic charge density approx. for the potential

     Check: negative core charge=   -0.000004

     negative rho (up, down):  1.553E-02 0.000E+00

     total cpu time spent up to now is       50.8 secs

     Self-consistent Calculation

     iteration #  1     ecut=    50.00 Ry     beta= 0.70
     CG style diagonalization
     ethr =  1.00E-06,  avg # of iterations =  2.9

     Threshold (ethr) on eigenvalues was too large:
     Diagonalizing with lowered threshold

     CG style diagonalization
     c_bands:  1 eigenvalues not converged
     c_bands:  3 eigenvalues not converged
     c_bands:  1 eigenvalues not converged
     ethr =  3.88E-09,  avg # of iterations =  7.1

     negative rho (up, down):  1.553E-02 0.000E+00

     total cpu time spent up to now is       52.2 secs

     total energy              =    -380.57229294 Ry
     estimated scf accuracy    <       0.00000355 Ry

     iteration #  2     ecut=    50.00 Ry     beta= 0.70
     CG style diagonalization
     ethr =  8.07E-09,  avg # of iterations =  4.6

     negative rho (up, down):  1.553E-02 0.000E+00

     total cpu time spent up to now is       52.8 secs

     total energy              =    -380.57229213 Ry
     estimated scf accuracy    <       0.00001378 Ry

     iteration #  3     ecut=    50.00 Ry     beta= 0.70
     CG style diagonalization
     ethr =  8.07E-09,  avg # of iterations =  4.3

     negative rho (up, down):  1.553E-02 0.000E+00

     total cpu time spent up to now is       53.4 secs

     total energy              =    -380.57229461 Ry
     estimated scf accuracy    <       0.00000051 Ry

     iteration #  4     ecut=    50.00 Ry     beta= 0.70
     CG style diagonalization
     ethr =  1.16E-09,  avg # of iterations =  3.7

     negative rho (up, down):  1.553E-02 0.000E+00

     total cpu time spent up to now is       53.8 secs

     total energy              =    -380.57229474 Ry
     estimated scf accuracy    <       0.00000006 Ry

     iteration #  5     ecut=    50.00 Ry     beta= 0.70
     CG style diagonalization
     ethr =  1.36E-10,  avg # of iterations =  4.3

     negative rho (up, down):  1.553E-02 0.000E+00

     total cpu time spent up to now is       54.4 secs

     total energy              =    -380.57229477 Ry
     estimated scf accuracy    <       0.00000001 Ry

     iteration #  6     ecut=    50.00 Ry     beta= 0.70
     CG style diagonalization
     ethr =  2.92E-11,  avg # of iterations =  4.0

     negative rho (up, down):  1.553E-02 0.000E+00

     total cpu time spent up to now is       54.9 secs

     total energy              =    -380.57229478 Ry
     estimated scf accuracy    <          1.7E-09 Ry

     iteration #  7     ecut=    50.00 Ry     beta= 0.70
     CG style diagonalization
     ethr =  3.80E-12,  avg # of iterations =  4.8

     negative rho (up, down):  1.553E-02 0.000E+00

     total cpu time spent up to now is       55.5 secs

     total energy              =    -380.57229478 Ry
     estimated scf accuracy    <          2.5E-10 Ry

     iteration #  8     ecut=    50.00 Ry     beta= 0.70
     CG style diagonalization
     ethr =  5.72E-13,  avg # of iterations =  5.2

     negative rho (up, down):  1.553E-02 0.000E+00

     total cpu time spent up to now is       56.2 secs

     End of self-consistent calculation

          k = 0.0000 0.0000 0.0000 (  2525 PWs)   bands (ev):

   -45.7960 -22.4797 -22.3713 -22.3713  -7.5747  -6.5134  -6.2057  -4.9921
    -4.9921  -4.9505  -4.8656  -4.6839   4.2123   6.2509   6.2509   6.7979
     8.1241   8.1241   8.4504   8.6321   8.8744   8.8744

          k = 0.0000 0.0000 0.1902 (  2525 PWs)   bands (ev):

   -45.7959 -22.4932 -22.3708 -22.3708  -7.4476  -6.4778  -6.1637  -5.0025
    -5.0025  -4.9496  -4.8560  -4.7277   3.6572   6.2817   6.2817   7.0016
     7.9705   7.9705   8.3915   8.5779   8.9478   8.9478

          k = 0.0000 0.0000 0.3805 (  2514 PWs)   bands (ev):

   -45.7956 -22.5150 -22.3699 -22.3699  -7.2281  -6.4162  -6.1004  -5.0192
    -5.0192  -4.9482  -4.8409  -4.8027   3.0435   6.3129   6.3129   6.3456
     7.8079   7.8079   8.3001   9.0263   9.0263   9.6874

          k = 0.0000 0.2000 0.0000 (  2511 PWs)   bands (ev):

   -45.7956 -22.4786 -22.3953 -22.3704  -7.3875  -6.4777  -6.1803  -5.0198
    -4.9901  -4.9679  -4.8517  -4.6718   3.6651   6.3022   6.4051   6.6653
     8.1567   8.1632   8.3823   8.3960   8.5748   9.0189

          k = 0.0000 0.2000 0.1902 (  2511 PWs)   bands (ev):

   -45.7954 -22.4920 -22.3946 -22.3698  -7.2756  -6.4540  -6.1324  -5.0106
    -5.0010  -4.9675  -4.8496  -4.6878   3.3231   6.1112   6.4450   6.8704
     7.7385   7.9456   8.1265   8.5225   8.6317   9.3047

          k = 0.0000 0.2000 0.3805 (  2517 PWs)   bands (ev):

   -45.7951 -22.5136 -22.3936 -22.3689  -7.0946  -6.4103  -6.0479  -5.0184
    -4.9916  -4.9669  -4.8552  -4.7110   2.8668   5.8014   6.4837   6.6536
     7.3663   7.7872   8.0146   8.6196   8.7936   9.8010

          k = 0.0000 0.4000 0.0000 (  2510 PWs)   bands (ev):

   -45.7949 -22.4768 -22.4338 -22.3688  -7.0505  -6.4057  -6.1729  -5.0478
    -4.9960  -4.9868  -4.7979  -4.7056   3.0935   5.7384   6.7786   6.7802
     7.5507   7.6162   8.2382   8.2466   8.6828  10.0486

          k = 0.0000 0.4000 0.1902 (  2507 PWs)   bands (ev):

   -45.7947 -22.4900 -22.4330 -22.3682  -6.9961  -6.3732  -6.1068  -5.0241
    -4.9986  -4.9962  -4.7966  -4.6725   2.9069   5.7005   6.6134   6.8564
     7.0884   7.5088   8.1058   8.2767   8.7107   9.9042

          k = 0.0000 0.4000 0.3805 (  2521 PWs)   bands (ev):

   -45.7944 -22.5113 -22.4317 -22.3673  -6.9418  -6.3059  -5.9582  -5.0171
    -4.9969  -4.9786  -4.8334  -4.5959   2.6261   5.4867   6.1942   6.9024
     6.9087   7.4501   7.4622   8.3057   9.2550   9.5498

          k = 0.2000 0.2000 0.0000 (  2498 PWs)   bands (ev):

   -45.7951 -22.4776 -22.3944 -22.3940  -7.2055  -6.4408  -6.1910  -5.0234
    -5.0034  -4.9606  -4.8072  -4.6599   3.2931   6.2346   6.5085   6.6851
     7.5224   7.5492   8.4808   8.5336   8.8344   9.3538

          k = 0.2000 0.2000 0.1902 (  2504 PWs)   bands (ev):

   -45.7950 -22.4909 -22.3937 -22.3934  -7.1030  -6.4337  -6.1435  -5.0119
    -5.0054  -4.9530  -4.7989  -4.6577   3.1332   6.0377   6.1057   6.7478
     7.4077   7.4671   8.3584   8.6808   8.9095   9.3125

          k = 0.2000 0.2000 0.3805 (  2517 PWs)   bands (ev):

   -45.7947 -22.5123 -22.3927 -22.3925  -6.9456  -6.4226  -6.0478  -5.0211
    -4.9799  -4.9219  -4.7988  -4.6584   2.8498   5.7415   5.8677   6.4243
     7.1016   7.3266   8.3757   8.7948   9.0445   9.4285

          k = 0.2000 0.4000 0.0000 (  2524 PWs)   bands (ev):

   -45.7944 -22.4757 -22.4325 -22.3924  -6.8822  -6.3742  -6.2357  -5.0298
    -4.9854  -4.9188  -4.7528  -4.6867   2.8172   5.7607   6.4908   6.8447
     7.0156   7.6486   7.7635   8.7162   8.8918   9.7853

          k = 0.2000 0.4000 0.1902 (  2516 PWs)   bands (ev):

   -45.7942 -22.4889 -22.4318 -22.3918  -6.8228  -6.3712  -6.1823  -5.0104
    -4.9831  -4.9026  -4.7352  -4.6441   2.8267   5.7017   5.8989   6.3104
     6.9563   7.5996   8.2023   8.6808   8.9820   9.4080

          k = 0.2000 0.4000 0.3805 (  2507 PWs)   bands (ev):

   -45.7940 -22.5101 -22.4306 -22.3908  -6.7727  -6.3584  -6.0435  -5.0010
    -4.9521  -4.8717  -4.7260  -4.5649   2.7965   5.4213   5.5617   5.9639
     6.3354   7.3080   8.4136   8.7791   8.8323   9.4382

          k = 0.4000 0.4000 0.0000 (  2524 PWs)   bands (ev):

   -45.7937 -22.4738 -22.4304 -22.4303  -6.6202  -6.3258  -6.3056  -5.0041
    -4.9393  -4.7953  -4.6943  -4.6758   2.3829   5.6128   6.0247   6.8889
     7.0674   7.2963   7.6263   8.3758   9.0398   9.5631

          k = 0.4000 0.4000 0.1902 (  2522 PWs)   bands (ev):

   -45.7935 -22.4869 -22.4298 -22.4297  -6.5325  -6.3664  -6.2955  -4.9778
    -4.9348  -4.7508  -4.6356  -4.6272   2.5910   5.5593   5.7627   5.8139
     6.3328   7.3684   8.1593   8.6932   8.7436   9.5598

          k = 0.4000 0.4000 0.3805 (  2502 PWs)   bands (ev):

   -45.7932 -22.5080 -22.4288 -22.4287  -6.5010  -6.4267  -6.1564  -4.9354
    -4.9294  -4.6932  -4.5522  -4.5208   3.0235   5.0052   5.1480   5.4859
     6.2184   6.3926   7.0768   9.4180   9.4619   9.5578

     highest occupied level (ev):    10.0486

!    total energy              =    -380.57229478 Ry
     estimated scf accuracy    <          1.2E-11 Ry

     The total energy is the sum of the following terms:
     one-electron contribution =     -85.69023062 Ry
     hartree contribution      =      71.98774778 Ry
     xc contribution           =    -102.58330383 Ry
     ewald contribution        =    -264.28650810 Ry

     convergence has been achieved in   8 iterations

     negative rho (up, down):  1.553E-02 0.000E+00

     Forces acting on atoms (cartesian axes, Ry/au):

     atom    1 type  1   force =     0.00000000    0.00000000    0.00022765
     atom    2 type  2   force =     0.00000000    0.00000000   -0.00128746
     atom    3 type  3   force =     0.00000000    0.00000000    0.00012473
     atom    4 type  3   force =     0.00000000    0.00000000    0.00046754
     atom    5 type  3   force =     0.00000000    0.00000000    0.00046754

     Total force =     0.001470     Total SCF correction =     0.000008


     Computing stress (Cartesian axis) and pressure


     negative rho (up, down):  1.553E-02 0.000E+00
          total   stress  (Ry/bohr**3)                   (kbar)     P=      -44.58
  -0.00035102   0.00000000   0.00000000          -51.64        0.00        0.00
   0.00000000  -0.00035102   0.00000000            0.00      -51.64        0.00
   0.00000000   0.00000000  -0.00020709            0.00        0.00      -30.46

     Energy error            =      7.3E-06 Ry
     Gradient error          =      1.3E-03 Ry/Bohr

     number of scf cycles    =   8
     number of bfgs steps    =   7

     energy             old  =    -380.5722874536 Ry
     energy             new  =    -380.5722947778 Ry

     CASE: energy            _new < energy            _old

     new trust radius        =       0.0019729017 bohr
     new conv_thr            =            1.0E-10 Ry


ATOMIC_POSITIONS (crystal)
Pb               0.0000000000        0.0000000000        0.9936821891
Ti               0.5000000000        0.5000000000        0.5382100860
O                0.5000000000        0.5000000000        0.1065677482
O                0.5000000000        0.0000000000        0.6144121323
O                0.0000000000        0.5000000000        0.6144121323



     Writing config-only to output data dir ./pto_k5.save/ :
     XML data file
     NEW-OLD atomic charge density approx. for the potential

     Check: negative core charge=   -0.000004

     negative rho (up, down):  1.553E-02 0.000E+00

     total cpu time spent up to now is       57.1 secs

     Self-consistent Calculation

     iteration #  1     ecut=    50.00 Ry     beta= 0.70
     CG style diagonalization
     ethr =  1.00E-06,  avg # of iterations =  2.9

     Threshold (ethr) on eigenvalues was too large:
     Diagonalizing with lowered threshold

     CG style diagonalization
     c_bands:  2 eigenvalues not converged
     c_bands:  2 eigenvalues not converged
     c_bands:  1 eigenvalues not converged
     c_bands:  1 eigenvalues not converged
     c_bands:  2 eigenvalues not converged
     c_bands:  2 eigenvalues not converged
     c_bands:  2 eigenvalues not converged
     c_bands:  1 eigenvalues not converged
     ethr =  1.45E-09,  avg # of iterations =  7.7

     negative rho (up, down):  1.553E-02 0.000E+00

     total cpu time spent up to now is       58.5 secs

     total energy              =    -380.57229676 Ry
     estimated scf accuracy    <       0.00000077 Ry

     iteration #  2     ecut=    50.00 Ry     beta= 0.70
     CG style diagonalization
     ethr =  1.76E-09,  avg # of iterations =  4.3

     negative rho (up, down):  1.553E-02 0.000E+00

     total cpu time spent up to now is       59.1 secs

     total energy              =    -380.57229664 Ry
     estimated scf accuracy    <       0.00000188 Ry

     iteration #  3     ecut=    50.00 Ry     beta= 0.70
     CG style diagonalization
     ethr =  1.76E-09,  avg # of iterations =  4.0

     negative rho (up, down):  1.553E-02 0.000E+00

     total cpu time spent up to now is       59.6 secs

     total energy              =    -380.57229703 Ry
     estimated scf accuracy    <       0.00000016 Ry

     iteration #  4     ecut=    50.00 Ry     beta= 0.70
     CG style diagonalization
     ethr =  3.58E-10,  avg # of iterations =  3.6

     negative rho (up, down):  1.553E-02 0.000E+00

     total cpu time spent up to now is       60.1 secs

     total energy              =    -380.57229706 Ry
     estimated scf accuracy    <          7.0E-09 Ry

     iteration #  5     ecut=    50.00 Ry     beta= 0.70
     CG style diagonalization
     ethr =  1.59E-11,  avg # of iterations =  4.8

     negative rho (up, down):  1.553E-02 0.000E+00

     total cpu time spent up to now is       60.7 secs

     total energy              =    -380.57229707 Ry
     estimated scf accuracy    <          2.9E-09 Ry

     iteration #  6     ecut=    50.00 Ry     beta= 0.70
     CG style diagonalization
     ethr =  6.56E-12,  avg # of iterations =  3.9

     negative rho (up, down):  1.553E-02 0.000E+00

     total cpu time spent up to now is       61.2 secs

     total energy              =    -380.57229707 Ry
     estimated scf accuracy    <          6.2E-10 Ry

     iteration #  7     ecut=    50.00 Ry     beta= 0.70
     CG style diagonalization
     ethr =  1.42E-12,  avg # of iterations =  4.5

     negative rho (up, down):  1.553E-02 0.000E+00

     total cpu time spent up to now is       61.8 secs

     total energy              =    -380.57229707 Ry
     estimated scf accuracy    <          3.0E-10 Ry

     iteration #  8     ecut=    50.00 Ry     beta= 0.70
     CG style diagonalization
     ethr =  6.91E-13,  avg # of iterations =  4.2

     negative rho (up, down):  1.553E-02 0.000E+00

     total cpu time spent up to now is       62.4 secs

     End of self-consistent calculation

          k = 0.0000 0.0000 0.0000 (  2525 PWs)   bands (ev):

   -45.7961 -22.4801 -22.3712 -22.3712  -7.5752  -6.5128  -6.2056  -4.9910
    -4.9910  -4.9492  -4.8646  -4.6819   4.2141   6.2494   6.2494   6.7974
     8.1203   8.1203   8.4487   8.6303   8.8738   8.8738

          k = 0.0000 0.0000 0.1902 (  2525 PWs)   bands (ev):

   -45.7959 -22.4936 -22.3707 -22.3707  -7.4479  -6.4772  -6.1638  -5.0014
    -5.0014  -4.9483  -4.8549  -4.7258   3.6584   6.2791   6.2791   7.0009
     7.9688   7.9688   8.3897   8.5776   8.9475   8.9475

          k = 0.0000 0.0000 0.3805 (  2514 PWs)   bands (ev):

   -45.7956 -22.5154 -22.3698 -22.3698  -7.2281  -6.4157  -6.1009  -5.0181
    -5.0181  -4.9469  -4.8398  -4.8007   3.0442   6.3082   6.3082   6.3452
     7.8096   7.8096   8.2983   9.0261   9.0261   9.6880

          k = 0.0000 0.2000 0.0000 (  2511 PWs)   bands (ev):

   -45.7957 -22.4791 -22.3951 -22.3702  -7.3881  -6.4773  -6.1803  -5.0187
    -4.9890  -4.9667  -4.8506  -4.6699   3.6659   6.3023   6.4039   6.6646
     8.1535   8.1634   8.3813   8.3946   8.5731   9.0187

          k = 0.0000 0.2000 0.1902 (  2511 PWs)   bands (ev):

   -45.7955 -22.4925 -22.3945 -22.3697  -7.2760  -6.4537  -6.1327  -5.0094
    -4.9999  -4.9663  -4.8485  -4.6859   3.3238   6.1101   6.4427   6.8698
     7.7387   7.9439   8.1269   8.5222   8.6300   9.3050

          k = 0.0000 0.2000 0.3805 (  2517 PWs)   bands (ev):

   -45.7952 -22.5141 -22.3935 -22.3688  -7.0946  -6.4100  -6.0485  -5.0173
    -4.9904  -4.9656  -4.8541  -4.7092   2.8674   5.7989   6.4793   6.6539
     7.3674   7.7883   8.0149   8.6201   8.7914   9.8031

          k = 0.0000 0.4000 0.0000 (  2510 PWs)   bands (ev):

   -45.7950 -22.4772 -22.4336 -22.3686  -7.0509  -6.4062  -6.1732  -5.0466
    -4.9948  -4.9857  -4.7967  -4.7040   3.0936   5.7405   6.7801   6.7807
     7.5524   7.6151   8.2368   8.2427   8.6808  10.0484

          k = 0.0000 0.4000 0.1902 (  2507 PWs)   bands (ev):

   -45.7948 -22.4904 -22.4328 -22.3681  -6.9962  -6.3737  -6.1073  -5.0229
    -4.9975  -4.9949  -4.7954  -4.6709   2.9074   5.7021   6.6141   6.8554
     7.0900   7.5067   8.1051   8.2758   8.7103   9.9041

          k = 0.0000 0.4000 0.3805 (  2521 PWs)   bands (ev):

   -45.7945 -22.5117 -22.4315 -22.3671  -6.9415  -6.3067  -5.9592  -5.0160
    -4.9956  -4.9774  -4.8320  -4.5943   2.6269   5.4858   6.1973   6.8986
     6.9091   7.4501   7.4617   8.3076   9.2552   9.5501

          k = 0.2000 0.2000 0.0000 (  2498 PWs)   bands (ev):

   -45.7952 -22.4780 -22.3942 -22.3938  -7.2062  -6.4407  -6.1912  -5.0222
    -5.0023  -4.9594  -4.8060  -4.6580   3.2936   6.2339   6.5080   6.6851
     7.5223   7.5477   8.4811   8.5335   8.8350   9.3524

          k = 0.2000 0.2000 0.1902 (  2504 PWs)   bands (ev):

   -45.7950 -22.4913 -22.3936 -22.3932  -7.1036  -6.4336  -6.1438  -5.0108
    -5.0042  -4.9518  -4.7978  -4.6559   3.1338   6.0360   6.1056   6.7463
     7.4091   7.4679   8.3577   8.6800   8.9094   9.3132

          k = 0.2000 0.2000 0.3805 (  2517 PWs)   bands (ev):

   -45.7948 -22.5128 -22.3925 -22.3923  -6.9459  -6.4225  -6.0485  -5.0200
    -4.9787  -4.9207  -4.7977  -4.6566   2.8502   5.7389   5.8660   6.4251
     7.1011   7.3300   8.3750   8.7943   9.0432   9.4308

          k = 0.2000 0.4000 0.0000 (  2524 PWs)   bands (ev):

   -45.7945 -22.4762 -22.4323 -22.3922  -6.8830  -6.3747  -6.2360  -5.0287
    -4.9843  -4.9175  -4.7515  -4.6850   2.8174   5.7628   6.4898   6.8443
     7.0178   7.6482   7.7646   8.7158   8.8912   9.7854

          k = 0.2000 0.4000 0.1902 (  2516 PWs)   bands (ev):

   -45.7943 -22.4893 -22.4316 -22.3916  -6.8232  -6.3718  -6.1828  -5.0093
    -4.9819  -4.9014  -4.7339  -4.6425   2.8270   5.7030   5.8996   6.3094
     6.9572   7.6009   8.2041   8.6794   8.9813   9.4080

          k = 0.2000 0.4000 0.3805 (  2507 PWs)   bands (ev):

   -45.7940 -22.5105 -22.4304 -22.3907  -6.7728  -6.3591  -6.0443  -4.9999
    -4.9510  -4.8705  -4.7246  -4.5634   2.7970   5.4205   5.5621   5.9635
     6.3369   7.3109   8.4152   8.7776   8.8327   9.4369

          k = 0.4000 0.4000 0.0000 (  2524 PWs)   bands (ev):

   -45.7938 -22.4743 -22.4302 -22.4301  -6.6213  -6.3265  -6.3062  -5.0030
    -4.9380  -4.7939  -4.6927  -4.6746   2.3829   5.6141   6.0281   6.8870
     7.0653   7.2991   7.6296   8.3769   9.0410   9.5630

          k = 0.4000 0.4000 0.1902 (  2522 PWs)   bands (ev):

   -45.7936 -22.4874 -22.4296 -22.4295  -6.5334  -6.3671  -6.2961  -4.9766
    -4.9336  -4.7496  -4.6343  -4.6256   2.5910   5.5599   5.7635   5.8149
     6.3363   7.3693   8.1616   8.6931   8.7427   9.5598

          k = 0.4000 0.4000 0.3805 (  2502 PWs)   bands (ev):

   -45.7933 -22.5085 -22.4286 -22.4285  -6.5016  -6.4272  -6.1573  -4.9342
    -4.9282  -4.6922  -4.5510  -4.5194   3.0233   5.0059   5.1485   5.4854
     6.2230   6.3950   7.0788   9.4167   9.4609   9.5576

     highest occupied level (ev):    10.0484

!    total energy              =    -380.57229707 Ry
     estimated scf accuracy    <          1.2E-11 Ry

     The total energy is the sum of the following terms:
     one-electron contribution =     -85.68536038 Ry
     hartree contribution      =      71.98574853 Ry
     xc contribution           =    -102.58331969 Ry
     ewald contribution        =    -264.28936553 Ry

     convergence has been achieved in   8 iterations

     negative rho (up, down):  1.553E-02 0.000E+00

     Forces acting on atoms (cartesian axes, Ry/au):

     atom    1 type  1   force =     0.00000000    0.00000000    0.00009746
     atom    2 type  2   force =     0.00000000    0.00000000   -0.00073101
     atom    3 type  3   force =     0.00000000    0.00000000    0.00041432
     atom    4 type  3   force =     0.00000000    0.00000000    0.00010962
     atom    5 type  3   force =     0.00000000    0.00000000    0.00010962

     Total force =     0.000860     Total SCF correction =     0.000007


     Computing stress (Cartesian axis) and pressure


     negative rho (up, down):  1.553E-02 0.000E+00
          total   stress  (Ry/bohr**3)                   (kbar)     P=      -44.63
  -0.00035231   0.00000000   0.00000000          -51.83        0.00        0.00
   0.00000000  -0.00035231   0.00000000            0.00      -51.83        0.00
   0.00000000   0.00000000  -0.00020562            0.00        0.00      -30.25

     Energy error            =      2.3E-06 Ry
     Gradient error          =      7.3E-04 Ry/Bohr

     bfgs converged in   9 scf cycles and   8 bfgs steps
     (criteria: energy <  1.0E-04 Ry, force <  1.0E-03 Ry/Bohr)

     End of BFGS Geometry Optimization

     Final energy             =    -380.5722970668 Ry

     File ./pto_k5.bfgs deleted, as requested
Begin final coordinates

ATOMIC_POSITIONS (crystal)
Pb               0.0000000000        0.0000000000        0.9936821891
Ti               0.5000000000        0.5000000000        0.5382100860
O                0.5000000000        0.5000000000        0.1065677482
O                0.5000000000        0.0000000000        0.6144121323
O                0.0000000000        0.5000000000        0.6144121323
End final coordinates



     Writing all to output data dir ./pto_k5.save/ :
     XML data file, charge density, pseudopotentials, collected wavefunctions
 
     init_run     :      0.31s CPU      0.40s WALL (       1 calls)
     electrons    :     51.27s CPU     54.63s WALL (       9 calls)
     update_pot   :      0.03s CPU      0.03s WALL (       8 calls)
     forces       :      0.80s CPU      0.84s WALL (       9 calls)
     stress       :      6.26s CPU      6.36s WALL (       9 calls)

     Called by init_run:
     wfcinit      :      0.10s CPU      0.12s WALL (       1 calls)
     potinit      :      0.01s CPU      0.01s WALL (       1 calls)
     hinit0       :      0.11s CPU      0.14s WALL (       1 calls)

     Called by electrons:
     c_bands      :     40.83s CPU     43.29s WALL (      88 calls)
     sum_band     :      6.57s CPU      6.90s WALL (      88 calls)
     v_of_rho     :      0.14s CPU      0.14s WALL (      93 calls)
     newd         :      3.93s CPU      4.35s WALL (      93 calls)
     mix_rho      :      0.09s CPU      0.10s WALL (      88 calls)

     Called by c_bands:
     init_us_2    :      0.35s CPU      0.37s WALL (    3510 calls)
     init_us_2:cp :      0.34s CPU      0.36s WALL (    3510 calls)
     ccgdiagg     :     36.83s CPU     39.11s WALL (    1584 calls)
     wfcrot       :      3.81s CPU      3.98s WALL (    1368 calls)

     Called by *cgdiagg:
     h_psi        :     22.68s CPU     24.01s WALL (  137309 calls)
     s_psi        :      3.88s CPU      4.13s WALL (  273250 calls)

     Called by h_psi:
     h_psi:calbec :      3.67s CPU      3.90s WALL (  137309 calls)
     vloc_psi     :     15.79s CPU     16.71s WALL (  137309 calls)
     add_vuspsi   :      2.12s CPU      2.25s WALL (  137309 calls)
     hs_1psi      :     22.40s CPU     23.77s WALL (  135941 calls)
     s_1psi       :      5.56s CPU      5.90s WALL (  135941 calls)

     General routines
     calbec       :      6.86s CPU      7.27s WALL (  275644 calls)
     fft          :      0.16s CPU      0.18s WALL (     624 calls)
     ffts         :      0.01s CPU      0.01s WALL (     181 calls)
     fftw         :     13.35s CPU     14.09s WALL (  367246 calls)
     interpolate  :      0.03s CPU      0.04s WALL (      93 calls)
 
     Parallel routines
 
     PWSCF        :     59.22s CPU   1m 3.42s WALL

 
   This run was terminated on:   2:30:24  15Nov2025            

=------------------------------------------------------------------------------=
   JOB DONE.
=------------------------------------------------------------------------------=
TACC:  Shutdown complete. Exiting. 
