TACC:  Starting up job 2483024 
TACC:  Starting parallel tasks... 

     Program PWSCF v.7.3 starts on 20Oct2025 at 22:22: 5 

     This program is part of the open-source Quantum ESPRESSO suite
     for quantum simulation of materials; please cite
         "P. Giannozzi et al., J. Phys.:Condens. Matter 21 395502 (2009);
         "P. Giannozzi et al., J. Phys.:Condens. Matter 29 465901 (2017);
         "P. Giannozzi et al., J. Chem. Phys. 152 154105 (2020);
          URL http://www.quantum-espresso.org", 
     in publications or presentations arising from this work. More details at
     http://www.quantum-espresso.org/quote

     Parallel version (MPI & OpenMP), running on      10 processor cores
     Number of MPI processes:                10
     Threads/MPI process:                     1

     MPI processes distributed on     1 nodes
     186448 MiB available memory on the printing compute node when the environment starts
 
     Waiting for input...
     Reading input from standard input
Warning: card &IONS ignored
Warning: card  ION_DYNAMICS='BFGS', ignored
Warning: card / ignored
Warning: card &CELL ignored
Warning: card  CELL_DYNAMICS = 'BFGS', ignored
Warning: card  PRESS=0.D0, ignored
Warning: card / ignored

     Current dimensions of program PWSCF are:
     Max number of different atomic species (ntypx) = 10
     Max number of k-points (npk) =  40000
     Max angular momentum in pseudopotentials (lmaxx) =  4

     Atomic positions and unit cell read from directory:
     ./BTO.save/
 
 
     R & G space division:  proc/nbgrp/npool/nimage =      10
     Subspace diagonalization in iterative solution of the eigenvalue problem:
     a serial algorithm will be used

 
     Parallelization info
     --------------------
     sticks:   dense  smooth     PW     G-vecs:    dense   smooth      PW
     Min         420     111     34                20624     2841     480
     Max         422     112     36                20626     2844     481
     Sum        4205    1117    349               206245    28425    4801
 
     Using Slab Decomposition
 


     bravais-lattice index     =            1
     lattice parameter (alat)  =       7.6794  a.u.
     unit-cell volume          =     452.8787 (a.u.)^3
     number of atoms/cell      =            5
     number of atomic types    =            3
     number of electrons       =        40.00
     number of Kohn-Sham states=           35
     kinetic-energy cutoff     =      60.0000  Ry
     charge density cutoff     =     900.0000  Ry
     Exchange-correlation= SLA  PZ   NOGX NOGC
                           (   1   1   0   0   0   0   0)

     celldm(1)=   7.679400  celldm(2)=   0.000000  celldm(3)=   0.000000
     celldm(4)=   0.000000  celldm(5)=   0.000000  celldm(6)=   0.000000

     crystal axes: (cart. coord. in units of alat)
               a(1) = (   1.000000   0.000000   0.000000 )  
               a(2) = (   0.000000   1.000000   0.000000 )  
               a(3) = (   0.000000   0.000000   1.000000 )  

     reciprocal axes: (cart. coord. in units 2 pi/alat)
               b(1) = (  1.000000  0.000000  0.000000 )  
               b(2) = (  0.000000  1.000000  0.000000 )  
               b(3) = (  0.000000  0.000000  1.000000 )  


     PseudoPot. # 1 for Ba read from file:
     /scratch/11018/zhc/Assisgnment2/Q1/1D/band_bto/Ba_LDA.UPF
     MD5 check sum: 0ec7675c796dc0a11c6269c68e51391e
     Pseudo is Ultrasoft + core correction, Zval = 10.0
     Generated by new atomic code, or converted to UPF format
     Using radial grid of  907 points,  7 beta functions with: 
                l(1) =   0
                l(2) =   0
                l(3) =   1
                l(4) =   1
                l(5) =   2
                l(6) =   2
                l(7) =   3
     Q(r) pseudized with  6 coefficients,  rinner =    1.700   1.700   1.700
                                                       1.700   1.700   1.700
                                                       1.700

     PseudoPot. # 2 for Ti read from file:
     /scratch/11018/zhc/Assisgnment2/Q1/1D/band_bto/Ti_LDA.UPF
     MD5 check sum: 0d9f225c038fe889ca2a701dcc8d72cb
     Pseudo is Ultrasoft + core correction, Zval = 12.0
     Generated by new atomic code, or converted to UPF format
     Using radial grid of  851 points,  6 beta functions with: 
                l(1) =   0
                l(2) =   0
                l(3) =   1
                l(4) =   1
                l(5) =   2
                l(6) =   2
     Q(r) pseudized with  6 coefficients,  rinner =    1.000   1.000   1.000
                                                       1.000   1.000

     PseudoPot. # 3 for O  read from file:
     /scratch/11018/zhc/Assisgnment2/Q1/1D/band_bto/O_LDA.UPF
     MD5 check sum: 194b818514d2a7dbb603bb78519a4f40
     Pseudo is Ultrasoft + core correction, Zval =  6.0
     Generated by new atomic code, or converted to UPF format
     Using radial grid of  737 points,  5 beta functions with: 
                l(1) =   0
                l(2) =   0
                l(3) =   1
                l(4) =   1
                l(5) =   2
     Q(r) pseudized with  8 coefficients,  rinner =    0.900   0.900   0.900
                                                       0.900   0.900

     atomic species   valence    mass     pseudopotential
     Ba               10.00   137.32700     Ba( 1.00)
     Ti               12.00    47.88000     Ti( 1.00)
     O                 6.00    16.00000     O ( 1.00)

     48 Sym. Ops., with inversion, found



   Cartesian axes

     site n.     atom                  positions (alat units)
         1        Ba     tau(   1) = (   0.0000000   0.0000000   0.0000000  )
         2        Ti     tau(   2) = (   0.5000000   0.5000000   0.5000000  )
         3        O      tau(   3) = (   0.5000000   0.5000000   0.0000000  )
         4        O      tau(   4) = (   0.5000000   0.0000000   0.5000000  )
         5        O      tau(   5) = (   0.0000000   0.5000000   0.5000000  )

     number of k points=    41
                       cart. coord. in units 2pi/alat
        k(    1) = (   0.5000000   0.5000000   0.5000000), wk =   0.0487805
        k(    2) = (   0.4750000   0.4750000   0.4750000), wk =   0.0487805
        k(    3) = (   0.4500000   0.4500000   0.4500000), wk =   0.0487805
        k(    4) = (   0.4250000   0.4250000   0.4250000), wk =   0.0487805
        k(    5) = (   0.4000000   0.4000000   0.4000000), wk =   0.0487805
        k(    6) = (   0.3750000   0.3750000   0.3750000), wk =   0.0487805
        k(    7) = (   0.3500000   0.3500000   0.3500000), wk =   0.0487805
        k(    8) = (   0.3250000   0.3250000   0.3250000), wk =   0.0487805
        k(    9) = (   0.3000000   0.3000000   0.3000000), wk =   0.0487805
        k(   10) = (   0.2750000   0.2750000   0.2750000), wk =   0.0487805
        k(   11) = (   0.2500000   0.2500000   0.2500000), wk =   0.0487805
        k(   12) = (   0.2250000   0.2250000   0.2250000), wk =   0.0487805
        k(   13) = (   0.2000000   0.2000000   0.2000000), wk =   0.0487805
        k(   14) = (   0.1750000   0.1750000   0.1750000), wk =   0.0487805
        k(   15) = (   0.1500000   0.1500000   0.1500000), wk =   0.0487805
        k(   16) = (   0.1250000   0.1250000   0.1250000), wk =   0.0487805
        k(   17) = (   0.1000000   0.1000000   0.1000000), wk =   0.0487805
        k(   18) = (   0.0750000   0.0750000   0.0750000), wk =   0.0487805
        k(   19) = (   0.0500000   0.0500000   0.0500000), wk =   0.0487805
        k(   20) = (   0.0250000   0.0250000   0.0250000), wk =   0.0487805
        k(   21) = (   0.0000000   0.0000000   0.0000000), wk =   0.0487805
        k(   22) = (   0.0500000   0.0000000   0.0000000), wk =   0.0487805
        k(   23) = (   0.1000000   0.0000000   0.0000000), wk =   0.0487805
        k(   24) = (   0.1500000   0.0000000   0.0000000), wk =   0.0487805
        k(   25) = (   0.2000000   0.0000000   0.0000000), wk =   0.0487805
        k(   26) = (   0.2500000   0.0000000   0.0000000), wk =   0.0487805
        k(   27) = (   0.3000000   0.0000000   0.0000000), wk =   0.0487805
        k(   28) = (   0.3500000   0.0000000   0.0000000), wk =   0.0487805
        k(   29) = (   0.4000000   0.0000000   0.0000000), wk =   0.0487805
        k(   30) = (   0.4500000   0.0000000   0.0000000), wk =   0.0487805
        k(   31) = (   0.5000000   0.0000000   0.0000000), wk =   0.0487805
        k(   32) = (   0.5500000   0.0000000   0.0000000), wk =   0.0487805
        k(   33) = (   0.6000000   0.0000000   0.0000000), wk =   0.0487805
        k(   34) = (   0.6500000   0.0000000   0.0000000), wk =   0.0487805
        k(   35) = (   0.7000000   0.0000000   0.0000000), wk =   0.0487805
        k(   36) = (   0.7500000   0.0000000   0.0000000), wk =   0.0487805
        k(   37) = (   0.8000000   0.0000000   0.0000000), wk =   0.0487805
        k(   38) = (   0.8500000   0.0000000   0.0000000), wk =   0.0487805
        k(   39) = (   0.9000000   0.0000000   0.0000000), wk =   0.0487805
        k(   40) = (   0.9500000   0.0000000   0.0000000), wk =   0.0487805
        k(   41) = (   1.0000000   0.0000000   0.0000000), wk =   0.0487805

     Dense  grid:   206245 G-vectors     FFT dimensions: (  75,  75,  75)

     Smooth grid:    28425 G-vectors     FFT dimensions: (  40,  40,  40)

     Estimated max dynamical RAM per process >     132.93 MB

     Estimated total dynamical RAM >       1.30 GB

     Check: negative core charge=   -0.000001

     The potential is recalculated from file :
     ./BTO.save/charge-density


     negative rho (up, down):  9.081E-02 0.000E+00
     Starting wfcs are   35 randomized atomic wfcs

     Band Structure Calculation
     CG style diagonalization
     c_bands:  1 eigenvalues not converged
     c_bands:  1 eigenvalues not converged
     c_bands:  1 eigenvalues not converged
     c_bands:  1 eigenvalues not converged
     c_bands:  1 eigenvalues not converged
     c_bands:  1 eigenvalues not converged
     c_bands:  1 eigenvalues not converged

     ethr =  2.50E-11,  avg # of iterations = 38.0

     total cpu time spent up to now is       21.3 secs

     End of band structure calculation

          k = 0.5000 0.5000 0.5000 (  3544 PWs)   bands (ev):

   -46.7481 -23.3056 -23.3056 -23.3056 -15.1238  -6.1484  -6.1484  -6.1484
    -1.1376  -1.1376  -1.1376   4.9544   5.6806   5.6806   6.9843   6.9843
     6.9843   9.3718   9.3718   9.3718  13.2792  13.2792  13.2792  15.9243
    15.9243  15.9243  16.6409  16.6409  19.4824  19.4824  20.0242  20.0242
    20.0242  20.3194  21.1003

          k = 0.4750 0.4750 0.4750 (  3544 PWs)   bands (ev):

   -46.7481 -23.3054 -23.3054 -23.3054 -15.1248  -6.1609  -6.1505  -6.1505
    -1.1296  -1.1296  -1.1167   4.9697   5.6892   5.6892   6.9606   6.9833
     6.9833   9.3539   9.3539   9.3646  13.2678  13.2682  13.2682  15.9504
    15.9504  15.9608  16.6275  16.6275  19.4032  19.4032  20.0071  20.0829
    20.0829  20.3122  21.0954

          k = 0.4500 0.4500 0.4500 (  3536 PWs)   bands (ev):

   -46.7481 -23.3048 -23.3047 -23.3047 -15.1280  -6.1971  -6.1568  -6.1568
    -1.1060  -1.1060  -1.0557   5.0146   5.7148   5.7148   6.8933   6.9805
     6.9805   9.3024   9.3024   9.3431  13.2342  13.2355  13.2355  16.0198
    16.0198  16.0653  16.5933  16.5933  19.2232  19.2232  19.9634  20.2022
    20.2022  20.2916  21.0798

          k = 0.4250 0.4250 0.4250 (  3545 PWs)   bands (ev):

   -46.7482 -23.3038 -23.3037 -23.3037 -15.1332  -6.2541  -6.1668  -6.1668
    -1.0681  -1.0681  -0.9596   5.0869   5.7571   5.7571   6.7930   6.9765
     6.9765   9.2239   9.2239   9.3082  13.1795  13.1816  13.1816  16.0980
    16.0980  16.2247  16.5653  16.5653  19.0010  19.0010  19.9088  20.2612
    20.3263  20.3263  21.0539

          k = 0.4000 0.4000 0.4000 (  3554 PWs)   bands (ev):

   -46.7482 -23.3024 -23.3022 -23.3022 -15.1404  -6.3271  -6.1800  -6.1800
    -1.0178  -1.0178  -0.8361   5.1821   5.8150   5.8150   6.6764   6.9725
     6.9725   9.1277   9.1277   9.2609  13.1053  13.1077  13.1077  16.1091
    16.1091  16.4192  16.6072  16.6072  18.7608  18.7608  19.8578  20.2259
    20.4370  20.4370  21.0168

          k = 0.3750 0.3750 0.3750 (  3542 PWs)   bands (ev):

   -46.7483 -23.3006 -23.3004 -23.3004 -15.1494  -6.4111  -6.1955  -6.1955
    -0.9578  -0.9578  -0.6949   5.2926   5.8874   5.8874   6.5652   6.9701
     6.9701   9.0242   9.0242   9.2028  13.0129  13.0152  13.0152  16.0154
    16.0154  16.6260  16.7385  16.7385  18.5185  18.5185  19.8212  20.1908
    20.5293  20.5293  20.9679

          k = 0.3500 0.3500 0.3500 (  3548 PWs)   bands (ev):

   -46.7484 -23.2986 -23.2982 -23.2982 -15.1602  -6.5008  -6.2126  -6.2126
    -0.8912  -0.8912  -0.5473   5.4062   5.9727   5.9727   6.4860   6.9719
     6.9719   8.9229   8.9229   9.1358  12.9035  12.9059  12.9059  15.8559
    15.8559  16.8217  16.8920  16.8920  18.2955  18.2955  19.8075  20.1601
    20.6031  20.6031  20.9066

          k = 0.3250 0.3250 0.3250 (  3554 PWs)   bands (ev):

   -46.7485 -23.2963 -23.2958 -23.2958 -15.1727  -6.5913  -6.2303  -6.2303
    -0.8216  -0.8216  -0.4052   5.5070   6.0690   6.0690   6.4682   6.9808
     6.9808   8.8324   8.8324   9.0617  12.7780  12.7819  12.7819  15.6589
    15.6589  16.9863  16.9921  16.9921  18.1307  18.1307  19.8230  20.1352
    20.6605  20.6605  20.8346

          k = 0.3000 0.3000 0.3000 (  3551 PWs)   bands (ev):

   -46.7487 -23.2937 -23.2932 -23.2932 -15.1866  -6.6787  -6.2480  -6.2480
    -0.7525  -0.7525  -0.2802   5.5856   6.1739   6.1739   6.5328   7.0008
     7.0008   8.7591   8.7591   8.9827  12.6379  12.6455  12.6455  15.4368
    15.4368  16.9669  16.9669  17.1067  18.0729  18.0729  19.8681  20.1136
    20.7042  20.7042  20.7569

          k = 0.2750 0.2750 0.2750 (  3557 PWs)   bands (ev):

   -46.7488 -23.2911 -23.2904 -23.2904 -15.2018  -6.7596  -6.2648  -6.2648
    -0.6874  -0.6874  -0.1825   5.6527   6.2848   6.2848   6.6775   7.0361
     7.0361   8.7076   8.7076   8.9010  12.4847  12.4992  12.4992  15.1971
    15.1971  16.8061  16.8061  17.1797  18.1138  18.1138  19.9264  20.0882
    20.6796  20.6796  20.7403

          k = 0.2500 0.2500 0.2500 (  3560 PWs)   bands (ev):

   -46.7489 -23.2883 -23.2876 -23.2876 -15.2179  -6.8316  -6.2802  -6.2802
    -0.6292  -0.6292  -0.1190   5.7313   6.3988   6.3988   6.8825   7.0905
     7.0905   8.6805   8.6805   8.8188  12.3208  12.3453  12.3453  14.9453
    14.9453  16.5624  16.5624  17.2101  18.1850  18.1850  19.8863  20.0983
    20.6191  20.6191  20.6380

          k = 0.2250 0.2250 0.2250 (  3560 PWs)   bands (ev):

   -46.7491 -23.2855 -23.2848 -23.2848 -15.2348  -6.8932  -6.2939  -6.2939
    -0.5802  -0.5802  -0.0924   5.8387   6.5123   6.5123   7.1281   7.1675
     7.1675   8.6790   8.6790   8.7379  12.1491  12.1862  12.1862  14.6869
    14.6869  16.2789  16.2789  17.2066  18.2333  18.2333  19.6113  20.1790
    20.4728  20.5847  20.5847

          k = 0.2000 0.2000 0.2000 (  3572 PWs)   bands (ev):

   -46.7492 -23.2827 -23.2820 -23.2820 -15.2520  -6.9437  -6.3056  -6.3056
    -0.5415  -0.5415  -0.1007   5.9793   6.6220   6.6220   7.2691   7.2691
     7.4002   8.6603   8.7025   8.7025  11.9732  12.0236  12.0236  14.4268
    14.4268  15.9777  15.9777  17.1757  18.2368  18.2368  19.2139  20.2625
    20.4490  20.5822  20.5822

          k = 0.1750 0.1750 0.1750 (  3590 PWs)   bands (ev):

   -46.7493 -23.2800 -23.2794 -23.2794 -15.2690  -6.9831  -6.3152  -6.3152
    -0.5135  -0.5135  -0.1377   6.1480   6.7239   6.7239   7.3956   7.3956
     7.6891   8.5877   8.7491   8.7491  11.7973  11.8595  11.8595  14.1705
    14.1705  15.6716  15.6716  17.1181  18.1960  18.1960  18.8050  20.3250
    20.4882  20.6080  20.6080

          k = 0.1500 0.1500 0.1500 (  3584 PWs)   bands (ev):

   -46.7494 -23.2775 -23.2769 -23.2769 -15.2853  -7.0122  -6.3228  -6.3228
    -0.4954  -0.4954  -0.1948   6.3335   6.8150   6.8150   7.5448   7.5448
     7.9861   8.5217   8.8152   8.8152  11.6258  11.6953  11.6953  13.9241
    13.9241  15.3715  15.3715  17.0258  18.1233  18.1233  18.4388  20.3679
    20.5518  20.6515  20.6515

          k = 0.1250 0.1250 0.1250 (  3590 PWs)   bands (ev):

   -46.7495 -23.2752 -23.2748 -23.2748 -15.3004  -7.0323  -6.3286  -6.3286
    -0.4855  -0.4855  -0.2626   6.5218   6.8927   6.8927   7.7111   7.7111
     8.2819   8.4636   8.8955   8.8955  11.4636  11.5331  11.5331  13.6941
    13.6941  15.0880  15.0880  16.8861  18.0351  18.0351  18.1509  20.3993
    20.6181  20.6999  20.6999

          k = 0.1000 0.1000 0.1000 (  3569 PWs)   bands (ev):

   -46.7496 -23.2732 -23.2729 -23.2729 -15.3137  -7.0451  -6.3327  -6.3327
    -0.4818  -0.4818  -0.3318   6.6987   6.9562   6.9562   7.8847   7.8847
     8.4145   8.5647   8.9828   8.9828  11.3156  11.3763  11.3763  13.4881
    13.4881  14.8330  14.8330  16.6988  17.9460  17.9460  17.9577  20.4220
    20.6786  20.7424  20.7424

          k = 0.0750 0.0750 0.0750 (  3584 PWs)   bands (ev):

   -46.7497 -23.2716 -23.2714 -23.2714 -15.3248  -7.0524  -6.3355  -6.3355
    -0.4820  -0.4820  -0.3945   6.8511   7.0050   7.0050   8.0514   8.0514
     8.3753   8.8191   9.0685   9.0685  11.1873  11.2313  11.2313  13.3144
    13.3144  14.6186  14.6186  16.4916  17.8461  17.8670  17.8670  20.4369
    20.7303  20.7732  20.7732

          k = 0.0500 0.0500 0.0500 (  3578 PWs)   bands (ev):

   -46.7497 -23.2704 -23.2703 -23.2703 -15.3330  -7.0561  -6.3373  -6.3373
    -0.4840  -0.4840  -0.4441   6.9681   7.0395   7.0395   8.1930   8.1930
     8.3469   9.0258   9.1422   9.1422  11.0853  11.1089  11.1089  13.1817
    13.1817  14.4561  14.4561  16.3068  17.7884  17.8059  17.8059  20.4454
    20.7704  20.7922  20.7922

          k = 0.0250 0.0250 0.0250 (  3584 PWs)   bands (ev):

   -46.7498 -23.2696 -23.2696 -23.2696 -15.3381  -7.0576  -6.3383  -6.3383
    -0.4859  -0.4859  -0.4758   7.0417   7.0600   7.0600   8.2894   8.2894
     8.3296   9.1631   9.1932   9.1932  11.0181  11.0247  11.0247  13.0982
    13.0982  14.3546  14.3546  16.1807  17.7620  17.7675  17.7675  20.4493
    20.7962  20.8021  20.8021

          k = 0.0000 0.0000 0.0000 (  3575 PWs)   bands (ev):

   -46.7498 -23.2694 -23.2694 -23.2694 -15.3398  -7.0580  -6.3386  -6.3386
    -0.4866  -0.4866  -0.4866   7.0668   7.0668   7.0668   8.3238   8.3238
     8.3238   9.2115   9.2115   9.2115  10.9943  10.9943  10.9943  13.0696
    13.0696  14.3201  14.3201  16.1360  17.7544  17.7544  17.7544  20.4504
    20.8051  20.8051  20.8051

          k = 0.0500 0.0000 0.0000 (  3595 PWs)   bands (ev):

   -46.7498 -23.2704 -23.2694 -23.2694 -15.3375  -7.0577  -6.3385  -6.3377
    -0.4831  -0.4831  -0.4772   7.0264   7.0613   7.0613   8.2930   8.2930
     8.3016   9.1413   9.1907   9.1907  10.9973  11.0489  11.0489  13.0697
    13.1439  14.3654  14.3665  16.1962  17.7471  17.7803  17.7803  20.4491
    20.7837  20.8059  20.8059

          k = 0.1000 0.0000 0.0000 (  3587 PWs)   bands (ev):

   -46.7497 -23.2733 -23.2692 -23.2692 -15.3309  -7.0583  -6.3362  -6.3352
    -0.4727  -0.4727  -0.4497   6.9097   7.0443   7.0443   8.2084   8.2084
     8.2386   8.9533   9.1360   9.1360  11.0060  11.1985  11.1985  13.0700
    13.3435  14.4967  14.5028  16.3742  17.7256  17.8549  17.8549  20.4452
    20.7212  20.8080  20.8080

          k = 0.1500 0.0000 0.0000 (  3571 PWs)   bands (ev):

   -46.7497 -23.2779 -23.2690 -23.2690 -15.3204  -7.0641  -6.3313  -6.3270
    -0.4563  -0.4563  -0.4072   6.7293   7.0147   7.0147   8.0900   8.0900
     8.1442   8.6969   9.0620   9.0620  11.0196  11.4118  11.4118  13.0705
    13.6173  14.7011  14.7201  16.6622  17.6921  17.9702  17.9702  20.4393
    20.6217  20.8115  20.8115

          k = 0.2000 0.0000 0.0000 (  3543 PWs)   bands (ev):

   -46.7496 -23.2837 -23.2688 -23.2688 -15.3072  -7.0791  -6.3263  -6.3059
    -0.4355  -0.4355  -0.3540   6.5047   6.9715   6.9715   7.9611   7.9611
     8.0312   8.4186   8.9804   8.9804  11.0370  11.6574  11.6574  13.0711
    13.9160  14.9597  15.0051  17.0468  17.6498  18.1141  18.1141  20.4319
    20.4920  20.7816  20.8159

          k = 0.2500 0.0000 0.0000 (  3575 PWs)   bands (ev):

   -46.7495 -23.2900 -23.2685 -23.2685 -15.2925  -7.1046  -6.3208  -6.2717
    -0.4121  -0.4121  -0.2956   6.2591   6.9155   6.9155   7.8414   7.8414
     7.9124   8.1511   8.8993   8.8993  11.0564  11.9093  11.9093  13.0718
    14.2042  15.2501  15.3406  17.5087  17.6026  18.2717  18.2717  20.3423
    20.4240  20.6908  20.8209

          k = 0.3000 0.0000 0.0000 (  3551 PWs)   bands (ev):

   -46.7494 -23.2964 -23.2682 -23.2682 -15.2776  -7.1373  -6.3153  -6.2276
    -0.3883  -0.3883  -0.2376   6.0173   6.8505   6.8505   7.7430   7.7430
     7.7997   7.9143   8.8248   8.8248  11.0760  12.1465  12.1465  13.0725
    14.4596  15.5477  15.7041  17.5552  18.0196  18.4273  18.4273  20.1930
    20.4162  20.5882  20.8259

          k = 0.3500 0.0000 0.0000 (  3555 PWs)   bands (ev):

   -46.7493 -23.3021 -23.2680 -23.2680 -15.2642  -7.1717  -6.3104  -6.1811
    -0.3665  -0.3665  -0.1856   5.8026   6.7847   6.7847   7.6697   7.6697
     7.7026   7.7204   8.7618   8.7618  11.0939  12.3515  12.3515  13.0731
    14.6687  15.8254  16.0660  17.5123  18.5255  18.5661  18.5661  20.0942
    20.4094  20.4830  20.8303

          k = 0.4000 0.0000 0.0000 (  3547 PWs)   bands (ev):

   -46.7493 -23.3066 -23.2678 -23.2678 -15.2534  -7.2015  -6.3064  -6.1402
    -0.3491  -0.3491  -0.1446   5.6345   6.7282   6.7282   7.5770   7.6205
     7.6205   7.6283   8.7142   8.7142  11.1082  12.5097  12.5097  13.0736
    14.8232  16.0547  16.3873  17.4781  18.6753  18.6753  18.9017  20.1706
    20.3886  20.4041  20.8319

          k = 0.4500 0.0000 0.0000 (  3551 PWs)   bands (ev):

   -46.7492 -23.3095 -23.2677 -23.2677 -15.2465  -7.2216  -6.3038  -6.1123
    -0.3377  -0.3377  -0.1184   5.5276   6.6902   6.6902   7.4889   7.5818
     7.5926   7.5926   8.6845   8.6845  11.1175  12.6096  12.6096  13.0739
    14.9179  16.2073  16.6176  17.4561  18.7449  18.7449  19.0350  20.3218
    20.4007  20.5183  20.8277

          k = 0.5000 0.0000 0.0000 (  3546 PWs)   bands (ev):

   -46.7492 -23.3105 -23.2676 -23.2676 -15.2441  -7.2286  -6.3030  -6.1025
    -0.3338  -0.3338  -0.1094   5.4910   6.6769   6.6769   7.4593   7.5660
     7.5835   7.5835   8.6745   8.6745  11.1207  12.6437  12.6437  13.0740
    14.9497  16.2610  16.7030  17.4485  18.7688  18.7688  19.0477  20.2975
    20.3996  20.8068  20.8246

          k = 0.5500 0.0000 0.0000 (  3551 PWs)   bands (ev):

   -46.7492 -23.3095 -23.2677 -23.2677 -15.2465  -7.2216  -6.3038  -6.1123
    -0.3377  -0.3377  -0.1184   5.5276   6.6902   6.6902   7.4889   7.5818
     7.5926   7.5926   8.6845   8.6845  11.1175  12.6096  12.6096  13.0739
    14.9179  16.2073  16.6176  17.4561  18.7449  18.7449  19.0350  20.3218
    20.4007  20.5183  20.8277

          k = 0.6000 0.0000 0.0000 (  3547 PWs)   bands (ev):

   -46.7493 -23.3066 -23.2678 -23.2678 -15.2534  -7.2015  -6.3064  -6.1402
    -0.3491  -0.3491  -0.1446   5.6345   6.7282   6.7282   7.5770   7.6205
     7.6205   7.6283   8.7142   8.7142  11.1082  12.5097  12.5097  13.0736
    14.8232  16.0547  16.3873  17.4781  18.6753  18.6753  18.9017  20.1706
    20.3886  20.4041  20.8319

          k = 0.6500 0.0000 0.0000 (  3555 PWs)   bands (ev):

   -46.7493 -23.3021 -23.2680 -23.2680 -15.2642  -7.1717  -6.3104  -6.1811
    -0.3665  -0.3665  -0.1856   5.8026   6.7847   6.7847   7.6697   7.6697
     7.7026   7.7204   8.7618   8.7618  11.0939  12.3515  12.3515  13.0731
    14.6687  15.8254  16.0660  17.5123  18.5255  18.5661  18.5661  20.0942
    20.4094  20.4830  20.8303

          k = 0.7000 0.0000 0.0000 (  3551 PWs)   bands (ev):

   -46.7494 -23.2964 -23.2682 -23.2682 -15.2776  -7.1373  -6.3153  -6.2276
    -0.3883  -0.3883  -0.2376   6.0173   6.8505   6.8505   7.7430   7.7430
     7.7997   7.9143   8.8248   8.8248  11.0760  12.1465  12.1465  13.0725
    14.4596  15.5477  15.7041  17.5552  18.0196  18.4273  18.4273  20.1930
    20.4162  20.5882  20.8259

          k = 0.7500 0.0000 0.0000 (  3575 PWs)   bands (ev):

   -46.7495 -23.2900 -23.2685 -23.2685 -15.2925  -7.1046  -6.3208  -6.2717
    -0.4121  -0.4121  -0.2956   6.2591   6.9155   6.9155   7.8414   7.8414
     7.9124   8.1511   8.8993   8.8993  11.0564  11.9093  11.9093  13.0718
    14.2042  15.2501  15.3406  17.5087  17.6026  18.2717  18.2717  20.3423
    20.4240  20.6908  20.8209

          k = 0.8000 0.0000 0.0000 (  3543 PWs)   bands (ev):

   -46.7496 -23.2837 -23.2688 -23.2688 -15.3072  -7.0791  -6.3263  -6.3059
    -0.4355  -0.4355  -0.3540   6.5047   6.9715   6.9715   7.9611   7.9611
     8.0312   8.4186   8.9804   8.9804  11.0370  11.6574  11.6574  13.0711
    13.9160  14.9597  15.0051  17.0468  17.6498  18.1141  18.1141  20.4319
    20.4920  20.7816  20.8159

          k = 0.8500 0.0000 0.0000 (  3571 PWs)   bands (ev):

   -46.7497 -23.2779 -23.2690 -23.2690 -15.3204  -7.0641  -6.3313  -6.3270
    -0.4563  -0.4563  -0.4072   6.7293   7.0147   7.0147   8.0900   8.0900
     8.1442   8.6969   9.0620   9.0620  11.0196  11.4118  11.4118  13.0705
    13.6173  14.7011  14.7201  16.6622  17.6921  17.9702  17.9702  20.4393
    20.6217  20.8115  20.8115

          k = 0.9000 0.0000 0.0000 (  3587 PWs)   bands (ev):

   -46.7497 -23.2733 -23.2692 -23.2692 -15.3309  -7.0583  -6.3362  -6.3352
    -0.4727  -0.4727  -0.4497   6.9097   7.0443   7.0443   8.2084   8.2084
     8.2386   8.9533   9.1360   9.1360  11.0060  11.1985  11.1985  13.0700
    13.3435  14.4967  14.5028  16.3742  17.7256  17.8549  17.8549  20.4452
    20.7212  20.8080  20.8080

          k = 0.9500 0.0000 0.0000 (  3595 PWs)   bands (ev):

   -46.7498 -23.2704 -23.2694 -23.2694 -15.3375  -7.0577  -6.3385  -6.3377
    -0.4831  -0.4831  -0.4772   7.0264   7.0613   7.0613   8.2930   8.2930
     8.3016   9.1413   9.1907   9.1907  10.9973  11.0489  11.0489  13.0697
    13.1439  14.3654  14.3665  16.1962  17.7471  17.7803  17.7803  20.4491
    20.7837  20.8059  20.8059

          k = 1.0000 0.0000 0.0000 (  3575 PWs)   bands (ev):

   -46.7498 -23.2694 -23.2694 -23.2694 -15.3398  -7.0580  -6.3386  -6.3386
    -0.4866  -0.4866  -0.4866   7.0668   7.0668   7.0668   8.3238   8.3238
     8.3238   9.2115   9.2115   9.2115  10.9943  10.9943  10.9943  13.0696
    13.0696  14.3201  14.3201  16.1360  17.7544  17.7544  17.7544  20.4504
    20.8051  20.8051  20.8051

     Writing all to output data dir ./BTO.save/ :
     XML data file, pseudopotentials, collected wavefunctions
 
     init_run     :      0.38s CPU      0.44s WALL (       1 calls)
     electrons    :     19.63s CPU     20.53s WALL (       1 calls)

     Called by init_run:
     wfcinit      :      0.00s CPU      0.00s WALL (       1 calls)
     potinit      :      0.01s CPU      0.02s WALL (       1 calls)
     hinit0       :      0.17s CPU      0.17s WALL (       1 calls)

     Called by electrons:
     c_bands      :     19.62s CPU     20.53s WALL (       1 calls)
     v_of_rho     :      0.00s CPU      0.00s WALL (       1 calls)
     newd         :      0.15s CPU      0.19s WALL (       1 calls)

     Called by c_bands:
     init_us_2    :      0.01s CPU      0.01s WALL (      41 calls)
     init_us_2:cp :      0.01s CPU      0.01s WALL (      41 calls)
     ccgdiagg     :     18.43s CPU     19.29s WALL (     181 calls)
     wfcrot       :      1.15s CPU      1.19s WALL (     181 calls)

     Called by *cgdiagg:
     h_psi        :     11.37s CPU     11.88s WALL (   48615 calls)
     s_psi        :      1.97s CPU      2.06s WALL (   97049 calls)

     Called by h_psi:
     h_psi:calbec :      1.89s CPU      1.97s WALL (   48615 calls)
     vloc_psi     :      7.98s CPU      8.34s WALL (   48615 calls)
     add_vuspsi   :      1.09s CPU      1.15s WALL (   48615 calls)
     hs_1psi      :     11.77s CPU     12.30s WALL (   48434 calls)
     s_1psi       :      2.51s CPU      2.63s WALL (   48434 calls)

     General routines
     calbec       :      3.01s CPU      3.16s WALL (   97049 calls)
     fft          :      0.01s CPU      0.01s WALL (       6 calls)
     ffts         :      0.00s CPU      0.00s WALL (       1 calls)
     fftw         :      5.36s CPU      5.59s WALL (  109538 calls)
     interpolate  :      0.00s CPU      0.00s WALL (       1 calls)
     davcio       :      0.01s CPU      0.01s WALL (      82 calls)
 
     Parallel routines
 
     PWSCF        :     20.40s CPU     22.08s WALL

 
   This run was terminated on:  22:22:27  20Oct2025            

=------------------------------------------------------------------------------=
   JOB DONE.
=------------------------------------------------------------------------------=
TACC:  Shutdown complete. Exiting. 
