TACC:  Starting up job 2476550 
TACC:  Starting parallel tasks... 

     Program PWSCF v.7.3 starts on 18Oct2025 at 15:26:19 

     This program is part of the open-source Quantum ESPRESSO suite
     for quantum simulation of materials; please cite
         "P. Giannozzi et al., J. Phys.:Condens. Matter 21 395502 (2009);
         "P. Giannozzi et al., J. Phys.:Condens. Matter 29 465901 (2017);
         "P. Giannozzi et al., J. Chem. Phys. 152 154105 (2020);
          URL http://www.quantum-espresso.org", 
     in publications or presentations arising from this work. More details at
     http://www.quantum-espresso.org/quote

     Parallel version (MPI & OpenMP), running on      10 processor cores
     Number of MPI processes:                10
     Threads/MPI process:                     1

     MPI processes distributed on     1 nodes
     186279 MiB available memory on the printing compute node when the environment starts
 
     Waiting for input...
     Reading input from standard input
Warning: card &CELL ignored
Warning: card  CELL_DYNAMICS = 'BFGS', ignored
Warning: card  PRESS=0.D0, ignored
Warning: card / ignored

     Current dimensions of program PWSCF are:
     Max number of different atomic species (ntypx) = 10
     Max number of k-points (npk) =  40000
     Max angular momentum in pseudopotentials (lmaxx) =  4
 
     R & G space division:  proc/nbgrp/npool/nimage =      10
     Subspace diagonalization in iterative solution of the eigenvalue problem:
     a serial algorithm will be used

 
     Parallelization info
     --------------------
     sticks:   dense  smooth     PW     G-vecs:    dense   smooth      PW
     Min          94      37     12                 2162      543     104
     Max          95      38     14                 2165      546     105
     Sum         949     373    129                21631     5449    1045
 
     Using Slab Decomposition
 


     bravais-lattice index     =            1
     lattice parameter (alat)  =       7.6794  a.u.
     unit-cell volume          =     452.8787 (a.u.)^3
     number of atoms/cell      =            5
     number of atomic types    =            3
     number of electrons       =        40.00
     number of Kohn-Sham states=           20
     kinetic-energy cutoff     =      20.0000  Ry
     charge density cutoff     =     200.0000  Ry
     scf convergence threshold =      1.0E-08
     mixing beta               =       0.7000
     number of iterations used =            8  plain     mixing
     Exchange-correlation= SLA  PZ   NOGX NOGC
                           (   1   1   0   0   0   0   0)

     celldm(1)=   7.679400  celldm(2)=   0.000000  celldm(3)=   0.000000
     celldm(4)=   0.000000  celldm(5)=   0.000000  celldm(6)=   0.000000

     crystal axes: (cart. coord. in units of alat)
               a(1) = (   1.000000   0.000000   0.000000 )  
               a(2) = (   0.000000   1.000000   0.000000 )  
               a(3) = (   0.000000   0.000000   1.000000 )  

     reciprocal axes: (cart. coord. in units 2 pi/alat)
               b(1) = (  1.000000  0.000000  0.000000 )  
               b(2) = (  0.000000  1.000000  0.000000 )  
               b(3) = (  0.000000  0.000000  1.000000 )  


     PseudoPot. # 1 for Ba read from file:
     /scratch/11018/zhc/Assisgnment2/Q1/1D/Kpoints/Ba_LDA.UPF
     MD5 check sum: 0ec7675c796dc0a11c6269c68e51391e
     Pseudo is Ultrasoft + core correction, Zval = 10.0
     Generated by new atomic code, or converted to UPF format
     Using radial grid of  907 points,  7 beta functions with: 
                l(1) =   0
                l(2) =   0
                l(3) =   1
                l(4) =   1
                l(5) =   2
                l(6) =   2
                l(7) =   3
     Q(r) pseudized with  6 coefficients,  rinner =    1.700   1.700   1.700
                                                       1.700   1.700   1.700
                                                       1.700

     PseudoPot. # 2 for Ti read from file:
     /scratch/11018/zhc/Assisgnment2/Q1/1D/Kpoints/Ti_LDA.UPF
     MD5 check sum: 0d9f225c038fe889ca2a701dcc8d72cb
     Pseudo is Ultrasoft + core correction, Zval = 12.0
     Generated by new atomic code, or converted to UPF format
     Using radial grid of  851 points,  6 beta functions with: 
                l(1) =   0
                l(2) =   0
                l(3) =   1
                l(4) =   1
                l(5) =   2
                l(6) =   2
     Q(r) pseudized with  6 coefficients,  rinner =    1.000   1.000   1.000
                                                       1.000   1.000

     PseudoPot. # 3 for O  read from file:
     /scratch/11018/zhc/Assisgnment2/Q1/1D/Kpoints/O_LDA.UPF
     MD5 check sum: 194b818514d2a7dbb603bb78519a4f40
     Pseudo is Ultrasoft + core correction, Zval =  6.0
     Generated by new atomic code, or converted to UPF format
     Using radial grid of  737 points,  5 beta functions with: 
                l(1) =   0
                l(2) =   0
                l(3) =   1
                l(4) =   1
                l(5) =   2
     Q(r) pseudized with  8 coefficients,  rinner =    0.900   0.900   0.900
                                                       0.900   0.900

     atomic species   valence    mass     pseudopotential
     Ba               10.00   137.32700     Ba( 1.00)
     Ti               12.00    47.88000     Ti( 1.00)
     O                 6.00    16.00000     O ( 1.00)

      8 Sym. Ops. (no inversion) found



   Cartesian axes

     site n.     atom                  positions (alat units)
         1        Ba     tau(   1) = (   0.0000000   0.0000000   0.0000000  )
         2        Ti     tau(   2) = (   0.5000000   0.5000000   0.4900000  )
         3        O      tau(   3) = (   0.5000000   0.5000000   0.0000000  )
         4        O      tau(   4) = (   0.5000000   0.0000000   0.5000000  )
         5        O      tau(   5) = (   0.0000000   0.5000000   0.5000000  )

     number of k points=    18
                       cart. coord. in units 2pi/alat
        k(    1) = (   0.0000000   0.0000000   0.0000000), wk =   0.0312500
        k(    2) = (   0.0000000   0.0000000   0.2500000), wk =   0.0625000
        k(    3) = (   0.0000000   0.0000000  -0.5000000), wk =   0.0312500
        k(    4) = (   0.0000000   0.2500000   0.2500000), wk =   0.2500000
        k(    5) = (   0.0000000   0.2500000  -0.5000000), wk =   0.1250000
        k(    6) = (   0.0000000  -0.5000000  -0.5000000), wk =   0.0625000
        k(    7) = (   0.2500000   0.2500000   0.2500000), wk =   0.2500000
        k(    8) = (   0.2500000   0.2500000  -0.5000000), wk =   0.1250000
        k(    9) = (   0.2500000  -0.5000000  -0.5000000), wk =   0.1250000
        k(   10) = (  -0.5000000  -0.5000000  -0.5000000), wk =   0.0312500
        k(   11) = (   0.2500000   0.0000000   0.0000000), wk =   0.1250000
        k(   12) = (  -0.5000000   0.0000000   0.0000000), wk =   0.0625000
        k(   13) = (   0.2500000  -0.2500000   0.0000000), wk =   0.1250000
        k(   14) = (  -0.5000000  -0.2500000   0.0000000), wk =   0.1250000
        k(   15) = (   0.0000000  -0.5000000   0.2500000), wk =   0.1250000
        k(   16) = (  -0.5000000   0.5000000   0.0000000), wk =   0.0312500
        k(   17) = (  -0.5000000  -0.2500000   0.2500000), wk =   0.2500000
        k(   18) = (  -0.5000000   0.5000000   0.2500000), wk =   0.0625000

     Dense  grid:    21631 G-vectors     FFT dimensions: (  36,  36,  36)

     Smooth grid:     5449 G-vectors     FFT dimensions: (  24,  24,  24)

     Estimated max dynamical RAM per process >      20.74 MB

     Estimated total dynamical RAM >     207.37 MB

     Check: negative core charge=   -0.000005

     Initial potential from superposition of free atoms

     starting charge      38.9872, renormalised to      40.0000

     negative rho (up, down):  1.016E-01 0.000E+00
     Starting wfcs are   35 randomized atomic wfcs

     total cpu time spent up to now is        0.5 secs

     Self-consistent Calculation

     iteration #  1     ecut=    20.00 Ry     beta= 0.70
     CG style diagonalization
     ethr =  1.00E-02,  avg # of iterations =  2.2

     negative rho (up, down):  9.648E-02 0.000E+00

     total cpu time spent up to now is        0.7 secs

     total energy              =    -286.15441434 Ry
     estimated scf accuracy    <       0.51814817 Ry

     iteration #  2     ecut=    20.00 Ry     beta= 0.70
     CG style diagonalization
     ethr =  1.30E-03,  avg # of iterations =  5.0

     negative rho (up, down):  9.513E-02 0.000E+00

     total cpu time spent up to now is        1.1 secs

     total energy              =    -285.44260740 Ry
     estimated scf accuracy    <       6.38192326 Ry

     iteration #  3     ecut=    20.00 Ry     beta= 0.70
     CG style diagonalization
     ethr =  1.30E-03,  avg # of iterations =  4.6

     negative rho (up, down):  9.474E-02 0.000E+00

     total cpu time spent up to now is        1.4 secs

     total energy              =    -286.39098120 Ry
     estimated scf accuracy    <       0.13714274 Ry

     iteration #  4     ecut=    20.00 Ry     beta= 0.70
     CG style diagonalization
     ethr =  3.43E-04,  avg # of iterations =  3.3

     negative rho (up, down):  9.447E-02 0.000E+00

     total cpu time spent up to now is        1.7 secs

     total energy              =    -286.39227562 Ry
     estimated scf accuracy    <       0.06059035 Ry

     iteration #  5     ecut=    20.00 Ry     beta= 0.70
     CG style diagonalization
     ethr =  1.51E-04,  avg # of iterations =  3.4

     negative rho (up, down):  9.444E-02 0.000E+00

     total cpu time spent up to now is        1.9 secs

     total energy              =    -286.39668070 Ry
     estimated scf accuracy    <       0.00796714 Ry

     iteration #  6     ecut=    20.00 Ry     beta= 0.70
     CG style diagonalization
     ethr =  1.99E-05,  avg # of iterations =  3.6

     negative rho (up, down):  9.444E-02 0.000E+00

     total cpu time spent up to now is        2.2 secs

     total energy              =    -286.39844702 Ry
     estimated scf accuracy    <       0.00044371 Ry

     iteration #  7     ecut=    20.00 Ry     beta= 0.70
     CG style diagonalization
     ethr =  1.11E-06,  avg # of iterations =  4.1

     negative rho (up, down):  9.442E-02 0.000E+00

     total cpu time spent up to now is        2.5 secs

     total energy              =    -286.39878207 Ry
     estimated scf accuracy    <       0.00006709 Ry

     iteration #  8     ecut=    20.00 Ry     beta= 0.70
     CG style diagonalization
     ethr =  1.68E-07,  avg # of iterations =  3.5

     negative rho (up, down):  9.442E-02 0.000E+00

     total cpu time spent up to now is        2.7 secs

     total energy              =    -286.39879326 Ry
     estimated scf accuracy    <       0.00001720 Ry

     iteration #  9     ecut=    20.00 Ry     beta= 0.70
     CG style diagonalization
     ethr =  4.30E-08,  avg # of iterations =  3.4

     negative rho (up, down):  9.442E-02 0.000E+00

     total cpu time spent up to now is        3.0 secs

     total energy              =    -286.39879424 Ry
     estimated scf accuracy    <       0.00000499 Ry

     iteration # 10     ecut=    20.00 Ry     beta= 0.70
     CG style diagonalization
     ethr =  1.25E-08,  avg # of iterations =  3.4

     negative rho (up, down):  9.441E-02 0.000E+00

     total cpu time spent up to now is        3.2 secs

     total energy              =    -286.39879448 Ry
     estimated scf accuracy    <       0.00000115 Ry

     iteration # 11     ecut=    20.00 Ry     beta= 0.70
     CG style diagonalization
     ethr =  2.87E-09,  avg # of iterations =  3.7

     negative rho (up, down):  9.441E-02 0.000E+00

     total cpu time spent up to now is        3.5 secs

     total energy              =    -286.39879473 Ry
     estimated scf accuracy    <       0.00000003 Ry

     iteration # 12     ecut=    20.00 Ry     beta= 0.70
     CG style diagonalization
     ethr =  6.65E-11,  avg # of iterations =  4.9

     negative rho (up, down):  9.441E-02 0.000E+00

     total cpu time spent up to now is        3.8 secs

     total energy              =    -286.39879477 Ry
     estimated scf accuracy    <       0.00000002 Ry

     iteration # 13     ecut=    20.00 Ry     beta= 0.70
     CG style diagonalization
     ethr =  3.83E-11,  avg # of iterations =  3.4

     negative rho (up, down):  9.441E-02 0.000E+00

     total cpu time spent up to now is        4.1 secs

     End of self-consistent calculation

          k = 0.0000 0.0000 0.0000 (   691 PWs)   bands (ev):

   -47.2560 -23.6692 -23.6661 -23.6661 -15.2622  -7.5343  -6.8583  -6.8465
    -0.4117  -0.4117  -0.4097   7.0155   7.0155   7.0156   8.4640   8.4640
     8.4769   9.2557   9.2583   9.2583

          k = 0.0000 0.0000 0.2500 (   683 PWs)   bands (ev):

   -47.2553 -23.6843 -23.6661 -23.6661 -15.2130  -7.5656  -6.8320  -6.7988
    -0.3350  -0.3350  -0.2455   6.3562   6.9283   6.9283   7.9387   7.9387
     8.0221   8.2205   8.9848   8.9848

          k = 0.0000 0.0000-0.5000 (   682 PWs)   bands (ev):

   -47.2549 -23.6917 -23.6680 -23.6680 -15.1622  -7.6752  -6.8174  -6.6419
    -0.2543  -0.2543  -0.0842   5.6862   6.6557   6.6557   7.6373   7.6702
     7.6771   7.6771   8.7752   8.7752

          k = 0.0000 0.2500 0.2500 (   688 PWs)   bands (ev):

   -47.2552 -23.6971 -23.6820 -23.6632 -15.1716  -7.4655  -6.8426  -6.7821
    -0.4417  -0.2522  -0.1817   5.9485   6.5244   6.8544   6.9243   7.4695
     8.0500   8.4673   8.5060   8.9655

          k = 0.0000 0.2500-0.5000 (   692 PWs)   bands (ev):

   -47.2550 -23.7070 -23.6946 -23.6694 -15.1295  -7.4424  -6.7925  -6.7342
    -0.3803  -0.2908  -0.1652   5.5101   6.0517   6.3483   6.7197   7.2312
     8.1125   8.1246   8.3882   9.0038

          k = 0.0000-0.5000-0.5000 (   680 PWs)   bands (ev):

   -47.2540 -23.6982 -23.6954 -23.6723 -15.0960  -7.1532  -6.8282  -6.8129
    -0.4813  -0.4779  -0.0695   5.2500   5.5346   5.9530   6.8434   6.8664
     7.6361   8.6314   8.6336   9.4743

          k = 0.2500 0.2500 0.2500 (   690 PWs)   bands (ev):

   -47.2551 -23.6941 -23.6920 -23.6809 -15.1356  -7.3105  -6.8027  -6.7917
    -0.5638  -0.5623  -0.0710   5.7149   6.4673   6.4821   6.9677   7.1680
     7.1707   8.7519   8.7525   8.8747

          k = 0.2500 0.2500-0.5000 (   680 PWs)   bands (ev):

   -47.2539 -23.6957 -23.6863 -23.6825 -15.0989  -7.2097  -6.7482  -6.7446
    -0.6835  -0.5425  -0.2994   5.4272   6.2001   6.4011   6.4737   7.0406
     7.3258   8.6528   8.9268   9.0810

          k = 0.2500-0.5000-0.5000 (   672 PWs)   bands (ev):

   -47.2532 -23.7001 -23.6973 -23.6694 -15.0679  -6.9200  -6.7598  -6.7442
    -0.7788  -0.7757  -0.6153   5.1649   5.9895   6.3093   6.6143   7.0417
     7.0501   9.0128   9.0190   9.5464

          k =-0.5000-0.5000-0.5000 (   672 PWs)   bands (ev):

   -47.2525 -23.7022 -23.6996 -23.6996 -15.0394  -6.6883  -6.6724  -6.6724
    -1.0632  -1.0632  -1.0606   4.9034   6.0231   6.0416   7.0300   7.0300
     7.0375   9.5561   9.5561   9.5669

          k = 0.2500 0.0000 0.0000 (   683 PWs)   bands (ev):

   -47.2553 -23.6814 -23.6690 -23.6661 -15.2129  -7.5713  -6.8409  -6.7845
    -0.3348  -0.3329  -0.2477   6.3662   6.9273   6.9302   7.9215   7.9488
     8.0374   8.2246   8.9627   8.9785

          k =-0.5000 0.0000 0.0000 (   682 PWs)   bands (ev):

   -47.2549 -23.6888 -23.6708 -23.6679 -15.1621  -7.6831  -6.8262  -6.6261
    -0.2538  -0.2520  -0.0868   5.7097   6.6518   6.6588   7.5903   7.6626
     7.6961   7.7344   8.7434   8.7576

          k = 0.2500-0.2500 0.0000 (   688 PWs)   bands (ev):

   -47.2552 -23.6955 -23.6807 -23.6661 -15.1716  -7.4718  -6.8337  -6.7852
    -0.4426  -0.2502  -0.1828   5.9498   6.5394   6.8502   6.9317   7.4787
     8.0152   8.4550   8.5268   8.9737

          k =-0.5000-0.2500 0.0000 (   692 PWs)   bands (ev):

   -47.2549 -23.7043 -23.6946 -23.6724 -15.1294  -7.4526  -6.7992  -6.7187
    -0.3797  -0.2937  -0.1632   5.5254   6.0752   6.3344   6.7235   7.2457
     8.0864   8.1110   8.3854   9.0154

          k = 0.0000-0.5000 0.2500 (   692 PWs)   bands (ev):

   -47.2549 -23.7043 -23.6974 -23.6693 -15.1295  -7.4481  -6.8028  -6.7187
    -0.3773  -0.2940  -0.1650   5.5272   6.0664   6.3265   6.7116   7.2491
     8.0977   8.1266   8.3804   9.0065

          k =-0.5000 0.5000 0.0000 (   680 PWs)   bands (ev):

   -47.2539 -23.6954 -23.6954 -23.6752 -15.0960  -7.1700  -6.8130  -6.8130
    -0.4808  -0.4808  -0.0677   5.2539   5.5438   5.9664   6.8655   6.8655
     7.6281   8.6130   8.6130   9.4850

          k =-0.5000-0.2500 0.2500 (   680 PWs)   bands (ev):

   -47.2539 -23.6930 -23.6882 -23.6835 -15.0989  -7.2176  -6.7565  -6.7290
    -0.6821  -0.5454  -0.2980   5.4398   6.2241   6.3888   6.4687   7.0401
     7.3175   8.6421   8.9278   9.0870

          k =-0.5000 0.5000 0.2500 (   672 PWs)   bands (ev):

   -47.2532 -23.6973 -23.6973 -23.6723 -15.0679  -6.9365  -6.7443  -6.7443
    -0.7784  -0.7784  -0.6130   5.1698   6.0029   6.3173   6.6069   7.0458
     7.0458   9.0039   9.0039   9.5572

     highest occupied level (ev):     9.5669

!    total energy              =    -286.39879477 Ry
     estimated scf accuracy    <          1.4E-09 Ry

     The total energy is the sum of the following terms:
     one-electron contribution =     -74.90990544 Ry
     hartree contribution      =      59.60782966 Ry
     xc contribution           =     -66.91050495 Ry
     ewald contribution        =    -204.18621404 Ry

     convergence has been achieved in  13 iterations

     negative rho (up, down):  9.441E-02 0.000E+00

     Forces acting on atoms (cartesian axes, Ry/au):

     atom    1 type  1   force =     0.00000000    0.00000000   -0.00455956
     atom    2 type  2   force =     0.00000000    0.00000000   -0.02170209
     atom    3 type  3   force =     0.00000000    0.00000000    0.02884645
     atom    4 type  3   force =     0.00000000    0.00000000   -0.00129240
     atom    5 type  3   force =     0.00000000    0.00000000   -0.00129240

     Total force =     0.036431     Total SCF correction =     0.000009


     Computing stress (Cartesian axis) and pressure


     negative rho (up, down):  9.441E-02 0.000E+00
          total   stress  (Ry/bohr**3)                   (kbar)     P=    -1132.96
  -0.00770778   0.00000000   0.00000000        -1133.85        0.00        0.00
   0.00000000  -0.00770778   0.00000000            0.00    -1133.85        0.00
   0.00000000   0.00000000  -0.00768952            0.00        0.00    -1131.17


     Writing all to output data dir ./BTO_k4.save/ :
     XML data file, charge density, pseudopotentials, collected wavefunctions
 
     init_run     :      0.16s CPU      0.24s WALL (       1 calls)
     electrons    :      3.26s CPU      3.63s WALL (       1 calls)
     forces       :      0.04s CPU      0.04s WALL (       1 calls)
     stress       :      0.25s CPU      0.26s WALL (       1 calls)

     Called by init_run:
     wfcinit      :      0.05s CPU      0.08s WALL (       1 calls)
     potinit      :      0.00s CPU      0.01s WALL (       1 calls)
     hinit0       :      0.08s CPU      0.11s WALL (       1 calls)

     Called by electrons:
     c_bands      :      2.60s CPU      2.84s WALL (      13 calls)
     sum_band     :      0.43s CPU      0.50s WALL (      13 calls)
     v_of_rho     :      0.01s CPU      0.01s WALL (      14 calls)
     newd         :      0.22s CPU      0.28s WALL (      14 calls)
     mix_rho      :      0.01s CPU      0.01s WALL (      13 calls)

     Called by c_bands:
     init_us_2    :      0.02s CPU      0.03s WALL (     522 calls)
     init_us_2:cp :      0.02s CPU      0.02s WALL (     522 calls)
     ccgdiagg     :      2.29s CPU      2.50s WALL (     234 calls)
     wfcrot       :      0.34s CPU      0.39s WALL (     234 calls)

     Called by *cgdiagg:
     h_psi        :      1.33s CPU      1.45s WALL (   13379 calls)
     s_psi        :      0.20s CPU      0.22s WALL (   26524 calls)

     Called by h_psi:
     h_psi:calbec :      0.26s CPU      0.29s WALL (   13379 calls)
     vloc_psi     :      0.87s CPU      0.94s WALL (   13379 calls)
     add_vuspsi   :      0.11s CPU      0.12s WALL (   13379 calls)
     hs_1psi      :      1.25s CPU      1.37s WALL (   13145 calls)
     s_1psi       :      0.37s CPU      0.40s WALL (   13145 calls)

     General routines
     calbec       :      0.47s CPU      0.51s WALL (   26848 calls)
     fft          :      0.01s CPU      0.02s WALL (      90 calls)
     ffts         :      0.00s CPU      0.00s WALL (      27 calls)
     fftw         :      0.78s CPU      0.85s WALL (   40870 calls)
     interpolate  :      0.00s CPU      0.00s WALL (      14 calls)
 
     Parallel routines
 
     PWSCF        :      3.91s CPU      4.61s WALL

 
   This run was terminated on:  15:26:24  18Oct2025            

=------------------------------------------------------------------------------=
   JOB DONE.
=------------------------------------------------------------------------------=
TACC:  Shutdown complete. Exiting. 
