TACC:  Starting up job 2476516 
TACC:  Starting parallel tasks... 

     Program PWSCF v.7.3 starts on 18Oct2025 at 15:14:39 

     This program is part of the open-source Quantum ESPRESSO suite
     for quantum simulation of materials; please cite
         "P. Giannozzi et al., J. Phys.:Condens. Matter 21 395502 (2009);
         "P. Giannozzi et al., J. Phys.:Condens. Matter 29 465901 (2017);
         "P. Giannozzi et al., J. Chem. Phys. 152 154105 (2020);
          URL http://www.quantum-espresso.org", 
     in publications or presentations arising from this work. More details at
     http://www.quantum-espresso.org/quote

     Parallel version (MPI & OpenMP), running on      10 processor cores
     Number of MPI processes:                10
     Threads/MPI process:                     1

     MPI processes distributed on     1 nodes
     186226 MiB available memory on the printing compute node when the environment starts
 
     Waiting for input...
     Reading input from standard input
Warning: card &CELL ignored
Warning: card  CELL_DYNAMICS = 'BFGS', ignored
Warning: card  PRESS=0.D0, ignored
Warning: card / ignored

     Current dimensions of program PWSCF are:
     Max number of different atomic species (ntypx) = 10
     Max number of k-points (npk) =  40000
     Max angular momentum in pseudopotentials (lmaxx) =  4
 
     R & G space division:  proc/nbgrp/npool/nimage =      10
     Subspace diagonalization in iterative solution of the eigenvalue problem:
     a serial algorithm will be used

 
     Parallelization info
     --------------------
     sticks:   dense  smooth     PW     G-vecs:    dense   smooth      PW
     Min         703     188     54                44357     6134     942
     Max         704     189     55                44360     6137     945
     Sum        7033    1885    545               443575    61349    9435
 
     Using Slab Decomposition
 


     bravais-lattice index     =            1
     lattice parameter (alat)  =       7.6794  a.u.
     unit-cell volume          =     452.8787 (a.u.)^3
     number of atoms/cell      =            5
     number of atomic types    =            3
     number of electrons       =        40.00
     number of Kohn-Sham states=           20
     kinetic-energy cutoff     =     100.0000  Ry
     charge density cutoff     =    1500.0000  Ry
     scf convergence threshold =      1.0E-08
     mixing beta               =       0.7000
     number of iterations used =            8  plain     mixing
     Exchange-correlation= SLA  PZ   NOGX NOGC
                           (   1   1   0   0   0   0   0)

     celldm(1)=   7.679400  celldm(2)=   0.000000  celldm(3)=   0.000000
     celldm(4)=   0.000000  celldm(5)=   0.000000  celldm(6)=   0.000000

     crystal axes: (cart. coord. in units of alat)
               a(1) = (   1.000000   0.000000   0.000000 )  
               a(2) = (   0.000000   1.000000   0.000000 )  
               a(3) = (   0.000000   0.000000   1.000000 )  

     reciprocal axes: (cart. coord. in units 2 pi/alat)
               b(1) = (  1.000000  0.000000  0.000000 )  
               b(2) = (  0.000000  1.000000  0.000000 )  
               b(3) = (  0.000000  0.000000  1.000000 )  


     PseudoPot. # 1 for Ba read from file:
     /scratch/11018/zhc/Assisgnment2/Q1/1D/energy_off/Ba_LDA.UPF
     MD5 check sum: 0ec7675c796dc0a11c6269c68e51391e
     Pseudo is Ultrasoft + core correction, Zval = 10.0
     Generated by new atomic code, or converted to UPF format
     Using radial grid of  907 points,  7 beta functions with: 
                l(1) =   0
                l(2) =   0
                l(3) =   1
                l(4) =   1
                l(5) =   2
                l(6) =   2
                l(7) =   3
     Q(r) pseudized with  6 coefficients,  rinner =    1.700   1.700   1.700
                                                       1.700   1.700   1.700
                                                       1.700

     PseudoPot. # 2 for Ti read from file:
     /scratch/11018/zhc/Assisgnment2/Q1/1D/energy_off/Ti_LDA.UPF
     MD5 check sum: 0d9f225c038fe889ca2a701dcc8d72cb
     Pseudo is Ultrasoft + core correction, Zval = 12.0
     Generated by new atomic code, or converted to UPF format
     Using radial grid of  851 points,  6 beta functions with: 
                l(1) =   0
                l(2) =   0
                l(3) =   1
                l(4) =   1
                l(5) =   2
                l(6) =   2
     Q(r) pseudized with  6 coefficients,  rinner =    1.000   1.000   1.000
                                                       1.000   1.000

     PseudoPot. # 3 for O  read from file:
     /scratch/11018/zhc/Assisgnment2/Q1/1D/energy_off/O_LDA.UPF
     MD5 check sum: 194b818514d2a7dbb603bb78519a4f40
     Pseudo is Ultrasoft + core correction, Zval =  6.0
     Generated by new atomic code, or converted to UPF format
     Using radial grid of  737 points,  5 beta functions with: 
                l(1) =   0
                l(2) =   0
                l(3) =   1
                l(4) =   1
                l(5) =   2
     Q(r) pseudized with  8 coefficients,  rinner =    0.900   0.900   0.900
                                                       0.900   0.900

     atomic species   valence    mass     pseudopotential
     Ba               10.00   137.32700     Ba( 1.00)
     Ti               12.00    47.88000     Ti( 1.00)
     O                 6.00    16.00000     O ( 1.00)

     48 Sym. Ops., with inversion, found



   Cartesian axes

     site n.     atom                  positions (alat units)
         1        Ba     tau(   1) = (   0.0000000   0.0000000   0.0000000  )
         2        Ti     tau(   2) = (   0.5000000   0.5000000   0.5000000  )
         3        O      tau(   3) = (   0.5000000   0.5000000   0.0000000  )
         4        O      tau(   4) = (   0.5000000   0.0000000   0.5000000  )
         5        O      tau(   5) = (   0.0000000   0.5000000   0.5000000  )

     number of k points=     4
                       cart. coord. in units 2pi/alat
        k(    1) = (   0.0000000   0.0000000   0.0000000), wk =   0.2500000
        k(    2) = (   0.0000000   0.0000000  -0.5000000), wk =   0.7500000
        k(    3) = (   0.0000000  -0.5000000  -0.5000000), wk =   0.7500000
        k(    4) = (  -0.5000000  -0.5000000  -0.5000000), wk =   0.2500000

     Dense  grid:   443575 G-vectors     FFT dimensions: (  96,  96,  96)

     Smooth grid:    61349 G-vectors     FFT dimensions: (  50,  50,  50)

     Estimated max dynamical RAM per process >     303.24 MB

     Estimated total dynamical RAM >       2.96 GB

     Initial potential from superposition of free atoms

     starting charge      38.9872, renormalised to      40.0000

     negative rho (up, down):  1.014E-01 0.000E+00
     Starting wfcs are   35 randomized atomic wfcs

     total cpu time spent up to now is        1.1 secs

     Self-consistent Calculation

     iteration #  1     ecut=   100.00 Ry     beta= 0.70
     CG style diagonalization
     ethr =  1.00E-02,  avg # of iterations =  2.2

     negative rho (up, down):  9.445E-02 0.000E+00

     total cpu time spent up to now is        2.2 secs

     total energy              =    -286.62001962 Ry
     estimated scf accuracy    <       0.88045200 Ry

     iteration #  2     ecut=   100.00 Ry     beta= 0.70
     CG style diagonalization
     ethr =  2.20E-03,  avg # of iterations =  4.6

     negative rho (up, down):  9.284E-02 0.000E+00

     total cpu time spent up to now is        3.4 secs

     total energy              =    -285.75743949 Ry
     estimated scf accuracy    <       8.75045108 Ry

     iteration #  3     ecut=   100.00 Ry     beta= 0.70
     CG style diagonalization
     ethr =  2.20E-03,  avg # of iterations =  4.3

     negative rho (up, down):  9.181E-02 0.000E+00

     total cpu time spent up to now is        4.5 secs

     total energy              =    -287.12000023 Ry
     estimated scf accuracy    <       0.20129472 Ry

     iteration #  4     ecut=   100.00 Ry     beta= 0.70
     CG style diagonalization
     ethr =  5.03E-04,  avg # of iterations =  3.4

     negative rho (up, down):  9.116E-02 0.000E+00

     total cpu time spent up to now is        5.6 secs

     total energy              =    -287.12312626 Ry
     estimated scf accuracy    <       0.06215409 Ry

     iteration #  5     ecut=   100.00 Ry     beta= 0.70
     CG style diagonalization
     ethr =  1.55E-04,  avg # of iterations =  3.4

     negative rho (up, down):  9.126E-02 0.000E+00

     total cpu time spent up to now is        6.7 secs

     total energy              =    -287.13772347 Ry
     estimated scf accuracy    <       0.00152015 Ry

     iteration #  6     ecut=   100.00 Ry     beta= 0.70
     CG style diagonalization
     ethr =  3.80E-06,  avg # of iterations =  3.7

     negative rho (up, down):  9.117E-02 0.000E+00

     total cpu time spent up to now is        7.8 secs

     total energy              =    -287.13797212 Ry
     estimated scf accuracy    <       0.00019039 Ry

     iteration #  7     ecut=   100.00 Ry     beta= 0.70
     CG style diagonalization
     ethr =  4.76E-07,  avg # of iterations =  3.6

     negative rho (up, down):  9.116E-02 0.000E+00

     total cpu time spent up to now is        8.8 secs

     total energy              =    -287.13802671 Ry
     estimated scf accuracy    <       0.00001030 Ry

     iteration #  8     ecut=   100.00 Ry     beta= 0.70
     CG style diagonalization
     ethr =  2.58E-08,  avg # of iterations =  4.6

     negative rho (up, down):  9.113E-02 0.000E+00

     total cpu time spent up to now is       10.0 secs

     total energy              =    -287.13804137 Ry
     estimated scf accuracy    <       0.00001940 Ry

     iteration #  9     ecut=   100.00 Ry     beta= 0.70
     CG style diagonalization
     ethr =  2.58E-08,  avg # of iterations =  3.5

     negative rho (up, down):  9.113E-02 0.000E+00

     total cpu time spent up to now is       11.1 secs

     total energy              =    -287.13804262 Ry
     estimated scf accuracy    <       0.00000318 Ry

     iteration # 10     ecut=   100.00 Ry     beta= 0.70
     CG style diagonalization
     ethr =  7.94E-09,  avg # of iterations =  3.4

     negative rho (up, down):  9.113E-02 0.000E+00

     total cpu time spent up to now is       12.2 secs

     total energy              =    -287.13804293 Ry
     estimated scf accuracy    <       0.00000060 Ry

     iteration # 11     ecut=   100.00 Ry     beta= 0.70
     CG style diagonalization
     ethr =  1.49E-09,  avg # of iterations =  3.6

     negative rho (up, down):  9.113E-02 0.000E+00

     total cpu time spent up to now is       13.3 secs

     total energy              =    -287.13804313 Ry
     estimated scf accuracy    <       0.00000001 Ry

     iteration # 12     ecut=   100.00 Ry     beta= 0.70
     CG style diagonalization
     ethr =  2.86E-11,  avg # of iterations =  4.9

     negative rho (up, down):  9.113E-02 0.000E+00

     total cpu time spent up to now is       14.4 secs

     total energy              =    -287.13804316 Ry
     estimated scf accuracy    <       0.00000001 Ry

     iteration # 13     ecut=   100.00 Ry     beta= 0.70
     CG style diagonalization
     ethr =  2.86E-11,  avg # of iterations =  3.3

     negative rho (up, down):  9.113E-02 0.000E+00

     total cpu time spent up to now is       15.5 secs

     End of self-consistent calculation

          k = 0.0000 0.0000 0.0000 (  7689 PWs)   bands (ev):

   -47.1424 -23.6414 -23.6414 -23.6414 -15.3105  -6.9644  -6.2366  -6.2366
    -0.4589  -0.4589  -0.4589   7.1353   7.1353   7.1353   8.4236   8.4236
     8.4236   9.3209   9.3209   9.3209

          k = 0.0000 0.0000-0.5000 (  7672 PWs)   bands (ev):

   -47.1419 -23.6795 -23.6398 -23.6398 -15.2154  -7.1379  -6.2005  -6.0035
    -0.3069  -0.3069  -0.0749   5.4903   6.7446   6.7446   7.5447   7.6069
     7.6069   7.6517   8.7772   8.7772

          k = 0.0000-0.5000-0.5000 (  7660 PWs)   bands (ev):

   -47.1413 -23.6770 -23.6770 -23.6381 -15.1512  -6.5591  -6.2222  -6.2222
    -0.4830  -0.4830  -0.1230   5.1859   5.4878   5.6414   6.8385   6.8385
     7.7170   8.5954   8.5954   9.4200

          k =-0.5000-0.5000-0.5000 (  7664 PWs)   bands (ev):

   -47.1408 -23.6750 -23.6750 -23.6750 -15.0949  -6.0493  -6.0493  -6.0493
    -1.1099  -1.1099  -1.1099   4.9988   5.6572   5.6572   7.0009   7.0009
     7.0009   9.4832   9.4832   9.4832

     highest occupied level (ev):     9.4832

!    total energy              =    -287.13804316 Ry
     estimated scf accuracy    <          2.8E-09 Ry

     The total energy is the sum of the following terms:
     one-electron contribution =     -76.42561484 Ry
     hartree contribution      =      60.66948420 Ry
     xc contribution           =     -67.17735182 Ry
     ewald contribution        =    -204.20456071 Ry

     convergence has been achieved in  13 iterations

     negative rho (up, down):  9.113E-02 0.000E+00

     Forces acting on atoms (cartesian axes, Ry/au):

     atom    1 type  1   force =     0.00000000    0.00000000    0.00000000
     atom    2 type  2   force =     0.00000000    0.00000000    0.00000000
     atom    3 type  3   force =     0.00000000    0.00000000    0.00000000
     atom    4 type  3   force =     0.00000000    0.00000000    0.00000000
     atom    5 type  3   force =     0.00000000    0.00000000    0.00000000

     Total force =     0.000000     Total SCF correction =     0.000000


     Computing stress (Cartesian axis) and pressure


     negative rho (up, down):  9.113E-02 0.000E+00
          total   stress  (Ry/bohr**3)                   (kbar)     P=     -120.53
  -0.00081935   0.00000000   0.00000000         -120.53        0.00        0.00
   0.00000000  -0.00081935   0.00000000            0.00     -120.53        0.00
   0.00000000   0.00000000  -0.00081935            0.00        0.00     -120.53


     Writing all to output data dir ./BTO_100.save/ :
     XML data file, charge density, pseudopotentials, collected wavefunctions
 
     init_run     :      0.73s CPU      0.90s WALL (       1 calls)
     electrons    :     12.28s CPU     14.40s WALL (       1 calls)
     forces       :      0.45s CPU      0.53s WALL (       1 calls)
     stress       :      2.30s CPU      2.53s WALL (       1 calls)

     Called by init_run:
     wfcinit      :      0.07s CPU      0.09s WALL (       1 calls)
     potinit      :      0.02s CPU      0.03s WALL (       1 calls)
     hinit0       :      0.22s CPU      0.26s WALL (       1 calls)

     Called by electrons:
     c_bands      :      2.52s CPU      2.60s WALL (      13 calls)
     sum_band     :      5.40s CPU      6.43s WALL (      13 calls)
     v_of_rho     :      0.10s CPU      0.11s WALL (      14 calls)
     newd         :      4.46s CPU      5.51s WALL (      14 calls)
     mix_rho      :      0.07s CPU      0.07s WALL (      13 calls)

     Called by c_bands:
     init_us_2    :      0.05s CPU      0.05s WALL (     116 calls)
     init_us_2:cp :      0.05s CPU      0.05s WALL (     116 calls)
     ccgdiagg     :      2.10s CPU      2.17s WALL (      52 calls)
     wfcrot       :      0.45s CPU      0.48s WALL (      52 calls)

     Called by *cgdiagg:
     h_psi        :      1.74s CPU      1.79s WALL (    2966 calls)
     s_psi        :      0.29s CPU      0.30s WALL (    5880 calls)

     Called by h_psi:
     h_psi:calbec :      0.22s CPU      0.22s WALL (    2966 calls)
     vloc_psi     :      1.33s CPU      1.37s WALL (    2966 calls)
     add_vuspsi   :      0.16s CPU      0.16s WALL (    2966 calls)
     hs_1psi      :      1.50s CPU      1.55s WALL (    2914 calls)
     s_1psi       :      0.33s CPU      0.34s WALL (    2914 calls)

     General routines
     calbec       :      0.40s CPU      0.41s WALL (    5952 calls)
     fft          :      0.16s CPU      0.20s WALL (      90 calls)
     ffts         :      0.01s CPU      0.01s WALL (      27 calls)
     fftw         :      1.06s CPU      1.08s WALL (    9068 calls)
     interpolate  :      0.02s CPU      0.03s WALL (      14 calls)
 
     Parallel routines
 
     PWSCF        :     15.97s CPU     18.76s WALL

 
   This run was terminated on:  15:14:58  18Oct2025            

=------------------------------------------------------------------------------=
   JOB DONE.
=------------------------------------------------------------------------------=
TACC:  Shutdown complete. Exiting. 
