TACC:  Starting up job 2406375 
TACC:  Starting parallel tasks... 

     Program PWSCF v.7.3 starts on 24Sep2025 at  0:41:58 

     This program is part of the open-source Quantum ESPRESSO suite
     for quantum simulation of materials; please cite
         "P. Giannozzi et al., J. Phys.:Condens. Matter 21 395502 (2009);
         "P. Giannozzi et al., J. Phys.:Condens. Matter 29 465901 (2017);
         "P. Giannozzi et al., J. Chem. Phys. 152 154105 (2020);
          URL http://www.quantum-espresso.org", 
     in publications or presentations arising from this work. More details at
     http://www.quantum-espresso.org/quote

     Parallel version (MPI & OpenMP), running on      10 processor cores
     Number of MPI processes:                10
     Threads/MPI process:                     1

     MPI processes distributed on     1 nodes
     183180 MiB available memory on the printing compute node when the environment starts
 
     Waiting for input...
     Reading input from standard input
Warning: card &CELL ignored
Warning: card  CELL_DYNAMICS = 'BFGS', ignored
Warning: card  PRESS=0.D0, ignored
Warning: card / ignored
     Message from routine read_cards :
     DEPRECATED: no units specified in ATOMIC_POSITIONS card
     Message from routine read_cards :
     ATOMIC_POSITIONS: units set to alat

     Current dimensions of program PWSCF are:
     Max number of different atomic species (ntypx) = 10
     Max number of k-points (npk) =  40000
     Max angular momentum in pseudopotentials (lmaxx) =  4
 
     R & G space division:  proc/nbgrp/npool/nimage =      10
     Subspace diagonalization in iterative solution of the eigenvalue problem:
     a serial algorithm will be used

 
     Parallelization info
     --------------------
     sticks:   dense  smooth     PW     G-vecs:    dense   smooth      PW
     Min         458     182     51                23356     5888     903
     Max         459     183     52                23359     5891     906
     Sum        4581    1829    517               233577    58893    9045
 
     Using Slab Decomposition
 


     bravais-lattice index     =            1
     lattice parameter (alat)  =       7.5914  a.u.
     unit-cell volume          =     437.4868 (a.u.)^3
     number of atoms/cell      =            5
     number of atomic types    =            3
     number of electrons       =        40.00
     number of Kohn-Sham states=           20
     kinetic-energy cutoff     =     100.0000  Ry
     charge density cutoff     =    1000.0000  Ry
     scf convergence threshold =      1.0E-08
     mixing beta               =       0.7000
     number of iterations used =            8  plain     mixing
     Exchange-correlation= SLA  PZ   NOGX NOGC
                           (   1   1   0   0   0   0   0)

     celldm(1)=   7.591396  celldm(2)=   0.000000  celldm(3)=   0.000000
     celldm(4)=   0.000000  celldm(5)=   0.000000  celldm(6)=   0.000000

     crystal axes: (cart. coord. in units of alat)
               a(1) = (   1.000000   0.000000   0.000000 )  
               a(2) = (   0.000000   1.000000   0.000000 )  
               a(3) = (   0.000000   0.000000   1.000000 )  

     reciprocal axes: (cart. coord. in units 2 pi/alat)
               b(1) = (  1.000000  0.000000  0.000000 )  
               b(2) = (  0.000000  1.000000  0.000000 )  
               b(3) = (  0.000000  0.000000  1.000000 )  


     PseudoPot. # 1 for Ca read from file:
     /scratch/11018/zhc/assisgnment1/CaTiO3/Ca_LDA.UPF
     MD5 check sum: d2d4e7693e10d071152e9eeb7dd009f3
     Pseudo is Ultrasoft + core correction, Zval = 10.0
     Generated by new atomic code, or converted to UPF format
     Using radial grid of  845 points,  6 beta functions with: 
                l(1) =   0
                l(2) =   0
                l(3) =   1
                l(4) =   1
                l(5) =   2
                l(6) =   2
     Q(r) pseudized with  8 coefficients,  rinner =    1.500   1.500   1.500
                                                       1.500   1.500

     PseudoPot. # 2 for Ti read from file:
     /scratch/11018/zhc/assisgnment1/CaTiO3/Ti_LDA.UPF
     MD5 check sum: 0d9f225c038fe889ca2a701dcc8d72cb
     Pseudo is Ultrasoft + core correction, Zval = 12.0
     Generated by new atomic code, or converted to UPF format
     Using radial grid of  851 points,  6 beta functions with: 
                l(1) =   0
                l(2) =   0
                l(3) =   1
                l(4) =   1
                l(5) =   2
                l(6) =   2
     Q(r) pseudized with  6 coefficients,  rinner =    1.000   1.000   1.000
                                                       1.000   1.000

     PseudoPot. # 3 for O  read from file:
     /scratch/11018/zhc/assisgnment1/CaTiO3/O_LDA.UPF
     MD5 check sum: 194b818514d2a7dbb603bb78519a4f40
     Pseudo is Ultrasoft + core correction, Zval =  6.0
     Generated by new atomic code, or converted to UPF format
     Using radial grid of  737 points,  5 beta functions with: 
                l(1) =   0
                l(2) =   0
                l(3) =   1
                l(4) =   1
                l(5) =   2
     Q(r) pseudized with  8 coefficients,  rinner =    0.900   0.900   0.900
                                                       0.900   0.900

     atomic species   valence    mass     pseudopotential
     Ca               10.00    40.07800     Ca( 1.00)
     Ti               12.00    47.88000     Ti( 1.00)
     O                 6.00    16.00000     O ( 1.00)

     48 Sym. Ops., with inversion, found



   Cartesian axes

     site n.     atom                  positions (alat units)
         1        Ca     tau(   1) = (   0.0000000   0.0000000   0.0000000  )
         2        Ti     tau(   2) = (   0.5000000   0.5000000   0.5000000  )
         3        O      tau(   3) = (   0.5000000   0.5000000   0.0000000  )
         4        O      tau(   4) = (   0.5000000   0.0000000   0.5000000  )
         5        O      tau(   5) = (   0.0000000   0.5000000   0.5000000  )

     number of k points=    20
                       cart. coord. in units 2pi/alat
        k(    1) = (   0.0000000   0.0000000   0.0000000), wk =   0.0092593
        k(    2) = (   0.0000000   0.0000000   0.1666667), wk =   0.0555556
        k(    3) = (   0.0000000   0.0000000   0.3333333), wk =   0.0555556
        k(    4) = (   0.0000000   0.0000000  -0.5000000), wk =   0.0277778
        k(    5) = (   0.0000000   0.1666667   0.1666667), wk =   0.1111111
        k(    6) = (   0.0000000   0.1666667   0.3333333), wk =   0.2222222
        k(    7) = (   0.0000000   0.1666667  -0.5000000), wk =   0.1111111
        k(    8) = (   0.0000000   0.3333333   0.3333333), wk =   0.1111111
        k(    9) = (   0.0000000   0.3333333  -0.5000000), wk =   0.1111111
        k(   10) = (   0.0000000  -0.5000000  -0.5000000), wk =   0.0277778
        k(   11) = (   0.1666667   0.1666667   0.1666667), wk =   0.0740741
        k(   12) = (   0.1666667   0.1666667   0.3333333), wk =   0.2222222
        k(   13) = (   0.1666667   0.1666667  -0.5000000), wk =   0.1111111
        k(   14) = (   0.1666667   0.3333333   0.3333333), wk =   0.2222222
        k(   15) = (   0.1666667   0.3333333  -0.5000000), wk =   0.2222222
        k(   16) = (   0.1666667  -0.5000000  -0.5000000), wk =   0.0555556
        k(   17) = (   0.3333333   0.3333333   0.3333333), wk =   0.0740741
        k(   18) = (   0.3333333   0.3333333  -0.5000000), wk =   0.1111111
        k(   19) = (   0.3333333  -0.5000000  -0.5000000), wk =   0.0555556
        k(   20) = (  -0.5000000  -0.5000000  -0.5000000), wk =   0.0092593

     Dense  grid:   233577 G-vectors     FFT dimensions: (  80,  80,  80)

     Smooth grid:    58893 G-vectors     FFT dimensions: (  50,  50,  50)

     Estimated max dynamical RAM per process >      99.34 MB

     Estimated total dynamical RAM >     993.43 MB

     Initial potential from superposition of free atoms

     starting charge      38.9952, renormalised to      40.0000

     negative rho (up, down):  7.924E-04 0.000E+00
     Starting wfcs are   32 randomized atomic wfcs

     total cpu time spent up to now is        1.0 secs

     Self-consistent Calculation

     iteration #  1     ecut=   100.00 Ry     beta= 0.70
     CG style diagonalization
     ethr =  1.00E-02,  avg # of iterations =  2.2

     negative rho (up, down):  1.415E-03 0.000E+00

     total cpu time spent up to now is        2.0 secs

     total energy              =    -291.22972652 Ry
     estimated scf accuracy    <       0.85184540 Ry

     iteration #  2     ecut=   100.00 Ry     beta= 0.70
     CG style diagonalization
     ethr =  2.13E-03,  avg # of iterations =  5.4

     negative rho (up, down):  4.441E-04 0.000E+00

     total cpu time spent up to now is        3.6 secs

     total energy              =    -289.97853806 Ry
     estimated scf accuracy    <      11.77054687 Ry

     iteration #  3     ecut=   100.00 Ry     beta= 0.70
     CG style diagonalization
     ethr =  2.13E-03,  avg # of iterations =  4.8

     negative rho (up, down):  5.265E-04 0.000E+00

     total cpu time spent up to now is        5.1 secs

     total energy              =    -291.66688823 Ry
     estimated scf accuracy    <       0.23495470 Ry

     iteration #  4     ecut=   100.00 Ry     beta= 0.70
     CG style diagonalization
     ethr =  5.87E-04,  avg # of iterations =  3.6

     negative rho (up, down):  6.162E-04 0.000E+00

     total cpu time spent up to now is        6.2 secs

     total energy              =    -291.69457950 Ry
     estimated scf accuracy    <       0.09191373 Ry

     iteration #  5     ecut=   100.00 Ry     beta= 0.70
     CG style diagonalization
     ethr =  2.30E-04,  avg # of iterations =  3.4

     negative rho (up, down):  7.264E-04 0.000E+00

     total cpu time spent up to now is        7.3 secs

     total energy              =    -291.70069381 Ry
     estimated scf accuracy    <       0.01425218 Ry

     iteration #  6     ecut=   100.00 Ry     beta= 0.70
     CG style diagonalization
     ethr =  3.56E-05,  avg # of iterations =  3.7

     negative rho (up, down):  7.731E-04 0.000E+00

     total cpu time spent up to now is        8.5 secs

     total energy              =    -291.70418695 Ry
     estimated scf accuracy    <       0.00011626 Ry

     iteration #  7     ecut=   100.00 Ry     beta= 0.70
     CG style diagonalization
     ethr =  2.91E-07,  avg # of iterations =  4.9

     negative rho (up, down):  7.782E-04 0.000E+00

     total cpu time spent up to now is       10.0 secs

     total energy              =    -291.70462403 Ry
     estimated scf accuracy    <       0.00019261 Ry

     iteration #  8     ecut=   100.00 Ry     beta= 0.70
     CG style diagonalization
     ethr =  2.91E-07,  avg # of iterations =  3.5

     negative rho (up, down):  7.724E-04 0.000E+00

     total cpu time spent up to now is       11.2 secs

     total energy              =    -291.70462664 Ry
     estimated scf accuracy    <       0.00004989 Ry

     iteration #  9     ecut=   100.00 Ry     beta= 0.70
     CG style diagonalization
     ethr =  1.25E-07,  avg # of iterations =  3.5

     negative rho (up, down):  7.708E-04 0.000E+00

     total cpu time spent up to now is       12.3 secs

     total energy              =    -291.70463303 Ry
     estimated scf accuracy    <       0.00000363 Ry

     iteration # 10     ecut=   100.00 Ry     beta= 0.70
     CG style diagonalization
     ethr =  9.08E-09,  avg # of iterations =  3.8

     negative rho (up, down):  7.698E-04 0.000E+00

     total cpu time spent up to now is       13.5 secs

     total energy              =    -291.70463420 Ry
     estimated scf accuracy    <       0.00000030 Ry

     iteration # 11     ecut=   100.00 Ry     beta= 0.70
     CG style diagonalization
     ethr =  7.43E-10,  avg # of iterations =  4.3

     negative rho (up, down):  7.701E-04 0.000E+00

     total cpu time spent up to now is       14.8 secs

     total energy              =    -291.70463461 Ry
     estimated scf accuracy    <       0.00000017 Ry

     iteration # 12     ecut=   100.00 Ry     beta= 0.70
     CG style diagonalization
     ethr =  4.27E-10,  avg # of iterations =  3.4

     negative rho (up, down):  7.702E-04 0.000E+00

     total cpu time spent up to now is       16.0 secs

     total energy              =    -291.70463462 Ry
     estimated scf accuracy    <       0.00000002 Ry

     iteration # 13     ecut=   100.00 Ry     beta= 0.70
     CG style diagonalization
     ethr =  6.18E-11,  avg # of iterations =  3.9

     negative rho (up, down):  7.700E-04 0.000E+00

     total cpu time spent up to now is       17.2 secs

     End of self-consistent calculation

          k = 0.0000 0.0000 0.0000 (  7249 PWs)   bands (ev):

   -48.7176 -31.7338 -25.2456 -25.2456 -25.2456 -12.9103 -12.9103 -12.9103
    -9.3844  -8.3848  -8.3848   4.5265   4.5265   4.5265   6.4529   6.4529
     6.4529   6.9790   6.9790   6.9790

          k = 0.0000 0.0000 0.1667 (  7332 PWs)   bands (ev):

   -48.7175 -31.7329 -25.2570 -25.2451 -25.2451 -12.9447 -12.9085 -12.9085
    -9.2649  -8.3772  -8.3394   4.2480   4.5540   4.5540   6.1238   6.1238
     6.2540   6.2624   6.8655   6.8655

          k = 0.0000 0.0000 0.3333 (  7376 PWs)   bands (ev):

   -48.7171 -31.7311 -25.2798 -25.2441 -25.2441 -13.0111 -12.9049 -12.9049
    -9.0184  -8.3619  -8.2468   3.6606   4.6595   4.6595   5.2829   5.5150
     5.5150   5.9268   6.7668   6.7668

          k = 0.0000 0.0000-0.5000 (  7368 PWs)   bands (ev):

   -48.7170 -31.7302 -25.2911 -25.2436 -25.2436 -13.0432 -12.9030 -12.9030
    -8.8915  -8.3542  -8.1988   3.3445   4.8049   4.8049   4.9320   5.1603
     5.1603   5.7761   6.7315   6.7315

          k = 0.0000 0.1667 0.1667 (  7373 PWs)   bands (ev):

   -48.7173 -31.7320 -25.2567 -25.2565 -25.2446 -12.9483 -12.9314 -12.9066
    -9.1532  -8.3529  -8.3126   4.1115   4.4085   4.5793   5.4323   5.9249
     6.1913   6.3329   6.6161   6.6432

          k = 0.0000 0.1667 0.3333 (  7389 PWs)   bands (ev):

   -48.7170 -31.7301 -25.2794 -25.2556 -25.2436 -13.0017 -12.9293 -12.9028
    -8.9285  -8.3308  -8.2235   3.6279   4.2584   4.6788   4.6837   5.4342
     5.6256   6.2733   6.4540   6.5526

          k = 0.0000 0.1667-0.5000 (  7410 PWs)   bands (ev):

   -48.7168 -31.7292 -25.2908 -25.2552 -25.2431 -13.0304 -12.9256 -12.9009
    -8.8177  -8.3202  -8.1708   3.3363   4.0879   4.5133   4.8266   5.1015
     5.4270   6.2628   6.4016   6.4674

          k = 0.0000 0.3333 0.3333 (  7413 PWs)   bands (ev):

   -48.7166 -31.7282 -25.2787 -25.2786 -25.2426 -12.9882 -12.9722 -12.8987
    -8.7767  -8.2407  -8.1641   3.4193   3.8070   3.8699   4.7540   5.2112
     5.6878   5.8326   6.0410   7.0553

          k = 0.0000 0.3333-0.5000 (  7384 PWs)   bands (ev):

   -48.7164 -31.7273 -25.2901 -25.2783 -25.2421 -13.0047 -12.9700 -12.8966
    -8.7213  -8.1872  -8.1152   3.2785   3.3502   3.8019   4.8865   4.9878
     5.6138   5.8160   5.9005   7.1785

          k = 0.0000-0.5000-0.5000 (  7380 PWs)   bands (ev):

   -48.7163 -31.7263 -25.2897 -25.2897 -25.2416 -12.9919 -12.9919 -12.8945
    -8.6985  -8.0874  -8.0874   3.0833   3.1322   3.5355   4.9329   4.9329
     5.6790   5.7033   5.7033   7.3979

          k = 0.1667 0.1667 0.1667 (  7385 PWs)   bands (ev):

   -48.7171 -31.7311 -25.2561 -25.2561 -25.2560 -12.9500 -12.9280 -12.9280
    -9.0446  -8.3101  -8.3101   3.9875   4.4137   4.4137   5.3727   5.3727
     5.6378   6.5363   6.5363   6.6898

          k = 0.1667 0.1667 0.3333 (  7388 PWs)   bands (ev):

   -48.7168 -31.7292 -25.2790 -25.2552 -25.2551 -12.9931 -12.9301 -12.9212
    -8.8287  -8.3053  -8.2121   3.5962   4.1753   4.4113   4.6010   4.8359
     5.5499   6.3229   6.5004   6.6918

          k = 0.1667 0.1667-0.5000 (  7396 PWs)   bands (ev):

   -48.7166 -31.7283 -25.2903 -25.2548 -25.2545 -13.0189 -12.9264 -12.9178
    -8.7244  -8.3028  -8.1529   3.3308   3.9841   4.3829   4.3832   4.6699
     5.6003   6.1905   6.4837   6.6189

          k = 0.1667 0.3333 0.3333 (  7398 PWs)   bands (ev):

   -48.7164 -31.7273 -25.2781 -25.2781 -25.2541 -12.9809 -12.9660 -12.9180
    -8.6565  -8.2315  -8.1715   3.4259   3.8566   3.8716   4.3168   4.5927
     5.0723   6.4175   6.4509   7.0809

          k = 0.1667 0.3333-0.5000 (  7392 PWs)   bands (ev):

   -48.7163 -31.7264 -25.2895 -25.2777 -25.2536 -12.9960 -12.9643 -12.9147
    -8.5947  -8.1969  -8.1172   3.2790   3.4285   3.8018   4.2997   4.4390
     5.0624   6.3783   6.4434   7.1985

          k = 0.1667-0.5000-0.5000 (  7404 PWs)   bands (ev):

   -48.7161 -31.7254 -25.2891 -25.2891 -25.2531 -12.9845 -12.9845 -12.9116
    -8.5661  -8.0996  -8.0996   3.1354   3.1871   3.5393   4.3187   4.3187
     4.9868   6.4118   6.4118   7.4178

          k = 0.3333 0.3333 0.3333 (  7346 PWs)   bands (ev):

   -48.7161 -31.7255 -25.2772 -25.2770 -25.2770 -12.9690 -12.9536 -12.9536
    -8.4286  -8.1864  -8.1864   3.3736   3.8431   3.8431   3.9028   4.0404
     4.0404   6.9090   6.9090   7.2010

          k = 0.3333 0.3333-0.5000 (  7414 PWs)   bands (ev):

   -48.7159 -31.7246 -25.2885 -25.2767 -25.2764 -12.9785 -12.9558 -12.9474
    -8.3487  -8.1940  -8.1217   3.2349   3.5335   3.7267   3.7319   3.9446
     4.0456   6.9920   7.0680   7.2935

          k = 0.3333-0.5000-0.5000 (  7404 PWs)   bands (ev):

   -48.7158 -31.7237 -25.2879 -25.2879 -25.2760 -12.9697 -12.9697 -12.9454
    -8.2856  -8.1240  -8.1240   3.0935   3.4017   3.5468   3.7250   3.7250
     3.9113   7.1840   7.1840   7.4582

          k =-0.5000-0.5000-0.5000 (  7400 PWs)   bands (ev):

   -48.7156 -31.7228 -25.2873 -25.2873 -25.2873 -12.9622 -12.9622 -12.9622
    -8.1364  -8.1364  -8.1364   2.9669   3.5127   3.5127   3.5127   3.5506
     3.5506   7.4789   7.4789   7.4789

     highest occupied level (ev):     7.4789

!    total energy              =    -291.70463463 Ry
     estimated scf accuracy    <          4.6E-09 Ry

     The total energy is the sum of the following terms:
     one-electron contribution =    -102.95284498 Ry
     hartree contribution      =      68.73081722 Ry
     xc contribution           =     -50.91078211 Ry
     ewald contribution        =    -206.57182475 Ry

     convergence has been achieved in  13 iterations

     negative rho (up, down):  7.700E-04 0.000E+00

     Forces acting on atoms (cartesian axes, Ry/au):

     atom    1 type  1   force =     0.00000000    0.00000000    0.00000000
     atom    2 type  2   force =     0.00000000    0.00000000    0.00000000
     atom    3 type  3   force =     0.00000000    0.00000000    0.00000000
     atom    4 type  3   force =     0.00000000    0.00000000    0.00000000
     atom    5 type  3   force =     0.00000000    0.00000000    0.00000000

     Total force =     0.000000     Total SCF correction =     0.000000


     Computing stress (Cartesian axis) and pressure


     negative rho (up, down):  7.700E-04 0.000E+00
          total   stress  (Ry/bohr**3)                   (kbar)     P=     -233.68
  -0.00158851   0.00000000   0.00000000         -233.68        0.00        0.00
   0.00000000  -0.00158851   0.00000000            0.00     -233.68        0.00
   0.00000000   0.00000000  -0.00158851            0.00        0.00     -233.68


     Writing all to output data dir ./CTO_CELLDM_10.save/ :
     XML data file, charge density, pseudopotentials, collected wavefunctions
 
     init_run     :      0.60s CPU      0.72s WALL (       1 calls)
     electrons    :     15.55s CPU     16.21s WALL (       1 calls)
     forces       :      0.23s CPU      0.26s WALL (       1 calls)
     stress       :      1.94s CPU      2.00s WALL (       1 calls)

     Called by init_run:
     wfcinit      :      0.28s CPU      0.30s WALL (       1 calls)
     potinit      :      0.02s CPU      0.02s WALL (       1 calls)
     hinit0       :      0.15s CPU      0.18s WALL (       1 calls)

     Called by electrons:
     c_bands      :     11.08s CPU     11.40s WALL (      13 calls)
     sum_band     :      2.83s CPU      2.98s WALL (      13 calls)
     v_of_rho     :      0.05s CPU      0.06s WALL (      14 calls)
     newd         :      1.62s CPU      1.82s WALL (      14 calls)
     mix_rho      :      0.04s CPU      0.04s WALL (      13 calls)

     Called by c_bands:
     init_us_2    :      0.17s CPU      0.17s WALL (     580 calls)
     init_us_2:cp :      0.16s CPU      0.17s WALL (     580 calls)
     ccgdiagg     :      9.33s CPU      9.61s WALL (     260 calls)
     wfcrot       :      1.88s CPU      1.94s WALL (     260 calls)

     Called by *cgdiagg:
     h_psi        :      7.75s CPU      7.97s WALL (   15590 calls)
     s_psi        :      1.08s CPU      1.12s WALL (   30920 calls)

     Called by h_psi:
     h_psi:calbec :      1.00s CPU      1.03s WALL (   15590 calls)
     vloc_psi     :      5.98s CPU      6.15s WALL (   15590 calls)
     add_vuspsi   :      0.62s CPU      0.64s WALL (   15590 calls)
     hs_1psi      :      6.70s CPU      6.90s WALL (   15330 calls)
     s_1psi       :      1.31s CPU      1.36s WALL (   15330 calls)

     General routines
     calbec       :      1.76s CPU      1.82s WALL (   31280 calls)
     fft          :      0.07s CPU      0.08s WALL (      90 calls)
     ffts         :      0.01s CPU      0.01s WALL (      27 calls)
     fftw         :      5.25s CPU      5.39s WALL (   46740 calls)
     interpolate  :      0.01s CPU      0.02s WALL (      14 calls)
 
     Parallel routines
 
     PWSCF        :     18.53s CPU     19.89s WALL

 
   This run was terminated on:   0:42:18  24Sep2025            

=------------------------------------------------------------------------------=
   JOB DONE.
=------------------------------------------------------------------------------=
TACC:  Shutdown complete. Exiting. 
