TACC:  Starting up job 2476546 
TACC:  Starting parallel tasks... 

     Program PWSCF v.7.3 starts on 18Oct2025 at 15:25:19 

     This program is part of the open-source Quantum ESPRESSO suite
     for quantum simulation of materials; please cite
         "P. Giannozzi et al., J. Phys.:Condens. Matter 21 395502 (2009);
         "P. Giannozzi et al., J. Phys.:Condens. Matter 29 465901 (2017);
         "P. Giannozzi et al., J. Chem. Phys. 152 154105 (2020);
          URL http://www.quantum-espresso.org", 
     in publications or presentations arising from this work. More details at
     http://www.quantum-espresso.org/quote

     Parallel version (MPI & OpenMP), running on      10 processor cores
     Number of MPI processes:                10
     Threads/MPI process:                     1

     MPI processes distributed on     1 nodes
     186301 MiB available memory on the printing compute node when the environment starts
 
     Waiting for input...
     Reading input from standard input
Warning: card &CELL ignored
Warning: card  CELL_DYNAMICS = 'BFGS', ignored
Warning: card  PRESS=0.D0, ignored
Warning: card / ignored

     Current dimensions of program PWSCF are:
     Max number of different atomic species (ntypx) = 10
     Max number of k-points (npk) =  40000
     Max angular momentum in pseudopotentials (lmaxx) =  4
 
     R & G space division:  proc/nbgrp/npool/nimage =      10
     Subspace diagonalization in iterative solution of the eigenvalue problem:
     a serial algorithm will be used

 
     Parallelization info
     --------------------
     sticks:   dense  smooth     PW     G-vecs:    dense   smooth      PW
     Min          94      37      9                 2162      543      69
     Max          95      38     11                 2165      546      70
     Sum         949     373     97                21631     5449     691
 
     Using Slab Decomposition
 


     bravais-lattice index     =            1
     lattice parameter (alat)  =       7.6794  a.u.
     unit-cell volume          =     452.8787 (a.u.)^3
     number of atoms/cell      =            5
     number of atomic types    =            3
     number of electrons       =        40.00
     number of Kohn-Sham states=           20
     kinetic-energy cutoff     =      20.0000  Ry
     charge density cutoff     =     200.0000  Ry
     scf convergence threshold =      1.0E-08
     mixing beta               =       0.7000
     number of iterations used =            8  plain     mixing
     Exchange-correlation= SLA  PZ   NOGX NOGC
                           (   1   1   0   0   0   0   0)

     celldm(1)=   7.679400  celldm(2)=   0.000000  celldm(3)=   0.000000
     celldm(4)=   0.000000  celldm(5)=   0.000000  celldm(6)=   0.000000

     crystal axes: (cart. coord. in units of alat)
               a(1) = (   1.000000   0.000000   0.000000 )  
               a(2) = (   0.000000   1.000000   0.000000 )  
               a(3) = (   0.000000   0.000000   1.000000 )  

     reciprocal axes: (cart. coord. in units 2 pi/alat)
               b(1) = (  1.000000  0.000000  0.000000 )  
               b(2) = (  0.000000  1.000000  0.000000 )  
               b(3) = (  0.000000  0.000000  1.000000 )  


     PseudoPot. # 1 for Ba read from file:
     /scratch/11018/zhc/Assisgnment2/Q1/1D/Kpoints/Ba_LDA.UPF
     MD5 check sum: 0ec7675c796dc0a11c6269c68e51391e
     Pseudo is Ultrasoft + core correction, Zval = 10.0
     Generated by new atomic code, or converted to UPF format
     Using radial grid of  907 points,  7 beta functions with: 
                l(1) =   0
                l(2) =   0
                l(3) =   1
                l(4) =   1
                l(5) =   2
                l(6) =   2
                l(7) =   3
     Q(r) pseudized with  6 coefficients,  rinner =    1.700   1.700   1.700
                                                       1.700   1.700   1.700
                                                       1.700

     PseudoPot. # 2 for Ti read from file:
     /scratch/11018/zhc/Assisgnment2/Q1/1D/Kpoints/Ti_LDA.UPF
     MD5 check sum: 0d9f225c038fe889ca2a701dcc8d72cb
     Pseudo is Ultrasoft + core correction, Zval = 12.0
     Generated by new atomic code, or converted to UPF format
     Using radial grid of  851 points,  6 beta functions with: 
                l(1) =   0
                l(2) =   0
                l(3) =   1
                l(4) =   1
                l(5) =   2
                l(6) =   2
     Q(r) pseudized with  6 coefficients,  rinner =    1.000   1.000   1.000
                                                       1.000   1.000

     PseudoPot. # 3 for O  read from file:
     /scratch/11018/zhc/Assisgnment2/Q1/1D/Kpoints/O_LDA.UPF
     MD5 check sum: 194b818514d2a7dbb603bb78519a4f40
     Pseudo is Ultrasoft + core correction, Zval =  6.0
     Generated by new atomic code, or converted to UPF format
     Using radial grid of  737 points,  5 beta functions with: 
                l(1) =   0
                l(2) =   0
                l(3) =   1
                l(4) =   1
                l(5) =   2
     Q(r) pseudized with  8 coefficients,  rinner =    0.900   0.900   0.900
                                                       0.900   0.900

     atomic species   valence    mass     pseudopotential
     Ba               10.00   137.32700     Ba( 1.00)
     Ti               12.00    47.88000     Ti( 1.00)
     O                 6.00    16.00000     O ( 1.00)

      8 Sym. Ops. (no inversion) found



   Cartesian axes

     site n.     atom                  positions (alat units)
         1        Ba     tau(   1) = (   0.0000000   0.0000000   0.0000000  )
         2        Ti     tau(   2) = (   0.5000000   0.5000000   0.4900000  )
         3        O      tau(   3) = (   0.5000000   0.5000000   0.0000000  )
         4        O      tau(   4) = (   0.5000000   0.0000000   0.5000000  )
         5        O      tau(   5) = (   0.0000000   0.5000000   0.5000000  )

     number of k points=     1
                       cart. coord. in units 2pi/alat
        k(    1) = (   0.0000000   0.0000000   0.0000000), wk =   2.0000000

     Dense  grid:    21631 G-vectors     FFT dimensions: (  36,  36,  36)

     Smooth grid:     5449 G-vectors     FFT dimensions: (  24,  24,  24)

     Estimated max dynamical RAM per process >      20.36 MB

     Estimated total dynamical RAM >     203.63 MB

     Check: negative core charge=   -0.000005

     Initial potential from superposition of free atoms

     starting charge      38.9872, renormalised to      40.0000

     negative rho (up, down):  1.016E-01 0.000E+00
     Starting wfcs are   35 randomized atomic wfcs

     total cpu time spent up to now is        0.4 secs

     Self-consistent Calculation

     iteration #  1     ecut=    20.00 Ry     beta= 0.70
     CG style diagonalization
     ethr =  1.00E-02,  avg # of iterations =  2.4

     negative rho (up, down):  9.809E-02 0.000E+00

     total cpu time spent up to now is        0.5 secs

     total energy              =    -284.33040003 Ry
     estimated scf accuracy    <       1.69310489 Ry

     iteration #  2     ecut=    20.00 Ry     beta= 0.70
     CG style diagonalization
     ethr =  4.23E-03,  avg # of iterations =  4.7

     negative rho (up, down):  9.580E-02 0.000E+00

     total cpu time spent up to now is        0.6 secs

     total energy              =    -283.21387188 Ry
     estimated scf accuracy    <      20.63092572 Ry

     iteration #  3     ecut=    20.00 Ry     beta= 0.70
     CG style diagonalization
     ethr =  4.23E-03,  avg # of iterations =  4.0

     negative rho (up, down):  9.301E-02 0.000E+00

     total cpu time spent up to now is        0.6 secs

     total energy              =    -282.80793734 Ry
     estimated scf accuracy    <       6.40613991 Ry

     iteration #  4     ecut=    20.00 Ry     beta= 0.70
     CG style diagonalization
     ethr =  4.23E-03,  avg # of iterations =  4.2

     negative rho (up, down):  9.152E-02 0.000E+00

     total cpu time spent up to now is        0.7 secs

     total energy              =    -285.61622509 Ry
     estimated scf accuracy    <       1.71951855 Ry

     iteration #  5     ecut=    20.00 Ry     beta= 0.70
     CG style diagonalization
     ethr =  4.23E-03,  avg # of iterations =  3.0

     negative rho (up, down):  9.184E-02 0.000E+00

     total cpu time spent up to now is        0.7 secs

     total energy              =    -285.41965572 Ry
     estimated scf accuracy    <       1.31341448 Ry

     iteration #  6     ecut=    20.00 Ry     beta= 0.70
     CG style diagonalization
     ethr =  3.28E-03,  avg # of iterations =  3.0

     negative rho (up, down):  9.269E-02 0.000E+00

     total cpu time spent up to now is        0.8 secs

     total energy              =    -285.00961580 Ry
     estimated scf accuracy    <       0.92767005 Ry

     iteration #  7     ecut=    20.00 Ry     beta= 0.70
     CG style diagonalization
     ethr =  2.32E-03,  avg # of iterations =  3.2

     negative rho (up, down):  9.167E-02 0.000E+00

     total cpu time spent up to now is        0.9 secs

     total energy              =    -285.43638182 Ry
     estimated scf accuracy    <       0.22019203 Ry

     iteration #  8     ecut=    20.00 Ry     beta= 0.70
     CG style diagonalization
     ethr =  5.50E-04,  avg # of iterations =  3.8

     negative rho (up, down):  9.318E-02 0.000E+00

     total cpu time spent up to now is        0.9 secs

     total energy              =    -284.89297217 Ry
     estimated scf accuracy    <       0.98696606 Ry

     iteration #  9     ecut=    20.00 Ry     beta= 0.70
     CG style diagonalization
     ethr =  5.50E-04,  avg # of iterations =  5.2

     negative rho (up, down):  9.301E-02 0.000E+00

     total cpu time spent up to now is        1.0 secs

     total energy              =    -285.94772485 Ry
     estimated scf accuracy    <      12.09990654 Ry

     iteration # 10     ecut=    20.00 Ry     beta= 0.70
     CG style diagonalization
     ethr =  5.50E-04,  avg # of iterations =  3.0

     negative rho (up, down):  9.322E-02 0.000E+00

     total cpu time spent up to now is        1.0 secs

     total energy              =    -285.99923678 Ry
     estimated scf accuracy    <      11.93501717 Ry

     iteration # 11     ecut=    20.00 Ry     beta= 0.70
     CG style diagonalization
     ethr =  5.50E-04,  avg # of iterations =  3.0

     negative rho (up, down):  9.356E-02 0.000E+00

     total cpu time spent up to now is        1.1 secs

     total energy              =    -286.65326581 Ry
     estimated scf accuracy    <      12.08570324 Ry

     iteration # 12     ecut=    20.00 Ry     beta= 0.70
     CG style diagonalization
     ethr =  5.50E-04,  avg # of iterations =  3.6

     negative rho (up, down):  9.409E-02 0.000E+00

     total cpu time spent up to now is        1.1 secs

     total energy              =    -287.95752702 Ry
     estimated scf accuracy    <      25.21835459 Ry

     iteration # 13     ecut=    20.00 Ry     beta= 0.70
     CG style diagonalization
     ethr =  5.50E-04,  avg # of iterations =  4.0

     negative rho (up, down):  9.372E-02 0.000E+00

     total cpu time spent up to now is        1.2 secs

     total energy              =    -287.65181234 Ry
     estimated scf accuracy    <      41.78953679 Ry

     iteration # 14     ecut=    20.00 Ry     beta= 0.70
     CG style diagonalization
     ethr =  5.50E-04,  avg # of iterations =  3.0

     negative rho (up, down):  9.346E-02 0.000E+00

     total cpu time spent up to now is        1.3 secs

     total energy              =    -288.12999620 Ry
     estimated scf accuracy    <      40.23236080 Ry

     iteration # 15     ecut=    20.00 Ry     beta= 0.70
     CG style diagonalization
     ethr =  5.50E-04,  avg # of iterations =  3.0

     negative rho (up, down):  9.348E-02 0.000E+00

     total cpu time spent up to now is        1.3 secs

     total energy              =    -288.18414609 Ry
     estimated scf accuracy    <      41.40040018 Ry

     iteration # 16     ecut=    20.00 Ry     beta= 0.70
     CG style diagonalization
     ethr =  5.50E-04,  avg # of iterations =  3.0

     negative rho (up, down):  9.115E-02 0.000E+00

     total cpu time spent up to now is        1.4 secs

     total energy              =    -282.85654239 Ry
     estimated scf accuracy    <      41.62404271 Ry

     iteration # 17     ecut=    20.00 Ry     beta= 0.70
     CG style diagonalization
     ethr =  5.50E-04,  avg # of iterations =  5.8

     negative rho (up, down):  9.698E-02 0.000E+00

     total cpu time spent up to now is        1.4 secs

     total energy              =    -280.77744280 Ry
     estimated scf accuracy    <       7.74712883 Ry

     iteration # 18     ecut=    20.00 Ry     beta= 0.70
     CG style diagonalization
     ethr =  5.50E-04,  avg # of iterations =  7.5

     negative rho (up, down):  8.726E-02 0.000E+00

     total cpu time spent up to now is        1.5 secs

     total energy              =    -284.80663986 Ry
     estimated scf accuracy    <       8.93999025 Ry

     iteration # 19     ecut=    20.00 Ry     beta= 0.70
     CG style diagonalization
     ethr =  5.50E-04,  avg # of iterations =  4.9

     negative rho (up, down):  9.109E-02 0.000E+00

     total cpu time spent up to now is        1.6 secs

     total energy              =    -286.58109212 Ry
     estimated scf accuracy    <       3.36763234 Ry

     iteration # 20     ecut=    20.00 Ry     beta= 0.70
     CG style diagonalization
     ethr =  5.50E-04,  avg # of iterations =  3.4

     negative rho (up, down):  9.462E-02 0.000E+00

     total cpu time spent up to now is        1.6 secs

     total energy              =    -285.97457331 Ry
     estimated scf accuracy    <       3.18847147 Ry

     iteration # 21     ecut=    20.00 Ry     beta= 0.70
     CG style diagonalization
     ethr =  5.50E-04,  avg # of iterations =  3.6

     negative rho (up, down):  9.156E-02 0.000E+00

     total cpu time spent up to now is        1.7 secs

     total energy              =    -285.52659324 Ry
     estimated scf accuracy    <       1.91088351 Ry

     iteration # 22     ecut=    20.00 Ry     beta= 0.70
     CG style diagonalization
     ethr =  5.50E-04,  avg # of iterations =  3.3

     negative rho (up, down):  9.153E-02 0.000E+00

     total cpu time spent up to now is        1.7 secs

     total energy              =    -285.33676760 Ry
     estimated scf accuracy    <       1.11191016 Ry

     iteration # 23     ecut=    20.00 Ry     beta= 0.70
     CG style diagonalization
     ethr =  5.50E-04,  avg # of iterations =  3.0

     negative rho (up, down):  9.161E-02 0.000E+00

     total cpu time spent up to now is        1.8 secs

     total energy              =    -285.27813538 Ry
     estimated scf accuracy    <       0.74624296 Ry

     iteration # 24     ecut=    20.00 Ry     beta= 0.70
     CG style diagonalization
     ethr =  5.50E-04,  avg # of iterations =  3.0

     negative rho (up, down):  9.140E-02 0.000E+00

     total cpu time spent up to now is        1.9 secs

     total energy              =    -285.18606143 Ry
     estimated scf accuracy    <       0.61428372 Ry

     iteration # 25     ecut=    20.00 Ry     beta= 0.70
     CG style diagonalization
     ethr =  5.50E-04,  avg # of iterations =  3.0

     negative rho (up, down):  9.168E-02 0.000E+00

     total cpu time spent up to now is        1.9 secs

     total energy              =    -284.86635516 Ry
     estimated scf accuracy    <       0.45314893 Ry

     iteration # 26     ecut=    20.00 Ry     beta= 0.70
     CG style diagonalization
     ethr =  5.50E-04,  avg # of iterations =  5.0

     negative rho (up, down):  9.156E-02 0.000E+00

     total cpu time spent up to now is        2.0 secs

     total energy              =    -286.16275745 Ry
     estimated scf accuracy    <      15.36753177 Ry

     iteration # 27     ecut=    20.00 Ry     beta= 0.70
     CG style diagonalization
     ethr =  5.50E-04,  avg # of iterations =  3.1

     negative rho (up, down):  9.173E-02 0.000E+00

     total cpu time spent up to now is        2.0 secs

     total energy              =    -286.74801137 Ry
     estimated scf accuracy    <      13.77809565 Ry

     iteration # 28     ecut=    20.00 Ry     beta= 0.70
     CG style diagonalization
     ethr =  5.50E-04,  avg # of iterations =  3.5

     negative rho (up, down):  9.139E-02 0.000E+00

     total cpu time spent up to now is        2.1 secs

     total energy              =    -286.49174349 Ry
     estimated scf accuracy    <      26.56586245 Ry

     iteration # 29     ecut=    20.00 Ry     beta= 0.70
     CG style diagonalization
     ethr =  5.50E-04,  avg # of iterations =  3.8

     negative rho (up, down):  9.210E-02 0.000E+00

     total cpu time spent up to now is        2.1 secs

     total energy              =    -285.77235251 Ry
     estimated scf accuracy    <      24.32233712 Ry

     iteration # 30     ecut=    20.00 Ry     beta= 0.70
     CG style diagonalization
     ethr =  5.50E-04,  avg # of iterations =  3.3

     negative rho (up, down):  9.106E-02 0.000E+00

     total cpu time spent up to now is        2.2 secs

     total energy              =    -285.80693056 Ry
     estimated scf accuracy    <      21.53759932 Ry

     iteration # 31     ecut=    20.00 Ry     beta= 0.70
     CG style diagonalization
     ethr =  5.50E-04,  avg # of iterations =  3.0

     negative rho (up, down):  9.137E-02 0.000E+00

     total cpu time spent up to now is        2.3 secs

     total energy              =    -285.37112821 Ry
     estimated scf accuracy    <      21.59605707 Ry

     iteration # 32     ecut=    20.00 Ry     beta= 0.70
     CG style diagonalization
     ethr =  5.50E-04,  avg # of iterations =  3.5

     negative rho (up, down):  9.100E-02 0.000E+00

     total cpu time spent up to now is        2.3 secs

     total energy              =    -284.42893659 Ry
     estimated scf accuracy    <      19.78894152 Ry

     iteration # 33     ecut=    20.00 Ry     beta= 0.70
     CG style diagonalization
     ethr =  5.50E-04,  avg # of iterations =  3.9

     negative rho (up, down):  9.165E-02 0.000E+00

     total cpu time spent up to now is        2.4 secs

     total energy              =    -285.12532693 Ry
     estimated scf accuracy    <       7.16051922 Ry

     iteration # 34     ecut=    20.00 Ry     beta= 0.70
     CG style diagonalization
     ethr =  5.50E-04,  avg # of iterations =  3.3

     negative rho (up, down):  9.968E-02 0.000E+00

     total cpu time spent up to now is        2.4 secs

     total energy              =    -282.05180636 Ry
     estimated scf accuracy    <       7.45705576 Ry

     iteration # 35     ecut=    20.00 Ry     beta= 0.70
     CG style diagonalization
     ethr =  5.50E-04,  avg # of iterations =  6.7

     negative rho (up, down):  9.099E-02 0.000E+00

     total cpu time spent up to now is        2.5 secs

     total energy              =    -286.61314201 Ry
     estimated scf accuracy    <       6.45973163 Ry

     iteration # 36     ecut=    20.00 Ry     beta= 0.70
     CG style diagonalization
     ethr =  5.50E-04,  avg # of iterations =  3.8

     negative rho (up, down):  8.975E-02 0.000E+00

     total cpu time spent up to now is        2.6 secs

     total energy              =    -286.01046046 Ry
     estimated scf accuracy    <       3.34242218 Ry

     iteration # 37     ecut=    20.00 Ry     beta= 0.70
     CG style diagonalization
     ethr =  5.50E-04,  avg # of iterations =  3.3

     negative rho (up, down):  9.041E-02 0.000E+00

     total cpu time spent up to now is        2.6 secs

     total energy              =    -285.42153548 Ry
     estimated scf accuracy    <       2.06256967 Ry

     iteration # 38     ecut=    20.00 Ry     beta= 0.70
     CG style diagonalization
     ethr =  5.50E-04,  avg # of iterations =  3.6

     negative rho (up, down):  9.026E-02 0.000E+00

     total cpu time spent up to now is        2.7 secs

     total energy              =    -285.46302195 Ry
     estimated scf accuracy    <       0.97905408 Ry

     iteration # 39     ecut=    20.00 Ry     beta= 0.70
     CG style diagonalization
     ethr =  5.50E-04,  avg # of iterations =  3.0

     negative rho (up, down):  9.045E-02 0.000E+00

     total cpu time spent up to now is        2.7 secs

     total energy              =    -285.33920442 Ry
     estimated scf accuracy    <       0.98399752 Ry

     iteration # 40     ecut=    20.00 Ry     beta= 0.70
     CG style diagonalization
     ethr =  5.50E-04,  avg # of iterations =  3.0

     negative rho (up, down):  9.208E-02 0.000E+00

     total cpu time spent up to now is        2.8 secs

     total energy              =    -284.97239124 Ry
     estimated scf accuracy    <       0.76302588 Ry

     iteration # 41     ecut=    20.00 Ry     beta= 0.70
     CG style diagonalization
     ethr =  5.50E-04,  avg # of iterations =  4.7

     negative rho (up, down):  9.024E-02 0.000E+00

     total cpu time spent up to now is        2.8 secs

     total energy              =    -282.41503824 Ry
     estimated scf accuracy    <       9.26552998 Ry

     iteration # 42     ecut=    20.00 Ry     beta= 0.70
     CG style diagonalization
     ethr =  5.50E-04,  avg # of iterations =  6.2

     negative rho (up, down):  9.168E-02 0.000E+00

     total cpu time spent up to now is        2.9 secs

     total energy              =    -285.00413965 Ry
     estimated scf accuracy    <       2.00881278 Ry

     iteration # 43     ecut=    20.00 Ry     beta= 0.70
     CG style diagonalization
     ethr =  5.50E-04,  avg # of iterations =  3.9

     negative rho (up, down):  9.220E-02 0.000E+00

     total cpu time spent up to now is        3.0 secs

     total energy              =    -285.01768915 Ry
     estimated scf accuracy    <       0.36715360 Ry

     iteration # 44     ecut=    20.00 Ry     beta= 0.70
     CG style diagonalization
     ethr =  5.50E-04,  avg # of iterations =  3.0

     negative rho (up, down):  9.224E-02 0.000E+00

     total cpu time spent up to now is        3.0 secs

     total energy              =    -285.02343186 Ry
     estimated scf accuracy    <       0.16028366 Ry

     iteration # 45     ecut=    20.00 Ry     beta= 0.70
     CG style diagonalization
     ethr =  4.01E-04,  avg # of iterations =  4.2

     negative rho (up, down):  9.191E-02 0.000E+00

     total cpu time spent up to now is        3.1 secs

     total energy              =    -285.35497470 Ry
     estimated scf accuracy    <       8.76286677 Ry

     iteration # 46     ecut=    20.00 Ry     beta= 0.70
     CG style diagonalization
     ethr =  4.01E-04,  avg # of iterations =  3.0

     negative rho (up, down):  9.189E-02 0.000E+00

     total cpu time spent up to now is        3.1 secs

     total energy              =    -285.12924606 Ry
     estimated scf accuracy    <       8.61230735 Ry

     iteration # 47     ecut=    20.00 Ry     beta= 0.70
     CG style diagonalization
     ethr =  4.01E-04,  avg # of iterations =  3.4

     negative rho (up, down):  9.200E-02 0.000E+00

     total cpu time spent up to now is        3.2 secs

     total energy              =    -285.25776017 Ry
     estimated scf accuracy    <       4.55172537 Ry

     iteration # 48     ecut=    20.00 Ry     beta= 0.70
     CG style diagonalization
     ethr =  4.01E-04,  avg # of iterations =  3.0

     negative rho (up, down):  9.200E-02 0.000E+00

     total cpu time spent up to now is        3.3 secs

     total energy              =    -285.29995346 Ry
     estimated scf accuracy    <       4.84188118 Ry

     iteration # 49     ecut=    20.00 Ry     beta= 0.70
     CG style diagonalization
     ethr =  4.01E-04,  avg # of iterations =  3.0

     negative rho (up, down):  9.223E-02 0.000E+00

     total cpu time spent up to now is        3.3 secs

     total energy              =    -285.52455190 Ry
     estimated scf accuracy    <       4.99883049 Ry

     iteration # 50     ecut=    20.00 Ry     beta= 0.70
     CG style diagonalization
     ethr =  4.01E-04,  avg # of iterations =  3.4

     negative rho (up, down):  9.205E-02 0.000E+00

     total cpu time spent up to now is        3.4 secs

     total energy              =    -285.61511756 Ry
     estimated scf accuracy    <      11.17300297 Ry

     iteration # 51     ecut=    20.00 Ry     beta= 0.70
     CG style diagonalization
     ethr =  4.01E-04,  avg # of iterations =  3.0

     negative rho (up, down):  9.196E-02 0.000E+00

     total cpu time spent up to now is        3.4 secs

     total energy              =    -285.43849269 Ry
     estimated scf accuracy    <      11.14036844 Ry

     iteration # 52     ecut=    20.00 Ry     beta= 0.70
     CG style diagonalization
     ethr =  4.01E-04,  avg # of iterations =  3.0

     negative rho (up, down):  9.197E-02 0.000E+00

     total cpu time spent up to now is        3.5 secs

     total energy              =    -285.56560701 Ry
     estimated scf accuracy    <      10.70423130 Ry

     iteration # 53     ecut=    20.00 Ry     beta= 0.70
     CG style diagonalization
     ethr =  4.01E-04,  avg # of iterations =  3.0

     negative rho (up, down):  9.125E-02 0.000E+00

     total cpu time spent up to now is        3.5 secs

     total energy              =    -280.08227457 Ry
     estimated scf accuracy    <      11.03327367 Ry

     iteration # 54     ecut=    20.00 Ry     beta= 0.70
     CG style diagonalization
     ethr =  4.01E-04,  avg # of iterations =  6.2

     negative rho (up, down):  9.265E-02 0.000E+00

     total cpu time spent up to now is        3.6 secs

     total energy              =    -286.79330435 Ry
     estimated scf accuracy    <       5.73917622 Ry

     iteration # 55     ecut=    20.00 Ry     beta= 0.70
     CG style diagonalization
     ethr =  4.01E-04,  avg # of iterations =  3.6

     negative rho (up, down):  9.292E-02 0.000E+00

     total cpu time spent up to now is        3.7 secs

     total energy              =    -286.09459379 Ry
     estimated scf accuracy    <       3.62766951 Ry

     iteration # 56     ecut=    20.00 Ry     beta= 0.70
     CG style diagonalization
     ethr =  4.01E-04,  avg # of iterations =  3.6

     negative rho (up, down):  9.261E-02 0.000E+00

     total cpu time spent up to now is        3.7 secs

     total energy              =    -285.92891547 Ry
     estimated scf accuracy    <       2.23170928 Ry

     iteration # 57     ecut=    20.00 Ry     beta= 0.70
     CG style diagonalization
     ethr =  4.01E-04,  avg # of iterations =  3.0

     negative rho (up, down):  9.284E-02 0.000E+00

     total cpu time spent up to now is        3.8 secs

     total energy              =    -286.01341125 Ry
     estimated scf accuracy    <       1.88598174 Ry

     iteration # 58     ecut=    20.00 Ry     beta= 0.70
     CG style diagonalization
     ethr =  4.01E-04,  avg # of iterations =  3.0

     negative rho (up, down):  9.137E-02 0.000E+00

     total cpu time spent up to now is        3.8 secs

     total energy              =    -285.49887861 Ry
     estimated scf accuracy    <       2.01696447 Ry

     iteration # 59     ecut=    20.00 Ry     beta= 0.70
     CG style diagonalization
     ethr =  4.01E-04,  avg # of iterations =  3.7

     negative rho (up, down):  9.069E-02 0.000E+00

     total cpu time spent up to now is        3.9 secs

     total energy              =    -285.17645952 Ry
     estimated scf accuracy    <       1.10608196 Ry

     iteration # 60     ecut=    20.00 Ry     beta= 0.70
     CG style diagonalization
     ethr =  4.01E-04,  avg # of iterations =  3.8

     negative rho (up, down):  9.138E-02 0.000E+00

     total cpu time spent up to now is        3.9 secs

     total energy              =    -285.17704705 Ry
     estimated scf accuracy    <       0.48493465 Ry

     iteration # 61     ecut=    20.00 Ry     beta= 0.70
     CG style diagonalization
     ethr =  4.01E-04,  avg # of iterations =  3.0

     negative rho (up, down):  9.165E-02 0.000E+00

     total cpu time spent up to now is        4.0 secs

     total energy              =    -285.15881414 Ry
     estimated scf accuracy    <       0.43845454 Ry

     iteration # 62     ecut=    20.00 Ry     beta= 0.70
     CG style diagonalization
     ethr =  4.01E-04,  avg # of iterations =  3.0

     negative rho (up, down):  9.536E-02 0.000E+00

     total cpu time spent up to now is        4.0 secs

     total energy              =    -284.86301934 Ry
     estimated scf accuracy    <       0.39725348 Ry

     iteration # 63     ecut=    20.00 Ry     beta= 0.70
     CG style diagonalization
     ethr =  4.01E-04,  avg # of iterations =  5.2

     negative rho (up, down):  9.374E-02 0.000E+00

     total cpu time spent up to now is        4.1 secs

     total energy              =    -285.85693408 Ry
     estimated scf accuracy    <      24.75016168 Ry

     iteration # 64     ecut=    20.00 Ry     beta= 0.70
     CG style diagonalization
     ethr =  4.01E-04,  avg # of iterations =  3.2

     negative rho (up, down):  9.365E-02 0.000E+00

     total cpu time spent up to now is        4.2 secs

     total energy              =    -286.45695175 Ry
     estimated scf accuracy    <      22.77360183 Ry

     iteration # 65     ecut=    20.00 Ry     beta= 0.70
     CG style diagonalization
     ethr =  4.01E-04,  avg # of iterations =  3.1

     negative rho (up, down):  9.298E-02 0.000E+00

     total cpu time spent up to now is        4.2 secs

     total energy              =    -285.93941119 Ry
     estimated scf accuracy    <      24.31665429 Ry

     iteration # 66     ecut=    20.00 Ry     beta= 0.70
     CG style diagonalization
     ethr =  4.01E-04,  avg # of iterations =  3.0

     negative rho (up, down):  9.224E-02 0.000E+00

     total cpu time spent up to now is        4.3 secs

     total energy              =    -285.09759054 Ry
     estimated scf accuracy    <      23.06676445 Ry

     iteration # 67     ecut=    20.00 Ry     beta= 0.70
     CG style diagonalization
     ethr =  4.01E-04,  avg # of iterations =  3.5

     negative rho (up, down):  9.216E-02 0.000E+00

     total cpu time spent up to now is        4.3 secs

     total energy              =    -285.06694129 Ry
     estimated scf accuracy    <      20.15667668 Ry

     iteration # 68     ecut=    20.00 Ry     beta= 0.70
     CG style diagonalization
     ethr =  4.01E-04,  avg # of iterations =  3.0

     negative rho (up, down):  9.091E-02 0.000E+00

     total cpu time spent up to now is        4.4 secs

     total energy              =    -284.36330601 Ry
     estimated scf accuracy    <      20.04294959 Ry

     iteration # 69     ecut=    20.00 Ry     beta= 0.70
     CG style diagonalization
     ethr =  4.01E-04,  avg # of iterations =  4.3

     negative rho (up, down):  9.085E-02 0.000E+00

     total cpu time spent up to now is        4.5 secs

     total energy              =    -285.02251033 Ry
     estimated scf accuracy    <       0.12706296 Ry

     iteration # 70     ecut=    20.00 Ry     beta= 0.70
     CG style diagonalization
     ethr =  3.18E-04,  avg # of iterations =  3.8

     negative rho (up, down):  9.104E-02 0.000E+00

     total cpu time spent up to now is        4.5 secs

     total energy              =    -285.36325505 Ry
     estimated scf accuracy    <       1.29369958 Ry

     iteration # 71     ecut=    20.00 Ry     beta= 0.70
     CG style diagonalization
     ethr =  3.18E-04,  avg # of iterations =  3.3

     negative rho (up, down):  9.030E-02 0.000E+00

     total cpu time spent up to now is        4.6 secs

     total energy              =    -285.06801406 Ry
     estimated scf accuracy    <       1.32097691 Ry

     iteration # 72     ecut=    20.00 Ry     beta= 0.70
     CG style diagonalization
     ethr =  3.18E-04,  avg # of iterations =  4.8

     negative rho (up, down):  8.904E-02 0.000E+00

     total cpu time spent up to now is        4.6 secs

     total energy              =    -284.84966356 Ry
     estimated scf accuracy    <       6.75354983 Ry

     iteration # 73     ecut=    20.00 Ry     beta= 0.70
     CG style diagonalization
     ethr =  3.18E-04,  avg # of iterations =  3.9

     negative rho (up, down):  8.983E-02 0.000E+00

     total cpu time spent up to now is        4.7 secs

     total energy              =    -285.12018581 Ry
     estimated scf accuracy    <       0.75932662 Ry

     iteration # 74     ecut=    20.00 Ry     beta= 0.70
     CG style diagonalization
     ethr =  3.18E-04,  avg # of iterations =  3.9

     negative rho (up, down):  9.041E-02 0.000E+00

     total cpu time spent up to now is        4.7 secs

     total energy              =    -285.20324983 Ry
     estimated scf accuracy    <       0.75587565 Ry

     iteration # 75     ecut=    20.00 Ry     beta= 0.70
     CG style diagonalization
     ethr =  3.18E-04,  avg # of iterations =  3.8

     negative rho (up, down):  9.038E-02 0.000E+00

     total cpu time spent up to now is        4.8 secs

     total energy              =    -285.22748285 Ry
     estimated scf accuracy    <       7.05338506 Ry

     iteration # 76     ecut=    20.00 Ry     beta= 0.70
     CG style diagonalization
     ethr =  3.18E-04,  avg # of iterations =  3.0

     negative rho (up, down):  9.048E-02 0.000E+00

     total cpu time spent up to now is        4.9 secs

     total energy              =    -285.02626223 Ry
     estimated scf accuracy    <       6.74877012 Ry

     iteration # 77     ecut=    20.00 Ry     beta= 0.70
     CG style diagonalization
     ethr =  3.18E-04,  avg # of iterations =  3.9

     negative rho (up, down):  9.034E-02 0.000E+00

     total cpu time spent up to now is        4.9 secs

     total energy              =    -285.13111784 Ry
     estimated scf accuracy    <       0.78848503 Ry

     iteration # 78     ecut=    20.00 Ry     beta= 0.70
     CG style diagonalization
     ethr =  3.18E-04,  avg # of iterations =  3.1

     negative rho (up, down):  8.871E-02 0.000E+00

     total cpu time spent up to now is        5.0 secs

     total energy              =    -284.82320737 Ry
     estimated scf accuracy    <       0.77283757 Ry

     iteration # 79     ecut=    20.00 Ry     beta= 0.70
     CG style diagonalization
     ethr =  3.18E-04,  avg # of iterations =  5.2

     negative rho (up, down):  8.883E-02 0.000E+00

     total cpu time spent up to now is        5.0 secs

     total energy              =    -286.01387215 Ry
     estimated scf accuracy    <       2.74953702 Ry

     iteration # 80     ecut=    20.00 Ry     beta= 0.70
     CG style diagonalization
     ethr =  3.18E-04,  avg # of iterations =  3.6

     negative rho (up, down):  8.901E-02 0.000E+00

     total cpu time spent up to now is        5.1 secs

     total energy              =    -285.95670093 Ry
     estimated scf accuracy    <       2.26662146 Ry

     iteration # 81     ecut=    20.00 Ry     beta= 0.70
     CG style diagonalization
     ethr =  3.18E-04,  avg # of iterations =  3.0

     negative rho (up, down):  9.147E-02 0.000E+00

     total cpu time spent up to now is        5.2 secs

     total energy              =    -285.24972316 Ry
     estimated scf accuracy    <       2.09272722 Ry

     iteration # 82     ecut=    20.00 Ry     beta= 0.70
     CG style diagonalization
     ethr =  3.18E-04,  avg # of iterations =  4.0

     negative rho (up, down):  9.122E-02 0.000E+00

     total cpu time spent up to now is        5.2 secs

     total energy              =    -285.29899109 Ry
     estimated scf accuracy    <       0.72615501 Ry

     iteration # 83     ecut=    20.00 Ry     beta= 0.70
     CG style diagonalization
     ethr =  3.18E-04,  avg # of iterations =  3.0

     negative rho (up, down):  9.071E-02 0.000E+00

     total cpu time spent up to now is        5.3 secs

     total energy              =    -285.25403368 Ry
     estimated scf accuracy    <       0.68132932 Ry

     iteration # 84     ecut=    20.00 Ry     beta= 0.70
     CG style diagonalization
     ethr =  3.18E-04,  avg # of iterations =  3.0

     negative rho (up, down):  9.077E-02 0.000E+00

     total cpu time spent up to now is        5.3 secs

     total energy              =    -285.19492680 Ry
     estimated scf accuracy    <       0.60266472 Ry

     iteration # 85     ecut=    20.00 Ry     beta= 0.70
     CG style diagonalization
     ethr =  3.18E-04,  avg # of iterations =  3.0

     negative rho (up, down):  9.233E-02 0.000E+00

     total cpu time spent up to now is        5.4 secs

     total energy              =    -284.92029612 Ry
     estimated scf accuracy    <       0.49127520 Ry

     iteration # 86     ecut=    20.00 Ry     beta= 0.70
     CG style diagonalization
     ethr =  3.18E-04,  avg # of iterations =  4.8

     negative rho (up, down):  9.160E-02 0.000E+00

     total cpu time spent up to now is        5.4 secs

     total energy              =    -285.51229105 Ry
     estimated scf accuracy    <      13.61883876 Ry

     iteration # 87     ecut=    20.00 Ry     beta= 0.70
     CG style diagonalization
     ethr =  3.18E-04,  avg # of iterations =  4.0

     negative rho (up, down):  9.180E-02 0.000E+00

     total cpu time spent up to now is        5.5 secs

     total energy              =    -285.72708610 Ry
     estimated scf accuracy    <      11.70954198 Ry

     iteration # 88     ecut=    20.00 Ry     beta= 0.70
     CG style diagonalization
     ethr =  3.18E-04,  avg # of iterations =  3.0

     negative rho (up, down):  9.199E-02 0.000E+00

     total cpu time spent up to now is        5.6 secs

     total energy              =    -285.84338348 Ry
     estimated scf accuracy    <      11.52813449 Ry

     iteration # 89     ecut=    20.00 Ry     beta= 0.70
     CG style diagonalization
     ethr =  3.18E-04,  avg # of iterations =  3.0

     negative rho (up, down):  9.227E-02 0.000E+00

     total cpu time spent up to now is        5.6 secs

     total energy              =    -286.19959472 Ry
     estimated scf accuracy    <      11.89168152 Ry

     iteration # 90     ecut=    20.00 Ry     beta= 0.70
     CG style diagonalization
     ethr =  3.18E-04,  avg # of iterations =  3.1

     negative rho (up, down):  9.195E-02 0.000E+00

     total cpu time spent up to now is        5.7 secs

     total energy              =    -284.81382963 Ry
     estimated scf accuracy    <      13.10182590 Ry

     iteration # 91     ecut=    20.00 Ry     beta= 0.70
     CG style diagonalization
     ethr =  3.18E-04,  avg # of iterations =  5.3

     negative rho (up, down):  9.167E-02 0.000E+00

     total cpu time spent up to now is        5.7 secs

     total energy              =    -285.14706100 Ry
     estimated scf accuracy    <       0.82563756 Ry

     iteration # 92     ecut=    20.00 Ry     beta= 0.70
     CG style diagonalization
     ethr =  3.18E-04,  avg # of iterations =  3.0

     negative rho (up, down):  9.199E-02 0.000E+00

     total cpu time spent up to now is        5.8 secs

     total energy              =    -285.26303374 Ry
     estimated scf accuracy    <       0.82432402 Ry

     iteration # 93     ecut=    20.00 Ry     beta= 0.70
     CG style diagonalization
     ethr =  3.18E-04,  avg # of iterations =  3.9

     negative rho (up, down):  9.131E-02 0.000E+00

     total cpu time spent up to now is        5.8 secs

     total energy              =    -284.96052526 Ry
     estimated scf accuracy    <      10.87555081 Ry

     iteration # 94     ecut=    20.00 Ry     beta= 0.70
     CG style diagonalization
     ethr =  3.18E-04,  avg # of iterations =  5.1

     negative rho (up, down):  9.192E-02 0.000E+00

     total cpu time spent up to now is        5.9 secs

     total energy              =    -285.19891892 Ry
     estimated scf accuracy    <       0.92320045 Ry

     iteration # 95     ecut=    20.00 Ry     beta= 0.70
     CG style diagonalization
     ethr =  3.18E-04,  avg # of iterations =  4.7

     negative rho (up, down):  8.921E-02 0.000E+00

     total cpu time spent up to now is        6.0 secs

     total energy              =    -283.42466199 Ry
     estimated scf accuracy    <      13.26002257 Ry

     iteration # 96     ecut=    20.00 Ry     beta= 0.70
     CG style diagonalization
     ethr =  3.18E-04,  avg # of iterations =  7.0

     negative rho (up, down):  9.033E-02 0.000E+00

     total cpu time spent up to now is        6.0 secs

     total energy              =    -285.62758678 Ry
     estimated scf accuracy    <       1.86041871 Ry

     iteration # 97     ecut=    20.00 Ry     beta= 0.70
     CG style diagonalization
     ethr =  3.18E-04,  avg # of iterations =  3.2

     negative rho (up, down):  9.161E-02 0.000E+00

     total cpu time spent up to now is        6.1 secs

     total energy              =    -285.39873413 Ry
     estimated scf accuracy    <       1.41670327 Ry

     iteration # 98     ecut=    20.00 Ry     beta= 0.70
     CG style diagonalization
     ethr =  3.18E-04,  avg # of iterations =  3.6

     negative rho (up, down):  9.154E-02 0.000E+00

     total cpu time spent up to now is        6.2 secs

     total energy              =    -285.33459331 Ry
     estimated scf accuracy    <       0.90624329 Ry

     iteration # 99     ecut=    20.00 Ry     beta= 0.70
     CG style diagonalization
     ethr =  3.18E-04,  avg # of iterations =  3.0

     negative rho (up, down):  9.120E-02 0.000E+00

     total cpu time spent up to now is        6.2 secs

     total energy              =    -285.29867066 Ry
     estimated scf accuracy    <       0.76318889 Ry

     iteration #100     ecut=    20.00 Ry     beta= 0.70
     CG style diagonalization
     ethr =  3.18E-04,  avg # of iterations =  3.0

     negative rho (up, down):  9.131E-02 0.000E+00

     total cpu time spent up to now is        6.3 secs

     total energy              =    -285.31496846 Ry
     estimated scf accuracy    <       0.69029144 Ry

     End of self-consistent calculation

     convergence NOT achieved after 100 iterations: stopping

     Writing config to output data dir ./BTO_k1.save/ :
     XML data file, charge density distributed wavefunctions
 
     init_run     :      0.11s CPU      0.19s WALL (       1 calls)
     electrons    :      4.94s CPU      5.87s WALL (       1 calls)

     Called by init_run:
     wfcinit      :      0.00s CPU      0.02s WALL (       1 calls)
     potinit      :      0.01s CPU      0.01s WALL (       1 calls)
     hinit0       :      0.08s CPU      0.11s WALL (       1 calls)

     Called by electrons:
     c_bands      :      1.08s CPU      1.21s WALL (     100 calls)
     sum_band     :      2.10s CPU      2.50s WALL (     100 calls)
     v_of_rho     :      0.05s CPU      0.06s WALL (     101 calls)
     newd         :      1.60s CPU      1.97s WALL (     101 calls)
     mix_rho      :      0.09s CPU      0.09s WALL (     100 calls)

     Called by c_bands:
     init_us_2    :      0.01s CPU      0.01s WALL (     201 calls)
     init_us_2:cp :      0.01s CPU      0.01s WALL (     201 calls)
     ccgdiagg     :      0.93s CPU      1.03s WALL (     100 calls)
     wfcrot       :      0.14s CPU      0.18s WALL (     100 calls)

     Called by *cgdiagg:
     h_psi        :      0.54s CPU      0.61s WALL (    5564 calls)
     s_psi        :      0.08s CPU      0.09s WALL (   11028 calls)

     Called by h_psi:
     h_psi:calbec :      0.11s CPU      0.12s WALL (    5564 calls)
     vloc_psi     :      0.35s CPU      0.39s WALL (    5564 calls)
     add_vuspsi   :      0.05s CPU      0.05s WALL (    5564 calls)
     hs_1psi      :      0.51s CPU      0.56s WALL (    5464 calls)
     s_1psi       :      0.15s CPU      0.17s WALL (    5464 calls)

     General routines
     calbec       :      0.18s CPU      0.21s WALL (   11128 calls)
     fft          :      0.06s CPU      0.08s WALL (     606 calls)
     ffts         :      0.01s CPU      0.01s WALL (     201 calls)
     fftw         :      0.31s CPU      0.35s WALL (   16958 calls)
     interpolate  :      0.01s CPU      0.01s WALL (     101 calls)
     davcio       :      0.00s CPU      0.00s WALL (      19 calls)
 
     Parallel routines
 
     PWSCF        :      5.24s CPU      6.34s WALL

 
   This run was terminated on:  15:25:25  18Oct2025            

=------------------------------------------------------------------------------=
   JOB DONE.
=------------------------------------------------------------------------------=
TACC:  Shutdown complete. Exiting. 
