TACC:  Starting up job 2410691 
TACC:  Starting parallel tasks... 

     Program PWSCF v.7.3 starts on 24Sep2025 at 20:10:48 

     This program is part of the open-source Quantum ESPRESSO suite
     for quantum simulation of materials; please cite
         "P. Giannozzi et al., J. Phys.:Condens. Matter 21 395502 (2009);
         "P. Giannozzi et al., J. Phys.:Condens. Matter 29 465901 (2017);
         "P. Giannozzi et al., J. Chem. Phys. 152 154105 (2020);
          URL http://www.quantum-espresso.org", 
     in publications or presentations arising from this work. More details at
     http://www.quantum-espresso.org/quote

     Parallel version (MPI & OpenMP), running on      10 processor cores
     Number of MPI processes:                10
     Threads/MPI process:                     1

     MPI processes distributed on     1 nodes
     187485 MiB available memory on the printing compute node when the environment starts
 
     Waiting for input...
     Reading input from standard input
Warning: card &CELL ignored
Warning: card  CELL_DYNAMICS = 'BFGS', ignored
Warning: card  PRESS=0.D0, ignored
Warning: card / ignored
     Message from routine read_cards :
     DEPRECATED: no units specified in ATOMIC_POSITIONS card
     Message from routine read_cards :
     ATOMIC_POSITIONS: units set to alat

     Current dimensions of program PWSCF are:
     Max number of different atomic species (ntypx) = 10
     Max number of k-points (npk) =  40000
     Max angular momentum in pseudopotentials (lmaxx) =  4
 
     R & G space division:  proc/nbgrp/npool/nimage =      10
     Subspace diagonalization in iterative solution of the eigenvalue problem:
     a serial algorithm will be used

 
     Parallelization info
     --------------------
     sticks:   dense  smooth     PW     G-vecs:    dense   smooth      PW
     Min         411     164     48                19790     5006     780
     Max         413     166     49                19791     5007     783
     Sum        4117    1649    481               197909    50061    7809
 
     Using Slab Decomposition
 


     bravais-lattice index     =            1
     lattice parameter (alat)  =       7.1825  a.u.
     unit-cell volume          =     370.5405 (a.u.)^3
     number of atoms/cell      =            5
     number of atomic types    =            3
     number of electrons       =        40.00
     number of Kohn-Sham states=           20
     kinetic-energy cutoff     =     100.0000  Ry
     charge density cutoff     =    1000.0000  Ry
     scf convergence threshold =      1.0E-08
     mixing beta               =       0.7000
     number of iterations used =            8  plain     mixing
     Exchange-correlation= SLA  PZ   NOGX NOGC
                           (   1   1   0   0   0   0   0)

     celldm(1)=   7.182549  celldm(2)=   0.000000  celldm(3)=   0.000000
     celldm(4)=   0.000000  celldm(5)=   0.000000  celldm(6)=   0.000000

     crystal axes: (cart. coord. in units of alat)
               a(1) = (   1.000000   0.000000   0.000000 )  
               a(2) = (   0.000000   1.000000   0.000000 )  
               a(3) = (   0.000000   0.000000   1.000000 )  

     reciprocal axes: (cart. coord. in units 2 pi/alat)
               b(1) = (  1.000000  0.000000  0.000000 )  
               b(2) = (  0.000000  1.000000  0.000000 )  
               b(3) = (  0.000000  0.000000  1.000000 )  


     PseudoPot. # 1 for Ca read from file:
     /scratch/11018/zhc/assisgnment1/CaTiO3/Ca_LDA.UPF
     MD5 check sum: d2d4e7693e10d071152e9eeb7dd009f3
     Pseudo is Ultrasoft + core correction, Zval = 10.0
     Generated by new atomic code, or converted to UPF format
     Using radial grid of  845 points,  6 beta functions with: 
                l(1) =   0
                l(2) =   0
                l(3) =   1
                l(4) =   1
                l(5) =   2
                l(6) =   2
     Q(r) pseudized with  8 coefficients,  rinner =    1.500   1.500   1.500
                                                       1.500   1.500

     PseudoPot. # 2 for Ti read from file:
     /scratch/11018/zhc/assisgnment1/CaTiO3/Ti_LDA.UPF
     MD5 check sum: 0d9f225c038fe889ca2a701dcc8d72cb
     Pseudo is Ultrasoft + core correction, Zval = 12.0
     Generated by new atomic code, or converted to UPF format
     Using radial grid of  851 points,  6 beta functions with: 
                l(1) =   0
                l(2) =   0
                l(3) =   1
                l(4) =   1
                l(5) =   2
                l(6) =   2
     Q(r) pseudized with  6 coefficients,  rinner =    1.000   1.000   1.000
                                                       1.000   1.000

     PseudoPot. # 3 for O  read from file:
     /scratch/11018/zhc/assisgnment1/CaTiO3/O_LDA.UPF
     MD5 check sum: 194b818514d2a7dbb603bb78519a4f40
     Pseudo is Ultrasoft + core correction, Zval =  6.0
     Generated by new atomic code, or converted to UPF format
     Using radial grid of  737 points,  5 beta functions with: 
                l(1) =   0
                l(2) =   0
                l(3) =   1
                l(4) =   1
                l(5) =   2
     Q(r) pseudized with  8 coefficients,  rinner =    0.900   0.900   0.900
                                                       0.900   0.900

     atomic species   valence    mass     pseudopotential
     Ca               10.00    40.07800     Ca( 1.00)
     Ti               12.00    47.88000     Ti( 1.00)
     O                 6.00    16.00000     O ( 1.00)

     48 Sym. Ops., with inversion, found



   Cartesian axes

     site n.     atom                  positions (alat units)
         1        Ca     tau(   1) = (   0.0000000   0.0000000   0.0000000  )
         2        Ti     tau(   2) = (   0.5000000   0.5000000   0.5000000  )
         3        O      tau(   3) = (   0.5000000   0.5000000   0.0000000  )
         4        O      tau(   4) = (   0.5000000   0.0000000   0.5000000  )
         5        O      tau(   5) = (   0.0000000   0.5000000   0.5000000  )

     number of k points=    20
                       cart. coord. in units 2pi/alat
        k(    1) = (   0.0000000   0.0000000   0.0000000), wk =   0.0092593
        k(    2) = (   0.0000000   0.0000000   0.1666667), wk =   0.0555556
        k(    3) = (   0.0000000   0.0000000   0.3333333), wk =   0.0555556
        k(    4) = (   0.0000000   0.0000000  -0.5000000), wk =   0.0277778
        k(    5) = (   0.0000000   0.1666667   0.1666667), wk =   0.1111111
        k(    6) = (   0.0000000   0.1666667   0.3333333), wk =   0.2222222
        k(    7) = (   0.0000000   0.1666667  -0.5000000), wk =   0.1111111
        k(    8) = (   0.0000000   0.3333333   0.3333333), wk =   0.1111111
        k(    9) = (   0.0000000   0.3333333  -0.5000000), wk =   0.1111111
        k(   10) = (   0.0000000  -0.5000000  -0.5000000), wk =   0.0277778
        k(   11) = (   0.1666667   0.1666667   0.1666667), wk =   0.0740741
        k(   12) = (   0.1666667   0.1666667   0.3333333), wk =   0.2222222
        k(   13) = (   0.1666667   0.1666667  -0.5000000), wk =   0.1111111
        k(   14) = (   0.1666667   0.3333333   0.3333333), wk =   0.2222222
        k(   15) = (   0.1666667   0.3333333  -0.5000000), wk =   0.2222222
        k(   16) = (   0.1666667  -0.5000000  -0.5000000), wk =   0.0555556
        k(   17) = (   0.3333333   0.3333333   0.3333333), wk =   0.0740741
        k(   18) = (   0.3333333   0.3333333  -0.5000000), wk =   0.1111111
        k(   19) = (   0.3333333  -0.5000000  -0.5000000), wk =   0.0555556
        k(   20) = (  -0.5000000  -0.5000000  -0.5000000), wk =   0.0092593

     Dense  grid:   197909 G-vectors     FFT dimensions: (  75,  75,  75)

     Smooth grid:    50061 G-vectors     FFT dimensions: (  45,  45,  45)

     Estimated max dynamical RAM per process >      85.44 MB

     Estimated total dynamical RAM >     854.43 MB

     Check: negative core charge=   -0.000001

     Initial potential from superposition of free atoms

     starting charge      38.9952, renormalised to      40.0000

     negative rho (up, down):  8.086E-04 0.000E+00
     Starting wfcs are   32 randomized atomic wfcs

     total cpu time spent up to now is        1.2 secs

     Self-consistent Calculation

     iteration #  1     ecut=   100.00 Ry     beta= 0.70
     CG style diagonalization
     ethr =  1.00E-02,  avg # of iterations =  2.2

     negative rho (up, down):  1.052E-03 0.000E+00

     total cpu time spent up to now is        2.0 secs

     total energy              =    -291.32269002 Ry
     estimated scf accuracy    <       0.82432135 Ry

     iteration #  2     ecut=   100.00 Ry     beta= 0.70
     CG style diagonalization
     ethr =  2.06E-03,  avg # of iterations =  5.0

     negative rho (up, down):  6.586E-04 0.000E+00

     total cpu time spent up to now is        3.4 secs

     total energy              =    -290.87465716 Ry
     estimated scf accuracy    <       4.66098923 Ry

     iteration #  3     ecut=   100.00 Ry     beta= 0.70
     CG style diagonalization
     ethr =  2.06E-03,  avg # of iterations =  4.4

     negative rho (up, down):  7.477E-04 0.000E+00

     total cpu time spent up to now is        4.6 secs

     total energy              =    -291.74508179 Ry
     estimated scf accuracy    <       0.13265508 Ry

     iteration #  4     ecut=   100.00 Ry     beta= 0.70
     CG style diagonalization
     ethr =  3.32E-04,  avg # of iterations =  3.7

     negative rho (up, down):  8.112E-04 0.000E+00

     total cpu time spent up to now is        5.6 secs

     total energy              =    -291.75620652 Ry
     estimated scf accuracy    <       0.03220506 Ry

     iteration #  5     ecut=   100.00 Ry     beta= 0.70
     CG style diagonalization
     ethr =  8.05E-05,  avg # of iterations =  3.6

     negative rho (up, down):  8.412E-04 0.000E+00

     total cpu time spent up to now is        6.7 secs

     total energy              =    -291.76321549 Ry
     estimated scf accuracy    <       0.00035926 Ry

     iteration #  6     ecut=   100.00 Ry     beta= 0.70
     CG style diagonalization
     ethr =  8.98E-07,  avg # of iterations =  4.9

     negative rho (up, down):  8.334E-04 0.000E+00

     total cpu time spent up to now is        8.0 secs

     total energy              =    -291.76386771 Ry
     estimated scf accuracy    <       0.00092038 Ry

     iteration #  7     ecut=   100.00 Ry     beta= 0.70
     CG style diagonalization
     ethr =  8.98E-07,  avg # of iterations =  3.6

     negative rho (up, down):  8.272E-04 0.000E+00

     total cpu time spent up to now is        9.0 secs

     total energy              =    -291.76387523 Ry
     estimated scf accuracy    <       0.00016153 Ry

     iteration #  8     ecut=   100.00 Ry     beta= 0.70
     CG style diagonalization
     ethr =  4.04E-07,  avg # of iterations =  3.6

     negative rho (up, down):  8.258E-04 0.000E+00

     total cpu time spent up to now is       10.0 secs

     total energy              =    -291.76390094 Ry
     estimated scf accuracy    <       0.00000311 Ry

     iteration #  9     ecut=   100.00 Ry     beta= 0.70
     CG style diagonalization
     ethr =  7.78E-09,  avg # of iterations =  4.3

     negative rho (up, down):  8.258E-04 0.000E+00

     total cpu time spent up to now is       11.2 secs

     total energy              =    -291.76390441 Ry
     estimated scf accuracy    <       0.00000089 Ry

     iteration # 10     ecut=   100.00 Ry     beta= 0.70
     CG style diagonalization
     ethr =  2.24E-09,  avg # of iterations =  3.5

     negative rho (up, down):  8.260E-04 0.000E+00

     total cpu time spent up to now is       12.2 secs

     total energy              =    -291.76390452 Ry
     estimated scf accuracy    <       0.00000014 Ry

     iteration # 11     ecut=   100.00 Ry     beta= 0.70
     CG style diagonalization
     ethr =  3.61E-10,  avg # of iterations =  3.8

     negative rho (up, down):  8.260E-04 0.000E+00

     total cpu time spent up to now is       13.3 secs

     End of self-consistent calculation

          k = 0.0000 0.0000 0.0000 (  6235 PWs)   bands (ev):

   -45.8672 -28.9810 -22.5217 -22.5217 -22.5217 -10.1923 -10.1923 -10.1923
    -7.8582  -6.6669  -6.6669   6.4716   6.4716   6.4716   8.3740   8.3740
     8.3740   9.2425   9.2425   9.2425

          k = 0.0000 0.0000 0.1667 (  6243 PWs)   bands (ev):

   -45.8668 -28.9789 -22.5472 -22.5205 -22.5205 -10.2903 -10.1886 -10.1886
    -7.6541  -6.6544  -6.5579   6.1421   6.4737   6.4737   7.9805   7.9805
     8.1167   8.3679   9.1031   9.1031

          k = 0.0000 0.0000 0.3333 (  6287 PWs)   bands (ev):

   -45.8659 -28.9748 -22.5975 -22.5180 -22.5180 -10.4637 -10.1812 -10.1812
    -7.2531  -6.6291  -6.3272   5.4141   6.5300   6.5300   7.1702   7.2870
     7.2870   7.6734   8.9763   8.9763

          k = 0.0000 0.0000-0.5000 (  6302 PWs)   bands (ev):

   -45.8654 -28.9727 -22.6224 -22.5167 -22.5167 -10.5421 -10.1775 -10.1775
    -7.0570  -6.6163  -6.1990   4.9982   6.6942   6.6942   6.7414   6.8559
     6.8559   7.4774   8.9327   8.9327

          k = 0.0000 0.1667 0.1667 (  6268 PWs)   bands (ev):

   -45.8663 -28.9767 -22.5465 -22.5458 -22.5192 -10.3052 -10.2420 -10.1847
    -7.4790  -6.5984  -6.4978   5.9174   6.3304   6.4698   7.2368   7.7173
     8.2492   8.3161   8.6502   8.8653

          k = 0.0000 0.1667 0.3333 (  6254 PWs)   bands (ev):

   -45.8654 -28.9724 -22.5968 -22.5440 -22.5168 -10.4328 -10.2381 -10.1767
    -7.1463  -6.5514  -6.2792   5.3454   5.9478   6.5079   6.5365   7.1568
     7.4691   8.2933   8.5218   8.6507

          k = 0.0000 0.1667-0.5000 (  6268 PWs)   bands (ev):

   -45.8650 -28.9703 -22.6219 -22.5429 -22.5155 -10.4998 -10.2279 -10.1727
    -6.9986  -6.5255  -6.1412   4.9944   5.6088   6.4178   6.6589   6.7664
     7.2237   8.2943   8.3979   8.5890

          k = 0.0000 0.3333 0.3333 (  6254 PWs)   bands (ev):

   -45.8645 -28.9678 -22.5958 -22.5950 -22.5143 -10.3870 -10.3315 -10.1676
    -7.0268  -6.3061  -6.1516   4.9261   5.5528   5.5804   6.4877   6.8485
     7.5393   7.7365   8.2645   9.1372

          k = 0.0000 0.3333-0.5000 (  6250 PWs)   bands (ev):

   -45.8641 -28.9654 -22.6208 -22.5947 -22.5131 -10.4149 -10.3252 -10.1630
    -7.0061  -6.1872  -6.0278   4.7021   4.9764   5.5354   6.5689   6.5954
     7.4682   7.7096   8.1411   9.2894

          k = 0.0000-0.5000-0.5000 (  6256 PWs)   bands (ev):

   -45.8636 -28.9630 -22.6203 -22.6203 -22.5120 -10.3722 -10.3722 -10.1582
    -7.0363  -5.9720  -5.9720   4.3746   4.8733   5.1015   6.5134   6.5134
     7.5887   7.5887   7.9840   9.5630

          k = 0.1667 0.1667 0.1667 (  6238 PWs)   bands (ev):

   -45.8659 -28.9745 -22.5452 -22.5452 -22.5447 -10.3111 -10.2335 -10.2335
    -7.3158  -6.4979  -6.4979   5.7202   6.2913   6.2913   7.1226   7.1226
     7.7824   8.5926   8.5926   8.6699

          k = 0.1667 0.1667 0.3333 (  6256 PWs)   bands (ev):

   -45.8650 -28.9701 -22.5959 -22.5430 -22.5425 -10.4057 -10.2409 -10.2163
    -7.0069  -6.4984  -6.2577   5.2770   5.8728   6.0858   6.3555   6.6789
     7.5731   8.3179   8.5198   8.6616

          k = 0.1667 0.1667-0.5000 (  6252 PWs)   bands (ev):

   -45.8645 -28.9679 -22.6211 -22.5421 -22.5412 -10.4634 -10.2311 -10.2077
    -6.8690  -6.4987  -6.1063   4.9938   5.4901   5.9198   6.1590   6.6109
     7.6490   8.1476   8.4904   8.5617

          k = 0.1667 0.3333 0.3333 (  6263 PWs)   bands (ev):

   -45.8641 -28.9656 -22.5943 -22.5939 -22.5403 -10.3655 -10.3159 -10.2091
    -6.8329  -6.2991  -6.1748   4.9639   5.5692   5.5736   5.9750   6.1835
     7.1336   8.3877   8.4300   9.1655

          k = 0.1667 0.3333-0.5000 (  6244 PWs)   bands (ev):

   -45.8636 -28.9633 -22.6195 -22.5932 -22.5390 -10.3907 -10.3113 -10.2011
    -6.8016  -6.2205  -6.0386   4.8076   4.9839   5.5216   5.8389   6.0763
     7.1466   8.3380   8.4113   9.3130

          k = 0.1667-0.5000-0.5000 (  6276 PWs)   bands (ev):

   -45.8632 -28.9609 -22.6187 -22.6187 -22.5377 -10.3542 -10.3542 -10.1937
    -6.8232  -6.0058  -6.0058   4.5179   4.8898   5.1064   5.8608   5.8608
     7.1169   8.3766   8.3766   9.5897

          k = 0.3333 0.3333 0.3333 (  6262 PWs)   bands (ev):

   -45.8632 -28.9612 -22.5920 -22.5912 -22.5912 -10.3294 -10.2842 -10.2842
    -6.4764  -6.2219  -6.2219   4.9569   5.4021   5.4021   5.6953   5.6953
     5.7646   8.9686   8.9686   9.3160

          k = 0.3333 0.3333-0.5000 (  6224 PWs)   bands (ev):

   -45.8628 -28.9589 -22.6168 -22.5906 -22.5897 -10.3418 -10.2906 -10.2681
    -6.3997  -6.2458  -6.0618   4.9555   4.9896   5.1985   5.3262   5.6641
     5.7735   9.0629   9.1693   9.4317

          k = 0.3333-0.5000-0.5000 (  6220 PWs)   bands (ev):

   -45.8623 -28.9568 -22.6154 -22.6154 -22.5886 -10.3172 -10.3172 -10.2638
    -6.3618  -6.0743  -6.0743   4.8129   4.9104   5.1164   5.2009   5.2009
     5.6814   9.3043   9.3043   9.6444

          k =-0.5000-0.5000-0.5000 (  6152 PWs)   bands (ev):

   -45.8619 -28.9547 -22.6138 -22.6138 -22.6138 -10.2983 -10.2983 -10.2983
    -6.1090  -6.1090  -6.1090   4.8349   4.9650   4.9650   4.9650   5.1214
     5.1214   9.6723   9.6723   9.6723

     highest occupied level (ev):     9.6723

!    total energy              =    -291.76390456 Ry
     estimated scf accuracy    <          7.8E-10 Ry

     The total energy is the sum of the following terms:
     one-electron contribution =     -85.62115205 Ry
     hartree contribution      =      63.65190514 Ry
     xc contribution           =     -51.46428929 Ry
     ewald contribution        =    -218.33036837 Ry

     convergence has been achieved in  11 iterations

     negative rho (up, down):  8.260E-04 0.000E+00

     Forces acting on atoms (cartesian axes, Ry/au):

     atom    1 type  1   force =     0.00000000    0.00000000    0.00000000
     atom    2 type  2   force =     0.00000000    0.00000000    0.00000000
     atom    3 type  3   force =     0.00000000    0.00000000    0.00000000
     atom    4 type  3   force =     0.00000000    0.00000000    0.00000000
     atom    5 type  3   force =     0.00000000    0.00000000    0.00000000

     Total force =     0.000000     Total SCF correction =     0.000000


     Computing stress (Cartesian axis) and pressure


     negative rho (up, down):  8.260E-04 0.000E+00
          total   stress  (Ry/bohr**3)                   (kbar)     P=       10.50
   0.00007138   0.00000000   0.00000000           10.50        0.00        0.00
   0.00000000   0.00007138   0.00000000            0.00       10.50        0.00
   0.00000000   0.00000000   0.00007138            0.00        0.00       10.50


     Writing all to output data dir ./CTO_module_10.save/ :
     XML data file, charge density, pseudopotentials, collected wavefunctions
 
     init_run     :      0.83s CPU      0.94s WALL (       1 calls)
     electrons    :     11.33s CPU     12.11s WALL (       1 calls)
     forces       :      0.20s CPU      0.23s WALL (       1 calls)
     stress       :      1.66s CPU      1.71s WALL (       1 calls)

     Called by init_run:
     wfcinit      :      0.23s CPU      0.27s WALL (       1 calls)
     potinit      :      0.02s CPU      0.02s WALL (       1 calls)
     hinit0       :      0.15s CPU      0.18s WALL (       1 calls)

     Called by electrons:
     c_bands      :      8.22s CPU      8.47s WALL (      11 calls)
     sum_band     :      2.03s CPU      2.22s WALL (      11 calls)
     v_of_rho     :      0.04s CPU      0.04s WALL (      12 calls)
     newd         :      1.09s CPU      1.43s WALL (      12 calls)
     mix_rho      :      0.03s CPU      0.03s WALL (      11 calls)

     Called by c_bands:
     init_us_2    :      0.12s CPU      0.12s WALL (     500 calls)
     init_us_2:cp :      0.12s CPU      0.12s WALL (     500 calls)
     ccgdiagg     :      6.93s CPU      7.14s WALL (     220 calls)
     wfcrot       :      1.42s CPU      1.48s WALL (     220 calls)

     Called by *cgdiagg:
     h_psi        :      5.78s CPU      5.96s WALL (   13267 calls)
     s_psi        :      0.62s CPU      0.64s WALL (   26314 calls)

     Called by h_psi:
     h_psi:calbec :      0.75s CPU      0.77s WALL (   13267 calls)
     vloc_psi     :      4.54s CPU      4.68s WALL (   13267 calls)
     add_vuspsi   :      0.37s CPU      0.38s WALL (   13267 calls)
     hs_1psi      :      4.91s CPU      5.07s WALL (   13047 calls)
     s_1psi       :      0.84s CPU      0.86s WALL (   13047 calls)

     General routines
     calbec       :      1.28s CPU      1.32s WALL (   26634 calls)
     fft          :      0.06s CPU      0.07s WALL (      78 calls)
     ffts         :      0.00s CPU      0.01s WALL (      23 calls)
     fftw         :      4.03s CPU      4.15s WALL (   39774 calls)
     interpolate  :      0.01s CPU      0.02s WALL (      12 calls)
 
     Parallel routines
 
     PWSCF        :     14.24s CPU     15.58s WALL

 
   This run was terminated on:  20:11: 3  24Sep2025            

=------------------------------------------------------------------------------=
   JOB DONE.
=------------------------------------------------------------------------------=
TACC:  Shutdown complete. Exiting. 
