TACC:  Starting up job 2560895 
TACC:  Starting parallel tasks... 

     Program PWSCF v.7.3 starts on 18Nov2025 at  0:38:22 

     This program is part of the open-source Quantum ESPRESSO suite
     for quantum simulation of materials; please cite
         "P. Giannozzi et al., J. Phys.:Condens. Matter 21 395502 (2009);
         "P. Giannozzi et al., J. Phys.:Condens. Matter 29 465901 (2017);
         "P. Giannozzi et al., J. Chem. Phys. 152 154105 (2020);
          URL http://www.quantum-espresso.org", 
     in publications or presentations arising from this work. More details at
     http://www.quantum-espresso.org/quote

     Parallel version (MPI & OpenMP), running on      10 processor cores
     Number of MPI processes:                10
     Threads/MPI process:                     1

     MPI processes distributed on     1 nodes
     185517 MiB available memory on the printing compute node when the environment starts
 
     Waiting for input...
     Reading input from standard input
Warning: card &CELL ignored
Warning: card  CELL_DYNAMICS = 'BFGS', ignored
Warning: card  PRESS=0.D0, ignored
Warning: card / ignored

     Current dimensions of program PWSCF are:
     Max number of different atomic species (ntypx) = 10
     Max number of k-points (npk) =  40000
     Max angular momentum in pseudopotentials (lmaxx) =  4
     Message from routine setup:
     using ibrav=0 with symmetry is DISCOURAGED, use correct ibrav instead
 
     R & G space division:  proc/nbgrp/npool/nimage =      10
     Subspace diagonalization in iterative solution of the eigenvalue problem:
     a serial algorithm will be used

 
     Parallelization info
     --------------------
     sticks:   dense  smooth     PW     G-vecs:    dense   smooth      PW
     Min         209      84     25                 7675     1944     321
     Max         210      85     26                 7680     1947     324
     Sum        2093     849    253                76763    19459    3231
 
     Using Slab Decomposition
 


     bravais-lattice index     =            0
     lattice parameter (alat)  =       7.2859  a.u.
     unit-cell volume          =     406.4751 (a.u.)^3
     number of atoms/cell      =            5
     number of atomic types    =            3
     number of electrons       =        44.00
     number of Kohn-Sham states=           22
     kinetic-energy cutoff     =      50.0000  Ry
     charge density cutoff     =     500.0000  Ry
     scf convergence threshold =      1.0E-08
     mixing beta               =       0.7000
     number of iterations used =            8  plain     mixing
     energy convergence thresh.=      1.0E-04
     force convergence thresh. =      1.0E-03
     Exchange-correlation= SLA  PZ   NOGX NOGC
                           (   1   1   0   0   0   0   0)
     nstep                     =           50


     celldm(1)=   7.285878  celldm(2)=   0.000000  celldm(3)=   0.000000
     celldm(4)=   0.000000  celldm(5)=   0.000000  celldm(6)=   0.000000

     crystal axes: (cart. coord. in units of alat)
               a(1) = (   1.000000  -0.000519   0.000000 )  
               a(2) = (  -0.000519   1.000000   0.000000 )  
               a(3) = (   0.000000   0.000000   1.050966 )  

     reciprocal axes: (cart. coord. in units 2 pi/alat)
               b(1) = (  1.000000  0.000519  0.000000 )  
               b(2) = (  0.000519  1.000000  0.000000 )  
               b(3) = (  0.000000  0.000000  0.951506 )  


     PseudoPot. # 1 for Pb read from file:
     /scratch/11018/zhc/assisgnment3/input_files/Pb_LDA.UPF
     MD5 check sum: 062a37469794d955244864f8fe2e5624
     Pseudo is Ultrasoft + core correction, Zval = 14.0
     Generated by new atomic code, or converted to UPF format
     Using radial grid of  899 points,  6 beta functions with: 
                l(1) =   0
                l(2) =   0
                l(3) =   1
                l(4) =   1
                l(5) =   2
                l(6) =   2
     Q(r) pseudized with  6 coefficients,  rinner =    1.000   1.000   1.000
                                                       1.000   1.000

     PseudoPot. # 2 for Ti read from file:
     /scratch/11018/zhc/assisgnment3/input_files/Ti_LDA.UPF
     MD5 check sum: 0d9f225c038fe889ca2a701dcc8d72cb
     Pseudo is Ultrasoft + core correction, Zval = 12.0
     Generated by new atomic code, or converted to UPF format
     Using radial grid of  851 points,  6 beta functions with: 
                l(1) =   0
                l(2) =   0
                l(3) =   1
                l(4) =   1
                l(5) =   2
                l(6) =   2
     Q(r) pseudized with  6 coefficients,  rinner =    1.000   1.000   1.000
                                                       1.000   1.000

     PseudoPot. # 3 for O  read from file:
     /scratch/11018/zhc/assisgnment3/input_files/O_LDA.UPF
     MD5 check sum: 194b818514d2a7dbb603bb78519a4f40
     Pseudo is Ultrasoft + core correction, Zval =  6.0
     Generated by new atomic code, or converted to UPF format
     Using radial grid of  737 points,  5 beta functions with: 
                l(1) =   0
                l(2) =   0
                l(3) =   1
                l(4) =   1
                l(5) =   2
     Q(r) pseudized with  8 coefficients,  rinner =    0.900   0.900   0.900
                                                       0.900   0.900

     atomic species   valence    mass     pseudopotential
     Pb               14.00   207.20000     Pb( 1.00)
     Ti               12.00    47.88000     Ti( 1.00)
     O                 6.00    16.00000     O ( 1.00)

      4 Sym. Ops. (no inversion) found



   Cartesian axes

     site n.     atom                  positions (alat units)
         1        Pb     tau(   1) = (   0.0000000   0.0000000   1.0564033  )
         2        Ti     tau(   2) = (   0.4997406   0.4997406   0.5670322  )
         3        O      tau(   3) = (   0.4997406   0.4997406   0.1045794  )
         4        O      tau(   4) = (   0.4999999  -0.0002594   0.6427014  )
         5        O      tau(   5) = (  -0.0002594   0.4999999   0.6427014  )

     number of k points=    39
                       cart. coord. in units 2pi/alat
        k(    1) = (   0.0000000   0.0000000   0.0000000), wk =   0.0138889
        k(    2) = (   0.0000000   0.0000000   0.2378764), wk =   0.0277778
        k(    3) = (   0.0000000   0.0000000  -0.4757529), wk =   0.0138889
        k(    4) = (   0.0000865   0.1666667   0.0000000), wk =   0.0555556
        k(    5) = (   0.0000865   0.1666667   0.2378764), wk =   0.1111111
        k(    6) = (   0.0000865   0.1666667  -0.4757529), wk =   0.0555556
        k(    7) = (   0.0001729   0.3333335   0.0000000), wk =   0.0555556
        k(    8) = (   0.0001729   0.3333335   0.2378764), wk =   0.1111111
        k(    9) = (   0.0001729   0.3333335  -0.4757529), wk =   0.0555556
        k(   10) = (  -0.0002594  -0.5000002   0.0000000), wk =   0.0277778
        k(   11) = (  -0.0002594  -0.5000002   0.2378764), wk =   0.0555556
        k(   12) = (  -0.0002594  -0.5000002  -0.4757529), wk =   0.0277778
        k(   13) = (   0.1667532   0.1667532   0.0000000), wk =   0.0277778
        k(   14) = (   0.1667532   0.1667532   0.2378764), wk =   0.0555556
        k(   15) = (   0.1667532   0.1667532  -0.4757529), wk =   0.0277778
        k(   16) = (   0.1668396   0.3334199   0.0000000), wk =   0.0555556
        k(   17) = (   0.1668396   0.3334199   0.2378764), wk =   0.1111111
        k(   18) = (   0.1668396   0.3334199  -0.4757529), wk =   0.0555556
        k(   19) = (   0.1664074  -0.4999137   0.0000000), wk =   0.0555556
        k(   20) = (   0.1664074  -0.4999137   0.2378764), wk =   0.1111111
        k(   21) = (   0.1664074  -0.4999137  -0.4757529), wk =   0.0555556
        k(   22) = (   0.1664938  -0.3332470   0.0000000), wk =   0.0555556
        k(   23) = (   0.1664938  -0.3332470   0.2378764), wk =   0.1111111
        k(   24) = (   0.1664938  -0.3332470  -0.4757529), wk =   0.0555556
        k(   25) = (   0.1665803  -0.1665803   0.0000000), wk =   0.0277778
        k(   26) = (   0.1665803  -0.1665803   0.2378764), wk =   0.0555556
        k(   27) = (   0.1665803  -0.1665803  -0.4757529), wk =   0.0277778
        k(   28) = (   0.3335064   0.3335064   0.0000000), wk =   0.0277778
        k(   29) = (   0.3335064   0.3335064   0.2378764), wk =   0.0555556
        k(   30) = (   0.3335064   0.3335064  -0.4757529), wk =   0.0277778
        k(   31) = (   0.3330741  -0.4998273   0.0000000), wk =   0.0555556
        k(   32) = (   0.3330741  -0.4998273   0.2378764), wk =   0.1111111
        k(   33) = (   0.3330741  -0.4998273  -0.4757529), wk =   0.0555556
        k(   34) = (   0.3331606  -0.3331606   0.0000000), wk =   0.0277778
        k(   35) = (   0.3331606  -0.3331606   0.2378764), wk =   0.0555556
        k(   36) = (   0.3331606  -0.3331606  -0.4757529), wk =   0.0277778
        k(   37) = (  -0.5002596  -0.5002596   0.0000000), wk =   0.0138889
        k(   38) = (  -0.5002596  -0.5002596   0.2378764), wk =   0.0277778
        k(   39) = (  -0.5002596  -0.5002596  -0.4757529), wk =   0.0138889

     Dense  grid:    76763 G-vectors     FFT dimensions: (  54,  54,  60)

     Smooth grid:    19459 G-vectors     FFT dimensions: (  36,  36,  36)

     Estimated max dynamical RAM per process >      37.28 MB

     Estimated total dynamical RAM >     372.84 MB

     Check: negative core charge=   -0.000004

     Initial potential from superposition of free atoms

     starting charge      42.9982, renormalised to      44.0000

     negative rho (up, down):  1.669E-02 0.000E+00
     Starting wfcs are   31 randomized atomic wfcs

     total cpu time spent up to now is        0.7 secs

     Self-consistent Calculation

     iteration #  1     ecut=    50.00 Ry     beta= 0.70
     CG style diagonalization
     ethr =  1.00E-02,  avg # of iterations =  2.1

     negative rho (up, down):  1.400E-02 0.000E+00

     total cpu time spent up to now is        1.4 secs

     total energy              =    -380.06226098 Ry
     estimated scf accuracy    <       1.02161360 Ry

     iteration #  2     ecut=    50.00 Ry     beta= 0.70
     CG style diagonalization
     ethr =  2.32E-03,  avg # of iterations =  4.8

     negative rho (up, down):  1.451E-02 0.000E+00

     total cpu time spent up to now is        2.6 secs

     total energy              =    -379.75503795 Ry
     estimated scf accuracy    <       3.91950309 Ry

     iteration #  3     ecut=    50.00 Ry     beta= 0.70
     CG style diagonalization
     ethr =  2.32E-03,  avg # of iterations =  4.3

     negative rho (up, down):  1.513E-02 0.000E+00

     total cpu time spent up to now is        3.7 secs

     total energy              =    -380.53704611 Ry
     estimated scf accuracy    <       0.31130663 Ry

     iteration #  4     ecut=    50.00 Ry     beta= 0.70
     CG style diagonalization
     ethr =  7.08E-04,  avg # of iterations =  3.4

     negative rho (up, down):  1.511E-02 0.000E+00

     total cpu time spent up to now is        4.5 secs

     total energy              =    -380.56019896 Ry
     estimated scf accuracy    <       0.04171230 Ry

     iteration #  5     ecut=    50.00 Ry     beta= 0.70
     CG style diagonalization
     ethr =  9.48E-05,  avg # of iterations =  3.9

     negative rho (up, down):  1.512E-02 0.000E+00

     total cpu time spent up to now is        5.5 secs

     total energy              =    -380.57149649 Ry
     estimated scf accuracy    <       0.00776670 Ry

     iteration #  6     ecut=    50.00 Ry     beta= 0.70
     CG style diagonalization
     ethr =  1.77E-05,  avg # of iterations =  3.9

     negative rho (up, down):  1.512E-02 0.000E+00

     total cpu time spent up to now is        6.5 secs

     total energy              =    -380.57364277 Ry
     estimated scf accuracy    <       0.00606927 Ry

     iteration #  7     ecut=    50.00 Ry     beta= 0.70
     CG style diagonalization
     ethr =  1.38E-05,  avg # of iterations =  3.2

     negative rho (up, down):  1.513E-02 0.000E+00

     total cpu time spent up to now is        7.2 secs

     total energy              =    -380.57362654 Ry
     estimated scf accuracy    <       0.00162929 Ry

     iteration #  8     ecut=    50.00 Ry     beta= 0.70
     CG style diagonalization
     ethr =  3.70E-06,  avg # of iterations =  3.7

     negative rho (up, down):  1.516E-02 0.000E+00

     total cpu time spent up to now is        8.2 secs

     total energy              =    -380.57398245 Ry
     estimated scf accuracy    <       0.00000822 Ry

     iteration #  9     ecut=    50.00 Ry     beta= 0.70
     CG style diagonalization
     c_bands:  1 eigenvalues not converged
     c_bands:  1 eigenvalues not converged
     c_bands:  1 eigenvalues not converged
     ethr =  1.87E-08,  avg # of iterations =  8.1

     negative rho (up, down):  1.519E-02 0.000E+00

     total cpu time spent up to now is       10.2 secs

     total energy              =    -380.57404544 Ry
     estimated scf accuracy    <       0.00003945 Ry

     iteration # 10     ecut=    50.00 Ry     beta= 0.70
     CG style diagonalization
     ethr =  1.87E-08,  avg # of iterations =  3.5

     negative rho (up, down):  1.530E-02 0.000E+00

     total cpu time spent up to now is       11.0 secs

     total energy              =    -380.57403764 Ry
     estimated scf accuracy    <       0.00002182 Ry

     iteration # 11     ecut=    50.00 Ry     beta= 0.70
     CG style diagonalization
     ethr =  1.87E-08,  avg # of iterations =  4.3

     negative rho (up, down):  1.530E-02 0.000E+00

     total cpu time spent up to now is       12.1 secs

     total energy              =    -380.57404245 Ry
     estimated scf accuracy    <       0.00000147 Ry

     iteration # 12     ecut=    50.00 Ry     beta= 0.70
     CG style diagonalization
     ethr =  3.34E-09,  avg # of iterations =  4.9

     negative rho (up, down):  1.531E-02 0.000E+00

     total cpu time spent up to now is       13.3 secs

     total energy              =    -380.57404327 Ry
     estimated scf accuracy    <       0.00000004 Ry

     iteration # 13     ecut=    50.00 Ry     beta= 0.70
     CG style diagonalization
     c_bands:  1 eigenvalues not converged
     c_bands:  1 eigenvalues not converged
     c_bands:  1 eigenvalues not converged
     c_bands:  1 eigenvalues not converged
     ethr =  9.23E-11,  avg # of iterations = 11.2

     negative rho (up, down):  1.531E-02 0.000E+00

     total cpu time spent up to now is       16.1 secs

     total energy              =    -380.57404378 Ry
     estimated scf accuracy    <       0.00000008 Ry

     iteration # 14     ecut=    50.00 Ry     beta= 0.70
     CG style diagonalization
     ethr =  9.23E-11,  avg # of iterations =  4.1

     negative rho (up, down):  1.531E-02 0.000E+00

     total cpu time spent up to now is       17.1 secs

     End of self-consistent calculation

          k = 0.0000 0.0000 0.0000 (  2421 PWs)   bands (ev):

   -45.1711 -21.8511 -21.7679 -21.7673  -7.1665  -6.0143  -5.7569  -4.4132
    -4.4130  -4.3732  -4.2558  -4.1425   4.8409   6.7358   6.7362   7.1097
     8.7119   8.7141   8.9512   9.2899   9.4364   9.4478

          k = 0.0000 0.0000 0.2379 (  2429 PWs)   bands (ev):

   -45.1708 -21.8745 -21.7670 -21.7664  -6.9590  -5.9526  -5.6871  -4.4309
    -4.4308  -4.3717  -4.2437  -4.2195   3.9793   6.7901   6.7914   7.3062
     8.4593   8.4596   8.8680   9.3772   9.5560   9.5661

          k = 0.0000 0.0000-0.4758 (  2418 PWs)   bands (ev):

   -45.1705 -21.8977 -21.7661 -21.7655  -6.7336  -5.8850  -5.6239  -4.4485
    -4.4484  -4.3702  -4.3023  -4.2332   3.4363   6.6102   6.8236   6.8259
     8.3018   8.3024   8.7888   9.6323   9.6420  10.6533

          k = 0.0001 0.1667 0.0000 (  2423 PWs)   bands (ev):

   -45.1707 -21.8503 -21.7880 -21.7668  -7.0215  -5.9802  -5.7261  -4.4375
    -4.4115  -4.3881  -4.2588  -4.1308   4.3523   6.8011   6.8462   7.1419
     8.6691   8.7346   8.9480   9.0654   9.1709   9.5630

          k = 0.0001 0.1667 0.2379 (  2429 PWs)   bands (ev):

   -45.1704 -21.8735 -21.7870 -21.7658  -6.8305  -5.9344  -5.6506  -4.4360
    -4.4299  -4.3872  -4.2530  -4.1704   3.7459   6.5830   6.9122   7.3909
     8.1266   8.4415   8.7662   9.1617   9.2319   9.9343

          k = 0.0001 0.1667-0.4758 (  2426 PWs)   bands (ev):

   -45.1701 -21.8966 -21.7859 -21.7649  -6.6330  -5.8826  -5.5721  -4.4480
    -4.4323  -4.3863  -4.2576  -4.2056   3.2922   6.2645   6.9520   7.0364
     7.9312   8.2932   8.8333   9.2197   9.3134  10.5746

          k = 0.0002 0.3333 0.0000 (  2422 PWs)   bands (ev):

   -45.1700 -21.8487 -21.8284 -21.7651  -6.7068  -5.9062  -5.6805  -4.4748
    -4.4176  -4.4082  -4.2533  -4.1362   3.7243   6.4312   7.0960   7.1280
     8.3295   8.3573   8.8027   8.8544   9.2900  10.2152

          k = 0.0002 0.3333 0.2379 (  2421 PWs)   bands (ev):

   -45.1696 -21.8714 -21.8272 -21.7641  -6.5819  -5.8639  -5.5837  -4.4415
    -4.4279  -4.4178  -4.2463  -4.1098   3.3597   6.3013   7.0013   7.2273
     7.7611   8.1848   8.3398   8.9073   9.4255  10.2937

          k = 0.0002 0.3333-0.4758 (  2426 PWs)   bands (ev):

   -45.1693 -21.8941 -21.8260 -21.7631  -6.4895  -5.7965  -5.4560  -4.4472
    -4.4182  -4.4003  -4.2823  -4.0564   3.0402   5.9773   6.7629   7.2709
     7.6463   7.8132   8.1265   8.9382   9.8608  10.1241

          k =-0.0003-0.5000 0.0000 (  2438 PWs)   bands (ev):

   -45.1696 -21.8488 -21.8474 -21.7642  -6.5331  -5.8497  -5.6855  -4.4908
    -4.4322  -4.4066  -4.2265  -4.1691   3.5048   6.0471   7.3623   7.3710
     7.8337   7.9751   8.7240   8.8923   9.3209  11.0182

          k =-0.0003-0.5000 0.2379 (  2428 PWs)   bands (ev):

   -45.1692 -21.8701 -21.8474 -21.7632  -6.4741  -5.7738  -5.5776  -4.4539
    -4.4331  -4.4268  -4.2121  -4.1056   3.2082   6.0189   7.0315   7.2726
     7.5786   7.7761   8.4498   8.8852   9.4268  10.4961

          k =-0.0003-0.5000-0.4758 (  2432 PWs)   bands (ev):

   -45.1689 -21.8927 -21.8459 -21.7622  -6.4559  -5.6924  -5.4021  -4.4468
    -4.4340  -4.4091  -4.2676  -3.9944   2.9395   5.8374   6.4515   7.3321
     7.5964   7.8036   7.8259   8.8805   9.7945  10.1607

          k = 0.1668 0.1668 0.0000 (  2425 PWs)   bands (ev):

   -45.1703 -21.8495 -21.7876 -21.7866  -6.8786  -5.9455  -5.7168  -4.4434
    -4.4277  -4.3918  -4.2355  -4.1200   4.0201   6.7229   6.9752   7.1991
     8.1946   8.3086   9.0422   9.0778   9.3773   9.7976

          k = 0.1668 0.1668 0.2379 (  2421 PWs)   bands (ev):

   -45.1700 -21.8725 -21.7865 -21.7856  -6.6987  -5.9195  -5.6417  -4.4463
    -4.4228  -4.3857  -4.2247  -4.1358   3.6209   6.5009   6.6094   7.3358
     8.0241   8.0433   8.8473   9.2224   9.4579   9.9049

          k = 0.1668 0.1668-0.4758 (  2444 PWs)   bands (ev):

   -45.1697 -21.8954 -21.7854 -21.7847  -6.5198  -5.8934  -5.5538  -4.4593
    -4.4012  -4.3627  -4.2300  -4.1576   3.2580   6.2852   6.3324   7.0279
     7.9344   7.9676   8.7496   9.2970   9.5168  10.2728

          k = 0.1668 0.3334 0.0000 (  2426 PWs)   bands (ev):

   -45.1696 -21.8478 -21.8273 -21.7852  -6.5720  -5.8734  -5.7143  -4.4679
    -4.4167  -4.3762  -4.2105  -4.1256   3.5075   6.4293   6.9750   7.2720
     7.6540   8.2409   8.5469   9.2199   9.4077  10.2967

          k = 0.1668 0.3334 0.2379 (  2429 PWs)   bands (ev):

   -45.1692 -21.8704 -21.8262 -21.7842  -6.4435  -5.8641  -5.6318  -4.4432
    -4.4175  -4.3529  -4.1893  -4.0839   3.3626   6.2503   6.3816   6.9382
     7.3885   8.0799   8.8997   9.1787   9.5156  10.0063

          k = 0.1668 0.3334-0.4758 (  2426 PWs)   bands (ev):

   -45.1689 -21.8930 -21.8250 -21.7832  -6.3536  -5.8405  -5.5093  -4.4409
    -4.3917  -4.3117  -4.2018  -4.0291   3.1731   5.8962   6.3126   6.6370
     6.8803   7.9390   9.0078   9.2218   9.5109   9.9529

          k = 0.1664-0.4999 0.0000 (  2422 PWs)   bands (ev):

   -45.1692 -21.8477 -21.8465 -21.7843  -6.4050  -5.8189  -5.7407  -4.4709
    -4.4088  -4.3542  -4.1909  -4.1595   3.3086   6.0659   7.0901   7.3177
     7.6177   7.9633   8.4097   9.2542   9.4070  10.6273

          k = 0.1664-0.4999 0.2379 (  2428 PWs)   bands (ev):

   -45.1689 -21.8692 -21.8463 -21.7833  -6.3349  -5.7840  -5.6551  -4.4415
    -4.4038  -4.3307  -4.1655  -4.0779   3.2454   6.0234   6.2752   6.6836
     7.3491   8.2225   8.6682   9.1901   9.5252   9.9673

          k = 0.1664-0.4999-0.4758 (  2414 PWs)   bands (ev):

   -45.1685 -21.8917 -21.8449 -21.7822  -6.3194  -5.7505  -5.4932  -4.4355
    -4.3596  -4.3082  -4.1842  -3.9680   3.1345   5.7898   6.1441   6.2955
     6.7315   8.0513   8.8757   9.1377   9.1669  10.1703

          k = 0.1665-0.3332 0.0000 (  2426 PWs)   bands (ev):

   -45.1696 -21.8478 -21.8273 -21.7852  -6.5731  -5.8722  -5.7155  -4.4679
    -4.4168  -4.3757  -4.2094  -4.1255   3.5089   6.4281   6.9717   7.2710
     7.6537   8.2413   8.5480   9.2214   9.4111  10.2934

          k = 0.1665-0.3332 0.2379 (  2428 PWs)   bands (ev):

   -45.1692 -21.8704 -21.8262 -21.7842  -6.4445  -5.8630  -5.6330  -4.4433
    -4.4174  -4.3521  -4.1885  -4.0839   3.3645   6.2496   6.3794   6.9351
     7.3887   8.0791   8.9027   9.1804   9.5168  10.0027

          k = 0.1665-0.3332-0.4758 (  2426 PWs)   bands (ev):

   -45.1689 -21.8930 -21.8250 -21.7832  -6.3545  -5.8395  -5.5106  -4.4410
    -4.3915  -4.3107  -4.2012  -4.0292   3.1754   5.8954   6.3117   6.6356
     6.8781   7.9375   9.0061   9.2280   9.5074   9.9527

          k = 0.1666-0.1666 0.0000 (  2421 PWs)   bands (ev):

   -45.1703 -21.8495 -21.7872 -21.7870  -6.8794  -5.9447  -5.7179  -4.4435
    -4.4278  -4.3916  -4.2340  -4.1200   4.0221   6.7208   6.9749   7.1967
     8.1938   8.3043   9.0422   9.0769   9.3874   9.7967

          k = 0.1666-0.1666 0.2379 (  2423 PWs)   bands (ev):

   -45.1700 -21.8725 -21.7862 -21.7859  -6.6994  -5.9187  -5.6428  -4.4464
    -4.4228  -4.3854  -4.2234  -4.1359   3.6233   6.4985   6.6082   7.3332
     8.0238   8.0383   8.8481   9.2252   9.4645   9.9030

          k = 0.1666-0.1666-0.4758 (  2444 PWs)   bands (ev):

   -45.1697 -21.8954 -21.7852 -21.7848  -6.5205  -5.8924  -5.5550  -4.4593
    -4.4012  -4.3624  -4.2286  -4.1578   3.2605   6.2828   6.3334   7.0244
     7.9275   7.9676   8.7508   9.3008   9.5220  10.2691

          k = 0.3335 0.3335 0.0000 (  2438 PWs)   bands (ev):

   -45.1688 -21.8461 -21.8253 -21.8249  -6.3065  -5.8069  -5.7649  -4.4477
    -4.3970  -4.3038  -4.1288  -4.1282   3.1016   6.4140   6.5092   7.3776
     7.5328   7.6789   8.3434   9.0679   9.8831  10.0283

          k = 0.3335 0.3335 0.2379 (  2428 PWs)   bands (ev):

   -45.1685 -21.8684 -21.8244 -21.8239  -6.1682  -5.8554  -5.7205  -4.4055
    -4.3900  -4.2433  -4.0808  -4.0473   3.2909   5.9592   6.0304   6.4102
     7.0525   7.5544   8.9683   9.4789   9.5226   9.8993

          k = 0.3335 0.3335-0.4758 (  2424 PWs)   bands (ev):

   -45.1682 -21.8909 -21.8233 -21.8228  -6.0978  -5.9004  -5.5958  -4.3830
    -4.3636  -4.1780  -4.0306  -3.9688   3.4563   5.5544   5.5753   6.1553
     6.8073   6.9688   8.2174   9.8550   9.8695  10.0351

          k = 0.3331-0.4998 0.0000 (  2454 PWs)   bands (ev):

   -45.1684 -21.8453 -21.8447 -21.8240  -6.1875  -5.7813  -5.7623  -4.4393
    -4.3731  -4.2384  -4.1626  -4.0930   2.9153   6.0590   6.5544   7.1904
     7.7213   7.8418   7.9643   9.0359   9.7083  10.0909

          k = 0.3331-0.4998 0.2379 (  2429 PWs)   bands (ev):

   -45.1681 -21.8672 -21.8441 -21.8231  -6.0510  -5.8090  -5.7799  -4.3962
    -4.3613  -4.1485  -4.0788  -4.0169   3.2177   5.8509   6.0029   6.0714
     6.8348   7.6256   8.4922   9.4777   9.5060  10.0604

          k = 0.3331-0.4998-0.4758 (  2420 PWs)   bands (ev):

   -45.1678 -21.8896 -21.8430 -21.8221  -6.0404  -5.8525  -5.6348  -4.3656
    -4.3388  -4.0856  -3.9939  -3.9121   3.5982   5.2857   5.4817   5.9112
     6.5674   6.9825   7.4283   9.9570  10.0326  10.1945

          k = 0.3332-0.3332 0.0000 (  2436 PWs)   bands (ev):

   -45.1688 -21.8461 -21.8254 -21.8248  -6.3082  -5.8046  -5.7666  -4.4477
    -4.3971  -4.3036  -4.1281  -4.1276   3.1026   6.4122   6.5078   7.3803
     7.5309   7.6766   8.3461   9.0674   9.8871  10.0244

          k = 0.3332-0.3332 0.2379 (  2424 PWs)   bands (ev):

   -45.1685 -21.8684 -21.8243 -21.8240  -6.1703  -5.8530  -5.7219  -4.4055
    -4.3901  -4.2428  -4.0798  -4.0473   3.2926   5.9581   6.0293   6.4084
     7.0528   7.5550   8.9648   9.4788   9.5214   9.9029

          k = 0.3332-0.3332-0.4758 (  2428 PWs)   bands (ev):

   -45.1682 -21.8909 -21.8233 -21.8229  -6.1001  -5.8980  -5.5970  -4.3830
    -4.3637  -4.1768  -4.0300  -3.9690   3.4590   5.5539   5.5741   6.1539
     6.8068   6.9690   8.2112   9.8561   9.8729  10.0345

          k =-0.5003-0.5003 0.0000 (  2480 PWs)   bands (ev):

   -45.1680 -21.8444 -21.8440 -21.8434  -6.1315  -5.7386  -5.7355  -4.4283
    -4.3250  -4.1842  -4.1841  -4.0422   2.7222   5.9076   6.3862   7.4016
     7.4049   7.9580   7.9615   8.8031   9.2316  10.3515

          k =-0.5003-0.5003 0.2379 (  2428 PWs)   bands (ev):

   -45.1677 -21.8660 -21.8433 -21.8429  -5.9161  -5.8247  -5.8216  -4.3839
    -4.3228  -4.0374  -4.0374  -4.0077   3.1393   5.8643   5.9744   5.9748
     6.3928   7.5667   7.8366   9.5071   9.5077  10.3339

          k =-0.5003-0.5003-0.4758 (  2400 PWs)   bands (ev):

   -45.1674 -21.8885 -21.8422 -21.8418  -5.8998  -5.8967  -5.6941  -4.3394
    -4.3207  -3.9615  -3.8991  -3.8991   3.8153   5.3135   5.3144   5.7457
     6.3996   6.4178   6.6708  10.2056  10.2068  10.3164

     highest occupied level (ev):    11.0182

!    total energy              =    -380.57404379 Ry
     estimated scf accuracy    <          3.9E-09 Ry

     The total energy is the sum of the following terms:
     one-electron contribution =     -79.71052032 Ry
     hartree contribution      =      69.93337172 Ry
     xc contribution           =    -102.67712091 Ry
     ewald contribution        =    -268.11977427 Ry

     convergence has been achieved in  14 iterations

     negative rho (up, down):  1.531E-02 0.000E+00

     Forces acting on atoms (cartesian axes, Ry/au):

     atom    1 type  1   force =     0.00000000    0.00000000    0.00008562
     atom    2 type  2   force =     0.00000000    0.00000000   -0.00012165
     atom    3 type  3   force =     0.00000000    0.00000000    0.00014414
     atom    4 type  3   force =     0.00000000    0.00000000   -0.00005406
     atom    5 type  3   force =     0.00000000    0.00000000   -0.00005406

     Total force =     0.000221     Total SCF correction =     0.000143
     SCF correction compared to forces is large: reduce conv_thr to get better values


     Computing stress (Cartesian axis) and pressure


     negative rho (up, down):  1.531E-02 0.000E+00
          total   stress  (Ry/bohr**3)                   (kbar)     P=        0.08
   0.00000233   0.00000742   0.00000000            0.34        1.09        0.00
   0.00000742   0.00000233   0.00000000            1.09        0.34        0.00
   0.00000000   0.00000000  -0.00000302            0.00        0.00       -0.44


     BFGS Geometry Optimization
     Energy error            =      0.0E+00 Ry
     Gradient error          =      1.4E-04 Ry/Bohr

     bfgs converged in   1 scf cycles and   0 bfgs steps
     (criteria: energy <  1.0E-04 Ry, force <  1.0E-03 Ry/Bohr)

     End of BFGS Geometry Optimization

     Final energy             =    -380.5740437858 Ry
Begin final coordinates

ATOMIC_POSITIONS (crystal)
Pb               0.0000000000        0.0000000000        1.0051738283
Ti               0.5000000000        0.5000000000        0.5395344294
O                0.5000000000        0.5000000000        0.0995079024
O                0.5000000000        0.0000000000        0.6115340639
O                0.0000000000        0.5000000000        0.6115340639
End final coordinates



     Writing all to output data dir ./pto_T6_etam0p004.save/ :
     XML data file, charge density, pseudopotentials, collected wavefunctions
 
     init_run     :      0.41s CPU      0.50s WALL (       1 calls)
     electrons    :     15.45s CPU     16.41s WALL (       1 calls)
     forces       :      0.11s CPU      0.12s WALL (       1 calls)
     stress       :      1.16s CPU      1.17s WALL (       1 calls)

     Called by init_run:
     wfcinit      :      0.20s CPU      0.23s WALL (       1 calls)
     potinit      :      0.01s CPU      0.01s WALL (       1 calls)
     hinit0       :      0.11s CPU      0.14s WALL (       1 calls)

     Called by electrons:
     c_bands      :     13.34s CPU     14.16s WALL (      14 calls)
     sum_band     :      1.48s CPU      1.55s WALL (      14 calls)
     v_of_rho     :      0.02s CPU      0.02s WALL (      15 calls)
     newd         :      0.62s CPU      0.68s WALL (      15 calls)
     mix_rho      :      0.02s CPU      0.02s WALL (      14 calls)

     Called by c_bands:
     init_us_2    :      0.12s CPU      0.12s WALL (    1209 calls)
     init_us_2:cp :      0.11s CPU      0.12s WALL (    1209 calls)
     ccgdiagg     :     11.87s CPU     12.62s WALL (     546 calls)
     wfcrot       :      1.56s CPU      1.64s WALL (     546 calls)

     Called by *cgdiagg:
     h_psi        :      7.63s CPU      8.09s WALL (   45568 calls)
     s_psi        :      1.17s CPU      1.25s WALL (   90590 calls)

     Called by h_psi:
     h_psi:calbec :      1.16s CPU      1.23s WALL (   45568 calls)
     vloc_psi     :      5.48s CPU      5.81s WALL (   45568 calls)
     add_vuspsi   :      0.64s CPU      0.68s WALL (   45568 calls)
     hs_1psi      :      7.22s CPU      7.68s WALL (   45022 calls)
     s_1psi       :      1.74s CPU      1.85s WALL (   45022 calls)

     General routines
     calbec       :      2.07s CPU      2.20s WALL (   91331 calls)
     fft          :      0.02s CPU      0.04s WALL (      96 calls)
     ffts         :      0.00s CPU      0.00s WALL (      29 calls)
     fftw         :      4.67s CPU      4.94s WALL (  126782 calls)
     interpolate  :      0.01s CPU      0.01s WALL (      15 calls)
 
     Parallel routines
 
     PWSCF        :     17.38s CPU     18.88s WALL

 
   This run was terminated on:   0:38:40  18Nov2025            

=------------------------------------------------------------------------------=
   JOB DONE.
=------------------------------------------------------------------------------=
TACC:  Shutdown complete. Exiting. 
