TACC:  Starting up job 2560856 
TACC:  Starting parallel tasks... 

     Program PWSCF v.7.3 starts on 18Nov2025 at  0:17:16 

     This program is part of the open-source Quantum ESPRESSO suite
     for quantum simulation of materials; please cite
         "P. Giannozzi et al., J. Phys.:Condens. Matter 21 395502 (2009);
         "P. Giannozzi et al., J. Phys.:Condens. Matter 29 465901 (2017);
         "P. Giannozzi et al., J. Chem. Phys. 152 154105 (2020);
          URL http://www.quantum-espresso.org", 
     in publications or presentations arising from this work. More details at
     http://www.quantum-espresso.org/quote

     Parallel version (MPI & OpenMP), running on      10 processor cores
     Number of MPI processes:                10
     Threads/MPI process:                     1

     MPI processes distributed on     1 nodes
     183959 MiB available memory on the printing compute node when the environment starts
 
     Waiting for input...
     Reading input from standard input
Warning: card &CELL ignored
Warning: card  CELL_DYNAMICS = 'BFGS', ignored
Warning: card  PRESS=0.D0, ignored
Warning: card / ignored

     Current dimensions of program PWSCF are:
     Max number of different atomic species (ntypx) = 10
     Max number of k-points (npk) =  40000
     Max angular momentum in pseudopotentials (lmaxx) =  4
     Message from routine setup:
     using ibrav=0 with symmetry is DISCOURAGED, use correct ibrav instead
 
     R & G space division:  proc/nbgrp/npool/nimage =      10
     Subspace diagonalization in iterative solution of the eigenvalue problem:
     a serial algorithm will be used

 
     Parallelization info
     --------------------
     sticks:   dense  smooth     PW     G-vecs:    dense   smooth      PW
     Min         209      84     25                 7667     1938     321
     Max         210      85     26                 7672     1943     324
     Sum        2093     845    253                76683    19399    3231
 
     Using Slab Decomposition
 


     bravais-lattice index     =            0
     lattice parameter (alat)  =       7.2859  a.u.
     unit-cell volume          =     406.0740 (a.u.)^3
     number of atoms/cell      =            5
     number of atomic types    =            3
     number of electrons       =        44.00
     number of Kohn-Sham states=           22
     kinetic-energy cutoff     =      50.0000  Ry
     charge density cutoff     =     500.0000  Ry
     scf convergence threshold =      1.0E-08
     mixing beta               =       0.7000
     number of iterations used =            8  plain     mixing
     energy convergence thresh.=      1.0E-04
     force convergence thresh. =      1.0E-03
     Exchange-correlation= SLA  PZ   NOGX NOGC
                           (   1   1   0   0   0   0   0)
     nstep                     =           50


     celldm(1)=   7.285877  celldm(2)=   0.000000  celldm(3)=   0.000000
     celldm(4)=   0.000000  celldm(5)=   0.000000  celldm(6)=   0.000000

     crystal axes: (cart. coord. in units of alat)
               a(1) = (   1.000000   0.000000   0.000000 )  
               a(2) = (   0.000000   1.000000   0.000000 )  
               a(3) = (   0.000000   0.000000   1.049928 )  

     reciprocal axes: (cart. coord. in units 2 pi/alat)
               b(1) = (  1.000000  0.000000  0.000000 )  
               b(2) = (  0.000000  1.000000  0.000000 )  
               b(3) = (  0.000000  0.000000  0.952446 )  


     PseudoPot. # 1 for Pb read from file:
     /scratch/11018/zhc/assisgnment3/input_files/Pb_LDA.UPF
     MD5 check sum: 062a37469794d955244864f8fe2e5624
     Pseudo is Ultrasoft + core correction, Zval = 14.0
     Generated by new atomic code, or converted to UPF format
     Using radial grid of  899 points,  6 beta functions with: 
                l(1) =   0
                l(2) =   0
                l(3) =   1
                l(4) =   1
                l(5) =   2
                l(6) =   2
     Q(r) pseudized with  6 coefficients,  rinner =    1.000   1.000   1.000
                                                       1.000   1.000

     PseudoPot. # 2 for Ti read from file:
     /scratch/11018/zhc/assisgnment3/input_files/Ti_LDA.UPF
     MD5 check sum: 0d9f225c038fe889ca2a701dcc8d72cb
     Pseudo is Ultrasoft + core correction, Zval = 12.0
     Generated by new atomic code, or converted to UPF format
     Using radial grid of  851 points,  6 beta functions with: 
                l(1) =   0
                l(2) =   0
                l(3) =   1
                l(4) =   1
                l(5) =   2
                l(6) =   2
     Q(r) pseudized with  6 coefficients,  rinner =    1.000   1.000   1.000
                                                       1.000   1.000

     PseudoPot. # 3 for O  read from file:
     /scratch/11018/zhc/assisgnment3/input_files/O_LDA.UPF
     MD5 check sum: 194b818514d2a7dbb603bb78519a4f40
     Pseudo is Ultrasoft + core correction, Zval =  6.0
     Generated by new atomic code, or converted to UPF format
     Using radial grid of  737 points,  5 beta functions with: 
                l(1) =   0
                l(2) =   0
                l(3) =   1
                l(4) =   1
                l(5) =   2
     Q(r) pseudized with  8 coefficients,  rinner =    0.900   0.900   0.900
                                                       0.900   0.900

     atomic species   valence    mass     pseudopotential
     Pb               14.00   207.20000     Pb( 1.00)
     Ti               12.00    47.88000     Ti( 1.00)
     O                 6.00    16.00000     O ( 1.00)

      8 Sym. Ops. (no inversion) found



   Cartesian axes

     site n.     atom                  positions (alat units)
         1        Pb     tau(   1) = (   0.0000000   0.0000000   1.0553606  )
         2        Ti     tau(   2) = (   0.5000000   0.5000000   0.5664725  )
         3        O      tau(   3) = (   0.5000000   0.5000000   0.1044762  )
         4        O      tau(   4) = (   0.5000000   0.0000000   0.6420670  )
         5        O      tau(   5) = (   0.0000000   0.5000000   0.6420670  )

     number of k points=    30
                       cart. coord. in units 2pi/alat
        k(    1) = (   0.0000000   0.0000000   0.0000000), wk =   0.0138889
        k(    2) = (   0.0000000   0.0000000   0.2381115), wk =   0.0277778
        k(    3) = (   0.0000000   0.0000000  -0.4762229), wk =   0.0138889
        k(    4) = (   0.0000000   0.1666667   0.0000000), wk =   0.0555556
        k(    5) = (   0.0000000   0.1666667   0.2381115), wk =   0.1111111
        k(    6) = (   0.0000000   0.1666667  -0.4762229), wk =   0.0555556
        k(    7) = (   0.0000000   0.3333333   0.0000000), wk =   0.0555556
        k(    8) = (   0.0000000   0.3333333   0.2381115), wk =   0.1111111
        k(    9) = (   0.0000000   0.3333333  -0.4762229), wk =   0.0555556
        k(   10) = (   0.0000000  -0.5000000   0.0000000), wk =   0.0277778
        k(   11) = (   0.0000000  -0.5000000   0.2381115), wk =   0.0555556
        k(   12) = (   0.0000000  -0.5000000  -0.4762229), wk =   0.0277778
        k(   13) = (   0.1666667   0.1666667   0.0000000), wk =   0.0555556
        k(   14) = (   0.1666667   0.1666667   0.2381115), wk =   0.1111111
        k(   15) = (   0.1666667   0.1666667  -0.4762229), wk =   0.0555556
        k(   16) = (   0.1666667   0.3333333   0.0000000), wk =   0.1111111
        k(   17) = (   0.1666667   0.3333333   0.2381115), wk =   0.2222222
        k(   18) = (   0.1666667   0.3333333  -0.4762229), wk =   0.1111111
        k(   19) = (   0.1666667  -0.5000000   0.0000000), wk =   0.0555556
        k(   20) = (   0.1666667  -0.5000000   0.2381115), wk =   0.1111111
        k(   21) = (   0.1666667  -0.5000000  -0.4762229), wk =   0.0555556
        k(   22) = (   0.3333333   0.3333333   0.0000000), wk =   0.0555556
        k(   23) = (   0.3333333   0.3333333   0.2381115), wk =   0.1111111
        k(   24) = (   0.3333333   0.3333333  -0.4762229), wk =   0.0555556
        k(   25) = (   0.3333333  -0.5000000   0.0000000), wk =   0.0555556
        k(   26) = (   0.3333333  -0.5000000   0.2381115), wk =   0.1111111
        k(   27) = (   0.3333333  -0.5000000  -0.4762229), wk =   0.0555556
        k(   28) = (  -0.5000000  -0.5000000   0.0000000), wk =   0.0138889
        k(   29) = (  -0.5000000  -0.5000000   0.2381115), wk =   0.0277778
        k(   30) = (  -0.5000000  -0.5000000  -0.4762229), wk =   0.0138889

     Dense  grid:    76683 G-vectors     FFT dimensions: (  54,  54,  60)

     Smooth grid:    19399 G-vectors     FFT dimensions: (  36,  36,  36)

     Estimated max dynamical RAM per process >      36.52 MB

     Estimated total dynamical RAM >     365.25 MB

     Check: negative core charge=   -0.000004

     Initial potential from superposition of free atoms

     starting charge      42.9982, renormalised to      44.0000

     negative rho (up, down):  1.669E-02 0.000E+00
     Starting wfcs are   31 randomized atomic wfcs

     total cpu time spent up to now is        0.7 secs

     Self-consistent Calculation

     iteration #  1     ecut=    50.00 Ry     beta= 0.70
     CG style diagonalization
     ethr =  1.00E-02,  avg # of iterations =  2.1

     negative rho (up, down):  1.400E-02 0.000E+00

     total cpu time spent up to now is        1.2 secs

     total energy              =    -380.06428665 Ry
     estimated scf accuracy    <       1.01947640 Ry

     iteration #  2     ecut=    50.00 Ry     beta= 0.70
     CG style diagonalization
     ethr =  2.32E-03,  avg # of iterations =  4.8

     negative rho (up, down):  1.452E-02 0.000E+00

     total cpu time spent up to now is        2.2 secs

     total energy              =    -379.76533751 Ry
     estimated scf accuracy    <       3.86002591 Ry

     iteration #  3     ecut=    50.00 Ry     beta= 0.70
     CG style diagonalization
     ethr =  2.32E-03,  avg # of iterations =  4.3

     negative rho (up, down):  1.513E-02 0.000E+00

     total cpu time spent up to now is        3.0 secs

     total energy              =    -380.53751943 Ry
     estimated scf accuracy    <       0.30801826 Ry

     iteration #  4     ecut=    50.00 Ry     beta= 0.70
     CG style diagonalization
     ethr =  7.00E-04,  avg # of iterations =  3.4

     negative rho (up, down):  1.512E-02 0.000E+00

     total cpu time spent up to now is        3.7 secs

     total energy              =    -380.56025392 Ry
     estimated scf accuracy    <       0.04117173 Ry

     iteration #  5     ecut=    50.00 Ry     beta= 0.70
     CG style diagonalization
     ethr =  9.36E-05,  avg # of iterations =  3.9

     negative rho (up, down):  1.512E-02 0.000E+00

     total cpu time spent up to now is        4.5 secs

     total energy              =    -380.57166174 Ry
     estimated scf accuracy    <       0.00790784 Ry

     iteration #  6     ecut=    50.00 Ry     beta= 0.70
     CG style diagonalization
     ethr =  1.80E-05,  avg # of iterations =  3.8

     negative rho (up, down):  1.513E-02 0.000E+00

     total cpu time spent up to now is        5.2 secs

     total energy              =    -380.57360588 Ry
     estimated scf accuracy    <       0.00595990 Ry

     iteration #  7     ecut=    50.00 Ry     beta= 0.70
     CG style diagonalization
     ethr =  1.35E-05,  avg # of iterations =  3.3

     negative rho (up, down):  1.514E-02 0.000E+00

     total cpu time spent up to now is        5.9 secs

     total energy              =    -380.57361508 Ry
     estimated scf accuracy    <       0.00160041 Ry

     iteration #  8     ecut=    50.00 Ry     beta= 0.70
     CG style diagonalization
     ethr =  3.64E-06,  avg # of iterations =  3.7

     negative rho (up, down):  1.517E-02 0.000E+00

     total cpu time spent up to now is        6.6 secs

     total energy              =    -380.57397706 Ry
     estimated scf accuracy    <       0.00000992 Ry

     iteration #  9     ecut=    50.00 Ry     beta= 0.70
     CG style diagonalization
     ethr =  2.25E-08,  avg # of iterations =  7.5

     negative rho (up, down):  1.520E-02 0.000E+00

     total cpu time spent up to now is        8.1 secs

     total energy              =    -380.57403496 Ry
     estimated scf accuracy    <       0.00003238 Ry

     iteration # 10     ecut=    50.00 Ry     beta= 0.70
     CG style diagonalization
     ethr =  2.25E-08,  avg # of iterations =  3.4

     negative rho (up, down):  1.530E-02 0.000E+00

     total cpu time spent up to now is        8.7 secs

     total energy              =    -380.57402911 Ry
     estimated scf accuracy    <       0.00001774 Ry

     iteration # 11     ecut=    50.00 Ry     beta= 0.70
     CG style diagonalization
     ethr =  2.25E-08,  avg # of iterations =  4.1

     negative rho (up, down):  1.530E-02 0.000E+00

     total cpu time spent up to now is        9.5 secs

     total energy              =    -380.57403294 Ry
     estimated scf accuracy    <       0.00000137 Ry

     iteration # 12     ecut=    50.00 Ry     beta= 0.70
     CG style diagonalization
     ethr =  3.12E-09,  avg # of iterations =  5.3

     negative rho (up, down):  1.530E-02 0.000E+00

     total cpu time spent up to now is       10.6 secs

     total energy              =    -380.57403399 Ry
     estimated scf accuracy    <       0.00000005 Ry

     iteration # 13     ecut=    50.00 Ry     beta= 0.70
     CG style diagonalization
     c_bands:  1 eigenvalues not converged
     c_bands:  1 eigenvalues not converged
     c_bands:  1 eigenvalues not converged
     ethr =  1.21E-10,  avg # of iterations = 10.4

     negative rho (up, down):  1.531E-02 0.000E+00

     total cpu time spent up to now is       12.6 secs

     total energy              =    -380.57403448 Ry
     estimated scf accuracy    <       0.00000005 Ry

     iteration # 14     ecut=    50.00 Ry     beta= 0.70
     CG style diagonalization
     ethr =  1.20E-10,  avg # of iterations =  4.3

     negative rho (up, down):  1.531E-02 0.000E+00

     total cpu time spent up to now is       13.4 secs

     End of self-consistent calculation

          k = 0.0000 0.0000 0.0000 (  2421 PWs)   bands (ev):

   -45.1507 -21.8330 -21.7476 -21.7476  -7.1555  -6.0013  -5.7448  -4.3959
    -4.3959  -4.3562  -4.2396  -4.1237   4.8606   6.7469   6.7469   7.1263
     8.7261   8.7261   8.9672   9.3057   9.4557   9.4557

          k = 0.0000 0.0000 0.2381 (  2429 PWs)   bands (ev):

   -45.1503 -21.8567 -21.7466 -21.7466  -6.9466  -5.9392  -5.6739  -4.4138
    -4.4138  -4.3547  -4.2269  -4.2012   3.9951   6.8016   6.8016   7.3193
     8.4715   8.4715   8.8833   9.3952   9.5755   9.5755

          k = 0.0000 0.0000-0.4762 (  2410 PWs)   bands (ev):

   -45.1500 -21.8802 -21.7457 -21.7457  -6.7199  -5.8711  -5.6095  -4.4316
    -4.4316  -4.3532  -4.2846  -4.2159   3.4501   6.6177   6.8351   6.8351
     8.3142   8.3142   8.8035   9.6520   9.6520  10.6767

          k = 0.0000 0.1667 0.0000 (  2423 PWs)   bands (ev):

   -45.1503 -21.8322 -21.7680 -21.7467  -7.0104  -5.9671  -5.7141  -4.4204
    -4.3943  -4.3711  -4.2423  -4.1122   4.3690   6.8161   6.8573   7.1583
     8.6824   8.7467   8.9617   9.0798   9.1861   9.5788

          k = 0.0000 0.1667 0.2381 (  2428 PWs)   bands (ev):

   -45.1500 -21.8557 -21.7669 -21.7458  -6.8180  -5.9210  -5.6376  -4.4189
    -4.4129  -4.3702  -4.2361  -4.1521   3.7609   6.5950   6.9233   7.4057
     8.1380   8.4529   8.7799   9.1762   9.2467   9.9524

          k = 0.0000 0.1667-0.4762 (  2422 PWs)   bands (ev):

   -45.1496 -21.8791 -21.7659 -21.7448  -6.6194  -5.8688  -5.5579  -4.4312
    -4.4151  -4.3693  -4.2402  -4.1878   3.3058   6.2729   6.9626   7.0479
     7.9428   8.3049   8.8476   9.2331   9.3286  10.5965

          k = 0.0000 0.3333 0.0000 (  2422 PWs)   bands (ev):

   -45.1495 -21.8305 -21.8084 -21.7450  -6.6954  -5.8930  -5.6688  -4.4578
    -4.4007  -4.3910  -4.2364  -4.1180   3.7390   6.4467   7.1122   7.1395
     8.3447   8.3698   8.8171   8.8678   9.3063  10.2305

          k = 0.0000 0.3333 0.2381 (  2421 PWs)   bands (ev):

   -45.1492 -21.8536 -21.8072 -21.7440  -6.5693  -5.8505  -5.5710  -4.4243
    -4.4109  -4.4008  -4.2290  -4.0916   3.3737   6.3154   7.0150   7.2390
     7.7729   8.1962   8.3528   8.9214   9.4420  10.3099

          k = 0.0000 0.3333-0.4762 (  2428 PWs)   bands (ev):

   -45.1489 -21.8766 -21.8059 -21.7430  -6.4761  -5.7826  -5.4419  -4.4304
    -4.4012  -4.3828  -4.2650  -4.0380   3.0533   5.9872   6.7758   7.2820
     7.6572   7.8253   8.1384   8.9527   9.8726  10.1450

          k = 0.0000-0.5000 0.0000 (  2428 PWs)   bands (ev):

   -45.1491 -21.8292 -21.8289 -21.7441  -6.5214  -5.8365  -5.6741  -4.4740
    -4.4152  -4.3894  -4.2092  -4.1513   3.5191   6.0622   7.3773   7.3827
     7.8511   7.9881   8.7384   8.9049   9.3373  11.0344

          k = 0.0000-0.5000 0.2381 (  2420 PWs)   bands (ev):

   -45.1488 -21.8523 -21.8274 -21.7431  -6.4613  -5.7602  -5.5654  -4.4367
    -4.4161  -4.4098  -4.1945  -4.0875   3.2218   6.0338   7.0442   7.2846
     7.5916   7.7873   8.4633   8.8983   9.4451  10.5100

          k = 0.0000-0.5000-0.4762 (  2416 PWs)   bands (ev):

   -45.1485 -21.8752 -21.8259 -21.7421  -6.4427  -5.6784  -5.3883  -4.4300
    -4.4171  -4.3915  -4.2502  -3.9757   2.9525   5.8491   6.4629   7.3431
     7.6061   7.8180   7.8377   8.8938   9.8106  10.1763

          k = 0.1667 0.1667 0.0000 (  2417 PWs)   bands (ev):

   -45.1499 -21.8314 -21.7673 -21.7668  -6.8678  -5.9318  -5.7054  -4.4265
    -4.4105  -4.3746  -4.2182  -4.1015   4.0361   6.7342   6.9912   7.2142
     8.2079   8.3197   9.0575   9.0915   9.3954   9.8122

          k = 0.1667 0.1667 0.2381 (  2421 PWs)   bands (ev):

   -45.1496 -21.8547 -21.7661 -21.7658  -6.6866  -5.9056  -5.6293  -4.4293
    -4.4057  -4.3685  -4.2072  -4.1175   3.6366   6.5108   6.6210   7.3488
     8.0377   8.0538   8.8596   9.2386   9.4746   9.9218

          k = 0.1667 0.1667-0.4762 (  2444 PWs)   bands (ev):

   -45.1492 -21.8779 -21.7650 -21.7649  -6.5065  -5.8792  -5.5401  -4.4424
    -4.3841  -4.3452  -4.2122  -4.1397   3.2727   6.2940   6.3409   7.0392
     7.9436   7.9817   8.7611   9.3134   9.5326  10.2911

          k = 0.1667 0.3333 0.0000 (  2424 PWs)   bands (ev):

   -45.1491 -21.8297 -21.8073 -21.7652  -6.5613  -5.8594  -5.7028  -4.4510
    -4.3996  -4.3589  -4.1933  -4.1074   3.5214   6.4437   6.9872   7.2878
     7.6682   8.2540   8.5633   9.2346   9.4246  10.3104

          k = 0.1667 0.3333 0.2381 (  2425 PWs)   bands (ev):

   -45.1488 -21.8526 -21.8062 -21.7641  -6.4314  -5.8500  -5.6196  -4.4262
    -4.4004  -4.3354  -4.1718  -4.0657   3.3770   6.2633   6.3921   6.9496
     7.4014   8.0937   8.9158   9.1929   9.5314  10.0201

          k = 0.1667 0.3333-0.4762 (  2420 PWs)   bands (ev):

   -45.1485 -21.8755 -21.8050 -21.7631  -6.3406  -5.8263  -5.4957  -4.4239
    -4.3744  -4.2938  -4.1842  -4.0107   3.1874   5.9056   6.3234   6.6456
     6.8931   7.9529   9.0175   9.2384   9.5246   9.9689

          k = 0.1667-0.5000 0.0000 (  2420 PWs)   bands (ev):

   -45.1487 -21.8284 -21.8277 -21.7642  -6.3935  -5.8055  -5.7287  -4.4541
    -4.3916  -4.3373  -4.1739  -4.1418   3.3212   6.0810   7.1034   7.3327
     7.6336   7.9795   8.4218   9.2671   9.4235  10.6451

          k = 0.1667-0.5000 0.2381 (  2424 PWs)   bands (ev):

   -45.1484 -21.8514 -21.8263 -21.7632  -6.3220  -5.7704  -5.6426  -4.4243
    -4.3867  -4.3140  -4.1478  -4.0601   3.2584   6.0381   6.2864   6.6958
     7.3615   8.2363   8.6838   9.2033   9.5421   9.9815

          k = 0.1667-0.5000-0.4762 (  2408 PWs)   bands (ev):

   -45.1481 -21.8742 -21.8249 -21.7622  -6.3061  -5.7366  -5.4791  -4.4185
    -4.3420  -4.2914  -4.1666  -3.9494   3.1475   5.8006   6.1554   6.3083
     6.7405   8.0660   8.8901   9.1489   9.1806  10.1864

          k = 0.3333 0.3333 0.0000 (  2434 PWs)   bands (ev):

   -45.1484 -21.8279 -21.8051 -21.8051  -6.2965  -5.7920  -5.7529  -4.4309
    -4.3800  -4.2865  -4.1119  -4.1103   3.1129   6.4281   6.5234   7.3942
     7.5480   7.6901   8.3608   9.0846   9.8983  10.0447

          k = 0.3333 0.3333 0.2381 (  2421 PWs)   bands (ev):

   -45.1480 -21.8506 -21.8042 -21.8041  -6.1566  -5.8405  -5.7082  -4.3883
    -4.3730  -4.2259  -4.0634  -4.0290   3.3038   5.9702   6.0411   6.4238
     7.0670   7.5673   8.9849   9.4948   9.5363   9.9144

          k = 0.3333 0.3333-0.4762 (  2424 PWs)   bands (ev):

   -45.1477 -21.8733 -21.8031 -21.8030  -6.0854  -5.8857  -5.5820  -4.3660
    -4.3461  -4.1602  -4.0127  -3.9502   3.4708   5.5633   5.5852   6.1657
     6.8185   6.9840   8.2281   9.8696   9.8849  10.0494

          k = 0.3333-0.5000 0.0000 (  2454 PWs)   bands (ev):

   -45.1480 -21.8266 -21.8254 -21.8040  -6.1770  -5.7678  -5.7486  -4.4225
    -4.3560  -4.2212  -4.1450  -4.0769   2.9252   6.0740   6.5697   7.2043
     7.7340   7.8580   7.9802   9.0527   9.7289  10.1052

          k = 0.3333-0.5000 0.2381 (  2430 PWs)   bands (ev):

   -45.1477 -21.8494 -21.8241 -21.8031  -6.0382  -5.7953  -5.7669  -4.3790
    -4.3442  -4.1316  -4.0608  -3.9996   3.2289   5.8619   6.0162   6.0844
     6.8492   7.6373   8.5115   9.4938   9.5216  10.0738

          k = 0.3333-0.5000-0.4762 (  2420 PWs)   bands (ev):

   -45.1473 -21.8721 -21.8229 -21.8021  -6.0270  -5.8389  -5.6203  -4.3484
    -4.3213  -4.0689  -3.9755  -3.8936   3.6112   5.2956   5.4906   5.9247
     6.5786   6.9950   7.4426   9.9711  10.0459  10.2104

          k =-0.5000-0.5000 0.0000 (  2480 PWs)   bands (ev):

   -45.1476 -21.8253 -21.8242 -21.8242  -6.1213  -5.7230  -5.7230  -4.4115
    -4.3079  -4.1667  -4.1667  -4.0264   2.7310   5.9225   6.4019   7.4157
     7.4157   7.9757   7.9757   8.8201   9.2569  10.3650

          k =-0.5000-0.5000 0.2381 (  2424 PWs)   bands (ev):

   -45.1473 -21.8482 -21.8231 -21.8231  -5.9038  -5.8094  -5.8094  -4.3666
    -4.3057  -4.0192  -4.0192  -3.9917   3.1495   5.8793   5.9846   5.9846
     6.4086   7.5781   7.8571   9.5242   9.5242  10.3473

          k =-0.5000-0.5000-0.4762 (  2400 PWs)   bands (ev):

   -45.1469 -21.8709 -21.8219 -21.8219  -5.8848  -5.8848  -5.6796  -4.3217
    -4.3035  -3.9452  -3.8802  -3.8802   3.8279   5.3223   5.3223   5.7596
     6.4154   6.4333   6.6785  10.2221  10.2221  10.3297

     highest occupied level (ev):    11.0344

!    total energy              =    -380.57403449 Ry
     estimated scf accuracy    <          6.9E-09 Ry

     The total energy is the sum of the following terms:
     one-electron contribution =     -79.57354421 Ry
     hartree contribution      =      69.89231769 Ry
     xc contribution           =    -102.68091943 Ry
     ewald contribution        =    -268.21188854 Ry

     convergence has been achieved in  14 iterations

     negative rho (up, down):  1.531E-02 0.000E+00

     Forces acting on atoms (cartesian axes, Ry/au):

     atom    1 type  1   force =     0.00000000    0.00000000    0.00041126
     atom    2 type  2   force =     0.00000000    0.00000000    0.00093596
     atom    3 type  3   force =     0.00000000    0.00000000   -0.00110080
     atom    4 type  3   force =     0.00000000    0.00000000   -0.00012322
     atom    5 type  3   force =     0.00000000    0.00000000   -0.00012322

     Total force =     0.001512     Total SCF correction =     0.000377
     SCF correction compared to forces is large: reduce conv_thr to get better values


     Computing stress (Cartesian axis) and pressure


     negative rho (up, down):  1.531E-02 0.000E+00
          total   stress  (Ry/bohr**3)                   (kbar)     P=        1.94
   0.00001078   0.00000000   0.00000000            1.59        0.00        0.00
   0.00000000   0.00001078   0.00000000            0.00        1.59        0.00
   0.00000000   0.00000000   0.00001808            0.00        0.00        2.66


     BFGS Geometry Optimization
     Energy error            =      0.0E+00 Ry
     Gradient error          =      1.1E-03 Ry/Bohr

     number of scf cycles    =   1
     number of bfgs steps    =   0

     energy             new  =    -380.5740344911 Ry

     new trust radius        =       0.0011007957 bohr
     new conv_thr            =       0.0000000100 Ry


ATOMIC_POSITIONS (crystal)
Pb               0.0000000000        0.0000000000        1.0052275908
Ti               0.5000000000        0.5000000000        0.5396567834
O                0.5000000000        0.5000000000        0.0993640009
O                0.5000000000        0.0000000000        0.6115179564
O                0.0000000000        0.5000000000        0.6115179564



     Writing config-only to output data dir ./pto_T3_etam0p004.save/ :
     XML data file
     NEW-OLD atomic charge density approx. for the potential

     Check: negative core charge=   -0.000004

     negative rho (up, down):  1.532E-02 0.000E+00

     total cpu time spent up to now is       14.6 secs

     Self-consistent Calculation

     iteration #  1     ecut=    50.00 Ry     beta= 0.70
     CG style diagonalization
     ethr =  1.00E-06,  avg # of iterations =  2.4

     Threshold (ethr) on eigenvalues was too large:
     Diagonalizing with lowered threshold

     CG style diagonalization
     c_bands:  2 eigenvalues not converged
     c_bands:  1 eigenvalues not converged
     c_bands:  1 eigenvalues not converged
     c_bands:  1 eigenvalues not converged
     c_bands:  2 eigenvalues not converged
     c_bands:  1 eigenvalues not converged
     c_bands:  1 eigenvalues not converged
     c_bands:  2 eigenvalues not converged
     c_bands:  1 eigenvalues not converged
     c_bands:  1 eigenvalues not converged
     ethr =  1.60E-09,  avg # of iterations =  7.0

     negative rho (up, down):  1.532E-02 0.000E+00

     total cpu time spent up to now is       16.6 secs

     total energy              =    -380.57403657 Ry
     estimated scf accuracy    <       0.00000067 Ry

     iteration #  2     ecut=    50.00 Ry     beta= 0.70
     CG style diagonalization
     ethr =  1.53E-09,  avg # of iterations =  4.5

     negative rho (up, down):  1.532E-02 0.000E+00

     total cpu time spent up to now is       17.5 secs

     total energy              =    -380.57403660 Ry
     estimated scf accuracy    <       0.00000077 Ry

     iteration #  3     ecut=    50.00 Ry     beta= 0.70
     CG style diagonalization
     ethr =  1.53E-09,  avg # of iterations =  4.0

     negative rho (up, down):  1.532E-02 0.000E+00

     total cpu time spent up to now is       18.3 secs

     total energy              =    -380.57403678 Ry
     estimated scf accuracy    <       0.00000027 Ry

     iteration #  4     ecut=    50.00 Ry     beta= 0.70
     CG style diagonalization
     ethr =  6.04E-10,  avg # of iterations =  3.5

     negative rho (up, down):  1.532E-02 0.000E+00

     total cpu time spent up to now is       19.0 secs

     total energy              =    -380.57403683 Ry
     estimated scf accuracy    <       0.00000001 Ry

     iteration #  5     ecut=    50.00 Ry     beta= 0.70
     CG style diagonalization
     ethr =  2.95E-11,  avg # of iterations =  4.6

     negative rho (up, down):  1.532E-02 0.000E+00

     total cpu time spent up to now is       19.9 secs

     End of self-consistent calculation

          k = 0.0000 0.0000 0.0000 (  2421 PWs)   bands (ev):

   -45.1533 -21.8340 -21.7502 -21.7502  -7.1556  -6.0018  -5.7442  -4.3957
    -4.3957  -4.3559  -4.2391  -4.1238   4.8611   6.7468   6.7468   7.1245
     8.7307   8.7307   8.9673   9.3094   9.4553   9.4553

          k = 0.0000 0.0000 0.2381 (  2429 PWs)   bands (ev):

   -45.1529 -21.8577 -21.7493 -21.7493  -6.9470  -5.9397  -5.6732  -4.4136
    -4.4136  -4.3544  -4.2265  -4.2013   3.9960   6.8023   6.8023   7.3183
     8.4742   8.4742   8.8834   9.3964   9.5752   9.5752

          k = 0.0000 0.0000-0.4762 (  2410 PWs)   bands (ev):

   -45.1526 -21.8812 -21.7483 -21.7483  -6.7205  -5.8716  -5.6085  -4.4314
    -4.4314  -4.3528  -4.2847  -4.2154   3.4516   6.6166   6.8368   6.8368
     8.3151   8.3151   8.8037   9.6518   9.6518  10.6765

          k = 0.0000 0.1667 0.0000 (  2423 PWs)   bands (ev):

   -45.1529 -21.8332 -21.7706 -21.7494  -7.0105  -5.9675  -5.7135  -4.4202
    -4.3941  -4.3707  -4.2420  -4.1123   4.3692   6.8159   6.8571   7.1579
     8.6842   8.7511   8.9624   9.0796   9.1874   9.5804

          k = 0.0000 0.1667 0.2381 (  2428 PWs)   bands (ev):

   -45.1526 -21.8567 -21.7696 -21.7484  -6.8184  -5.9214  -5.6368  -4.4187
    -4.4126  -4.3698  -4.2357  -4.1522   3.7615   6.5956   6.9239   7.4051
     8.1392   8.4555   8.7800   9.1774   9.2467   9.9525

          k = 0.0000 0.1667-0.4762 (  2422 PWs)   bands (ev):

   -45.1522 -21.8800 -21.7685 -21.7474  -6.6199  -5.8692  -5.5568  -4.4310
    -4.4149  -4.3690  -4.2399  -4.1878   3.3069   6.2739   6.9642   7.0472
     7.9433   8.3058   8.8472   9.2344   9.3282  10.5960

          k = 0.0000 0.3333 0.0000 (  2422 PWs)   bands (ev):

   -45.1521 -21.8316 -21.8110 -21.7477  -6.6954  -5.8932  -5.6680  -4.4576
    -4.4004  -4.3907  -4.2363  -4.1181   3.7391   6.4460   7.1123   7.1391
     8.3446   8.3694   8.8172   8.8727   9.3086  10.2314

          k = 0.0000 0.3333 0.2381 (  2421 PWs)   bands (ev):

   -45.1518 -21.8546 -21.8099 -21.7467  -6.5696  -5.8506  -5.5701  -4.4241
    -4.4107  -4.4005  -4.2288  -4.0918   3.3739   6.3154   7.0150   7.2393
     7.7730   8.1972   8.3529   8.9232   9.4431  10.3104

          k = 0.0000 0.3333-0.4762 (  2428 PWs)   bands (ev):

   -45.1514 -21.8775 -21.8086 -21.7456  -6.4766  -5.7828  -5.4408  -4.4302
    -4.4009  -4.3826  -4.2648  -4.0382   3.0537   5.9885   6.7746   7.2834
     7.6574   7.8245   8.1389   8.9531   9.8751  10.1440

          k = 0.0000-0.5000 0.0000 (  2428 PWs)   bands (ev):

   -45.1517 -21.8315 -21.8302 -21.7468  -6.5215  -5.8366  -5.6731  -4.4738
    -4.4149  -4.3892  -4.2094  -4.1512   3.5193   6.0608   7.3780   7.3819
     7.8503   7.9878   8.7386   8.9101   9.3397  11.0353

          k = 0.0000-0.5000 0.2381 (  2420 PWs)   bands (ev):

   -45.1514 -21.8533 -21.8300 -21.7458  -6.4617  -5.7603  -5.5642  -4.4365
    -4.4158  -4.4096  -4.1943  -4.0877   3.2220   6.0328   7.0444   7.2850
     7.5908   7.7887   8.4633   8.9009   9.4456  10.5111

          k = 0.0000-0.5000-0.4762 (  2416 PWs)   bands (ev):

   -45.1511 -21.8762 -21.8286 -21.7447  -6.4432  -5.6784  -5.3869  -4.4298
    -4.4167  -4.3913  -4.2500  -3.9758   2.9526   5.8496   6.4623   7.3434
     7.6084   7.8172   7.8366   8.8948   9.8106  10.1782

          k = 0.1667 0.1667 0.0000 (  2417 PWs)   bands (ev):

   -45.1525 -21.8324 -21.7699 -21.7695  -6.8679  -5.9322  -5.7047  -4.4263
    -4.4103  -4.3743  -4.2179  -4.1016   4.0363   6.7338   6.9907   7.2147
     8.2112   8.3198   9.0574   9.0937   9.3949   9.8150

          k = 0.1667 0.1667 0.2381 (  2421 PWs)   bands (ev):

   -45.1522 -21.8557 -21.7688 -21.7685  -6.6868  -5.9060  -5.6284  -4.4290
    -4.4054  -4.3682  -4.2069  -4.1176   3.6371   6.5114   6.6214   7.3489
     8.0384   8.0536   8.8622   9.2390   9.4747   9.9218

          k = 0.1667 0.1667-0.4762 (  2444 PWs)   bands (ev):

   -45.1518 -21.8789 -21.7677 -21.7675  -6.5070  -5.8795  -5.5391  -4.4421
    -4.3838  -4.3450  -4.2118  -4.1398   3.2736   6.2952   6.3416   7.0384
     7.9441   7.9812   8.7627   9.3138   9.5330  10.2905

          k = 0.1667 0.3333 0.0000 (  2424 PWs)   bands (ev):

   -45.1517 -21.8307 -21.8099 -21.7678  -6.5613  -5.8596  -5.7021  -4.4508
    -4.3993  -4.3586  -4.1931  -4.1075   3.5215   6.4429   6.9877   7.2872
     7.6684   8.2572   8.5628   9.2355   9.4252  10.3119

          k = 0.1667 0.3333 0.2381 (  2425 PWs)   bands (ev):

   -45.1514 -21.8536 -21.8088 -21.7668  -6.4316  -5.8502  -5.6187  -4.4259
    -4.4002  -4.3351  -4.1715  -4.0658   3.3773   6.2634   6.3923   6.9494
     7.4016   8.0935   8.9164   9.1942   9.5322  10.0206

          k = 0.1667 0.3333-0.4762 (  2420 PWs)   bands (ev):

   -45.1511 -21.8765 -21.8076 -21.7658  -6.3410  -5.8265  -5.4946  -4.4237
    -4.3741  -4.2935  -4.1840  -4.0109   3.1878   5.9069   6.3235   6.6453
     6.8921   7.9522   9.0196   9.2382   9.5247   9.9701

          k = 0.1667-0.5000 0.0000 (  2420 PWs)   bands (ev):

   -45.1513 -21.8303 -21.8294 -21.7669  -6.3935  -5.8056  -5.7280  -4.4539
    -4.3914  -4.3369  -4.1739  -4.1417   3.3213   6.0796   7.1047   7.3321
     7.6326   7.9787   8.4263   9.2674   9.4247  10.6456

          k = 0.1667-0.5000 0.2381 (  2424 PWs)   bands (ev):

   -45.1510 -21.8524 -21.8290 -21.7659  -6.3223  -5.7705  -5.6416  -4.4241
    -4.3865  -4.3135  -4.1477  -4.0602   3.2585   6.0372   6.2865   6.6962
     7.3617   8.2363   8.6836   9.2054   9.5422   9.9827

          k = 0.1667-0.5000-0.4762 (  2408 PWs)   bands (ev):

   -45.1507 -21.8752 -21.8276 -21.7648  -6.3065  -5.7366  -5.4780  -4.4182
    -4.3419  -4.2909  -4.1665  -3.9495   3.1476   5.8015   6.1552   6.3078
     6.7403   8.0651   8.8902   9.1509   9.1802  10.1881

          k = 0.3333 0.3333 0.0000 (  2434 PWs)   bands (ev):

   -45.1510 -21.8289 -21.8078 -21.8077  -6.2961  -5.7921  -5.7524  -4.4307
    -4.3798  -4.2863  -4.1115  -4.1104   3.1130   6.4277   6.5218   7.3955
     7.5477   7.6933   8.3590   9.0850   9.8981  10.0453

          k = 0.3333 0.3333 0.2381 (  2421 PWs)   bands (ev):

   -45.1506 -21.8516 -21.8069 -21.8067  -6.1565  -5.8407  -5.7074  -4.3881
    -4.3727  -4.2256  -4.0631  -4.0292   3.3040   5.9706   6.0414   6.4234
     7.0659   7.5671   8.9850   9.4956   9.5380   9.9144

          k = 0.3333 0.3333-0.4762 (  2424 PWs)   bands (ev):

   -45.1503 -21.8743 -21.8057 -21.8056  -6.0857  -5.8858  -5.5811  -4.3656
    -4.3459  -4.1597  -4.0124  -3.9504   3.4712   5.5639   5.5853   6.1657
     6.8178   6.9821   8.2281   9.8715   9.8845  10.0509

          k = 0.3333-0.5000 0.0000 (  2454 PWs)   bands (ev):

   -45.1506 -21.8280 -21.8276 -21.8067  -6.1763  -5.7676  -5.7486  -4.4223
    -4.3557  -4.2211  -4.1451  -4.0764   2.9253   6.0729   6.5681   7.2062
     7.7367   7.8570   7.9797   9.0527   9.7289  10.1049

          k = 0.3333-0.5000 0.2381 (  2430 PWs)   bands (ev):

   -45.1502 -21.8504 -21.8268 -21.8058  -6.0381  -5.7954  -5.7662  -4.3788
    -4.3439  -4.1311  -4.0609  -3.9994   3.2291   5.8622   6.0160   6.0840
     6.8480   7.6372   8.5110   9.4950   9.5231  10.0736

          k = 0.3333-0.5000-0.4762 (  2420 PWs)   bands (ev):

   -45.1499 -21.8731 -21.8256 -21.8047  -6.0272  -5.8390  -5.6194  -4.3481
    -4.3211  -4.0682  -3.9755  -3.8936   3.6114   5.2956   5.4914   5.9239
     6.5776   6.9937   7.4424   9.9729  10.0455  10.2120

          k =-0.5000-0.5000 0.0000 (  2480 PWs)   bands (ev):

   -45.1502 -21.8268 -21.8268 -21.8262  -6.1204  -5.7230  -5.7230  -4.4113
    -4.3076  -4.1669  -4.1669  -4.0256   2.7312   5.9216   6.3995   7.4180
     7.4180   7.9750   7.9750   8.8202   9.2559  10.3646

          k =-0.5000-0.5000 0.2381 (  2424 PWs)   bands (ev):

   -45.1499 -21.8492 -21.8257 -21.8257  -5.9030  -5.8095  -5.8095  -4.3665
    -4.3054  -4.0194  -4.0194  -3.9909   3.1496   5.8783   5.9852   5.9852
     6.4063   7.5780   7.8564   9.5254   9.5254  10.3469

          k =-0.5000-0.5000-0.4762 (  2400 PWs)   bands (ev):

   -45.1495 -21.8719 -21.8246 -21.8246  -5.8849  -5.8849  -5.6788  -4.3216
    -4.3032  -3.9442  -3.8803  -3.8803   3.8283   5.3227   5.3227   5.7587
     6.4130   6.4325   6.6784  10.2236  10.2236  10.3293

     highest occupied level (ev):    11.0353

!    total energy              =    -380.57403685 Ry
     estimated scf accuracy    <          2.7E-09 Ry

     The total energy is the sum of the following terms:
     one-electron contribution =     -79.56164880 Ry
     hartree contribution      =      69.88576842 Ry
     xc contribution           =    -102.68027029 Ry
     ewald contribution        =    -268.21788618 Ry

     convergence has been achieved in   5 iterations

     negative rho (up, down):  1.532E-02 0.000E+00

     Forces acting on atoms (cartesian axes, Ry/au):

     atom    1 type  1   force =     0.00000000    0.00000000    0.00044798
     atom    2 type  2   force =     0.00000000    0.00000000    0.00032000
     atom    3 type  3   force =     0.00000000    0.00000000   -0.00044821
     atom    4 type  3   force =     0.00000000    0.00000000   -0.00015989
     atom    5 type  3   force =     0.00000000    0.00000000   -0.00015989

     Total force =     0.000745     Total SCF correction =     0.000157
     SCF correction compared to forces is large: reduce conv_thr to get better values


     Computing stress (Cartesian axis) and pressure


     negative rho (up, down):  1.532E-02 0.000E+00
          total   stress  (Ry/bohr**3)                   (kbar)     P=        1.65
   0.00001069   0.00000000   0.00000000            1.57        0.00        0.00
   0.00000000   0.00001069   0.00000000            0.00        1.57        0.00
   0.00000000   0.00000000   0.00001235            0.00        0.00        1.82

     Energy error            =      2.4E-06 Ry
     Gradient error          =      4.5E-04 Ry/Bohr

     bfgs converged in   2 scf cycles and   1 bfgs steps
     (criteria: energy <  1.0E-04 Ry, force <  1.0E-03 Ry/Bohr)

     End of BFGS Geometry Optimization

     Final energy             =    -380.5740368455 Ry

     File ./pto_T3_etam0p004.bfgs deleted, as requested
Begin final coordinates

ATOMIC_POSITIONS (crystal)
Pb               0.0000000000        0.0000000000        1.0052275908
Ti               0.5000000000        0.5000000000        0.5396567834
O                0.5000000000        0.5000000000        0.0993640009
O                0.5000000000        0.0000000000        0.6115179564
O                0.0000000000        0.5000000000        0.6115179564
End final coordinates



     Writing all to output data dir ./pto_T3_etam0p004.save/ :
     XML data file, charge density, pseudopotentials, collected wavefunctions
 
     init_run     :      0.38s CPU      0.45s WALL (       1 calls)
     electrons    :     17.00s CPU     18.06s WALL (       2 calls)
     update_pot   :      0.00s CPU      0.00s WALL (       1 calls)
     forces       :      0.20s CPU      0.21s WALL (       2 calls)
     stress       :      1.88s CPU      1.90s WALL (       2 calls)

     Called by init_run:
     wfcinit      :      0.16s CPU      0.18s WALL (       1 calls)
     potinit      :      0.01s CPU      0.01s WALL (       1 calls)
     hinit0       :      0.11s CPU      0.14s WALL (       1 calls)

     Called by electrons:
     c_bands      :     14.33s CPU     15.16s WALL (      20 calls)
     sum_band     :      1.84s CPU      1.93s WALL (      20 calls)
     v_of_rho     :      0.03s CPU      0.03s WALL (      21 calls)
     newd         :      0.84s CPU      0.95s WALL (      21 calls)
     mix_rho      :      0.02s CPU      0.03s WALL (      20 calls)

     Called by c_bands:
     init_us_2    :      0.13s CPU      0.14s WALL (    1350 calls)
     init_us_2:cp :      0.13s CPU      0.13s WALL (    1350 calls)
     ccgdiagg     :     12.83s CPU     13.60s WALL (     600 calls)
     wfcrot       :      1.54s CPU      1.61s WALL (     540 calls)

     Called by *cgdiagg:
     h_psi        :      8.12s CPU      8.57s WALL (   48860 calls)
     s_psi        :      1.26s CPU      1.34s WALL (   97180 calls)

     Called by h_psi:
     h_psi:calbec :      1.27s CPU      1.34s WALL (   48860 calls)
     vloc_psi     :      5.77s CPU      6.09s WALL (   48860 calls)
     add_vuspsi   :      0.70s CPU      0.74s WALL (   48860 calls)
     hs_1psi      :      7.79s CPU      8.26s WALL (   48320 calls)
     s_1psi       :      1.88s CPU      1.99s WALL (   48320 calls)

     General routines
     calbec       :      2.28s CPU      2.41s WALL (   98080 calls)
     fft          :      0.04s CPU      0.05s WALL (     140 calls)
     ffts         :      0.00s CPU      0.00s WALL (      41 calls)
     fftw         :      4.93s CPU      5.19s WALL (  134140 calls)
     interpolate  :      0.01s CPU      0.01s WALL (      21 calls)
 
     Parallel routines
 
     PWSCF        :     19.74s CPU     21.25s WALL

 
   This run was terminated on:   0:17:38  18Nov2025            

=------------------------------------------------------------------------------=
   JOB DONE.
=------------------------------------------------------------------------------=
TACC:  Shutdown complete. Exiting. 
