TACC:  Starting up job 2477127 
TACC:  Starting parallel tasks... 

     Program PWSCF v.7.3 starts on 18Oct2025 at 20:39:42 

     This program is part of the open-source Quantum ESPRESSO suite
     for quantum simulation of materials; please cite
         "P. Giannozzi et al., J. Phys.:Condens. Matter 21 395502 (2009);
         "P. Giannozzi et al., J. Phys.:Condens. Matter 29 465901 (2017);
         "P. Giannozzi et al., J. Chem. Phys. 152 154105 (2020);
          URL http://www.quantum-espresso.org", 
     in publications or presentations arising from this work. More details at
     http://www.quantum-espresso.org/quote

     Parallel version (MPI & OpenMP), running on      10 processor cores
     Number of MPI processes:                10
     Threads/MPI process:                     1

     MPI processes distributed on     1 nodes
     187728 MiB available memory on the printing compute node when the environment starts
 
     Waiting for input...
     Reading input from standard input
Warning: card &CELL ignored
Warning: card  CELL_DYNAMICS = 'BFGS', ignored
Warning: card  PRESS=0.D0, ignored
Warning: card / ignored
     Message from routine read_cards :
     DEPRECATED: no units specified in ATOMIC_POSITIONS card
     Message from routine read_cards :
     ATOMIC_POSITIONS: units set to alat

     Current dimensions of program PWSCF are:
     Max number of different atomic species (ntypx) = 10
     Max number of k-points (npk) =  40000
     Max angular momentum in pseudopotentials (lmaxx) =  4
 
     R & G space division:  proc/nbgrp/npool/nimage =      10
     Subspace diagonalization in iterative solution of the eigenvalue problem:
     a serial algorithm will be used

 
     Parallelization info
     --------------------
     sticks:   dense  smooth     PW     G-vecs:    dense   smooth      PW
     Min         233      92     26                 7388     1862     297
     Max         234      93     28                 7390     1865     298
     Sum        2335     925    271                73889    18643    2975
 
     Using Slab Decomposition
 


     bravais-lattice index     =            2
     lattice parameter (alat)  =       6.7000  a.u.
     unit-cell volume          =      75.1908 (a.u.)^3
     number of atoms/cell      =            2
     number of atomic types    =            1
     number of electrons       =         8.00
     number of Kohn-Sham states=            4
     kinetic-energy cutoff     =     150.0000  Ry
     charge density cutoff     =    1500.0000  Ry
     scf convergence threshold =      1.0E-08
     mixing beta               =       0.7000
     number of iterations used =            8  plain     mixing
     Exchange-correlation= SLA  PZ   NOGX NOGC
                           (   1   1   0   0   0   0   0)

     celldm(1)=   6.700000  celldm(2)=   0.000000  celldm(3)=   0.000000
     celldm(4)=   0.000000  celldm(5)=   0.000000  celldm(6)=   0.000000

     crystal axes: (cart. coord. in units of alat)
               a(1) = (  -0.500000   0.000000   0.500000 )  
               a(2) = (   0.000000   0.500000   0.500000 )  
               a(3) = (  -0.500000   0.500000   0.000000 )  

     reciprocal axes: (cart. coord. in units 2 pi/alat)
               b(1) = ( -1.000000 -1.000000  1.000000 )  
               b(2) = (  1.000000  1.000000  1.000000 )  
               b(3) = ( -1.000000  1.000000 -1.000000 )  


     PseudoPot. # 1 for C  read from file:
     /scratch/11018/zhc/Assisgnment2/Q2/Diamond/Diamond/C_LDA.UPF
     MD5 check sum: 407c1fe918d93b14b177d5600f28733c
     Pseudo is Ultrasoft + core correction, Zval =  4.0
     Generated by new atomic code, or converted to UPF format
     Using radial grid of  721 points,  4 beta functions with: 
                l(1) =   0
                l(2) =   0
                l(3) =   1
                l(4) =   1
     Q(r) pseudized with  8 coefficients,  rinner =    1.100   1.100   1.100


     atomic species   valence    mass     pseudopotential
     C                 4.00    12.01100     C ( 1.00)

     48 Sym. Ops., with inversion, found (24 have fractional translation)



   Cartesian axes

     site n.     atom                  positions (alat units)
         1        C      tau(   1) = (   0.0000000   0.0000000   0.0000000  )
         2        C      tau(   2) = (   0.2500000   0.2500000   0.2500000  )

     number of k points=     8
                       cart. coord. in units 2pi/alat
        k(    1) = (   0.0000000   0.0000000   0.0000000), wk =   0.0312500
        k(    2) = (  -0.2500000   0.2500000  -0.2500000), wk =   0.2500000
        k(    3) = (   0.5000000  -0.5000000   0.5000000), wk =   0.1250000
        k(    4) = (   0.0000000   0.5000000   0.0000000), wk =   0.1875000
        k(    5) = (   0.7500000  -0.2500000   0.7500000), wk =   0.7500000
        k(    6) = (   0.5000000   0.0000000   0.5000000), wk =   0.3750000
        k(    7) = (   0.0000000  -1.0000000   0.0000000), wk =   0.0937500
        k(    8) = (  -0.5000000  -1.0000000   0.0000000), wk =   0.1875000

     Dense  grid:    73889 G-vectors     FFT dimensions: (  60,  60,  60)

     Smooth grid:    18643 G-vectors     FFT dimensions: (  40,  40,  40)

     Estimated max dynamical RAM per process >      11.22 MB

     Estimated total dynamical RAM >     112.22 MB

     Initial potential from superposition of free atoms

     starting charge       7.9999, renormalised to       8.0000
     Starting wfcs are    8 randomized atomic wfcs

     total cpu time spent up to now is        0.3 secs

     Self-consistent Calculation

     iteration #  1     ecut=   150.00 Ry     beta= 0.70
     CG style diagonalization
     ethr =  1.00E-02,  avg # of iterations =  3.0

     total cpu time spent up to now is        0.3 secs

     total energy              =     -23.03088829 Ry
     estimated scf accuracy    <       0.14329950 Ry

     iteration #  2     ecut=   150.00 Ry     beta= 0.70
     CG style diagonalization
     ethr =  1.79E-03,  avg # of iterations =  3.6

     total cpu time spent up to now is        0.4 secs

     total energy              =     -23.04838138 Ry
     estimated scf accuracy    <       0.00143412 Ry

     iteration #  3     ecut=   150.00 Ry     beta= 0.70
     CG style diagonalization
     ethr =  1.79E-05,  avg # of iterations =  4.0

     total cpu time spent up to now is        0.4 secs

     total energy              =     -23.04880330 Ry
     estimated scf accuracy    <       0.00006893 Ry

     iteration #  4     ecut=   150.00 Ry     beta= 0.70
     CG style diagonalization
     ethr =  8.62E-07,  avg # of iterations =  4.0

     total cpu time spent up to now is        0.5 secs

     total energy              =     -23.04882263 Ry
     estimated scf accuracy    <       0.00000432 Ry

     iteration #  5     ecut=   150.00 Ry     beta= 0.70
     CG style diagonalization
     ethr =  5.39E-08,  avg # of iterations =  4.0

     total cpu time spent up to now is        0.5 secs

     total energy              =     -23.04882424 Ry
     estimated scf accuracy    <       0.00000011 Ry

     iteration #  6     ecut=   150.00 Ry     beta= 0.70
     CG style diagonalization
     ethr =  1.31E-09,  avg # of iterations =  4.2

     total cpu time spent up to now is        0.6 secs

     End of self-consistent calculation

          k = 0.0000 0.0000 0.0000 (  2277 PWs)   bands (ev):

    -8.1163  13.4433  13.4433  13.4433

          k =-0.2500 0.2500-0.2500 (  2328 PWs)   bands (ev):

    -6.3814   6.8193  11.6698  11.6698

          k = 0.5000-0.5000 0.5000 (  2332 PWs)   bands (ev):

    -2.1707  -0.1238  10.6041  10.6041

          k = 0.0000 0.5000 0.0000 (  2333 PWs)   bands (ev):

    -5.8066   9.0212   9.2460   9.2460

          k = 0.7500-0.2500 0.7500 (  2327 PWs)   bands (ev):

    -2.0000   2.6132   6.6465   8.4834

          k = 0.5000 0.0000 0.5000 (  2337 PWs)   bands (ev):

    -3.5877   4.7633   5.7140  10.3843

          k = 0.0000-1.0000 0.0000 (  2346 PWs)   bands (ev):

     0.7047   0.7047   7.0365   7.0365

          k =-0.5000-1.0000 0.0000 (  2328 PWs)   bands (ev):

     1.5702   1.5702   4.9198   4.9198

     highest occupied level (ev):    13.4433

!    total energy              =     -23.04882430 Ry
     estimated scf accuracy    <          8.4E-10 Ry

     The total energy is the sum of the following terms:
     one-electron contribution =       8.14330829 Ry
     hartree contribution      =       1.91486059 Ry
     xc contribution           =      -7.37900252 Ry
     ewald contribution        =     -25.72799066 Ry

     convergence has been achieved in   6 iterations

     Forces acting on atoms (cartesian axes, Ry/au):

     atom    1 type  1   force =     0.00000000    0.00000000    0.00000000
     atom    2 type  1   force =     0.00000000    0.00000000    0.00000000

     Total force =     0.000000     Total SCF correction =     0.000000


     Computing stress (Cartesian axis) and pressure

          total   stress  (Ry/bohr**3)                   (kbar)     P=      -40.86
  -0.00027779   0.00000000   0.00000000          -40.86        0.00        0.00
   0.00000000  -0.00027779  -0.00000000            0.00      -40.86       -0.00
   0.00000000  -0.00000000  -0.00027779            0.00       -0.00      -40.86


     Writing all to output data dir ./DIAMOND_150.save/ :
     XML data file, charge density, pseudopotentials, collected wavefunctions
 
     init_run     :      0.11s CPU      0.18s WALL (       1 calls)
     electrons    :      0.26s CPU      0.30s WALL (       1 calls)
     forces       :      0.01s CPU      0.01s WALL (       1 calls)
     stress       :      0.04s CPU      0.04s WALL (       1 calls)

     Called by init_run:
     wfcinit      :      0.01s CPU      0.04s WALL (       1 calls)
     potinit      :      0.01s CPU      0.01s WALL (       1 calls)
     hinit0       :      0.04s CPU      0.05s WALL (       1 calls)

     Called by electrons:
     c_bands      :      0.16s CPU      0.17s WALL (       6 calls)
     sum_band     :      0.06s CPU      0.06s WALL (       6 calls)
     v_of_rho     :      0.01s CPU      0.01s WALL (       7 calls)
     newd         :      0.02s CPU      0.04s WALL (       7 calls)
     mix_rho      :      0.01s CPU      0.01s WALL (       6 calls)

     Called by c_bands:
     init_us_2    :      0.00s CPU      0.01s WALL (     120 calls)
     init_us_2:cp :      0.00s CPU      0.01s WALL (     120 calls)
     ccgdiagg     :      0.13s CPU      0.14s WALL (      48 calls)
     wfcrot       :      0.04s CPU      0.06s WALL (      48 calls)

     Called by *cgdiagg:
     h_psi        :      0.11s CPU      0.12s WALL (     612 calls)
     s_psi        :      0.00s CPU      0.01s WALL (    1176 calls)

     Called by h_psi:
     h_psi:calbec :      0.01s CPU      0.01s WALL (     612 calls)
     vloc_psi     :      0.09s CPU      0.10s WALL (     612 calls)
     add_vuspsi   :      0.00s CPU      0.00s WALL (     612 calls)
     hs_1psi      :      0.09s CPU      0.09s WALL (     564 calls)
     s_1psi       :      0.01s CPU      0.01s WALL (     564 calls)

     General routines
     calbec       :      0.02s CPU      0.02s WALL (    1264 calls)
     fft          :      0.01s CPU      0.03s WALL (      48 calls)
     ffts         :      0.00s CPU      0.00s WALL (      13 calls)
     fftw         :      0.08s CPU      0.08s WALL (    1768 calls)
     interpolate  :      0.00s CPU      0.01s WALL (       7 calls)
 
     Parallel routines
 
     PWSCF        :      0.47s CPU      0.73s WALL

 
   This run was terminated on:  20:39:43  18Oct2025            

=------------------------------------------------------------------------------=
   JOB DONE.
=------------------------------------------------------------------------------=
TACC:  Shutdown complete. Exiting. 
