TACC:  Starting up job 2476738 
TACC:  Starting parallel tasks... 

     Program PWSCF v.7.3 starts on 18Oct2025 at 16:52:28 

     This program is part of the open-source Quantum ESPRESSO suite
     for quantum simulation of materials; please cite
         "P. Giannozzi et al., J. Phys.:Condens. Matter 21 395502 (2009);
         "P. Giannozzi et al., J. Phys.:Condens. Matter 29 465901 (2017);
         "P. Giannozzi et al., J. Chem. Phys. 152 154105 (2020);
          URL http://www.quantum-espresso.org", 
     in publications or presentations arising from this work. More details at
     http://www.quantum-espresso.org/quote

     Parallel version (MPI & OpenMP), running on      10 processor cores
     Number of MPI processes:                10
     Threads/MPI process:                     1

     MPI processes distributed on     1 nodes
     185259 MiB available memory on the printing compute node when the environment starts
 
     Waiting for input...
     Reading input from standard input
Warning: card &CELL ignored
Warning: card  CELL_DYNAMICS = 'BFGS', ignored
Warning: card  PRESS=0.D0, ignored
Warning: card / ignored
     Message from routine read_cards :
     DEPRECATED: no units specified in ATOMIC_POSITIONS card
     Message from routine read_cards :
     ATOMIC_POSITIONS: units set to alat

     Current dimensions of program PWSCF are:
     Max number of different atomic species (ntypx) = 10
     Max number of k-points (npk) =  40000
     Max angular momentum in pseudopotentials (lmaxx) =  4
     Message from routine setup:
     using ibrav=0 with symmetry is DISCOURAGED, use correct ibrav instead
 
     R & G space division:  proc/nbgrp/npool/nimage =      10
     Subspace diagonalization in iterative solution of the eigenvalue problem:
     a serial algorithm will be used

 
     Parallelization info
     --------------------
     sticks:   dense  smooth     PW     G-vecs:    dense   smooth      PW
     Min         126      49     18                 2848      711     165
     Max         127      50     19                 2849      712     167
     Sum        1263     495    189                28483     7115    1665
 
     Using Slab Decomposition
 


     bravais-lattice index     =            0
     lattice parameter (alat)  =       6.7000  a.u.
     unit-cell volume          =     150.3797 (a.u.)^3
     number of atoms/cell      =            2
     number of atomic types    =            1
     number of electrons       =         8.00
     number of Kohn-Sham states=            4
     kinetic-energy cutoff     =      50.0000  Ry
     charge density cutoff     =     500.0000  Ry
     scf convergence threshold =      1.0E-08
     mixing beta               =       0.7000
     number of iterations used =            8  plain     mixing
     Exchange-correlation= SLA  PZ   NOGX NOGC
                           (   1   1   0   0   0   0   0)

     celldm(1)=   6.700000  celldm(2)=   0.000000  celldm(3)=   0.000000
     celldm(4)=   0.000000  celldm(5)=   0.000000  celldm(6)=   0.000000

     crystal axes: (cart. coord. in units of alat)
               a(1) = (  -0.501000   0.501000   0.498000 )  
               a(2) = (   0.501000  -0.501000   0.498000 )  
               a(3) = (   0.501000   0.501000  -0.498000 )  

     reciprocal axes: (cart. coord. in units 2 pi/alat)
               b(1) = (  0.000000  0.998004  1.004016 )  
               b(2) = (  0.998004  0.000000  1.004016 )  
               b(3) = (  0.998004  0.998004  0.000000 )  


     PseudoPot. # 1 for C  read from file:
     /scratch/11018/zhc/Assisgnment2/Q2/Diamond/Diamond/C_LDA.UPF
     MD5 check sum: 407c1fe918d93b14b177d5600f28733c
     Pseudo is Ultrasoft + core correction, Zval =  4.0
     Generated by new atomic code, or converted to UPF format
     Using radial grid of  721 points,  4 beta functions with: 
                l(1) =   0
                l(2) =   0
                l(3) =   1
                l(4) =   1
     Q(r) pseudized with  8 coefficients,  rinner =    1.100   1.100   1.100


     atomic species   valence    mass     pseudopotential
     C                 4.00    12.01100     C ( 1.00)

      2 Sym. Ops. (no inversion) found



   Cartesian axes

     site n.     atom                  positions (alat units)
         1        C      tau(   1) = (   0.0000000   0.0000000   0.0000000  )
         2        C      tau(   2) = (   0.2500000   0.2500000   0.2500000  )

     number of k points=    24
                       cart. coord. in units 2pi/alat
        k(    1) = (   0.0000000   0.0000000   0.0000000), wk =   0.0312500
        k(    2) = (   0.2495010   0.2495010   0.0000000), wk =   0.0625000
        k(    3) = (  -0.4990020  -0.4990020   0.0000000), wk =   0.0312500
        k(    4) = (   0.2495010   0.0000000   0.2510040), wk =   0.1250000
        k(    5) = (   0.4990020   0.2495010   0.2510040), wk =   0.1250000
        k(    6) = (  -0.4990020   0.0000000  -0.5020080), wk =   0.0625000
        k(    7) = (  -0.2495010   0.2495010  -0.5020080), wk =   0.1250000
        k(    8) = (   0.4990020   0.4990020   0.5020080), wk =   0.0625000
        k(    9) = (   0.0000000   0.0000000   0.5020080), wk =   0.0625000
        k(   10) = (  -0.9980040  -0.2495010  -0.2510040), wk =   0.1250000
        k(   11) = (   0.0000000   0.4990020   0.0000000), wk =   0.1250000
        k(   12) = (  -0.7485030  -0.2495010   0.0000000), wk =   0.0625000
        k(   13) = (  -0.9980040  -0.9980040  -1.0040161), wk =   0.0312500
        k(   14) = (  -0.2495010   0.2495010   0.0000000), wk =   0.0625000
        k(   15) = (   0.4990020  -0.4990020   0.0000000), wk =   0.0312500
        k(   16) = (   0.2495010   0.0000000  -0.2510040), wk =   0.1250000
        k(   17) = (  -0.4990020   0.2495010  -0.2510040), wk =   0.1250000
        k(   18) = (   0.4990020  -0.2495010  -0.2510040), wk =   0.1250000
        k(   19) = (   0.2495010   0.4990020  -0.2510040), wk =   0.1250000
        k(   20) = (  -0.4990020   0.0000000   0.5020080), wk =   0.0625000
        k(   21) = (   0.2495010   0.2495010   0.5020080), wk =   0.0625000
        k(   22) = (  -0.2495010  -0.2495010   0.5020080), wk =   0.0625000
        k(   23) = (   0.9980040  -0.2495010   0.2510040), wk =   0.1250000
        k(   24) = (   0.7485030  -0.2495010   0.0000000), wk =   0.0625000

     Dense  grid:    28483 G-vectors     FFT dimensions: (  45,  45,  45)

     Smooth grid:     7115 G-vectors     FFT dimensions: (  27,  27,  27)

     Estimated max dynamical RAM per process >       4.71 MB

     Estimated total dynamical RAM >      47.07 MB

     Initial potential from superposition of free atoms

     starting charge       7.9999, renormalised to       8.0000
     Starting wfcs are    8 randomized atomic wfcs

     total cpu time spent up to now is        0.2 secs

     Self-consistent Calculation

     iteration #  1     ecut=    50.00 Ry     beta= 0.70
     CG style diagonalization
     ethr =  1.00E-02,  avg # of iterations =  2.8

     Threshold (ethr) on eigenvalues was too large:
     Diagonalizing with lowered threshold

     CG style diagonalization
     ethr =  4.89E-04,  avg # of iterations =  2.0

     total cpu time spent up to now is        0.3 secs

     total energy              =     -22.63254094 Ry
     estimated scf accuracy    <       0.03793925 Ry

     iteration #  2     ecut=    50.00 Ry     beta= 0.70
     CG style diagonalization
     ethr =  4.74E-04,  avg # of iterations =  3.6

     total cpu time spent up to now is        0.4 secs

     total energy              =     -22.63629397 Ry
     estimated scf accuracy    <       0.00104581 Ry

     iteration #  3     ecut=    50.00 Ry     beta= 0.70
     CG style diagonalization
     ethr =  1.31E-05,  avg # of iterations =  3.5

     total cpu time spent up to now is        0.5 secs

     total energy              =     -22.63642799 Ry
     estimated scf accuracy    <       0.00003909 Ry

     iteration #  4     ecut=    50.00 Ry     beta= 0.70
     CG style diagonalization
     ethr =  4.89E-07,  avg # of iterations =  4.4

     total cpu time spent up to now is        0.6 secs

     total energy              =     -22.63646786 Ry
     estimated scf accuracy    <       0.00008214 Ry

     iteration #  5     ecut=    50.00 Ry     beta= 0.70
     CG style diagonalization
     ethr =  4.89E-07,  avg # of iterations =  3.0

     total cpu time spent up to now is        0.6 secs

     total energy              =     -22.63646525 Ry
     estimated scf accuracy    <       0.00004579 Ry

     iteration #  6     ecut=    50.00 Ry     beta= 0.70
     CG style diagonalization
     ethr =  4.89E-07,  avg # of iterations =  3.0

     total cpu time spent up to now is        0.7 secs

     total energy              =     -22.63646323 Ry
     estimated scf accuracy    <       0.00002941 Ry

     iteration #  7     ecut=    50.00 Ry     beta= 0.70
     CG style diagonalization
     ethr =  3.68E-07,  avg # of iterations =  3.1

     total cpu time spent up to now is        0.7 secs

     total energy              =     -22.63645744 Ry
     estimated scf accuracy    <       0.00001775 Ry

     iteration #  8     ecut=    50.00 Ry     beta= 0.70
     CG style diagonalization
     ethr =  2.22E-07,  avg # of iterations =  4.0

     total cpu time spent up to now is        0.8 secs

     total energy              =     -22.63646662 Ry
     estimated scf accuracy    <       0.00001736 Ry

     iteration #  9     ecut=    50.00 Ry     beta= 0.70
     CG style diagonalization
     ethr =  2.17E-07,  avg # of iterations =  3.0

     total cpu time spent up to now is        0.9 secs

     total energy              =     -22.63646606 Ry
     estimated scf accuracy    <       0.00001602 Ry

     iteration # 10     ecut=    50.00 Ry     beta= 0.70
     CG style diagonalization
     ethr =  2.00E-07,  avg # of iterations =  3.0

     total cpu time spent up to now is        0.9 secs

     total energy              =     -22.63646125 Ry
     estimated scf accuracy    <       0.00001365 Ry

     iteration # 11     ecut=    50.00 Ry     beta= 0.70
     CG style diagonalization
     ethr =  1.71E-07,  avg # of iterations =  3.7

     total cpu time spent up to now is        1.0 secs

     total energy              =     -22.63646447 Ry
     estimated scf accuracy    <       0.00000225 Ry

     iteration # 12     ecut=    50.00 Ry     beta= 0.70
     CG style diagonalization
     c_bands:  1 eigenvalues not converged
     ethr =  2.81E-08,  avg # of iterations =  3.3

     total cpu time spent up to now is        1.1 secs

     total energy              =     -22.63647701 Ry
     estimated scf accuracy    <       0.00006155 Ry

     iteration # 13     ecut=    50.00 Ry     beta= 0.70
     CG style diagonalization
     ethr =  2.81E-08,  avg # of iterations =  3.1

     total cpu time spent up to now is        1.1 secs

     total energy              =     -22.63647712 Ry
     estimated scf accuracy    <       0.00007652 Ry

     iteration # 14     ecut=    50.00 Ry     beta= 0.70
     CG style diagonalization
     ethr =  2.81E-08,  avg # of iterations =  3.0

     total cpu time spent up to now is        1.2 secs

     total energy              =     -22.63647808 Ry
     estimated scf accuracy    <       0.00007376 Ry

     iteration # 15     ecut=    50.00 Ry     beta= 0.70
     CG style diagonalization
     ethr =  2.81E-08,  avg # of iterations =  3.1

     total cpu time spent up to now is        1.3 secs

     total energy              =     -22.63647791 Ry
     estimated scf accuracy    <       0.00008028 Ry

     iteration # 16     ecut=    50.00 Ry     beta= 0.70
     CG style diagonalization
     ethr =  2.81E-08,  avg # of iterations =  3.0

     total cpu time spent up to now is        1.3 secs

     total energy              =     -22.63647717 Ry
     estimated scf accuracy    <       0.00007938 Ry

     iteration # 17     ecut=    50.00 Ry     beta= 0.70
     CG style diagonalization
     ethr =  2.81E-08,  avg # of iterations =  3.0

     total cpu time spent up to now is        1.4 secs

     total energy              =     -22.63647377 Ry
     estimated scf accuracy    <       0.00007720 Ry

     iteration # 18     ecut=    50.00 Ry     beta= 0.70
     CG style diagonalization
     c_bands:  1 eigenvalues not converged
     ethr =  2.81E-08,  avg # of iterations =  4.7

     total cpu time spent up to now is        1.5 secs

     total energy              =     -22.63647863 Ry
     estimated scf accuracy    <       0.00009773 Ry

     iteration # 19     ecut=    50.00 Ry     beta= 0.70
     CG style diagonalization
     ethr =  2.81E-08,  avg # of iterations =  3.1

     total cpu time spent up to now is        1.5 secs

     total energy              =     -22.63647755 Ry
     estimated scf accuracy    <       0.00011184 Ry

     iteration # 20     ecut=    50.00 Ry     beta= 0.70
     CG style diagonalization
     ethr =  2.81E-08,  avg # of iterations =  3.0

     total cpu time spent up to now is        1.6 secs

     total energy              =     -22.63673212 Ry
     estimated scf accuracy    <       0.00010572 Ry

     iteration # 21     ecut=    50.00 Ry     beta= 0.70
     CG style diagonalization
     c_bands:  1 eigenvalues not converged
     ethr =  2.81E-08,  avg # of iterations =  7.3

     total cpu time spent up to now is        1.7 secs

     total energy              =     -22.63570879 Ry
     estimated scf accuracy    <       0.00479664 Ry

     iteration # 22     ecut=    50.00 Ry     beta= 0.70
     CG style diagonalization
     c_bands:  1 eigenvalues not converged
     ethr =  2.81E-08,  avg # of iterations =  7.7

     total cpu time spent up to now is        1.9 secs

     total energy              =     -22.63671998 Ry
     estimated scf accuracy    <       0.00142888 Ry

     iteration # 23     ecut=    50.00 Ry     beta= 0.70
     CG style diagonalization
     ethr =  2.81E-08,  avg # of iterations =  5.5

     total cpu time spent up to now is        2.0 secs

     total energy              =     -22.63669760 Ry
     estimated scf accuracy    <       0.00225440 Ry

     iteration # 24     ecut=    50.00 Ry     beta= 0.70
     CG style diagonalization
     ethr =  2.81E-08,  avg # of iterations =  4.2

     total cpu time spent up to now is        2.1 secs

     total energy              =     -22.63674117 Ry
     estimated scf accuracy    <       0.00203293 Ry

     iteration # 25     ecut=    50.00 Ry     beta= 0.70
     CG style diagonalization
     ethr =  2.81E-08,  avg # of iterations =  4.3

     total cpu time spent up to now is        2.2 secs

     total energy              =     -22.63664718 Ry
     estimated scf accuracy    <       0.00231317 Ry

     iteration # 26     ecut=    50.00 Ry     beta= 0.70
     CG style diagonalization
     ethr =  2.81E-08,  avg # of iterations =  4.8

     total cpu time spent up to now is        2.3 secs

     total energy              =     -22.63645540 Ry
     estimated scf accuracy    <       0.00172269 Ry

     iteration # 27     ecut=    50.00 Ry     beta= 0.70
     CG style diagonalization
     c_bands:  1 eigenvalues not converged
     ethr =  2.81E-08,  avg # of iterations =  6.0

     total cpu time spent up to now is        2.4 secs

     total energy              =     -22.63636843 Ry
     estimated scf accuracy    <       0.00054434 Ry

     iteration # 28     ecut=    50.00 Ry     beta= 0.70
     CG style diagonalization
     c_bands:  2 eigenvalues not converged
     ethr =  2.81E-08,  avg # of iterations =  6.0

     total cpu time spent up to now is        2.5 secs

     total energy              =     -22.63639022 Ry
     estimated scf accuracy    <       0.00051769 Ry

     iteration # 29     ecut=    50.00 Ry     beta= 0.70
     CG style diagonalization
     ethr =  2.81E-08,  avg # of iterations =  5.9

     total cpu time spent up to now is        2.6 secs

     total energy              =     -22.63642591 Ry
     estimated scf accuracy    <       0.00023934 Ry

     iteration # 30     ecut=    50.00 Ry     beta= 0.70
     CG style diagonalization
     c_bands:  2 eigenvalues not converged
     ethr =  2.81E-08,  avg # of iterations =  5.8

     total cpu time spent up to now is        2.7 secs

     total energy              =     -22.63645174 Ry
     estimated scf accuracy    <       0.00004196 Ry

     iteration # 31     ecut=    50.00 Ry     beta= 0.70
     CG style diagonalization
     c_bands:  1 eigenvalues not converged
     ethr =  2.81E-08,  avg # of iterations =  4.6

     total cpu time spent up to now is        2.8 secs

     total energy              =     -22.63646043 Ry
     estimated scf accuracy    <       0.00005132 Ry

     iteration # 32     ecut=    50.00 Ry     beta= 0.70
     CG style diagonalization
     c_bands:  2 eigenvalues not converged
     ethr =  2.81E-08,  avg # of iterations =  4.9

     total cpu time spent up to now is        2.9 secs

     total energy              =     -22.63649282 Ry
     estimated scf accuracy    <       0.00007952 Ry

     iteration # 33     ecut=    50.00 Ry     beta= 0.70
     CG style diagonalization
     c_bands:  1 eigenvalues not converged
     ethr =  2.81E-08,  avg # of iterations =  4.2

     total cpu time spent up to now is        3.0 secs

     total energy              =     -22.63648745 Ry
     estimated scf accuracy    <       0.00009265 Ry

     iteration # 34     ecut=    50.00 Ry     beta= 0.70
     CG style diagonalization
     ethr =  2.81E-08,  avg # of iterations =  4.8

     total cpu time spent up to now is        3.1 secs

     total energy              =     -22.63649427 Ry
     estimated scf accuracy    <       0.00007648 Ry

     iteration # 35     ecut=    50.00 Ry     beta= 0.70
     CG style diagonalization
     ethr =  2.81E-08,  avg # of iterations =  4.5

     total cpu time spent up to now is        3.2 secs

     total energy              =     -22.63649338 Ry
     estimated scf accuracy    <       0.00010063 Ry

     iteration # 36     ecut=    50.00 Ry     beta= 0.70
     CG style diagonalization
     ethr =  2.81E-08,  avg # of iterations =  4.2

     total cpu time spent up to now is        3.3 secs

     total energy              =     -22.63649631 Ry
     estimated scf accuracy    <       0.00008694 Ry

     iteration # 37     ecut=    50.00 Ry     beta= 0.70
     CG style diagonalization
     ethr =  2.81E-08,  avg # of iterations =  3.1

     total cpu time spent up to now is        3.3 secs

     total energy              =     -22.63649691 Ry
     estimated scf accuracy    <       0.00009558 Ry

     iteration # 38     ecut=    50.00 Ry     beta= 0.70
     CG style diagonalization
     ethr =  2.81E-08,  avg # of iterations =  3.0

     total cpu time spent up to now is        3.4 secs

     total energy              =     -22.63649556 Ry
     estimated scf accuracy    <       0.00009582 Ry

     iteration # 39     ecut=    50.00 Ry     beta= 0.70
     CG style diagonalization
     ethr =  2.81E-08,  avg # of iterations =  4.8

     total cpu time spent up to now is        3.5 secs

     total energy              =     -22.63653412 Ry
     estimated scf accuracy    <       0.00010647 Ry

     iteration # 40     ecut=    50.00 Ry     beta= 0.70
     CG style diagonalization
     ethr =  2.81E-08,  avg # of iterations =  5.1

     total cpu time spent up to now is        3.6 secs

     total energy              =     -22.63644139 Ry
     estimated scf accuracy    <       0.00021219 Ry

     iteration # 41     ecut=    50.00 Ry     beta= 0.70
     CG style diagonalization
     ethr =  2.81E-08,  avg # of iterations =  5.9

     total cpu time spent up to now is        3.7 secs

     total energy              =     -22.63646314 Ry
     estimated scf accuracy    <       0.00000630 Ry

     iteration # 42     ecut=    50.00 Ry     beta= 0.70
     CG style diagonalization
     ethr =  2.81E-08,  avg # of iterations =  3.7

     total cpu time spent up to now is        3.8 secs

     total energy              =     -22.63646303 Ry
     estimated scf accuracy    <       0.00000160 Ry

     iteration # 43     ecut=    50.00 Ry     beta= 0.70
     CG style diagonalization
     ethr =  2.00E-08,  avg # of iterations =  3.0

     total cpu time spent up to now is        3.8 secs

     total energy              =     -22.63646304 Ry
     estimated scf accuracy    <       0.00000026 Ry

     iteration # 44     ecut=    50.00 Ry     beta= 0.70
     CG style diagonalization
     ethr =  3.21E-09,  avg # of iterations =  4.1

     total cpu time spent up to now is        3.9 secs

     total energy              =     -22.63646314 Ry
     estimated scf accuracy    <       0.00000008 Ry

     iteration # 45     ecut=    50.00 Ry     beta= 0.70
     CG style diagonalization
     ethr =  1.05E-09,  avg # of iterations =  3.3

     total cpu time spent up to now is        4.0 secs

     total energy              =     -22.63646315 Ry
     estimated scf accuracy    <       0.00000005 Ry

     iteration # 46     ecut=    50.00 Ry     beta= 0.70
     CG style diagonalization
     ethr =  5.81E-10,  avg # of iterations =  3.2

     total cpu time spent up to now is        4.1 secs

     total energy              =     -22.63646315 Ry
     estimated scf accuracy    <       0.00000002 Ry

     iteration # 47     ecut=    50.00 Ry     beta= 0.70
     CG style diagonalization
     ethr =  1.99E-10,  avg # of iterations =  3.7

     total cpu time spent up to now is        4.1 secs

     End of self-consistent calculation

          k = 0.0000 0.0000 0.0000 (   935 PWs)   bands (ev):

   -11.4469  -2.9596   3.0922   3.0925

          k = 0.2495 0.2495 0.0000 (   897 PWs)   bands (ev):

   -10.4812  -4.6965   2.8080   3.6572

          k =-0.4990-0.4990 0.0000 (   886 PWs)   bands (ev):

    -7.8821  -7.8792   3.3170   3.3471

          k = 0.2495 0.0000 0.2510 (   899 PWs)   bands (ev):

   -10.4775  -4.6918   2.7980   3.6427

          k = 0.4990 0.2495 0.2510 (   898 PWs)   bands (ev):

    -8.4901  -7.1114   1.8066   4.2662

          k =-0.4990 0.0000-0.5020 (   884 PWs)   bands (ev):

    -7.8722  -7.8708   3.3173   3.3325

          k =-0.2495 0.2495-0.5020 (   894 PWs)   bands (ev):

    -9.2613  -5.2456  -0.4465   2.6839

          k = 0.4990 0.4990 0.5020 (   908 PWs)   bands (ev):

    -8.7044  -5.7162   0.0715   0.1212

          k = 0.0000 0.0000 0.5020 (   900 PWs)   bands (ev):

    -9.7615  -4.6965   0.8334   2.7973

          k =-0.9980-0.2495-0.2510 (   894 PWs)   bands (ev):

    -8.8450  -4.7110  -0.8593   1.7360

          k = 0.0000 0.4990 0.0000 (   900 PWs)   bands (ev):

    -9.7803  -4.6841   0.8864   2.7895

          k =-0.7485-0.2495 0.0000 (   898 PWs)   bands (ev):

    -7.4576  -7.4560   2.1744   2.1924

          k =-0.9980-0.9980-1.0040 (   872 PWs)   bands (ev):

    -6.9958  -6.9957   2.7246   2.7407

          k =-0.2495 0.2495 0.0000 (   897 PWs)   bands (ev):

   -10.6682  -3.1000   0.3538   2.5157

          k = 0.4990-0.4990 0.0000 (   886 PWs)   bands (ev):

    -9.5930  -3.2411  -2.1008   2.0114

          k = 0.2495 0.0000-0.2510 (   899 PWs)   bands (ev):

   -10.6602  -3.1080   0.3503   2.5011

          k =-0.4990 0.2495-0.2510 (   898 PWs)   bands (ev):

    -9.2771  -5.2304  -0.4287   2.6954

          k = 0.4990-0.2495-0.2510 (   898 PWs)   bands (ev):

    -9.6241  -3.2550  -1.1794   0.5640

          k = 0.2495 0.4990-0.2510 (   898 PWs)   bands (ev):

    -9.2668  -5.2500  -0.4404   2.7012

          k =-0.4990 0.0000 0.5020 (   884 PWs)   bands (ev):

    -9.5707  -3.2566  -2.1162   1.9858

          k = 0.2495 0.2495 0.5020 (   894 PWs)   bands (ev):

    -8.4766  -7.1203   1.8404   4.2304

          k =-0.2495-0.2495 0.5020 (   894 PWs)   bands (ev):

    -9.6119  -3.2627  -1.2195   0.5909

          k = 0.9980-0.2495 0.2510 (   894 PWs)   bands (ev):

    -7.4635  -7.4377   2.1337   2.1689

          k = 0.7485-0.2495 0.0000 (   898 PWs)   bands (ev):

    -8.8628  -4.6933  -0.8499   1.7650

     highest occupied level (ev):     4.2662

!    total energy              =     -22.63646316 Ry
     estimated scf accuracy    <          5.2E-10 Ry

     The total energy is the sum of the following terms:
     one-electron contribution =      -0.20349919 Ry
     hartree contribution      =       3.41961528 Ry
     xc contribution           =      -6.55590659 Ry
     ewald contribution        =     -19.29667265 Ry

     convergence has been achieved in  47 iterations

     Forces acting on atoms (cartesian axes, Ry/au):

     atom    1 type  1   force =    -0.00018438   -0.00018438    0.00038256
     atom    2 type  1   force =     0.00018438    0.00018438   -0.00038256

     Total force =     0.000655     Total SCF correction =     0.000030


     Computing stress (Cartesian axis) and pressure

          total   stress  (Ry/bohr**3)                   (kbar)     P=     -659.98
  -0.00447718  -0.00515251  -0.00522124         -658.62     -757.96     -768.07
  -0.00515251  -0.00447718  -0.00522124         -757.96     -658.62     -768.07
  -0.00522124  -0.00522124  -0.00450508         -768.07     -768.07     -662.72


     Writing all to output data dir ./diamond_tetragonal_eta0p002.save/ :
     XML data file, charge density, pseudopotentials, collected wavefunctions
 
     init_run     :      0.06s CPU      0.12s WALL (       1 calls)
     electrons    :      3.63s CPU      3.93s WALL (       1 calls)
     forces       :      0.01s CPU      0.01s WALL (       1 calls)
     stress       :      0.03s CPU      0.03s WALL (       1 calls)

     Called by init_run:
     wfcinit      :      0.02s CPU      0.05s WALL (       1 calls)
     potinit      :      0.00s CPU      0.01s WALL (       1 calls)
     hinit0       :      0.02s CPU      0.04s WALL (       1 calls)

     Called by electrons:
     c_bands      :      3.08s CPU      3.33s WALL (      48 calls)
     sum_band     :      0.36s CPU      0.39s WALL (      48 calls)
     v_of_rho     :      0.04s CPU      0.05s WALL (      48 calls)
     newd         :      0.07s CPU      0.08s WALL (      48 calls)
     mix_rho      :      0.05s CPU      0.05s WALL (      48 calls)

     Called by c_bands:
     init_us_2    :      0.04s CPU      0.05s WALL (    2376 calls)
     init_us_2:cp :      0.04s CPU      0.04s WALL (    2376 calls)
     ccgdiagg     :      2.57s CPU      2.78s WALL (    1152 calls)
     wfcrot       :      0.47s CPU      0.52s WALL (    1128 calls)

     Called by *cgdiagg:
     h_psi        :      1.79s CPU      1.94s WALL (   15524 calls)
     s_psi        :      0.09s CPU      0.09s WALL (   29920 calls)

     Called by h_psi:
     h_psi:calbec :      0.24s CPU      0.27s WALL (   15524 calls)
     vloc_psi     :      1.38s CPU      1.49s WALL (   15524 calls)
     add_vuspsi   :      0.05s CPU      0.06s WALL (   15524 calls)
     hs_1psi      :      1.55s CPU      1.68s WALL (   14396 calls)
     s_1psi       :      0.29s CPU      0.31s WALL (   14396 calls)

     General routines
     calbec       :      0.40s CPU      0.44s WALL (   31192 calls)
     fft          :      0.05s CPU      0.07s WALL (     295 calls)
     ffts         :      0.00s CPU      0.01s WALL (      96 calls)
     fftw         :      1.26s CPU      1.36s WALL (   42616 calls)
     interpolate  :      0.01s CPU      0.01s WALL (      48 calls)
 
     Parallel routines
 
     PWSCF        :      3.77s CPU      4.33s WALL

 
   This run was terminated on:  16:52:33  18Oct2025            

=------------------------------------------------------------------------------=
   JOB DONE.
=------------------------------------------------------------------------------=
TACC:  Shutdown complete. Exiting. 
