TACC:  Starting up job 2476741 
TACC:  Starting parallel tasks... 

     Program PWSCF v.7.3 starts on 18Oct2025 at 16:52:58 

     This program is part of the open-source Quantum ESPRESSO suite
     for quantum simulation of materials; please cite
         "P. Giannozzi et al., J. Phys.:Condens. Matter 21 395502 (2009);
         "P. Giannozzi et al., J. Phys.:Condens. Matter 29 465901 (2017);
         "P. Giannozzi et al., J. Chem. Phys. 152 154105 (2020);
          URL http://www.quantum-espresso.org", 
     in publications or presentations arising from this work. More details at
     http://www.quantum-espresso.org/quote

     Parallel version (MPI & OpenMP), running on      10 processor cores
     Number of MPI processes:                10
     Threads/MPI process:                     1

     MPI processes distributed on     1 nodes
     188311 MiB available memory on the printing compute node when the environment starts
 
     Waiting for input...
     Reading input from standard input
Warning: card &CELL ignored
Warning: card  CELL_DYNAMICS = 'BFGS', ignored
Warning: card  PRESS=0.D0, ignored
Warning: card / ignored
     Message from routine read_cards :
     DEPRECATED: no units specified in ATOMIC_POSITIONS card
     Message from routine read_cards :
     ATOMIC_POSITIONS: units set to alat

     Current dimensions of program PWSCF are:
     Max number of different atomic species (ntypx) = 10
     Max number of k-points (npk) =  40000
     Max angular momentum in pseudopotentials (lmaxx) =  4
     Message from routine setup:
     using ibrav=0 with symmetry is DISCOURAGED, use correct ibrav instead
 
     R & G space division:  proc/nbgrp/npool/nimage =      10
     Subspace diagonalization in iterative solution of the eigenvalue problem:
     a serial algorithm will be used

 
     Parallelization info
     --------------------
     sticks:   dense  smooth     PW     G-vecs:    dense   smooth      PW
     Min         126      50     19                 2845      712     166
     Max         127      51     20                 2847      713     168
     Sum        1263     503    197                28459     7127    1669
 
     Using Slab Decomposition
 


     bravais-lattice index     =            0
     lattice parameter (alat)  =       6.7000  a.u.
     unit-cell volume          =     150.3801 (a.u.)^3
     number of atoms/cell      =            2
     number of atomic types    =            1
     number of electrons       =         8.00
     number of Kohn-Sham states=            4
     kinetic-energy cutoff     =      50.0000  Ry
     charge density cutoff     =     500.0000  Ry
     scf convergence threshold =      1.0E-08
     mixing beta               =       0.7000
     number of iterations used =            8  plain     mixing
     Exchange-correlation= SLA  PZ   NOGX NOGC
                           (   1   1   0   0   0   0   0)

     celldm(1)=   6.700000  celldm(2)=   0.000000  celldm(3)=   0.000000
     celldm(4)=   0.000000  celldm(5)=   0.000000  celldm(6)=   0.000000

     crystal axes: (cart. coord. in units of alat)
               a(1) = (  -0.501500   0.501500   0.500000 )  
               a(2) = (   0.501500  -0.501500   0.500000 )  
               a(3) = (   0.498500   0.498500  -0.500000 )  

     reciprocal axes: (cart. coord. in units 2 pi/alat)
               b(1) = (  0.003000  1.000009  1.000000 )  
               b(2) = (  1.000009  0.003000  1.000000 )  
               b(3) = (  1.003009  1.003009  0.000000 )  


     PseudoPot. # 1 for C  read from file:
     /scratch/11018/zhc/Assisgnment2/Q2/Diamond/Diamond/C_LDA.UPF
     MD5 check sum: 407c1fe918d93b14b177d5600f28733c
     Pseudo is Ultrasoft + core correction, Zval =  4.0
     Generated by new atomic code, or converted to UPF format
     Using radial grid of  721 points,  4 beta functions with: 
                l(1) =   0
                l(2) =   0
                l(3) =   1
                l(4) =   1
     Q(r) pseudized with  8 coefficients,  rinner =    1.100   1.100   1.100


     atomic species   valence    mass     pseudopotential
     C                 4.00    12.01100     C ( 1.00)

      2 Sym. Ops. (no inversion) found



   Cartesian axes

     site n.     atom                  positions (alat units)
         1        C      tau(   1) = (   0.0000000   0.0000000   0.0000000  )
         2        C      tau(   2) = (   0.2500000   0.2500000   0.2500000  )

     number of k points=    24
                       cart. coord. in units 2pi/alat
        k(    1) = (   0.0000000   0.0000000   0.0000000), wk =   0.0312500
        k(    2) = (   0.2507523   0.2507523   0.0000000), wk =   0.0625000
        k(    3) = (  -0.5015045  -0.5015045   0.0000000), wk =   0.0312500
        k(    4) = (   0.2500023   0.0007500   0.2500000), wk =   0.1250000
        k(    5) = (   0.5007545   0.2515023   0.2500000), wk =   0.1250000
        k(    6) = (  -0.5000045  -0.0015000  -0.5000000), wk =   0.0625000
        k(    7) = (  -0.2492522   0.2492522  -0.5000000), wk =   0.1250000
        k(    8) = (   0.2507523   0.2507523   0.5000000), wk =   0.0625000
        k(    9) = (   0.5015045   0.5015045   0.5000000), wk =   0.0625000
        k(   10) = (   0.0000000   0.0000000   0.5000000), wk =   0.0625000
        k(   11) = (  -0.4992545   0.2485022  -0.2500000), wk =   0.1250000
        k(   12) = (  -1.0007590  -0.2530023  -0.2500000), wk =   0.1250000
        k(   13) = (  -0.2492522   0.2492522   0.0000000), wk =   0.0625000
        k(   14) = (   0.0015000   0.5000045   0.0000000), wk =   0.1250000
        k(   15) = (  -0.7507568  -0.2522523   0.0000000), wk =   0.0625000
        k(   16) = (  -0.5015045  -0.5015045  -1.0000000), wk =   0.0312500
        k(   17) = (  -0.2507523  -0.2507523  -1.0000000), wk =   0.0625000
        k(   18) = (  -1.0030090  -1.0030090  -1.0000000), wk =   0.0312500
        k(   19) = (   0.0007500   0.2500023  -0.2500000), wk =   0.1250000
        k(   20) = (   0.2515023   0.5007545  -0.2500000), wk =   0.1250000
        k(   21) = (  -0.0015000  -0.5000045   0.5000000), wk =   0.0625000
        k(   22) = (   0.2507523   0.2507523  -0.5000000), wk =   0.0625000
        k(   23) = (   0.2485022  -0.4992545   0.2500000), wk =   0.1250000
        k(   24) = (  -0.2530023  -1.0007590   0.2500000), wk =   0.1250000

     Dense  grid:    28459 G-vectors     FFT dimensions: (  45,  45,  45)

     Smooth grid:     7127 G-vectors     FFT dimensions: (  27,  27,  27)

     Estimated max dynamical RAM per process >       4.70 MB

     Estimated total dynamical RAM >      47.04 MB

     Initial potential from superposition of free atoms

     starting charge       7.9999, renormalised to       8.0000
     Starting wfcs are    8 randomized atomic wfcs

     total cpu time spent up to now is        0.2 secs

     Self-consistent Calculation

     iteration #  1     ecut=    50.00 Ry     beta= 0.70
     CG style diagonalization
     ethr =  1.00E-02,  avg # of iterations =  2.8

     Threshold (ethr) on eigenvalues was too large:
     Diagonalizing with lowered threshold

     CG style diagonalization
     ethr =  5.04E-04,  avg # of iterations =  2.0

     total cpu time spent up to now is        0.3 secs

     total energy              =     -22.63708990 Ry
     estimated scf accuracy    <       0.03898404 Ry

     iteration #  2     ecut=    50.00 Ry     beta= 0.70
     CG style diagonalization
     ethr =  4.87E-04,  avg # of iterations =  3.7

     total cpu time spent up to now is        0.4 secs

     total energy              =     -22.64104744 Ry
     estimated scf accuracy    <       0.00103877 Ry

     iteration #  3     ecut=    50.00 Ry     beta= 0.70
     CG style diagonalization
     ethr =  1.30E-05,  avg # of iterations =  3.5

     total cpu time spent up to now is        0.5 secs

     total energy              =     -22.64116702 Ry
     estimated scf accuracy    <       0.00004360 Ry

     iteration #  4     ecut=    50.00 Ry     beta= 0.70
     CG style diagonalization
     ethr =  5.45E-07,  avg # of iterations =  4.3

     total cpu time spent up to now is        0.6 secs

     total energy              =     -22.64118756 Ry
     estimated scf accuracy    <       0.00001942 Ry

     iteration #  5     ecut=    50.00 Ry     beta= 0.70
     CG style diagonalization
     ethr =  2.43E-07,  avg # of iterations =  3.1

     total cpu time spent up to now is        0.6 secs

     total energy              =     -22.64118513 Ry
     estimated scf accuracy    <       0.00000866 Ry

     iteration #  6     ecut=    50.00 Ry     beta= 0.70
     CG style diagonalization
     c_bands:  1 eigenvalues not converged
     ethr =  1.08E-07,  avg # of iterations =  4.7

     total cpu time spent up to now is        0.7 secs

     total energy              =     -22.64119019 Ry
     estimated scf accuracy    <       0.00006160 Ry

     iteration #  7     ecut=    50.00 Ry     beta= 0.70
     CG style diagonalization
     ethr =  1.08E-07,  avg # of iterations =  3.3

     total cpu time spent up to now is        0.8 secs

     total energy              =     -22.64119122 Ry
     estimated scf accuracy    <       0.00002384 Ry

     iteration #  8     ecut=    50.00 Ry     beta= 0.70
     CG style diagonalization
     ethr =  1.08E-07,  avg # of iterations =  3.0

     total cpu time spent up to now is        0.8 secs

     total energy              =     -22.64118722 Ry
     estimated scf accuracy    <       0.00002192 Ry

     iteration #  9     ecut=    50.00 Ry     beta= 0.70
     CG style diagonalization
     ethr =  1.08E-07,  avg # of iterations =  3.7

     total cpu time spent up to now is        0.9 secs

     total energy              =     -22.64119015 Ry
     estimated scf accuracy    <       0.00000023 Ry

     iteration # 10     ecut=    50.00 Ry     beta= 0.70
     CG style diagonalization
     c_bands:  2 eigenvalues not converged
     ethr =  2.86E-09,  avg # of iterations =  5.3

     total cpu time spent up to now is        1.0 secs

     total energy              =     -22.64119190 Ry
     estimated scf accuracy    <       0.00001667 Ry

     iteration # 11     ecut=    50.00 Ry     beta= 0.70
     CG style diagonalization
     c_bands:  1 eigenvalues not converged
     ethr =  2.86E-09,  avg # of iterations =  3.2

     total cpu time spent up to now is        1.1 secs

     total energy              =     -22.64119279 Ry
     estimated scf accuracy    <       0.00001776 Ry

     iteration # 12     ecut=    50.00 Ry     beta= 0.70
     CG style diagonalization
     c_bands:  1 eigenvalues not converged
     ethr =  2.86E-09,  avg # of iterations =  3.7

     total cpu time spent up to now is        1.1 secs

     total energy              =     -22.64119304 Ry
     estimated scf accuracy    <       0.00002659 Ry

     iteration # 13     ecut=    50.00 Ry     beta= 0.70
     CG style diagonalization
     c_bands:  1 eigenvalues not converged
     ethr =  2.86E-09,  avg # of iterations =  3.3

     total cpu time spent up to now is        1.2 secs

     total energy              =     -22.64119290 Ry
     estimated scf accuracy    <       0.00002961 Ry

     iteration # 14     ecut=    50.00 Ry     beta= 0.70
     CG style diagonalization
     ethr =  2.86E-09,  avg # of iterations =  3.0

     total cpu time spent up to now is        1.3 secs

     total energy              =     -22.64119255 Ry
     estimated scf accuracy    <       0.00002935 Ry

     iteration # 15     ecut=    50.00 Ry     beta= 0.70
     CG style diagonalization
     ethr =  2.86E-09,  avg # of iterations =  3.1

     total cpu time spent up to now is        1.3 secs

     total energy              =     -22.64119230 Ry
     estimated scf accuracy    <       0.00002663 Ry

     iteration # 16     ecut=    50.00 Ry     beta= 0.70
     CG style diagonalization
     c_bands:  1 eigenvalues not converged
     ethr =  2.86E-09,  avg # of iterations =  4.1

     total cpu time spent up to now is        1.4 secs

     total energy              =     -22.64119117 Ry
     estimated scf accuracy    <       0.00001796 Ry

     iteration # 17     ecut=    50.00 Ry     beta= 0.70
     CG style diagonalization
     c_bands:  1 eigenvalues not converged
     ethr =  2.86E-09,  avg # of iterations =  4.9

     total cpu time spent up to now is        1.5 secs

     total energy              =     -22.64119053 Ry
     estimated scf accuracy    <       0.00000511 Ry

     iteration # 18     ecut=    50.00 Ry     beta= 0.70
     CG style diagonalization
     ethr =  2.86E-09,  avg # of iterations =  4.8

     total cpu time spent up to now is        1.6 secs

     total energy              =     -22.64119112 Ry
     estimated scf accuracy    <       0.00000278 Ry

     iteration # 19     ecut=    50.00 Ry     beta= 0.70
     CG style diagonalization
     ethr =  2.86E-09,  avg # of iterations =  3.0

     total cpu time spent up to now is        1.7 secs

     total energy              =     -22.64119092 Ry
     estimated scf accuracy    <       0.00000248 Ry

     iteration # 20     ecut=    50.00 Ry     beta= 0.70
     CG style diagonalization
     ethr =  2.86E-09,  avg # of iterations =  4.1

     total cpu time spent up to now is        1.7 secs

     total energy              =     -22.64119085 Ry
     estimated scf accuracy    <       0.00000215 Ry

     iteration # 21     ecut=    50.00 Ry     beta= 0.70
     CG style diagonalization
     ethr =  2.86E-09,  avg # of iterations =  3.0

     total cpu time spent up to now is        1.8 secs

     total energy              =     -22.64119078 Ry
     estimated scf accuracy    <       0.00000174 Ry

     iteration # 22     ecut=    50.00 Ry     beta= 0.70
     CG style diagonalization
     ethr =  2.86E-09,  avg # of iterations =  3.1

     total cpu time spent up to now is        1.9 secs

     total energy              =     -22.64119075 Ry
     estimated scf accuracy    <       0.00000133 Ry

     iteration # 23     ecut=    50.00 Ry     beta= 0.70
     CG style diagonalization
     ethr =  2.86E-09,  avg # of iterations =  3.1

     total cpu time spent up to now is        1.9 secs

     total energy              =     -22.64119073 Ry
     estimated scf accuracy    <       0.00000039 Ry

     iteration # 24     ecut=    50.00 Ry     beta= 0.70
     CG style diagonalization
     ethr =  2.86E-09,  avg # of iterations =  3.8

     total cpu time spent up to now is        2.0 secs

     total energy              =     -22.64119082 Ry
     estimated scf accuracy    <       0.00000059 Ry

     iteration # 25     ecut=    50.00 Ry     beta= 0.70
     CG style diagonalization
     ethr =  2.86E-09,  avg # of iterations =  3.0

     total cpu time spent up to now is        2.1 secs

     total energy              =     -22.64119081 Ry
     estimated scf accuracy    <       0.00000050 Ry

     iteration # 26     ecut=    50.00 Ry     beta= 0.70
     CG style diagonalization
     ethr =  2.86E-09,  avg # of iterations =  3.0

     total cpu time spent up to now is        2.1 secs

     total energy              =     -22.64119082 Ry
     estimated scf accuracy    <       0.00000045 Ry

     iteration # 27     ecut=    50.00 Ry     beta= 0.70
     CG style diagonalization
     ethr =  2.86E-09,  avg # of iterations =  3.0

     total cpu time spent up to now is        2.2 secs

     total energy              =     -22.64119083 Ry
     estimated scf accuracy    <       0.00000045 Ry

     iteration # 28     ecut=    50.00 Ry     beta= 0.70
     CG style diagonalization
     ethr =  2.86E-09,  avg # of iterations =  3.0

     total cpu time spent up to now is        2.2 secs

     total energy              =     -22.64119076 Ry
     estimated scf accuracy    <       0.00000046 Ry

     iteration # 29     ecut=    50.00 Ry     beta= 0.70
     CG style diagonalization
     ethr =  2.86E-09,  avg # of iterations =  3.2

     total cpu time spent up to now is        2.3 secs

     total energy              =     -22.64119081 Ry
     estimated scf accuracy    <       0.00000002 Ry

     iteration # 30     ecut=    50.00 Ry     beta= 0.70
     CG style diagonalization
     ethr =  2.71E-10,  avg # of iterations =  3.6

     total cpu time spent up to now is        2.4 secs

     total energy              =     -22.64119082 Ry
     estimated scf accuracy    <       0.00000017 Ry

     iteration # 31     ecut=    50.00 Ry     beta= 0.70
     CG style diagonalization
     ethr =  2.71E-10,  avg # of iterations =  3.0

     total cpu time spent up to now is        2.4 secs

     total energy              =     -22.64119081 Ry
     estimated scf accuracy    <       0.00000015 Ry

     iteration # 32     ecut=    50.00 Ry     beta= 0.70
     CG style diagonalization
     ethr =  2.71E-10,  avg # of iterations =  3.4

     total cpu time spent up to now is        2.5 secs

     total energy              =     -22.64119081 Ry
     estimated scf accuracy    <       0.00000001 Ry

     iteration # 33     ecut=    50.00 Ry     beta= 0.70
     CG style diagonalization
     ethr =  1.56E-10,  avg # of iterations =  3.0

     total cpu time spent up to now is        2.5 secs

     total energy              =     -22.64119081 Ry
     estimated scf accuracy    <       0.00000001 Ry

     iteration # 34     ecut=    50.00 Ry     beta= 0.70
     CG style diagonalization
     ethr =  1.46E-10,  avg # of iterations =  3.0

     total cpu time spent up to now is        2.6 secs

     End of self-consistent calculation

          k = 0.0000 0.0000 0.0000 (   935 PWs)   bands (ev):

   -11.4641  -2.9895   3.0436   3.0672

          k = 0.2508 0.2508 0.0000 (   901 PWs)   bands (ev):

   -10.4924  -4.7105   2.7697   3.6083

          k =-0.5015-0.5015 0.0000 (   886 PWs)   bands (ev):

    -7.8857  -7.8810   3.2959   3.3051

          k = 0.2500 0.0008 0.2500 (   901 PWs)   bands (ev):

   -10.4978  -4.7215   2.7756   3.6219

          k = 0.5008 0.2515 0.2500 (   894 PWs)   bands (ev):

    -8.4984  -7.1370   1.8247   4.2341

          k =-0.5000-0.0015-0.5000 (   886 PWs)   bands (ev):

    -7.9001  -7.8975   3.3166   3.3480

          k =-0.2493 0.2493-0.5000 (   896 PWs)   bands (ev):

    -9.2943  -5.2622  -0.4387   2.6530

          k = 0.2508 0.2508 0.5000 (   894 PWs)   bands (ev):

    -8.5019  -7.1502   1.8172   4.2741

          k = 0.5015 0.5015 0.5000 (   908 PWs)   bands (ev):

    -8.7362  -5.7279   0.0824   0.0858

          k = 0.0000 0.0000 0.5000 (   900 PWs)   bands (ev):

    -9.7942  -4.7198   0.8478   2.7730

          k =-0.4993 0.2485-0.2500 (   897 PWs)   bands (ev):

    -9.3042  -5.2624  -0.4540   2.6930

          k =-1.0008-0.2530-0.2500 (   895 PWs)   bands (ev):

    -8.8771  -4.7293  -0.8660   1.7210

          k =-0.2493 0.2493 0.0000 (   903 PWs)   bands (ev):

   -10.6897  -3.1340   0.3180   2.4924

          k = 0.0015 0.5000 0.0000 (   900 PWs)   bands (ev):

    -9.7972  -4.7094   0.8508   2.7628

          k =-0.7508-0.2523 0.0000 (   894 PWs)   bands (ev):

    -7.4724  -7.4681   2.1584   2.1596

          k =-0.5015-0.5015-1.0000 (   886 PWs)   bands (ev):

    -9.6218  -3.2786  -2.1237   1.9898

          k =-0.2508-0.2508-1.0000 (   898 PWs)   bands (ev):

    -8.8893  -4.7292  -0.8620   1.7332

          k =-1.0030-1.0030-1.0000 (   876 PWs)   bands (ev):

    -7.0255  -7.0218   2.7155   2.7322

          k = 0.0008 0.2500-0.2500 (   901 PWs)   bands (ev):

   -10.6825  -3.1323   0.3309   2.4620

          k = 0.2515 0.5008-0.2500 (   894 PWs)   bands (ev):

    -9.2859  -5.2528  -0.4584   2.6580

          k =-0.0015-0.5000 0.5000 (   886 PWs)   bands (ev):

    -9.6025  -3.2755  -2.1216   1.9495

          k = 0.2508 0.2508-0.5000 (   894 PWs)   bands (ev):

    -9.6431  -3.2813  -1.2230   0.5557

          k = 0.2485-0.4993 0.2500 (   897 PWs)   bands (ev):

    -9.6538  -3.2830  -1.2022   0.5473

          k =-0.2530-1.0008 0.2500 (   895 PWs)   bands (ev):

    -7.4827  -7.4746   2.1586   2.1715

     highest occupied level (ev):     4.2741

!    total energy              =     -22.64119081 Ry
     estimated scf accuracy    <          7.0E-09 Ry

     The total energy is the sum of the following terms:
     one-electron contribution =      -0.25401530 Ry
     hartree contribution      =       3.44174524 Ry
     xc contribution           =      -6.56016786 Ry
     ewald contribution        =     -19.26875288 Ry

     convergence has been achieved in  34 iterations

     Forces acting on atoms (cartesian axes, Ry/au):

     atom    1 type  1   force =    -0.00998809   -0.00998809   -0.01029416
     atom    2 type  1   force =     0.00998809    0.00998809    0.01029416

     Total force =     0.024718     Total SCF correction =     0.000003


     Computing stress (Cartesian axis) and pressure

          total   stress  (Ry/bohr**3)                   (kbar)     P=     -656.97
  -0.00445746  -0.00514242  -0.00517051         -655.71     -756.48     -760.61
  -0.00514242  -0.00445746  -0.00517051         -756.48     -655.71     -760.61
  -0.00517051  -0.00517051  -0.00448296         -760.61     -760.61     -659.47


     Writing all to output data dir ./diamond_trigonal_etam0p006.save/ :
     XML data file, charge density, pseudopotentials, collected wavefunctions
 
     init_run     :      0.05s CPU      0.12s WALL (       1 calls)
     electrons    :      2.21s CPU      2.41s WALL (       1 calls)
     forces       :      0.01s CPU      0.01s WALL (       1 calls)
     stress       :      0.03s CPU      0.03s WALL (       1 calls)

     Called by init_run:
     wfcinit      :      0.02s CPU      0.05s WALL (       1 calls)
     potinit      :      0.00s CPU      0.01s WALL (       1 calls)
     hinit0       :      0.02s CPU      0.04s WALL (       1 calls)

     Called by electrons:
     c_bands      :      1.81s CPU      1.97s WALL (      35 calls)
     sum_band     :      0.27s CPU      0.28s WALL (      35 calls)
     v_of_rho     :      0.03s CPU      0.03s WALL (      35 calls)
     newd         :      0.05s CPU      0.06s WALL (      35 calls)
     mix_rho      :      0.03s CPU      0.04s WALL (      35 calls)

     Called by c_bands:
     init_us_2    :      0.03s CPU      0.04s WALL (    1752 calls)
     init_us_2:cp :      0.03s CPU      0.03s WALL (    1752 calls)
     ccgdiagg     :      1.45s CPU      1.58s WALL (     840 calls)
     wfcrot       :      0.33s CPU      0.39s WALL (     816 calls)

     Called by *cgdiagg:
     h_psi        :      1.08s CPU      1.19s WALL (    9223 calls)
     s_psi        :      0.05s CPU      0.05s WALL (   17630 calls)

     Called by h_psi:
     h_psi:calbec :      0.14s CPU      0.16s WALL (    9223 calls)
     vloc_psi     :      0.84s CPU      0.92s WALL (    9223 calls)
     add_vuspsi   :      0.03s CPU      0.03s WALL (    9223 calls)
     hs_1psi      :      0.90s CPU      0.98s WALL (    8407 calls)
     s_1psi       :      0.17s CPU      0.18s WALL (    8407 calls)

     General routines
     calbec       :      0.24s CPU      0.26s WALL (   18590 calls)
     fft          :      0.04s CPU      0.06s WALL (     217 calls)
     ffts         :      0.00s CPU      0.00s WALL (      70 calls)
     fftw         :      0.79s CPU      0.86s WALL (   26894 calls)
     interpolate  :      0.01s CPU      0.01s WALL (      35 calls)
 
     Parallel routines
 
     PWSCF        :      2.35s CPU      2.81s WALL

 
   This run was terminated on:  16:53: 1  18Oct2025            

=------------------------------------------------------------------------------=
   JOB DONE.
=------------------------------------------------------------------------------=
TACC:  Shutdown complete. Exiting. 
