TACC:  Starting up job 2477577 
TACC:  Starting parallel tasks... 

     Program PWSCF v.7.3 starts on 19Oct2025 at  0:47: 8 

     This program is part of the open-source Quantum ESPRESSO suite
     for quantum simulation of materials; please cite
         "P. Giannozzi et al., J. Phys.:Condens. Matter 21 395502 (2009);
         "P. Giannozzi et al., J. Phys.:Condens. Matter 29 465901 (2017);
         "P. Giannozzi et al., J. Chem. Phys. 152 154105 (2020);
          URL http://www.quantum-espresso.org", 
     in publications or presentations arising from this work. More details at
     http://www.quantum-espresso.org/quote

     Parallel version (MPI & OpenMP), running on      10 processor cores
     Number of MPI processes:                10
     Threads/MPI process:                     1

     MPI processes distributed on     1 nodes
     182300 MiB available memory on the printing compute node when the environment starts
 
     Waiting for input...
     Reading input from standard input
Warning: card &CELL ignored
Warning: card  CELL_DYNAMICS = 'BFGS', ignored
Warning: card  PRESS=0.D0, ignored
Warning: card / ignored
     Message from routine read_cards :
     DEPRECATED: no units specified in ATOMIC_POSITIONS card
     Message from routine read_cards :
     ATOMIC_POSITIONS: units set to alat

     Current dimensions of program PWSCF are:
     Max number of different atomic species (ntypx) = 10
     Max number of k-points (npk) =  40000
     Max angular momentum in pseudopotentials (lmaxx) =  4
     Message from routine setup:
     using ibrav=0 with symmetry is DISCOURAGED, use correct ibrav instead
 
     R & G space division:  proc/nbgrp/npool/nimage =      10
     Subspace diagonalization in iterative solution of the eigenvalue problem:
     a serial algorithm will be used

 
     Parallelization info
     --------------------
     sticks:   dense  smooth     PW     G-vecs:    dense   smooth      PW
     Min         125      49     18                 2842      710     159
     Max         126      50     19                 2845      712     161
     Sum        1259     499    181                28435     7107    1601
 
     Using Slab Decomposition
 


     bravais-lattice index     =            0
     lattice parameter (alat)  =       6.6720  a.u.
     unit-cell volume          =     149.3932 (a.u.)^3
     number of atoms/cell      =            2
     number of atomic types    =            1
     number of electrons       =         8.00
     number of Kohn-Sham states=            4
     kinetic-energy cutoff     =      50.0000  Ry
     charge density cutoff     =     500.0000  Ry
     scf convergence threshold =      1.0E-08
     mixing beta               =       0.7000
     number of iterations used =            8  plain     mixing
     Exchange-correlation= SLA  PZ   NOGX NOGC
                           (   1   1   0   0   0   0   0)

     celldm(1)=   6.672000  celldm(2)=   0.000000  celldm(3)=   0.000000
     celldm(4)=   0.000000  celldm(5)=   0.000000  celldm(6)=   0.000000

     crystal axes: (cart. coord. in units of alat)
               a(1) = (  -0.500996   0.500996   0.500996 )  
               a(2) = (   0.500996  -0.500996   0.500996 )  
               a(3) = (   0.500996   0.500996  -0.500996 )  

     reciprocal axes: (cart. coord. in units 2 pi/alat)
               b(1) = (  0.000000  0.998012  0.998012 )  
               b(2) = (  0.998012  0.000000  0.998012 )  
               b(3) = (  0.998012  0.998012  0.000000 )  


     PseudoPot. # 1 for C  read from file:
     /scratch/11018/zhc/Assisgnment2/Q2/Diamond/Diamond/C_LDA.UPF
     MD5 check sum: 407c1fe918d93b14b177d5600f28733c
     Pseudo is Ultrasoft + core correction, Zval =  4.0
     Generated by new atomic code, or converted to UPF format
     Using radial grid of  721 points,  4 beta functions with: 
                l(1) =   0
                l(2) =   0
                l(3) =   1
                l(4) =   1
     Q(r) pseudized with  8 coefficients,  rinner =    1.100   1.100   1.100


     atomic species   valence    mass     pseudopotential
     C                 4.00    12.01100     C ( 1.00)

      6 Sym. Ops. (no inversion) found



   Cartesian axes

     site n.     atom                  positions (alat units)
         1        C      tau(   1) = (   0.0000000   0.0000000   0.0000000  )
         2        C      tau(   2) = (   0.2211023   0.2211023   0.2211023  )

     number of k points=    13
                       cart. coord. in units 2pi/alat
        k(    1) = (   0.0000000   0.0000000   0.0000000), wk =   0.0312500
        k(    2) = (   0.2495030   0.2495030   0.0000000), wk =   0.1875000
        k(    3) = (  -0.4990060  -0.4990060   0.0000000), wk =   0.0937500
        k(    4) = (   0.4990060   0.2495030   0.2495030), wk =   0.1875000
        k(    5) = (   0.4990060   0.4990060   0.4990060), wk =   0.0625000
        k(    6) = (   0.0000000   0.0000000   0.4990060), wk =   0.1875000
        k(    7) = (  -0.9980120  -0.2495030  -0.2495030), wk =   0.1875000
        k(    8) = (  -0.9980120  -0.9980120  -0.9980120), wk =   0.0312500
        k(    9) = (   0.2495030  -0.2495030   0.0000000), wk =   0.1875000
        k(   10) = (  -0.4990060   0.4990060   0.0000000), wk =   0.0937500
        k(   11) = (   0.2495030  -0.4990060   0.2495030), wk =   0.1875000
        k(   12) = (  -0.2495030   0.4990060   0.2495030), wk =   0.3750000
        k(   13) = (   0.2495030  -0.9980120  -0.2495030), wk =   0.1875000

     Dense  grid:    28435 G-vectors     FFT dimensions: (  45,  45,  45)

     Smooth grid:     7107 G-vectors     FFT dimensions: (  27,  27,  27)

     Estimated max dynamical RAM per process >       4.64 MB

     Estimated total dynamical RAM >      46.41 MB

     Initial potential from superposition of free atoms

     starting charge       7.9999, renormalised to       8.0000
     Starting wfcs are    8 randomized atomic wfcs

     total cpu time spent up to now is        0.2 secs

     Self-consistent Calculation

     iteration #  1     ecut=    50.00 Ry     beta= 0.70
     CG style diagonalization
     ethr =  1.00E-02,  avg # of iterations =  3.0

     total cpu time spent up to now is        0.3 secs

     total energy              =     -22.63465442 Ry
     estimated scf accuracy    <       0.11841031 Ry

     iteration #  2     ecut=    50.00 Ry     beta= 0.70
     CG style diagonalization
     ethr =  1.48E-03,  avg # of iterations =  3.9

     total cpu time spent up to now is        0.3 secs

     total energy              =     -22.65820269 Ry
     estimated scf accuracy    <       0.00346826 Ry

     iteration #  3     ecut=    50.00 Ry     beta= 0.70
     CG style diagonalization
     ethr =  4.34E-05,  avg # of iterations =  4.1

     total cpu time spent up to now is        0.4 secs

     total energy              =     -22.65932779 Ry
     estimated scf accuracy    <       0.00011223 Ry

     iteration #  4     ecut=    50.00 Ry     beta= 0.70
     CG style diagonalization
     ethr =  1.40E-06,  avg # of iterations =  4.2

     total cpu time spent up to now is        0.4 secs

     total energy              =     -22.65938085 Ry
     estimated scf accuracy    <       0.00000854 Ry

     iteration #  5     ecut=    50.00 Ry     beta= 0.70
     CG style diagonalization
     ethr =  1.07E-07,  avg # of iterations =  4.2

     total cpu time spent up to now is        0.4 secs

     total energy              =     -22.65938368 Ry
     estimated scf accuracy    <       0.00000080 Ry

     iteration #  6     ecut=    50.00 Ry     beta= 0.70
     CG style diagonalization
     ethr =  9.98E-09,  avg # of iterations =  4.5

     total cpu time spent up to now is        0.5 secs

     total energy              =     -22.65938400 Ry
     estimated scf accuracy    <       0.00000012 Ry

     iteration #  7     ecut=    50.00 Ry     beta= 0.70
     CG style diagonalization
     ethr =  1.50E-09,  avg # of iterations =  4.2

     total cpu time spent up to now is        0.5 secs

     End of self-consistent calculation

          k = 0.0000 0.0000 0.0000 (   935 PWs)   bands (ev):

   -11.5281  -2.8561   3.0103   3.0103

          k = 0.2495 0.2495 0.0000 (   889 PWs)   bands (ev):

   -10.6295  -4.4354   2.6237   3.4494

          k =-0.4990-0.4990 0.0000 (   886 PWs)   bands (ev):

    -8.9942  -6.5932   2.4495   4.1187

          k = 0.4990 0.2495 0.2495 (   892 PWs)   bands (ev):

    -9.1179  -6.3074   1.6368   3.5794

          k = 0.4990 0.4990 0.4990 (   868 PWs)   bands (ev):

    -9.0826  -5.1647   0.0531   0.0531

          k = 0.0000 0.0000 0.4990 (   900 PWs)   bands (ev):

    -9.9678  -4.3752   0.8330   2.5254

          k =-0.9980-0.2495-0.2495 (   882 PWs)   bands (ev):

    -9.1319  -4.2574  -0.9032   1.5960

          k =-0.9980-0.9980-0.9980 (   856 PWs)   bands (ev):

    -8.2195  -5.5676   1.7635   1.7635

          k = 0.2495-0.2495 0.0000 (   889 PWs)   bands (ev):

   -10.7707  -2.9820   0.3884   2.4356

          k =-0.4990 0.4990 0.0000 (   886 PWs)   bands (ev):

    -9.7457  -2.9717  -2.1280   1.9316

          k = 0.2495-0.4990 0.2495 (   892 PWs)   bands (ev):

    -9.7838  -3.0216  -1.1656   0.5369

          k =-0.2495 0.4990 0.2495 (   892 PWs)   bands (ev):

    -9.5313  -4.8413  -0.4586   2.5595

          k = 0.2495-0.9980-0.2495 (   882 PWs)   bands (ev):

    -8.6221  -6.1005   1.6766   2.1539

     highest occupied level (ev):     4.1187

!    total energy              =     -22.65938402 Ry
     estimated scf accuracy    <          7.7E-09 Ry

     The total energy is the sum of the following terms:
     one-electron contribution =      -0.72038492 Ry
     hartree contribution      =       3.72018913 Ry
     xc contribution           =      -6.63887257 Ry
     ewald contribution        =     -19.02031566 Ry

     convergence has been achieved in   7 iterations

     Forces acting on atoms (cartesian axes, Ry/au):

     atom    1 type  1   force =     0.03912792    0.03912792    0.03912792
     atom    2 type  1   force =    -0.03912792   -0.03912792   -0.03912792

     Total force =     0.095843     Total SCF correction =     0.000158


     Computing stress (Cartesian axis) and pressure

          total   stress  (Ry/bohr**3)                   (kbar)     P=     -535.92
  -0.00364314  -0.00458366  -0.00458366         -535.92     -674.28     -674.28
  -0.00458366  -0.00364314  -0.00458366         -674.28     -535.92     -674.28
  -0.00458366  -0.00458366  -0.00364314         -674.28     -674.28     -535.92


     Writing all to output data dir ./diamond_isotropic_etam0p002.save/ :
     XML data file, charge density, pseudopotentials, collected wavefunctions
 
     init_run     :      0.05s CPU      0.12s WALL (       1 calls)
     electrons    :      0.30s CPU      0.35s WALL (       1 calls)
     forces       :      0.01s CPU      0.01s WALL (       1 calls)
     stress       :      0.02s CPU      0.02s WALL (       1 calls)

     Called by init_run:
     wfcinit      :      0.01s CPU      0.04s WALL (       1 calls)
     potinit      :      0.00s CPU      0.01s WALL (       1 calls)
     hinit0       :      0.02s CPU      0.04s WALL (       1 calls)

     Called by electrons:
     c_bands      :      0.24s CPU      0.26s WALL (       7 calls)
     sum_band     :      0.04s CPU      0.04s WALL (       7 calls)
     v_of_rho     :      0.01s CPU      0.01s WALL (       8 calls)
     newd         :      0.01s CPU      0.02s WALL (       8 calls)
     mix_rho      :      0.00s CPU      0.01s WALL (       7 calls)

     Called by c_bands:
     init_us_2    :      0.00s CPU      0.01s WALL (     221 calls)
     init_us_2:cp :      0.00s CPU      0.00s WALL (     221 calls)
     ccgdiagg     :      0.21s CPU      0.22s WALL (      91 calls)
     wfcrot       :      0.04s CPU      0.07s WALL (      91 calls)

     Called by *cgdiagg:
     h_psi        :      0.15s CPU      0.16s WALL (    1241 calls)
     s_psi        :      0.01s CPU      0.01s WALL (    2391 calls)

     Called by h_psi:
     h_psi:calbec :      0.02s CPU      0.02s WALL (    1241 calls)
     vloc_psi     :      0.11s CPU      0.12s WALL (    1241 calls)
     add_vuspsi   :      0.00s CPU      0.00s WALL (    1241 calls)
     hs_1psi      :      0.12s CPU      0.13s WALL (    1150 calls)
     s_1psi       :      0.02s CPU      0.02s WALL (    1150 calls)

     General routines
     calbec       :      0.03s CPU      0.04s WALL (    2547 calls)
     fft          :      0.01s CPU      0.03s WALL (      54 calls)
     ffts         :      0.00s CPU      0.00s WALL (      15 calls)
     fftw         :      0.10s CPU      0.11s WALL (    3496 calls)
     interpolate  :      0.00s CPU      0.01s WALL (       8 calls)
 
     Parallel routines
 
     PWSCF        :      0.44s CPU      0.69s WALL

 
   This run was terminated on:   0:47: 9  19Oct2025            

=------------------------------------------------------------------------------=
   JOB DONE.
=------------------------------------------------------------------------------=
TACC:  Shutdown complete. Exiting. 
