TACC:  Starting up job 2410703 
TACC:  Starting parallel tasks... 

     Program PWSCF v.7.3 starts on 24Sep2025 at 20:12:46 

     This program is part of the open-source Quantum ESPRESSO suite
     for quantum simulation of materials; please cite
         "P. Giannozzi et al., J. Phys.:Condens. Matter 21 395502 (2009);
         "P. Giannozzi et al., J. Phys.:Condens. Matter 29 465901 (2017);
         "P. Giannozzi et al., J. Chem. Phys. 152 154105 (2020);
          URL http://www.quantum-espresso.org", 
     in publications or presentations arising from this work. More details at
     http://www.quantum-espresso.org/quote

     Parallel version (MPI & OpenMP), running on      10 processor cores
     Number of MPI processes:                10
     Threads/MPI process:                     1

     MPI processes distributed on     1 nodes
     186367 MiB available memory on the printing compute node when the environment starts
 
     Waiting for input...
     Reading input from standard input
Warning: card &CELL ignored
Warning: card  CELL_DYNAMICS = 'BFGS', ignored
Warning: card  PRESS=0.D0, ignored
Warning: card / ignored
     Message from routine read_cards :
     DEPRECATED: no units specified in ATOMIC_POSITIONS card
     Message from routine read_cards :
     ATOMIC_POSITIONS: units set to alat

     Current dimensions of program PWSCF are:
     Max number of different atomic species (ntypx) = 10
     Max number of k-points (npk) =  40000
     Max angular momentum in pseudopotentials (lmaxx) =  4
 
     R & G space division:  proc/nbgrp/npool/nimage =      10
     Subspace diagonalization in iterative solution of the eigenvalue problem:
     a serial algorithm will be used

 
     Parallelization info
     --------------------
     sticks:   dense  smooth     PW     G-vecs:    dense   smooth      PW
     Min         419     167     48                20457     5162     810
     Max         420     169     49                20460     5163     813
     Sum        4197    1685    489               204589    51627    8121
 
     Using Slab Decomposition
 


     bravais-lattice index     =            1
     lattice parameter (alat)  =       7.2584  a.u.
     unit-cell volume          =     382.3969 (a.u.)^3
     number of atoms/cell      =            5
     number of atomic types    =            3
     number of electrons       =        40.00
     number of Kohn-Sham states=           20
     kinetic-energy cutoff     =     100.0000  Ry
     charge density cutoff     =    1000.0000  Ry
     scf convergence threshold =      1.0E-08
     mixing beta               =       0.7000
     number of iterations used =            8  plain     mixing
     Exchange-correlation= SLA  PZ   NOGX NOGC
                           (   1   1   0   0   0   0   0)

     celldm(1)=   7.258354  celldm(2)=   0.000000  celldm(3)=   0.000000
     celldm(4)=   0.000000  celldm(5)=   0.000000  celldm(6)=   0.000000

     crystal axes: (cart. coord. in units of alat)
               a(1) = (   1.000000   0.000000   0.000000 )  
               a(2) = (   0.000000   1.000000   0.000000 )  
               a(3) = (   0.000000   0.000000   1.000000 )  

     reciprocal axes: (cart. coord. in units 2 pi/alat)
               b(1) = (  1.000000  0.000000  0.000000 )  
               b(2) = (  0.000000  1.000000  0.000000 )  
               b(3) = (  0.000000  0.000000  1.000000 )  


     PseudoPot. # 1 for Ca read from file:
     /scratch/11018/zhc/assisgnment1/CaTiO3/Ca_LDA.UPF
     MD5 check sum: d2d4e7693e10d071152e9eeb7dd009f3
     Pseudo is Ultrasoft + core correction, Zval = 10.0
     Generated by new atomic code, or converted to UPF format
     Using radial grid of  845 points,  6 beta functions with: 
                l(1) =   0
                l(2) =   0
                l(3) =   1
                l(4) =   1
                l(5) =   2
                l(6) =   2
     Q(r) pseudized with  8 coefficients,  rinner =    1.500   1.500   1.500
                                                       1.500   1.500

     PseudoPot. # 2 for Ti read from file:
     /scratch/11018/zhc/assisgnment1/CaTiO3/Ti_LDA.UPF
     MD5 check sum: 0d9f225c038fe889ca2a701dcc8d72cb
     Pseudo is Ultrasoft + core correction, Zval = 12.0
     Generated by new atomic code, or converted to UPF format
     Using radial grid of  851 points,  6 beta functions with: 
                l(1) =   0
                l(2) =   0
                l(3) =   1
                l(4) =   1
                l(5) =   2
                l(6) =   2
     Q(r) pseudized with  6 coefficients,  rinner =    1.000   1.000   1.000
                                                       1.000   1.000

     PseudoPot. # 3 for O  read from file:
     /scratch/11018/zhc/assisgnment1/CaTiO3/O_LDA.UPF
     MD5 check sum: 194b818514d2a7dbb603bb78519a4f40
     Pseudo is Ultrasoft + core correction, Zval =  6.0
     Generated by new atomic code, or converted to UPF format
     Using radial grid of  737 points,  5 beta functions with: 
                l(1) =   0
                l(2) =   0
                l(3) =   1
                l(4) =   1
                l(5) =   2
     Q(r) pseudized with  8 coefficients,  rinner =    0.900   0.900   0.900
                                                       0.900   0.900

     atomic species   valence    mass     pseudopotential
     Ca               10.00    40.07800     Ca( 1.00)
     Ti               12.00    47.88000     Ti( 1.00)
     O                 6.00    16.00000     O ( 1.00)

     48 Sym. Ops., with inversion, found



   Cartesian axes

     site n.     atom                  positions (alat units)
         1        Ca     tau(   1) = (   0.0000000   0.0000000   0.0000000  )
         2        Ti     tau(   2) = (   0.5000000   0.5000000   0.5000000  )
         3        O      tau(   3) = (   0.5000000   0.5000000   0.0000000  )
         4        O      tau(   4) = (   0.5000000   0.0000000   0.5000000  )
         5        O      tau(   5) = (   0.0000000   0.5000000   0.5000000  )

     number of k points=    20
                       cart. coord. in units 2pi/alat
        k(    1) = (   0.0000000   0.0000000   0.0000000), wk =   0.0092593
        k(    2) = (   0.0000000   0.0000000   0.1666667), wk =   0.0555556
        k(    3) = (   0.0000000   0.0000000   0.3333333), wk =   0.0555556
        k(    4) = (   0.0000000   0.0000000  -0.5000000), wk =   0.0277778
        k(    5) = (   0.0000000   0.1666667   0.1666667), wk =   0.1111111
        k(    6) = (   0.0000000   0.1666667   0.3333333), wk =   0.2222222
        k(    7) = (   0.0000000   0.1666667  -0.5000000), wk =   0.1111111
        k(    8) = (   0.0000000   0.3333333   0.3333333), wk =   0.1111111
        k(    9) = (   0.0000000   0.3333333  -0.5000000), wk =   0.1111111
        k(   10) = (   0.0000000  -0.5000000  -0.5000000), wk =   0.0277778
        k(   11) = (   0.1666667   0.1666667   0.1666667), wk =   0.0740741
        k(   12) = (   0.1666667   0.1666667   0.3333333), wk =   0.2222222
        k(   13) = (   0.1666667   0.1666667  -0.5000000), wk =   0.1111111
        k(   14) = (   0.1666667   0.3333333   0.3333333), wk =   0.2222222
        k(   15) = (   0.1666667   0.3333333  -0.5000000), wk =   0.2222222
        k(   16) = (   0.1666667  -0.5000000  -0.5000000), wk =   0.0555556
        k(   17) = (   0.3333333   0.3333333   0.3333333), wk =   0.0740741
        k(   18) = (   0.3333333   0.3333333  -0.5000000), wk =   0.1111111
        k(   19) = (   0.3333333  -0.5000000  -0.5000000), wk =   0.0555556
        k(   20) = (  -0.5000000  -0.5000000  -0.5000000), wk =   0.0092593

     Dense  grid:   204589 G-vectors     FFT dimensions: (  75,  75,  75)

     Smooth grid:    51627 G-vectors     FFT dimensions: (  48,  48,  48)

     Estimated max dynamical RAM per process >      87.95 MB

     Estimated total dynamical RAM >     879.54 MB

     Check: negative core charge=   -0.000001

     Initial potential from superposition of free atoms

     starting charge      38.9952, renormalised to      40.0000

     negative rho (up, down):  8.248E-04 0.000E+00
     Starting wfcs are   32 randomized atomic wfcs

     total cpu time spent up to now is        1.1 secs

     Self-consistent Calculation

     iteration #  1     ecut=   100.00 Ry     beta= 0.70
     CG style diagonalization
     ethr =  1.00E-02,  avg # of iterations =  2.2

     negative rho (up, down):  1.081E-03 0.000E+00

     total cpu time spent up to now is        1.9 secs

     total energy              =    -291.31032215 Ry
     estimated scf accuracy    <       0.83273311 Ry

     iteration #  2     ecut=   100.00 Ry     beta= 0.70
     CG style diagonalization
     ethr =  2.08E-03,  avg # of iterations =  5.0

     negative rho (up, down):  6.517E-04 0.000E+00

     total cpu time spent up to now is        3.1 secs

     total energy              =    -290.74327047 Ry
     estimated scf accuracy    <       5.57005002 Ry

     iteration #  3     ecut=   100.00 Ry     beta= 0.70
     CG style diagonalization
     ethr =  2.08E-03,  avg # of iterations =  4.5

     negative rho (up, down):  7.456E-04 0.000E+00

     total cpu time spent up to now is        4.2 secs

     total energy              =    -291.74100649 Ry
     estimated scf accuracy    <       0.15262394 Ry

     iteration #  4     ecut=   100.00 Ry     beta= 0.70
     CG style diagonalization
     ethr =  3.82E-04,  avg # of iterations =  3.6

     negative rho (up, down):  8.180E-04 0.000E+00

     total cpu time spent up to now is        5.2 secs

     total energy              =    -291.75244176 Ry
     estimated scf accuracy    <       0.04292208 Ry

     iteration #  5     ecut=   100.00 Ry     beta= 0.70
     CG style diagonalization
     ethr =  1.07E-04,  avg # of iterations =  3.6

     negative rho (up, down):  8.533E-04 0.000E+00

     total cpu time spent up to now is        6.1 secs

     total energy              =    -291.76118613 Ry
     estimated scf accuracy    <       0.00059480 Ry

     iteration #  6     ecut=   100.00 Ry     beta= 0.70
     CG style diagonalization
     ethr =  1.49E-06,  avg # of iterations =  4.9

     negative rho (up, down):  8.462E-04 0.000E+00

     total cpu time spent up to now is        7.3 secs

     total energy              =    -291.76221446 Ry
     estimated scf accuracy    <       0.00109326 Ry

     iteration #  7     ecut=   100.00 Ry     beta= 0.70
     CG style diagonalization
     ethr =  1.49E-06,  avg # of iterations =  3.5

     negative rho (up, down):  8.395E-04 0.000E+00

     total cpu time spent up to now is        8.2 secs

     total energy              =    -291.76220294 Ry
     estimated scf accuracy    <       0.00025969 Ry

     iteration #  8     ecut=   100.00 Ry     beta= 0.70
     CG style diagonalization
     ethr =  6.49E-07,  avg # of iterations =  3.6

     negative rho (up, down):  8.378E-04 0.000E+00

     total cpu time spent up to now is        9.1 secs

     total energy              =    -291.76224770 Ry
     estimated scf accuracy    <       0.00000369 Ry

     iteration #  9     ecut=   100.00 Ry     beta= 0.70
     CG style diagonalization
     ethr =  9.23E-09,  avg # of iterations =  4.4

     negative rho (up, down):  8.377E-04 0.000E+00

     total cpu time spent up to now is       10.2 secs

     total energy              =    -291.76225306 Ry
     estimated scf accuracy    <       0.00000117 Ry

     iteration # 10     ecut=   100.00 Ry     beta= 0.70
     CG style diagonalization
     ethr =  2.92E-09,  avg # of iterations =  3.5

     negative rho (up, down):  8.378E-04 0.000E+00

     total cpu time spent up to now is       11.1 secs

     total energy              =    -291.76225317 Ry
     estimated scf accuracy    <       0.00000021 Ry

     iteration # 11     ecut=   100.00 Ry     beta= 0.70
     CG style diagonalization
     ethr =  5.34E-10,  avg # of iterations =  3.7

     negative rho (up, down):  8.378E-04 0.000E+00

     total cpu time spent up to now is       12.1 secs

     End of self-consistent calculation

          k = 0.0000 0.0000 0.0000 (  6451 PWs)   bands (ev):

   -46.4387 -29.5245 -23.0645 -23.0645 -23.0645 -10.7287 -10.7287 -10.7287
    -8.1716  -7.0127  -7.0127   6.0697   6.0697   6.0697   7.9864   7.9864
     7.9864   8.7779   8.7779   8.7779

          k = 0.0000 0.0000 0.1667 (  6487 PWs)   bands (ev):

   -46.4383 -29.5227 -23.0865 -23.0635 -23.0635 -10.8086 -10.7255 -10.7255
    -7.9892  -7.0012  -6.9191   5.7507   6.0784   6.0784   7.6064   7.6064
     7.7433   7.9352   8.6431   8.6431

          k = 0.0000 0.0000 0.3333 (  6499 PWs)   bands (ev):

   -46.4375 -29.5191 -23.1300 -23.0613 -23.0613 -10.9538 -10.7189 -10.7189
    -7.6256  -6.9782  -6.7218   5.0531   6.1485   6.1485   6.7849   6.9287
     6.9287   7.3226   8.5208   8.5208

          k = 0.0000 0.0000-0.5000 (  6480 PWs)   bands (ev):

   -46.4372 -29.5174 -23.1515 -23.0603 -23.0603 -11.0206 -10.7156 -10.7156
    -7.4457  -6.9665  -6.6130   4.6600   6.3100   6.3100   6.3716   6.5128
     6.5128   7.1361   8.4785   8.4785

          k = 0.0000 0.1667 0.1667 (  6465 PWs)   bands (ev):

   -46.4379 -29.5209 -23.0859 -23.0853 -23.0624 -10.8202 -10.7709 -10.7220
    -7.8291  -6.9528  -6.8671   5.5476   5.9329   6.0820   6.8730   7.3566
     7.8248   7.9169   8.2343   8.4075

          k = 0.0000 0.1667 0.3333 (  6467 PWs)   bands (ev):

   -46.4372 -29.5172 -23.1293 -23.0837 -23.0603 -10.9290 -10.7676 -10.7150
    -7.5203  -6.9122  -6.6798   4.9948   5.6053   6.1365   6.1544   6.8097
     7.0938   7.8819   8.1216   8.1959

          k = 0.0000 0.1667-0.5000 (  6458 PWs)   bands (ev):

   -46.4368 -29.5153 -23.1510 -23.0828 -23.0593 -10.9865 -10.7591 -10.7115
    -7.3794  -6.8911  -6.5626   4.6556   5.3005   6.0274   6.2891   6.4301
     6.8590   7.8779   8.0077   8.1351

          k = 0.0000 0.3333 0.3333 (  6436 PWs)   bands (ev):

   -46.4364 -29.5132 -23.1283 -23.1277 -23.0583 -10.8926 -10.8485 -10.7072
    -7.3866  -6.7069  -6.5687   4.6284   5.1844   5.2297   6.1391   6.5194
     7.1627   7.3493   7.8015   8.7163

          k = 0.0000 0.3333-0.5000 (  6454 PWs)   bands (ev):

   -46.4360 -29.5113 -23.1499 -23.1274 -23.0573 -10.9185 -10.8434 -10.7032
    -7.3561  -6.6032  -6.4632   4.4279   4.6311   5.1766   6.2328   6.2718
     7.0908   7.3243   7.6734   8.8626

          k = 0.0000-0.5000-0.5000 (  6416 PWs)   bands (ev):

   -46.4357 -29.5092 -23.1494 -23.1494 -23.0563 -10.8843 -10.8843 -10.6991
    -7.3729  -6.4141  -6.4141   4.1128   4.5145   4.7835   6.1958   6.1958
     7.2045   7.2045   7.5055   9.1253

          k = 0.1667 0.1667 0.1667 (  6490 PWs)   bands (ev):

   -46.4376 -29.5190 -23.0847 -23.0847 -23.0844 -10.8251 -10.7637 -10.7637
    -7.6780  -6.8664  -6.8664   5.3673   5.9063   5.9063   6.7667   6.7667
     7.3376   8.1736   8.1736   8.2702

          k = 0.1667 0.1667 0.3333 (  6462 PWs)   bands (ev):

   -46.4368 -29.5152 -23.1285 -23.0829 -23.0825 -10.9071 -10.7698 -10.7493
    -7.3892  -6.8651  -6.6607   4.9364   5.5249   5.7521   6.0008   6.2942
     7.1513   7.9119   8.1088   8.2644

          k = 0.1667 0.1667-0.5000 (  6442 PWs)   bands (ev):

   -46.4364 -29.5134 -23.1502 -23.0821 -23.0813 -10.9571 -10.7616 -10.7420
    -7.2582  -6.8645  -6.5317   4.6544   5.1848   5.6080   5.8003   6.2124
     7.2216   7.7502   8.0820   8.1703

          k = 0.1667 0.3333 0.3333 (  6446 PWs)   bands (ev):

   -46.4361 -29.5114 -23.1271 -23.1268 -23.0806 -10.8751 -10.8353 -10.7431
    -7.2094  -6.6985  -6.5877   4.6601   5.2123   5.2252   5.6353   5.8611
     6.7042   7.9881   8.0290   8.7442

          k = 0.1667 0.3333-0.5000 (  6438 PWs)   bands (ev):

   -46.4357 -29.5094 -23.1488 -23.1261 -23.0795 -10.8983 -10.8315 -10.7363
    -7.1689  -6.6302  -6.4716   4.5274   4.6379   5.1674   5.5265   5.7444
     6.7121   7.9412   8.0126   8.8856

          k = 0.1667-0.5000-0.5000 (  6440 PWs)   bands (ev):

   -46.4353 -29.5075 -23.1481 -23.1481 -23.0784 -10.8689 -10.8689 -10.7300
    -7.1779  -6.4423  -6.4423   4.2472   4.5288   4.7882   5.5479   5.5479
     6.6745   7.9785   7.9785   9.1505

          k = 0.3333 0.3333 0.3333 (  6437 PWs)   bands (ev):

   -46.4353 -29.5076 -23.1251 -23.1245 -23.1245 -10.8457 -10.8085 -10.8085
    -6.8830  -6.6264  -6.6264   4.6462   5.0896   5.0896   5.3511   5.3511
     5.3649   8.5521   8.5521   8.8886

          k = 0.3333 0.3333-0.5000 (  6436 PWs)   bands (ev):

   -46.4349 -29.5057 -23.1465 -23.1240 -23.1232 -10.8578 -10.8139 -10.7949
    -6.8035  -6.6460  -6.4898   4.6364   4.6657   4.8986   5.0053   5.3122
     5.4029   8.6443   8.7441   8.9995

          k = 0.3333-0.5000-0.5000 (  6464 PWs)   bands (ev):

   -46.4346 -29.5039 -23.1454 -23.1454 -23.1223 -10.8374 -10.8374 -10.7912
    -6.7574  -6.4995  -6.4995   4.5240   4.5382   4.7977   4.8990   4.8990
     5.3134   8.8755   8.8755   9.2022

          k =-0.5000-0.5000-0.5000 (  6488 PWs)   bands (ev):

   -46.4342 -29.5021 -23.1440 -23.1440 -23.1440 -10.8214 -10.8214 -10.8214
    -6.5284  -6.5284  -6.5284   4.4458   4.6669   4.6669   4.6669   4.8024
     4.8024   9.2285   9.2285   9.2285

     highest occupied level (ev):     9.2285

!    total energy              =    -291.76225323 Ry
     estimated scf accuracy    <          3.7E-09 Ry

     The total energy is the sum of the following terms:
     one-electron contribution =     -88.95923485 Ry
     hartree contribution      =      64.59806610 Ry
     xc contribution           =     -51.35092694 Ry
     ewald contribution        =    -216.05015753 Ry

     convergence has been achieved in  11 iterations

     negative rho (up, down):  8.378E-04 0.000E+00

     Forces acting on atoms (cartesian axes, Ry/au):

     atom    1 type  1   force =     0.00000000    0.00000000    0.00000000
     atom    2 type  2   force =     0.00000000    0.00000000    0.00000000
     atom    3 type  3   force =     0.00000000    0.00000000    0.00000000
     atom    4 type  3   force =     0.00000000    0.00000000    0.00000000
     atom    5 type  3   force =     0.00000000    0.00000000    0.00000000

     Total force =     0.000000     Total SCF correction =     0.000000


     Computing stress (Cartesian axis) and pressure


     negative rho (up, down):  8.378E-04 0.000E+00
          total   stress  (Ry/bohr**3)                   (kbar)     P=      -51.18
  -0.00034794   0.00000000   0.00000000          -51.18        0.00        0.00
   0.00000000  -0.00034794   0.00000000            0.00      -51.18        0.00
   0.00000000   0.00000000  -0.00034794            0.00        0.00      -51.18


     Writing all to output data dir ./CTO_module_12.save/ :
     XML data file, charge density, pseudopotentials, collected wavefunctions
 
     init_run     :      0.78s CPU      0.88s WALL (       1 calls)
     electrons    :     10.20s CPU     10.96s WALL (       1 calls)
     forces       :      0.22s CPU      0.23s WALL (       1 calls)
     stress       :      1.68s CPU      1.74s WALL (       1 calls)

     Called by init_run:
     wfcinit      :      0.19s CPU      0.22s WALL (       1 calls)
     potinit      :      0.02s CPU      0.02s WALL (       1 calls)
     hinit0       :      0.43s CPU      0.46s WALL (       1 calls)

     Called by electrons:
     c_bands      :      7.12s CPU      7.39s WALL (      11 calls)
     sum_band     :      1.94s CPU      2.11s WALL (      11 calls)
     v_of_rho     :      0.04s CPU      0.04s WALL (      12 calls)
     newd         :      1.15s CPU      1.47s WALL (      12 calls)
     mix_rho      :      0.03s CPU      0.03s WALL (      11 calls)

     Called by c_bands:
     init_us_2    :      0.12s CPU      0.13s WALL (     500 calls)
     init_us_2:cp :      0.12s CPU      0.13s WALL (     500 calls)
     ccgdiagg     :      6.13s CPU      6.35s WALL (     220 calls)
     wfcrot       :      1.08s CPU      1.14s WALL (     220 calls)

     Called by *cgdiagg:
     h_psi        :      4.55s CPU      4.71s WALL (   13212 calls)
     s_psi        :      0.76s CPU      0.79s WALL (   26204 calls)

     Called by h_psi:
     h_psi:calbec :      0.76s CPU      0.79s WALL (   13212 calls)
     vloc_psi     :      3.23s CPU      3.35s WALL (   13212 calls)
     add_vuspsi   :      0.43s CPU      0.45s WALL (   13212 calls)
     hs_1psi      :      4.08s CPU      4.23s WALL (   12992 calls)
     s_1psi       :      0.93s CPU      0.97s WALL (   12992 calls)

     General routines
     calbec       :      1.30s CPU      1.35s WALL (   26524 calls)
     fft          :      0.06s CPU      0.07s WALL (      78 calls)
     ffts         :      0.00s CPU      0.00s WALL (      23 calls)
     fftw         :      2.54s CPU      2.63s WALL (   39664 calls)
     interpolate  :      0.01s CPU      0.01s WALL (      12 calls)
 
     Parallel routines
 
     PWSCF        :     13.11s CPU     14.42s WALL

 
   This run was terminated on:  20:13: 0  24Sep2025            

=------------------------------------------------------------------------------=
   JOB DONE.
=------------------------------------------------------------------------------=
TACC:  Shutdown complete. Exiting. 
