TACC:  Starting up job 2406252 
TACC:  Starting parallel tasks... 

     Program PWSCF v.7.3 starts on 24Sep2025 at  0: 4: 5 

     This program is part of the open-source Quantum ESPRESSO suite
     for quantum simulation of materials; please cite
         "P. Giannozzi et al., J. Phys.:Condens. Matter 21 395502 (2009);
         "P. Giannozzi et al., J. Phys.:Condens. Matter 29 465901 (2017);
         "P. Giannozzi et al., J. Chem. Phys. 152 154105 (2020);
          URL http://www.quantum-espresso.org", 
     in publications or presentations arising from this work. More details at
     http://www.quantum-espresso.org/quote

     Parallel version (MPI & OpenMP), running on      10 processor cores
     Number of MPI processes:                10
     Threads/MPI process:                     1

     MPI processes distributed on     1 nodes
     135515 MiB available memory on the printing compute node when the environment starts
 
     Waiting for input...
     Reading input from standard input
Warning: card &CELL ignored
Warning: card  CELL_DYNAMICS = 'BFGS', ignored
Warning: card  PRESS=0.D0, ignored
Warning: card / ignored
     Message from routine read_cards :
     DEPRECATED: no units specified in ATOMIC_POSITIONS card
     Message from routine read_cards :
     ATOMIC_POSITIONS: units set to alat

     Current dimensions of program PWSCF are:
     Max number of different atomic species (ntypx) = 10
     Max number of k-points (npk) =  40000
     Max angular momentum in pseudopotentials (lmaxx) =  4
 
     R & G space division:  proc/nbgrp/npool/nimage =      10
     Subspace diagonalization in iterative solution of the eigenvalue problem:
     a serial algorithm will be used

 
     Parallelization info
     --------------------
     sticks:   dense  smooth     PW     G-vecs:    dense   smooth      PW
     Min         331     132     38                14423     3636     572
     Max         332     133     39                14428     3639     575
     Sum        3317    1321    385               144253    36377    5743
 
     Using Slab Decomposition
 


     bravais-lattice index     =            1
     lattice parameter (alat)  =       7.7252  a.u.
     unit-cell volume          =     461.0237 (a.u.)^3
     number of atoms/cell      =            5
     number of atomic types    =            3
     number of electrons       =        40.00
     number of Kohn-Sham states=           20
     kinetic-energy cutoff     =      70.0000  Ry
     charge density cutoff     =     700.0000  Ry
     scf convergence threshold =      1.0E-08
     mixing beta               =       0.7000
     number of iterations used =            8  plain     mixing
     Exchange-correlation= SLA  PZ   NOGX NOGC
                           (   1   1   0   0   0   0   0)

     celldm(1)=   7.725165  celldm(2)=   0.000000  celldm(3)=   0.000000
     celldm(4)=   0.000000  celldm(5)=   0.000000  celldm(6)=   0.000000

     crystal axes: (cart. coord. in units of alat)
               a(1) = (   1.000000   0.000000   0.000000 )  
               a(2) = (   0.000000   1.000000   0.000000 )  
               a(3) = (   0.000000   0.000000   1.000000 )  

     reciprocal axes: (cart. coord. in units 2 pi/alat)
               b(1) = (  1.000000  0.000000  0.000000 )  
               b(2) = (  0.000000  1.000000  0.000000 )  
               b(3) = (  0.000000  0.000000  1.000000 )  


     PseudoPot. # 1 for Ca read from file:
     /scratch/11018/zhc/assisgnment1/CaTiO3/Ca_LDA.UPF
     MD5 check sum: d2d4e7693e10d071152e9eeb7dd009f3
     Pseudo is Ultrasoft + core correction, Zval = 10.0
     Generated by new atomic code, or converted to UPF format
     Using radial grid of  845 points,  6 beta functions with: 
                l(1) =   0
                l(2) =   0
                l(3) =   1
                l(4) =   1
                l(5) =   2
                l(6) =   2
     Q(r) pseudized with  8 coefficients,  rinner =    1.500   1.500   1.500
                                                       1.500   1.500

     PseudoPot. # 2 for Ti read from file:
     /scratch/11018/zhc/assisgnment1/CaTiO3/Ti_LDA.UPF
     MD5 check sum: 0d9f225c038fe889ca2a701dcc8d72cb
     Pseudo is Ultrasoft + core correction, Zval = 12.0
     Generated by new atomic code, or converted to UPF format
     Using radial grid of  851 points,  6 beta functions with: 
                l(1) =   0
                l(2) =   0
                l(3) =   1
                l(4) =   1
                l(5) =   2
                l(6) =   2
     Q(r) pseudized with  6 coefficients,  rinner =    1.000   1.000   1.000
                                                       1.000   1.000

     PseudoPot. # 3 for O  read from file:
     /scratch/11018/zhc/assisgnment1/CaTiO3/O_LDA.UPF
     MD5 check sum: 194b818514d2a7dbb603bb78519a4f40
     Pseudo is Ultrasoft + core correction, Zval =  6.0
     Generated by new atomic code, or converted to UPF format
     Using radial grid of  737 points,  5 beta functions with: 
                l(1) =   0
                l(2) =   0
                l(3) =   1
                l(4) =   1
                l(5) =   2
     Q(r) pseudized with  8 coefficients,  rinner =    0.900   0.900   0.900
                                                       0.900   0.900

     atomic species   valence    mass     pseudopotential
     Ca               10.00    40.07800     Ca( 1.00)
     Ti               12.00    47.88000     Ti( 1.00)
     O                 6.00    16.00000     O ( 1.00)

     48 Sym. Ops., with inversion, found



   Cartesian axes

     site n.     atom                  positions (alat units)
         1        Ca     tau(   1) = (   0.0000000   0.0000000   0.0000000  )
         2        Ti     tau(   2) = (   0.5000000   0.5000000   0.5000000  )
         3        O      tau(   3) = (   0.5000000   0.5000000   0.0000000  )
         4        O      tau(   4) = (   0.5000000   0.0000000   0.5000000  )
         5        O      tau(   5) = (   0.0000000   0.5000000   0.5000000  )

     number of k points=    20
                       cart. coord. in units 2pi/alat
        k(    1) = (   0.0000000   0.0000000   0.0000000), wk =   0.0092593
        k(    2) = (   0.0000000   0.0000000   0.1666667), wk =   0.0555556
        k(    3) = (   0.0000000   0.0000000   0.3333333), wk =   0.0555556
        k(    4) = (   0.0000000   0.0000000  -0.5000000), wk =   0.0277778
        k(    5) = (   0.0000000   0.1666667   0.1666667), wk =   0.1111111
        k(    6) = (   0.0000000   0.1666667   0.3333333), wk =   0.2222222
        k(    7) = (   0.0000000   0.1666667  -0.5000000), wk =   0.1111111
        k(    8) = (   0.0000000   0.3333333   0.3333333), wk =   0.1111111
        k(    9) = (   0.0000000   0.3333333  -0.5000000), wk =   0.1111111
        k(   10) = (   0.0000000  -0.5000000  -0.5000000), wk =   0.0277778
        k(   11) = (   0.1666667   0.1666667   0.1666667), wk =   0.0740741
        k(   12) = (   0.1666667   0.1666667   0.3333333), wk =   0.2222222
        k(   13) = (   0.1666667   0.1666667  -0.5000000), wk =   0.1111111
        k(   14) = (   0.1666667   0.3333333   0.3333333), wk =   0.2222222
        k(   15) = (   0.1666667   0.3333333  -0.5000000), wk =   0.2222222
        k(   16) = (   0.1666667  -0.5000000  -0.5000000), wk =   0.0555556
        k(   17) = (   0.3333333   0.3333333   0.3333333), wk =   0.0740741
        k(   18) = (   0.3333333   0.3333333  -0.5000000), wk =   0.1111111
        k(   19) = (   0.3333333  -0.5000000  -0.5000000), wk =   0.0555556
        k(   20) = (  -0.5000000  -0.5000000  -0.5000000), wk =   0.0092593

     Dense  grid:   144253 G-vectors     FFT dimensions: (  72,  72,  72)

     Smooth grid:    36377 G-vectors     FFT dimensions: (  45,  45,  45)

     Estimated max dynamical RAM per process >      63.70 MB

     Estimated total dynamical RAM >     636.96 MB

     Check: negative core charge=   -0.000003

     Initial potential from superposition of free atoms

     starting charge      38.9952, renormalised to      40.0000

     negative rho (up, down):  7.727E-04 0.000E+00
     Starting wfcs are   32 randomized atomic wfcs

     total cpu time spent up to now is        0.9 secs

     Self-consistent Calculation

     iteration #  1     ecut=    70.00 Ry     beta= 0.70
     CG style diagonalization
     ethr =  1.00E-02,  avg # of iterations =  2.2

     negative rho (up, down):  1.250E-03 0.000E+00

     total cpu time spent up to now is        1.6 secs

     total energy              =    -291.18558776 Ry
     estimated scf accuracy    <       0.85502919 Ry

     iteration #  2     ecut=    70.00 Ry     beta= 0.70
     CG style diagonalization
     ethr =  2.14E-03,  avg # of iterations =  5.6

     negative rho (up, down):  4.425E-04 0.000E+00

     total cpu time spent up to now is        2.9 secs

     total energy              =    -289.65199245 Ry
     estimated scf accuracy    <      15.20105307 Ry

     iteration #  3     ecut=    70.00 Ry     beta= 0.70
     CG style diagonalization
     ethr =  2.14E-03,  avg # of iterations =  4.8

     negative rho (up, down):  5.753E-04 0.000E+00

     total cpu time spent up to now is        4.0 secs

     total energy              =    -291.63114220 Ry
     estimated scf accuracy    <       0.29178120 Ry

     iteration #  4     ecut=    70.00 Ry     beta= 0.70
     CG style diagonalization
     ethr =  7.29E-04,  avg # of iterations =  3.4

     negative rho (up, down):  6.276E-04 0.000E+00

     total cpu time spent up to now is        4.9 secs

     total energy              =    -291.65201944 Ry
     estimated scf accuracy    <       0.11465374 Ry

     iteration #  5     ecut=    70.00 Ry     beta= 0.70
     CG style diagonalization
     ethr =  2.87E-04,  avg # of iterations =  3.4

     negative rho (up, down):  6.878E-04 0.000E+00

     total cpu time spent up to now is        5.7 secs

     total energy              =    -291.65771874 Ry
     estimated scf accuracy    <       0.02063236 Ry

     iteration #  6     ecut=    70.00 Ry     beta= 0.70
     CG style diagonalization
     ethr =  5.16E-05,  avg # of iterations =  3.6

     negative rho (up, down):  7.188E-04 0.000E+00

     total cpu time spent up to now is        6.5 secs

     total energy              =    -291.66127246 Ry
     estimated scf accuracy    <       0.00127252 Ry

     iteration #  7     ecut=    70.00 Ry     beta= 0.70
     CG style diagonalization
     ethr =  3.18E-06,  avg # of iterations =  4.0

     negative rho (up, down):  7.362E-04 0.000E+00

     total cpu time spent up to now is        7.5 secs

     total energy              =    -291.66216487 Ry
     estimated scf accuracy    <       0.00013496 Ry

     iteration #  8     ecut=    70.00 Ry     beta= 0.70
     CG style diagonalization
     ethr =  3.37E-07,  avg # of iterations =  4.0

     negative rho (up, down):  7.348E-04 0.000E+00

     total cpu time spent up to now is        8.4 secs

     total energy              =    -291.66224424 Ry
     estimated scf accuracy    <       0.00009632 Ry

     iteration #  9     ecut=    70.00 Ry     beta= 0.70
     CG style diagonalization
     ethr =  2.41E-07,  avg # of iterations =  3.2

     negative rho (up, down):  7.335E-04 0.000E+00

     total cpu time spent up to now is        9.2 secs

     total energy              =    -291.66224693 Ry
     estimated scf accuracy    <       0.00003224 Ry

     iteration # 10     ecut=    70.00 Ry     beta= 0.70
     CG style diagonalization
     ethr =  8.06E-08,  avg # of iterations =  3.2

     negative rho (up, down):  7.287E-04 0.000E+00

     total cpu time spent up to now is        9.9 secs

     total energy              =    -291.66224140 Ry
     estimated scf accuracy    <       0.00001568 Ry

     iteration # 11     ecut=    70.00 Ry     beta= 0.70
     CG style diagonalization
     ethr =  3.92E-08,  avg # of iterations =  3.9

     negative rho (up, down):  7.305E-04 0.000E+00

     total cpu time spent up to now is       10.8 secs

     total energy              =    -291.66224703 Ry
     estimated scf accuracy    <       0.00000445 Ry

     iteration # 12     ecut=    70.00 Ry     beta= 0.70
     CG style diagonalization
     ethr =  1.11E-08,  avg # of iterations =  3.5

     negative rho (up, down):  7.305E-04 0.000E+00

     total cpu time spent up to now is       11.7 secs

     total energy              =    -291.66224779 Ry
     estimated scf accuracy    <       0.00000104 Ry

     iteration # 13     ecut=    70.00 Ry     beta= 0.70
     CG style diagonalization
     ethr =  2.61E-09,  avg # of iterations =  3.4

     negative rho (up, down):  7.305E-04 0.000E+00

     total cpu time spent up to now is       12.5 secs

     total energy              =    -291.66224788 Ry
     estimated scf accuracy    <       0.00000062 Ry

     iteration # 14     ecut=    70.00 Ry     beta= 0.70
     CG style diagonalization
     ethr =  1.55E-09,  avg # of iterations =  3.1

     negative rho (up, down):  7.307E-04 0.000E+00

     total cpu time spent up to now is       13.3 secs

     total energy              =    -291.66224786 Ry
     estimated scf accuracy    <       0.00000044 Ry

     iteration # 15     ecut=    70.00 Ry     beta= 0.70
     CG style diagonalization
     ethr =  1.11E-09,  avg # of iterations =  3.1

     negative rho (up, down):  7.308E-04 0.000E+00

     total cpu time spent up to now is       14.0 secs

     total energy              =    -291.66224787 Ry
     estimated scf accuracy    <       0.00000020 Ry

     iteration # 16     ecut=    70.00 Ry     beta= 0.70
     CG style diagonalization
     ethr =  5.09E-10,  avg # of iterations =  3.2

     negative rho (up, down):  7.308E-04 0.000E+00

     total cpu time spent up to now is       14.8 secs

     total energy              =    -291.66224787 Ry
     estimated scf accuracy    <       0.00000013 Ry

     iteration # 17     ecut=    70.00 Ry     beta= 0.70
     CG style diagonalization
     ethr =  3.31E-10,  avg # of iterations =  3.3

     negative rho (up, down):  7.309E-04 0.000E+00

     total cpu time spent up to now is       15.6 secs

     total energy              =    -291.66224787 Ry
     estimated scf accuracy    <       0.00000004 Ry

     iteration # 18     ecut=    70.00 Ry     beta= 0.70
     CG style diagonalization
     ethr =  1.06E-10,  avg # of iterations =  3.6

     negative rho (up, down):  7.310E-04 0.000E+00

     total cpu time spent up to now is       16.4 secs

     End of self-consistent calculation

          k = 0.0000 0.0000 0.0000 (  4553 PWs)   bands (ev):

   -49.5329 -32.5468 -26.0315 -26.0315 -26.0315 -13.7137 -13.7137 -13.7137
    -9.8088  -8.8762  -8.8762   3.9957   3.9957   3.9957   5.9070   5.9070
     5.9070   6.3529   6.3529   6.3529

          k = 0.0000 0.0000 0.1667 (  4565 PWs)   bands (ev):

   -49.5327 -32.5461 -26.0403 -26.0311 -26.0311 -13.7387 -13.7123 -13.7123
    -9.7055  -8.8697  -8.8433   3.7311   4.0273   4.0273   5.5950   5.5950
     5.6670   5.7338   6.2482   6.2482

          k = 0.0000 0.0000 0.3333 (  4572 PWs)   bands (ev):

   -49.5325 -32.5447 -26.0579 -26.0304 -26.0304 -13.7877 -13.7094 -13.7094
    -9.4908  -8.8567  -8.7783   3.1788   4.1392   4.1392   4.7570   5.0134
     5.0134   5.4267   6.1592   6.1592

          k = 0.0000 0.0000-0.5000 (  4524 PWs)   bands (ev):

   -49.5324 -32.5440 -26.0666 -26.0300 -26.0300 -13.8115 -13.7080 -13.7080
    -9.3788  -8.8502  -8.7462   2.8858   4.2769   4.2769   4.4285   4.6807
     4.6807   5.2882   6.1269   6.1269

          k = 0.0000 0.1667 0.1667 (  4593 PWs)   bands (ev):

   -49.5326 -32.5454 -26.0400 -26.0399 -26.0308 -13.7409 -13.7298 -13.7108
    -9.6077  -8.8519  -8.8231   3.6119   3.8845   4.0576   4.9191   5.4136
     5.6259   5.7689   6.0319   6.0487

          k = 0.0000 0.1667 0.3333 (  4575 PWs)   bands (ev):

   -49.5324 -32.5440 -26.0576 -26.0393 -26.0300 -13.7812 -13.7281 -13.7078
    -9.4083  -8.8345  -8.7598   3.1508   3.7801   4.1659   4.1786   4.9438
     5.1087   5.7088   5.8544   5.9974

          k = 0.0000 0.1667-0.5000 (  4540 PWs)   bands (ev):

   -49.5322 -32.5433 -26.0663 -26.0389 -26.0296 -13.8028 -13.7253 -13.7063
    -9.3079  -8.8260  -8.7240   2.8756   3.6590   3.9877   4.3084   4.6292
     4.9216   5.6987   5.8065   5.9202

          k = 0.0000 0.3333 0.3333 (  4558 PWs)   bands (ev):

   -49.5321 -32.5426 -26.0570 -26.0569 -26.0293 -13.7720 -13.7613 -13.7046
    -9.2609  -8.7718  -8.7139   2.9712   3.3535   3.3966   4.2593   4.7431
     5.1682   5.2986   5.4416   6.4657

          k = 0.0000 0.3333-0.5000 (  4564 PWs)   bands (ev):

   -49.5320 -32.5419 -26.0657 -26.0566 -26.0289 -13.7853 -13.7596 -13.7031
    -9.2017  -8.7317  -8.6798   2.8049   2.9689   3.3283   4.3999   4.5294
     5.0942   5.2852   5.3004   6.5806

          k = 0.0000-0.5000-0.5000 (  4540 PWs)   bands (ev):

   -49.5319 -32.5412 -26.0655 -26.0655 -26.0286 -13.7766 -13.7766 -13.7014
    -9.1697  -8.6577  -8.6577   2.6553   2.7189   3.0960   4.4810   4.4810
     5.0547   5.1761   5.1761   6.7848

          k = 0.1667 0.1667 0.1667 (  4566 PWs)   bands (ev):

   -49.5325 -32.5447 -26.0396 -26.0396 -26.0396 -13.7420 -13.7273 -13.7273
    -9.5120  -8.8205  -8.8205   3.5035   3.8963   3.8963   4.8800   4.8800
     5.0550   5.9607   5.9607   6.1276

          k = 0.1667 0.1667 0.3333 (  4542 PWs)   bands (ev):

   -49.5322 -32.5433 -26.0572 -26.0389 -26.0388 -13.7752 -13.7285 -13.7222
    -9.3192  -8.8153  -8.7505   3.1242   3.7026   3.9257   4.1073   4.3424
     5.0039   5.7634   5.9339   6.1316

          k = 0.1667 0.1667-0.5000 (  4562 PWs)   bands (ev):

   -49.5321 -32.5426 -26.0660 -26.0386 -26.0385 -13.7949 -13.7257 -13.7197
    -9.2239  -8.8127  -8.7095   2.8678   3.5596   3.8817   3.9496   4.1352
     5.0476   5.6401   5.9205   6.0656

          k = 0.1667 0.3333 0.3333 (  4546 PWs)   bands (ev):

   -49.5320 -32.5419 -26.0566 -26.0565 -26.0381 -13.7668 -13.7567 -13.7197
    -9.1574  -8.7636  -8.7188   2.9709   3.3997   3.4040   3.8517   4.1439
     4.5186   5.8619   5.8922   6.4902

          k = 0.1667 0.3333-0.5000 (  4574 PWs)   bands (ev):

   -49.5319 -32.5412 -26.0654 -26.0562 -26.0378 -13.7791 -13.7554 -13.7172
    -9.0933  -8.7378  -8.6805   2.8020   3.0407   3.3296   3.8663   3.9739
     4.5042   5.8249   5.8877   6.5995

          k = 0.1667-0.5000-0.5000 (  4536 PWs)   bands (ev):

   -49.5318 -32.5405 -26.0650 -26.0650 -26.0374 -13.7712 -13.7712 -13.7149
    -9.0563  -8.6661  -8.6661   2.6538   2.8136   3.0994   3.8842   3.8842
     4.4100   5.8571   5.8571   6.8029

          k = 0.3333 0.3333 0.3333 (  4548 PWs)   bands (ev):

   -49.5318 -32.5405 -26.0559 -26.0557 -26.0557 -13.7584 -13.7477 -13.7477
    -8.9584  -8.7285  -8.7285   2.9004   3.3921   3.3921   3.4321   3.5968
     3.5968   6.3260   6.3260   6.6019

          k = 0.3333 0.3333-0.5000 (  4556 PWs)   bands (ev):

   -49.5316 -32.5398 -26.0646 -26.0555 -26.0553 -13.7666 -13.7491 -13.7432
    -8.8817  -8.7334  -8.6821   2.7405   3.1357   3.2706   3.3235   3.4676
     3.5964   6.4054   6.4738   6.6879

          k = 0.3333-0.5000-0.5000 (  4568 PWs)   bands (ev):

   -49.5315 -32.5392 -26.0642 -26.0642 -26.0550 -13.7604 -13.7604 -13.7416
    -8.8176  -8.6830  -8.6830   2.5944   3.0093   3.1063   3.3143   3.3143
     3.4295   6.5840   6.5840   6.8398

          k =-0.5000-0.5000-0.5000 (  4632 PWs)   bands (ev):

   -49.5314 -32.5385 -26.0637 -26.0637 -26.0637 -13.7549 -13.7549 -13.7549
    -8.6915  -8.6915  -8.6915   2.4642   3.1097   3.1097   3.1106   3.1106
     3.1106   6.8586   6.8586   6.8586

     highest occupied level (ev):     6.8586

!    total energy              =    -291.66224787 Ry
     estimated scf accuracy    <          2.5E-09 Ry

     The total energy is the sum of the following terms:
     one-electron contribution =    -108.28543690 Ry
     hartree contribution      =      70.37577471 Ry
     xc contribution           =     -50.75776247 Ry
     ewald contribution        =    -202.99482322 Ry

     convergence has been achieved in  18 iterations

     negative rho (up, down):  7.310E-04 0.000E+00

     Forces acting on atoms (cartesian axes, Ry/au):

     atom    1 type  1   force =     0.00000000    0.00000000    0.00000000
     atom    2 type  2   force =     0.00000000    0.00000000    0.00000000
     atom    3 type  3   force =     0.00000000    0.00000000    0.00000000
     atom    4 type  3   force =     0.00000000    0.00000000    0.00000000
     atom    5 type  3   force =     0.00000000    0.00000000    0.00000000

     Total force =     0.000000     Total SCF correction =     0.000000


     Computing stress (Cartesian axis) and pressure


     negative rho (up, down):  7.310E-04 0.000E+00
          total   stress  (Ry/bohr**3)                   (kbar)     P=     -276.56
  -0.00188001   0.00000000   0.00000000         -276.56        0.00        0.00
   0.00000000  -0.00188001   0.00000000            0.00     -276.56        0.00
   0.00000000   0.00000000  -0.00188001            0.00        0.00     -276.56


     Writing all to output data dir ./CTO_CELLDM_12.save/ :
     XML data file, charge density, pseudopotentials, collected wavefunctions
 
     init_run     :      0.60s CPU      0.70s WALL (       1 calls)
     electrons    :     14.89s CPU     15.52s WALL (       1 calls)
     forces       :      0.15s CPU      0.16s WALL (       1 calls)
     stress       :      1.21s CPU      1.24s WALL (       1 calls)

     Called by init_run:
     wfcinit      :      0.21s CPU      0.25s WALL (       1 calls)
     potinit      :      0.01s CPU      0.02s WALL (       1 calls)
     hinit0       :      0.12s CPU      0.15s WALL (       1 calls)

     Called by electrons:
     c_bands      :     10.76s CPU     11.17s WALL (      18 calls)
     sum_band     :      2.69s CPU      2.78s WALL (      18 calls)
     v_of_rho     :      0.05s CPU      0.06s WALL (      19 calls)
     newd         :      1.39s CPU      1.51s WALL (      19 calls)
     mix_rho      :      0.04s CPU      0.05s WALL (      18 calls)

     Called by c_bands:
     init_us_2    :      0.14s CPU      0.14s WALL (     780 calls)
     init_us_2:cp :      0.13s CPU      0.14s WALL (     780 calls)
     ccgdiagg     :      8.79s CPU      9.14s WALL (     360 calls)
     wfcrot       :      2.06s CPU      2.15s WALL (     360 calls)

     Called by *cgdiagg:
     h_psi        :      7.80s CPU      8.09s WALL (   19353 calls)
     s_psi        :      0.79s CPU      0.82s WALL (   38346 calls)

     Called by h_psi:
     h_psi:calbec :      0.90s CPU      0.94s WALL (   19353 calls)
     vloc_psi     :      6.27s CPU      6.50s WALL (   19353 calls)
     add_vuspsi   :      0.46s CPU      0.48s WALL (   19353 calls)
     hs_1psi      :      6.46s CPU      6.71s WALL (   18993 calls)
     s_1psi       :      1.02s CPU      1.06s WALL (   18993 calls)

     General routines
     calbec       :      1.49s CPU      1.55s WALL (   38806 calls)
     fft          :      0.06s CPU      0.07s WALL (     120 calls)
     ffts         :      0.01s CPU      0.01s WALL (      37 calls)
     fftw         :      5.67s CPU      5.87s WALL (   60066 calls)
     interpolate  :      0.01s CPU      0.02s WALL (      19 calls)
 
     Parallel routines
 
     PWSCF        :     17.06s CPU     18.34s WALL

 
   This run was terminated on:   0: 4:24  24Sep2025            

=------------------------------------------------------------------------------=
   JOB DONE.
=------------------------------------------------------------------------------=
TACC:  Shutdown complete. Exiting. 
