TACC:  Starting up job 2547120 
TACC:  Starting parallel tasks... 

     Program PWSCF v.7.3 starts on 13Nov2025 at  0:18:40 

     This program is part of the open-source Quantum ESPRESSO suite
     for quantum simulation of materials; please cite
         "P. Giannozzi et al., J. Phys.:Condens. Matter 21 395502 (2009);
         "P. Giannozzi et al., J. Phys.:Condens. Matter 29 465901 (2017);
         "P. Giannozzi et al., J. Chem. Phys. 152 154105 (2020);
          URL http://www.quantum-espresso.org", 
     in publications or presentations arising from this work. More details at
     http://www.quantum-espresso.org/quote

     Parallel version (MPI & OpenMP), running on      10 processor cores
     Number of MPI processes:                10
     Threads/MPI process:                     1

     MPI processes distributed on     1 nodes
     182908 MiB available memory on the printing compute node when the environment starts
 
     Waiting for input...
     Reading input from standard input
Warning: card &CELL ignored
Warning: card  CELL_DYNAMICS = 'BFGS', ignored
Warning: card  PRESS=0.D0, ignored
Warning: card / ignored

     Current dimensions of program PWSCF are:
     Max number of different atomic species (ntypx) = 10
     Max number of k-points (npk) =  40000
     Max angular momentum in pseudopotentials (lmaxx) =  4
     Message from routine setup:
     using ibrav=0 with symmetry is DISCOURAGED, use correct ibrav instead
 
     R & G space division:  proc/nbgrp/npool/nimage =      10
     Subspace diagonalization in iterative solution of the eigenvalue problem:
     a serial algorithm will be used

 
     Parallelization info
     --------------------
     sticks:   dense  smooth     PW     G-vecs:    dense   smooth      PW
     Min         216      86     26                 7944     2004     338
     Max         217      87     27                 7947     2007     341
     Sum        2161     869    261                79447    20063    3391
 
     Using Slab Decomposition
 


     bravais-lattice index     =            0
     lattice parameter (alat)  =       7.3699  a.u.
     unit-cell volume          =     420.8329 (a.u.)^3
     number of atoms/cell      =            5
     number of atomic types    =            3
     number of electrons       =        44.00
     number of Kohn-Sham states=           22
     kinetic-energy cutoff     =      50.0000  Ry
     charge density cutoff     =     500.0000  Ry
     scf convergence threshold =      1.0E-08
     mixing beta               =       0.7000
     number of iterations used =            8  plain     mixing
     energy convergence thresh.=      1.0E-04
     force convergence thresh. =      1.0E-03
     Exchange-correlation= SLA  PZ   NOGX NOGC
                           (   1   1   0   0   0   0   0)
     nstep                     =           50


     celldm(1)=   7.369932  celldm(2)=   0.000000  celldm(3)=   0.000000
     celldm(4)=   0.000000  celldm(5)=   0.000000  celldm(6)=   0.000000

     crystal axes: (cart. coord. in units of alat)
               a(1) = (   1.000000   0.000000   0.000000 )  
               a(2) = (   0.000000   1.000000   0.000000 )  
               a(3) = (   0.000000   0.000000   1.051282 )  

     reciprocal axes: (cart. coord. in units 2 pi/alat)
               b(1) = (  1.000000  0.000000  0.000000 )  
               b(2) = (  0.000000  1.000000  0.000000 )  
               b(3) = (  0.000000  0.000000  0.951220 )  


     PseudoPot. # 1 for Pb read from file:
     /scratch/11018/zhc/assisgnment3/input_files/Pb_LDA.UPF
     MD5 check sum: 062a37469794d955244864f8fe2e5624
     Pseudo is Ultrasoft + core correction, Zval = 14.0
     Generated by new atomic code, or converted to UPF format
     Using radial grid of  899 points,  6 beta functions with: 
                l(1) =   0
                l(2) =   0
                l(3) =   1
                l(4) =   1
                l(5) =   2
                l(6) =   2
     Q(r) pseudized with  6 coefficients,  rinner =    1.000   1.000   1.000
                                                       1.000   1.000

     PseudoPot. # 2 for Ti read from file:
     /scratch/11018/zhc/assisgnment3/input_files/Ti_LDA.UPF
     MD5 check sum: 0d9f225c038fe889ca2a701dcc8d72cb
     Pseudo is Ultrasoft + core correction, Zval = 12.0
     Generated by new atomic code, or converted to UPF format
     Using radial grid of  851 points,  6 beta functions with: 
                l(1) =   0
                l(2) =   0
                l(3) =   1
                l(4) =   1
                l(5) =   2
                l(6) =   2
     Q(r) pseudized with  6 coefficients,  rinner =    1.000   1.000   1.000
                                                       1.000   1.000

     PseudoPot. # 3 for O  read from file:
     /scratch/11018/zhc/assisgnment3/input_files/O_LDA.UPF
     MD5 check sum: 194b818514d2a7dbb603bb78519a4f40
     Pseudo is Ultrasoft + core correction, Zval =  6.0
     Generated by new atomic code, or converted to UPF format
     Using radial grid of  737 points,  5 beta functions with: 
                l(1) =   0
                l(2) =   0
                l(3) =   1
                l(4) =   1
                l(5) =   2
     Q(r) pseudized with  8 coefficients,  rinner =    0.900   0.900   0.900
                                                       0.900   0.900

     atomic species   valence    mass     pseudopotential
     Pb               14.00   207.20000     Pb( 1.00)
     Ti               12.00    47.88000     Ti( 1.00)
     O                 6.00    16.00000     O ( 1.00)

      8 Sym. Ops. (no inversion) found



   Cartesian axes

     site n.     atom                  positions (alat units)
         1        Pb     tau(   1) = (   0.0000000   0.0000000   1.0580339  )
         2        Ti     tau(   2) = (   0.5000000   0.5000000   0.5681377  )
         3        O      tau(   3) = (   0.5000000   0.5000000   0.1036357  )
         4        O      tau(   4) = (   0.5000000   0.0000000   0.6422586  )
         5        O      tau(   5) = (   0.0000000   0.5000000   0.6422586  )

     number of k points=    30
                       cart. coord. in units 2pi/alat
        k(    1) = (   0.0000000   0.0000000   0.0000000), wk =   0.0138889
        k(    2) = (   0.0000000   0.0000000   0.2378049), wk =   0.0277778
        k(    3) = (   0.0000000   0.0000000  -0.4756098), wk =   0.0138889
        k(    4) = (   0.0000000   0.1666667   0.0000000), wk =   0.0555556
        k(    5) = (   0.0000000   0.1666667   0.2378049), wk =   0.1111111
        k(    6) = (   0.0000000   0.1666667  -0.4756098), wk =   0.0555556
        k(    7) = (   0.0000000   0.3333333   0.0000000), wk =   0.0555556
        k(    8) = (   0.0000000   0.3333333   0.2378049), wk =   0.1111111
        k(    9) = (   0.0000000   0.3333333  -0.4756098), wk =   0.0555556
        k(   10) = (   0.0000000  -0.5000000   0.0000000), wk =   0.0277778
        k(   11) = (   0.0000000  -0.5000000   0.2378049), wk =   0.0555556
        k(   12) = (   0.0000000  -0.5000000  -0.4756098), wk =   0.0277778
        k(   13) = (   0.1666667   0.1666667   0.0000000), wk =   0.0555556
        k(   14) = (   0.1666667   0.1666667   0.2378049), wk =   0.1111111
        k(   15) = (   0.1666667   0.1666667  -0.4756098), wk =   0.0555556
        k(   16) = (   0.1666667   0.3333333   0.0000000), wk =   0.1111111
        k(   17) = (   0.1666667   0.3333333   0.2378049), wk =   0.2222222
        k(   18) = (   0.1666667   0.3333333  -0.4756098), wk =   0.1111111
        k(   19) = (   0.1666667  -0.5000000   0.0000000), wk =   0.0555556
        k(   20) = (   0.1666667  -0.5000000   0.2378049), wk =   0.1111111
        k(   21) = (   0.1666667  -0.5000000  -0.4756098), wk =   0.0555556
        k(   22) = (   0.3333333   0.3333333   0.0000000), wk =   0.0555556
        k(   23) = (   0.3333333   0.3333333   0.2378049), wk =   0.1111111
        k(   24) = (   0.3333333   0.3333333  -0.4756098), wk =   0.0555556
        k(   25) = (   0.3333333  -0.5000000   0.0000000), wk =   0.0555556
        k(   26) = (   0.3333333  -0.5000000   0.2378049), wk =   0.1111111
        k(   27) = (   0.3333333  -0.5000000  -0.4756098), wk =   0.0555556
        k(   28) = (  -0.5000000  -0.5000000   0.0000000), wk =   0.0138889
        k(   29) = (  -0.5000000  -0.5000000   0.2378049), wk =   0.0277778
        k(   30) = (  -0.5000000  -0.5000000  -0.4756098), wk =   0.0138889

     Dense  grid:    79447 G-vectors     FFT dimensions: (  54,  54,  60)

     Smooth grid:    20063 G-vectors     FFT dimensions: (  36,  36,  36)

     Estimated max dynamical RAM per process >      37.60 MB

     Estimated total dynamical RAM >     375.98 MB

     Check: negative core charge=   -0.000004

     Initial potential from superposition of free atoms

     starting charge      42.9982, renormalised to      44.0000

     negative rho (up, down):  1.690E-02 0.000E+00
     Starting wfcs are   31 randomized atomic wfcs

     total cpu time spent up to now is        0.7 secs

     Self-consistent Calculation

     iteration #  1     ecut=    50.00 Ry     beta= 0.70
     CG style diagonalization
     ethr =  1.00E-02,  avg # of iterations =  2.1

     negative rho (up, down):  1.407E-02 0.000E+00

     total cpu time spent up to now is        1.3 secs

     total energy              =    -380.04920042 Ry
     estimated scf accuracy    <       1.03128449 Ry

     iteration #  2     ecut=    50.00 Ry     beta= 0.70
     CG style diagonalization
     ethr =  2.34E-03,  avg # of iterations =  4.9

     negative rho (up, down):  1.455E-02 0.000E+00

     total cpu time spent up to now is        2.3 secs

     total energy              =    -379.56101258 Ry
     estimated scf accuracy    <       5.08804950 Ry

     iteration #  3     ecut=    50.00 Ry     beta= 0.70
     CG style diagonalization
     ethr =  2.34E-03,  avg # of iterations =  4.4

     negative rho (up, down):  1.525E-02 0.000E+00

     total cpu time spent up to now is        3.1 secs

     total energy              =    -380.53185191 Ry
     estimated scf accuracy    <       0.36873891 Ry

     iteration #  4     ecut=    50.00 Ry     beta= 0.70
     CG style diagonalization
     ethr =  8.38E-04,  avg # of iterations =  3.4

     negative rho (up, down):  1.523E-02 0.000E+00

     total cpu time spent up to now is        3.8 secs

     total energy              =    -380.55323159 Ry
     estimated scf accuracy    <       0.06938253 Ry

     iteration #  5     ecut=    50.00 Ry     beta= 0.70
     CG style diagonalization
     ethr =  1.58E-04,  avg # of iterations =  3.7

     negative rho (up, down):  1.523E-02 0.000E+00

     total cpu time spent up to now is        4.6 secs

     total energy              =    -380.56602897 Ry
     estimated scf accuracy    <       0.00922131 Ry

     iteration #  6     ecut=    50.00 Ry     beta= 0.70
     CG style diagonalization
     ethr =  2.10E-05,  avg # of iterations =  4.1

     negative rho (up, down):  1.524E-02 0.000E+00

     total cpu time spent up to now is        5.4 secs

     total energy              =    -380.57052590 Ry
     estimated scf accuracy    <       0.00675534 Ry

     iteration #  7     ecut=    50.00 Ry     beta= 0.70
     CG style diagonalization
     ethr =  1.54E-05,  avg # of iterations =  3.2

     negative rho (up, down):  1.525E-02 0.000E+00

     total cpu time spent up to now is        6.0 secs

     total energy              =    -380.57036714 Ry
     estimated scf accuracy    <       0.00226498 Ry

     iteration #  8     ecut=    50.00 Ry     beta= 0.70
     CG style diagonalization
     ethr =  5.15E-06,  avg # of iterations =  3.6

     negative rho (up, down):  1.526E-02 0.000E+00

     total cpu time spent up to now is        6.7 secs

     total energy              =    -380.57078229 Ry
     estimated scf accuracy    <       0.00001098 Ry

     iteration #  9     ecut=    50.00 Ry     beta= 0.70
     CG style diagonalization
     c_bands:  1 eigenvalues not converged
     ethr =  2.50E-08,  avg # of iterations =  7.8

     negative rho (up, down):  1.530E-02 0.000E+00

     total cpu time spent up to now is        8.3 secs

     total energy              =    -380.57085180 Ry
     estimated scf accuracy    <       0.00003152 Ry

     iteration # 10     ecut=    50.00 Ry     beta= 0.70
     CG style diagonalization
     ethr =  2.50E-08,  avg # of iterations =  3.4

     negative rho (up, down):  1.540E-02 0.000E+00

     total cpu time spent up to now is        9.0 secs

     total energy              =    -380.57084628 Ry
     estimated scf accuracy    <       0.00001608 Ry

     iteration # 11     ecut=    50.00 Ry     beta= 0.70
     CG style diagonalization
     ethr =  2.50E-08,  avg # of iterations =  3.9

     negative rho (up, down):  1.540E-02 0.000E+00

     total cpu time spent up to now is        9.8 secs

     total energy              =    -380.57085026 Ry
     estimated scf accuracy    <       0.00000238 Ry

     iteration # 12     ecut=    50.00 Ry     beta= 0.70
     CG style diagonalization
     ethr =  5.40E-09,  avg # of iterations =  4.6

     negative rho (up, down):  1.540E-02 0.000E+00

     total cpu time spent up to now is       10.7 secs

     total energy              =    -380.57085127 Ry
     estimated scf accuracy    <       0.00000004 Ry

     iteration # 13     ecut=    50.00 Ry     beta= 0.70
     CG style diagonalization
     c_bands:  1 eigenvalues not converged
     c_bands:  1 eigenvalues not converged
     c_bands:  1 eigenvalues not converged
     c_bands:  1 eigenvalues not converged
     c_bands:  1 eigenvalues not converged
     c_bands:  1 eigenvalues not converged
     c_bands:  1 eigenvalues not converged
     ethr =  9.93E-11,  avg # of iterations = 11.7

     negative rho (up, down):  1.540E-02 0.000E+00

     total cpu time spent up to now is       13.0 secs

     total energy              =    -380.57085206 Ry
     estimated scf accuracy    <       0.00000002 Ry

     iteration # 14     ecut=    50.00 Ry     beta= 0.70
     CG style diagonalization
     ethr =  4.47E-11,  avg # of iterations =  4.8

     negative rho (up, down):  1.541E-02 0.000E+00

     total cpu time spent up to now is       14.0 secs

     End of self-consistent calculation

          k = 0.0000 0.0000 0.0000 (  2525 PWs)   bands (ev):

   -45.8570 -22.4919 -22.4297 -22.4297  -7.5140  -6.4344  -6.2012  -5.0267
    -5.0267  -4.9917  -4.8705  -4.7660   4.2243   6.3079   6.3079   6.6265
     8.2751   8.2751   8.4917   8.7798   8.9403   8.9403

          k = 0.0000 0.0000 0.2378 (  2517 PWs)   bands (ev):

   -45.8568 -22.5114 -22.4290 -22.4290  -7.3211  -6.3756  -6.1434  -5.0419
    -5.0419  -4.9904  -4.8627  -4.8372   3.4625   6.3773   6.3773   6.7886
     8.0085   8.0085   8.4075   8.8280   9.0464   9.0464

          k = 0.0000 0.0000-0.4756 (  2530 PWs)   bands (ev):

   -45.8565 -22.5307 -22.4282 -22.4282  -7.1105  -6.3108  -6.0936  -5.0570
    -5.0570  -4.9892  -4.9143  -4.8569   2.9647   6.1483   6.4337   6.4337
     7.8246   7.8246   8.3271   9.1166   9.1166   9.9991

          k = 0.0000 0.1667 0.0000 (  2525 PWs)   bands (ev):

   -45.8567 -22.4912 -22.4469 -22.4290  -7.3790  -6.4051  -6.1723  -5.0474
    -5.0253  -5.0045  -4.8754  -4.7567   3.7958   6.3513   6.4169   6.6734
     8.1866   8.2988   8.4919   8.5701   8.6714   9.0388

          k = 0.0000 0.1667 0.2378 (  2521 PWs)   bands (ev):

   -45.8565 -22.5106 -22.4460 -22.4282  -7.2020  -6.3620  -6.1092  -5.0455
    -5.0410  -5.0037  -4.8726  -4.7933   3.2511   6.1632   6.4936   6.8889
     7.6647   7.9993   8.2723   8.6932   8.7205   9.3668

          k = 0.0000 0.1667-0.4756 (  2516 PWs)   bands (ev):

   -45.8562 -22.5298 -22.4452 -22.4275  -7.0180  -6.3130  -6.0450  -5.0565
    -5.0409  -5.0029  -4.8803  -4.8263   2.8361   5.8589   6.5529   6.5790
     7.4670   7.8275   8.3384   8.7476   8.7951   9.9282

          k = 0.0000 0.3333 0.0000 (  2514 PWs)   bands (ev):

   -45.8561 -22.4901 -22.4807 -22.4276  -7.0855  -6.3421  -6.1285  -5.0804
    -5.0299  -5.0225  -4.8732  -4.7649   3.2190   5.9809   6.6730   6.7027
     7.8550   7.8763   8.3462   8.4088   8.7764   9.6140

          k = 0.0000 0.3333 0.2378 (  2507 PWs)   bands (ev):

   -45.8558 -22.5088 -22.4800 -22.4268  -6.9712  -6.3032  -6.0457  -5.0506
    -5.0392  -5.0299  -4.8695  -4.7390   2.8953   5.8688   6.5592   6.8000
     7.3096   7.7481   7.8613   8.4058   8.9374   9.6824

          k = 0.0000 0.3333-0.4756 (  2518 PWs)   bands (ev):

   -45.8556 -22.5278 -22.4790 -22.4260  -6.8863  -6.2407  -5.9355  -5.0556
    -5.0301  -5.0125  -4.9061  -4.6899   2.6072   5.5747   6.3167   6.8549
     7.2012   7.3660   7.6893   8.4126   9.3287   9.5166

          k = 0.0000-0.5000 0.0000 (  2488 PWs)   bands (ev):

   -45.8558 -22.4982 -22.4887 -22.4269  -6.9229  -6.2953  -6.1300  -5.0958
    -5.0425  -5.0212  -4.8470  -4.7989   3.0109   5.6186   6.9605   6.9709
     7.3501   7.4690   8.2693   8.4493   8.8124  10.3567

          k = 0.0000-0.5000 0.2378 (  2506 PWs)   bands (ev):

   -45.8555 -22.5077 -22.4971 -22.4260  -6.8710  -6.2242  -6.0376  -5.0633
    -5.0430  -5.0383  -4.8399  -4.7351   2.7519   5.5907   6.5919   6.8582
     7.1648   7.3167   7.9706   8.3941   8.9305   9.8624

          k = 0.0000-0.5000-0.4756 (  2516 PWs)   bands (ev):

   -45.8553 -22.5266 -22.4959 -22.4252  -6.8562  -6.1478  -5.8835  -5.0552
    -5.0436  -5.0234  -4.8928  -4.6340   2.5128   5.4248   6.0402   6.9195
     7.1690   7.3710   7.3748   8.3577   9.1476   9.6538

          k = 0.1667 0.1667 0.0000 (  2498 PWs)   bands (ev):

   -45.8564 -22.4905 -22.4462 -22.4460  -7.2468  -6.3749  -6.1649  -5.0529
    -5.0394  -5.0067  -4.8542  -4.7480   3.4997   6.2929   6.5225   6.7215
     7.7676   7.8516   8.5450   8.5681   8.8874   9.2666

          k = 0.1667 0.1667 0.2378 (  2513 PWs)   bands (ev):

   -45.8561 -22.5097 -22.4454 -22.4452  -7.0807  -6.3510  -6.1024  -5.0554
    -5.0349  -5.0000  -4.8456  -4.7623   3.1380   6.1083   6.1889   6.8520
     7.5509   7.5533   8.3754   8.7473   8.9721   9.3183

          k = 0.1667 0.1667-0.4756 (  2522 PWs)   bands (ev):

   -45.8559 -22.5288 -22.4445 -22.4444  -6.9147  -6.3270  -6.0298  -5.0664
    -5.0161  -4.9770  -4.8531  -4.7818   2.8092   5.9089   5.9193   6.5857
     7.4565   7.4712   8.2681   8.8174   9.0321   9.6361

          k = 0.1667 0.3333 0.0000 (  2515 PWs)   bands (ev):

   -45.8558 -22.4894 -22.4798 -22.4446  -6.9621  -6.3131  -6.1642  -5.0752
    -5.0297  -4.9900  -4.8313  -4.7555   3.0307   5.9855   6.5409   6.8254
     7.2118   7.8048   8.0613   8.7221   8.8999   9.6950

          k = 0.1667 0.3333 0.2378 (  2507 PWs)   bands (ev):

   -45.8555 -22.5081 -22.4792 -22.4437  -6.8454  -6.3063  -6.0949  -5.0533
    -5.0303  -4.9666  -4.8135  -4.7150   2.9031   5.8357   6.0050   6.4896
     6.9300   7.5766   8.4108   8.7022   9.0267   9.4117

          k = 0.1667 0.3333-0.4756 (  2514 PWs)   bands (ev):

   -45.8553 -22.5269 -22.4782 -22.4429  -6.7636  -6.2862  -5.9905  -5.0502
    -5.0075  -4.9277  -4.8258  -4.6641   2.7384   5.5164   5.9217   6.2226
     6.4321   7.4294   8.5149   8.7405   8.9217   9.4501

          k = 0.1667-0.5000 0.0000 (  2520 PWs)   bands (ev):

   -45.8555 -22.4973 -22.4880 -22.4438  -6.8060  -6.2683  -6.1870  -5.0783
    -5.0226  -4.9682  -4.8121  -4.7900   2.8443   5.6350   6.6966   6.8509
     7.1895   7.4655   7.9761   8.7815   8.8797   9.9768

          k = 0.1667-0.5000 0.2378 (  2512 PWs)   bands (ev):

   -45.8552 -22.5070 -22.4962 -22.4430  -6.7447  -6.2372  -6.1158  -5.0521
    -5.0181  -4.9440  -4.7948  -4.7084   2.7942   5.5966   5.9123   6.2781
     6.8770   7.7200   8.1793   8.7170   9.0179   9.3833

          k = 0.1667-0.5000-0.4756 (  2520 PWs)   bands (ev):

   -45.8549 -22.5258 -22.4951 -22.4422  -6.7330  -6.2075  -5.9758  -5.0455
    -4.9808  -4.9205  -4.8102  -4.6088   2.7038   5.3943   5.7825   5.8878
     6.3063   7.5408   8.3021   8.6582   8.6658   9.6618

          k = 0.3333 0.3333 0.0000 (  2522 PWs)   bands (ev):

   -45.8552 -22.4881 -22.4783 -22.4778  -6.7183  -6.2557  -6.2175  -5.0576
    -5.0119  -4.9219  -4.7588  -4.7524   2.6719   5.9494   6.0853   6.9501
     7.0875   7.2649   7.8806   8.5189   9.3854   9.4064

          k = 0.3333 0.3333 0.2378 (  2512 PWs)   bands (ev):

   -45.8549 -22.5064 -22.4775 -22.4775  -6.5955  -6.3042  -6.1832  -5.0213
    -5.0054  -4.8621  -4.7082  -4.6818   2.8541   5.5999   5.6632   5.9396
     6.6066   7.0676   8.3846   8.9913   9.0204   9.4016

          k = 0.3333 0.3333-0.4756 (  2502 PWs)   bands (ev):

   -45.8546 -22.5251 -22.4766 -22.4766  -6.5338  -6.3490  -6.0775  -4.9991
    -4.9850  -4.7973  -4.6634  -4.6075   3.0207   5.2163   5.2359   5.7016
     6.3525   6.5137   7.6507   9.3566   9.3705   9.5322

          k = 0.3333-0.5000 0.0000 (  2520 PWs)   bands (ev):

   -45.8548 -22.4954 -22.4868 -22.4771  -6.6079  -6.2339  -6.2191  -5.0504
    -4.9905  -4.8602  -4.7917  -4.7185   2.5048   5.6148   6.1206   6.7803
     7.3021   7.4049   7.4998   8.4943   9.0790   9.5732

          k = 0.3333-0.5000 0.2378 (  2514 PWs)   bands (ev):

   -45.8546 -22.5054 -22.4944 -22.4766  -6.4884  -6.2665  -6.2393  -5.0134
    -4.9800  -4.7722  -4.7109  -4.6493   2.7976   5.4976   5.5744   5.6829
     6.3899   7.1415   7.9047   8.9878   9.0189   9.5539

          k = 0.3333-0.5000-0.4756 (  2496 PWs)   bands (ev):

   -45.8543 -22.5241 -22.4935 -22.4758  -6.4825  -6.3103  -6.1155  -4.9852
    -4.9625  -4.7091  -4.6300  -4.5548   3.1666   4.9606   5.1466   5.4572
     6.1415   6.5289   6.8813   9.4564   9.5258   9.6836

          k =-0.5000-0.5000 0.0000 (  2496 PWs)   bands (ev):

   -45.8545 -22.4944 -22.4944 -22.4854  -6.5576  -6.1973  -6.1973  -5.0408
    -4.9486  -4.8092  -4.8092  -4.6714   2.3356   5.4598   5.9632   6.9994
     6.9994   7.5189   7.5189   8.2489   8.5817   9.8307

          k =-0.5000-0.5000 0.2378 (  2508 PWs)   bands (ev):

   -45.8543 -22.5044 -22.4935 -22.4935  -6.3675  -6.2823  -6.2823  -5.0026
    -4.9468  -4.6709  -4.6709  -4.6375   2.7455   5.4133   5.6168   5.6168
     5.9693   7.0822   7.2562   9.0197   9.0197   9.8152

          k =-0.5000-0.5000-0.4756 (  2504 PWs)   bands (ev):

   -45.8540 -22.5232 -22.4926 -22.4926  -6.3558  -6.3558  -6.1732  -4.9645
    -4.9450  -4.5926  -4.5420  -4.5420   3.4113   4.9828   4.9828   5.2903
     5.8880   5.9755   6.2469   9.6944   9.6944   9.7998

     highest occupied level (ev):    10.3567

!    total energy              =    -380.57085207 Ry
     estimated scf accuracy    <          3.7E-09 Ry

     The total energy is the sum of the following terms:
     one-electron contribution =     -84.08358968 Ry
     hartree contribution      =      71.16903228 Ry
     xc contribution           =    -102.54213522 Ry
     ewald contribution        =    -265.11415945 Ry

     convergence has been achieved in  14 iterations

     negative rho (up, down):  1.541E-02 0.000E+00

     Forces acting on atoms (cartesian axes, Ry/au):

     atom    1 type  1   force =     0.00000000    0.00000000   -0.00787624
     atom    2 type  2   force =     0.00000000    0.00000000   -0.01230891
     atom    3 type  3   force =     0.00000000    0.00000000    0.02037174
     atom    4 type  3   force =     0.00000000    0.00000000   -0.00009330
     atom    5 type  3   force =     0.00000000    0.00000000   -0.00009330

     Total force =     0.025071     Total SCF correction =     0.000224


     Computing stress (Cartesian axis) and pressure


     negative rho (up, down):  1.541E-02 0.000E+00
          total   stress  (Ry/bohr**3)                   (kbar)     P=      -65.46
  -0.00043344   0.00000000   0.00000000          -63.76        0.00        0.00
   0.00000000  -0.00043344   0.00000000            0.00      -63.76        0.00
   0.00000000   0.00000000  -0.00046814            0.00        0.00      -68.87


     BFGS Geometry Optimization
     Energy error            =      0.0E+00 Ry
     Gradient error          =      2.0E-02 Ry/Bohr

     number of scf cycles    =   1
     number of bfgs steps    =   0

     energy             new  =    -380.5708520678 Ry

     new trust radius        =       0.0203717434 bohr
     new conv_thr            =       0.0000000100 Ry


ATOMIC_POSITIONS (crystal)
Pb               0.0000000000        0.0000000000        1.0054059408
Ti               0.5000000000        0.5000000000        0.5388350157
O                0.5000000000        0.5000000000        0.1012096333
O                0.5000000000        0.0000000000        0.6109168491
O                0.0000000000        0.5000000000        0.6109168491



     Writing config-only to output data dir ./pto_50.save/ :
     XML data file
     NEW-OLD atomic charge density approx. for the potential

     Check: negative core charge=   -0.000004

     negative rho (up, down):  1.527E-02 0.000E+00

     total cpu time spent up to now is       15.2 secs

     Self-consistent Calculation

     iteration #  1     ecut=    50.00 Ry     beta= 0.70
     CG style diagonalization
     c_bands:  2 eigenvalues not converged
     c_bands:  1 eigenvalues not converged
     c_bands:  1 eigenvalues not converged
     c_bands:  1 eigenvalues not converged
     c_bands:  2 eigenvalues not converged
     ethr =  1.00E-06,  avg # of iterations =  6.7

     negative rho (up, down):  1.525E-02 0.000E+00

     total cpu time spent up to now is       16.6 secs

     total energy              =    -380.57122431 Ry
     estimated scf accuracy    <       0.00023674 Ry

     iteration #  2     ecut=    50.00 Ry     beta= 0.70
     CG style diagonalization
     ethr =  5.38E-07,  avg # of iterations =  4.7

     negative rho (up, down):  1.525E-02 0.000E+00

     total cpu time spent up to now is       17.6 secs

     total energy              =    -380.57119816 Ry
     estimated scf accuracy    <       0.00066989 Ry

     iteration #  3     ecut=    50.00 Ry     beta= 0.70
     CG style diagonalization
     ethr =  5.38E-07,  avg # of iterations =  4.2

     negative rho (up, down):  1.525E-02 0.000E+00

     total cpu time spent up to now is       18.4 secs

     total energy              =    -380.57133221 Ry
     estimated scf accuracy    <       0.00005417 Ry

     iteration #  4     ecut=    50.00 Ry     beta= 0.70
     CG style diagonalization
     ethr =  1.23E-07,  avg # of iterations =  3.7

     negative rho (up, down):  1.525E-02 0.000E+00

     total cpu time spent up to now is       19.2 secs

     total energy              =    -380.57134577 Ry
     estimated scf accuracy    <       0.00000547 Ry

     iteration #  5     ecut=    50.00 Ry     beta= 0.70
     CG style diagonalization
     ethr =  1.24E-08,  avg # of iterations =  4.3

     negative rho (up, down):  1.525E-02 0.000E+00

     total cpu time spent up to now is       20.0 secs

     total energy              =    -380.57134877 Ry
     estimated scf accuracy    <       0.00000068 Ry

     iteration #  6     ecut=    50.00 Ry     beta= 0.70
     CG style diagonalization
     ethr =  1.55E-09,  avg # of iterations =  4.5

     negative rho (up, down):  1.525E-02 0.000E+00

     total cpu time spent up to now is       20.9 secs

     total energy              =    -380.57134914 Ry
     estimated scf accuracy    <       0.00000029 Ry

     iteration #  7     ecut=    50.00 Ry     beta= 0.70
     CG style diagonalization
     ethr =  6.56E-10,  avg # of iterations =  4.0

     negative rho (up, down):  1.525E-02 0.000E+00

     total cpu time spent up to now is       21.7 secs

     total energy              =    -380.57134936 Ry
     estimated scf accuracy    <       0.00000007 Ry

     iteration #  8     ecut=    50.00 Ry     beta= 0.70
     CG style diagonalization
     ethr =  1.62E-10,  avg # of iterations =  4.3

     negative rho (up, down):  1.525E-02 0.000E+00

     total cpu time spent up to now is       22.6 secs

     End of self-consistent calculation

          k = 0.0000 0.0000 0.0000 (  2525 PWs)   bands (ev):

   -45.8217 -22.4789 -22.3938 -22.3938  -7.5112  -6.4283  -6.2120  -5.0293
    -5.0293  -4.9961  -4.8779  -4.7638   4.2145   6.3115   6.3115   6.6563
     8.2071   8.2071   8.4930   8.7226   8.9489   8.9489

          k = 0.0000 0.0000 0.2378 (  2517 PWs)   bands (ev):

   -45.8214 -22.4985 -22.3930 -22.3930  -7.3155  -6.3693  -6.1566  -5.0444
    -5.0444  -4.9949  -4.8701  -4.8351   3.4483   6.3713   6.3713   6.8039
     7.9658   7.9658   8.4084   8.8097   9.0519   9.0519

          k = 0.0000 0.0000-0.4756 (  2530 PWs)   bands (ev):

   -45.8212 -22.5179 -22.3923 -22.3923  -7.1008  -6.3043  -6.1103  -5.0595
    -5.0595  -4.9936  -4.9124  -4.8642   2.9434   6.1615   6.4148   6.4148
     7.8043   7.8043   8.3276   9.1219   9.1219  10.0023

          k = 0.0000 0.1667 0.0000 (  2525 PWs)   bands (ev):

   -45.8214 -22.4782 -22.4110 -22.3931  -7.3767  -6.3995  -6.1841  -5.0505
    -5.0279  -5.0089  -4.8808  -4.7545   3.7908   6.3535   6.4213   6.6855
     8.1547   8.2322   8.4843   8.5769   8.6514   9.0156

          k = 0.0000 0.1667 0.2378 (  2521 PWs)   bands (ev):

   -45.8211 -22.4976 -22.4102 -22.3923  -7.1967  -6.3565  -6.1234  -5.0482
    -5.0435  -5.0081  -4.8784  -4.7911   3.2413   6.1551   6.4886   6.9011
     7.6422   7.9593   8.2705   8.6770   8.7229   9.3656

          k = 0.0000 0.1667-0.4756 (  2516 PWs)   bands (ev):

   -45.8209 -22.5169 -22.4093 -22.3915  -7.0089  -6.3076  -6.0626  -5.0590
    -5.0433  -5.0073  -4.8858  -4.8248   2.8205   5.8460   6.5349   6.5897
     7.4561   7.8074   8.3449   8.7310   8.8001   9.9354

          k = 0.0000 0.3333 0.0000 (  2514 PWs)   bands (ev):

   -45.8208 -22.4767 -22.4453 -22.3917  -7.0838  -6.3383  -6.1428  -5.0832
    -5.0342  -5.0251  -4.8745  -4.7634   3.2169   5.9890   6.6709   6.7095
     7.8514   7.8840   8.3371   8.3469   8.7409   9.6014

          k = 0.0000 0.3333 0.2378 (  2507 PWs)   bands (ev):

   -45.8205 -22.4959 -22.4442 -22.3909  -6.9661  -6.3005  -6.0624  -5.0532
    -5.0418  -5.0342  -4.8721  -4.7365   2.8914   5.8678   6.5592   6.7983
     7.3045   7.7346   7.8604   8.3764   8.9226   9.6759

          k = 0.0000 0.3333-0.4756 (  2518 PWs)   bands (ev):

   -45.8202 -22.5149 -22.4432 -22.3900  -6.8784  -6.2378  -5.9553  -5.0581
    -5.0344  -5.0148  -4.9090  -4.6875   2.6013   5.5571   6.3292   6.8387
     7.1971   7.3781   7.6802   8.4034   9.2939   9.5292

          k = 0.0000-0.5000 0.0000 (  2488 PWs)   bands (ev):

   -45.8204 -22.4758 -22.4624 -22.3910  -6.9210  -6.2921  -6.1469  -5.0978
    -5.0467  -5.0237  -4.8443  -4.8002   3.0087   5.6347   6.9436   6.9809
     7.3615   7.4757   8.2688   8.3737   8.7755  10.3441

          k = 0.0000-0.5000 0.2378 (  2506 PWs)   bands (ev):

   -45.8202 -22.4948 -22.4613 -22.3901  -6.8655  -6.2213  -6.0580  -5.0651
    -5.0473  -5.0408  -4.8411  -4.7326   2.7499   5.6022   6.5860   6.8492
     7.1753   7.3028   7.9703   8.3515   8.9241   9.8460

          k = 0.0000-0.5000-0.4756 (  2516 PWs)   bands (ev):

   -45.8199 -22.5138 -22.4601 -22.3893  -6.8489  -6.1454  -5.9058  -5.0576
    -5.0479  -5.0250  -4.8940  -4.6316   2.5111   5.4177   6.0413   6.9146
     7.1422   7.3859   7.3881   8.3371   9.1447   9.6278

          k = 0.1667 0.1667 0.0000 (  2498 PWs)   bands (ev):

   -45.8211 -22.4775 -22.4104 -22.4101  -7.2453  -6.3697  -6.1771  -5.0559
    -5.0424  -5.0104  -4.8591  -4.7456   3.4965   6.3013   6.5259   6.7217
     7.7178   7.8507   8.5078   8.5724   8.8935   9.2251

          k = 0.1667 0.1667 0.2378 (  2513 PWs)   bands (ev):

   -45.8208 -22.4968 -22.4095 -22.4093  -7.0761  -6.3458  -6.1174  -5.0585
    -5.0378  -5.0035  -4.8510  -4.7598   3.1304   6.1024   6.1834   6.8548
     7.5388   7.5508   8.3356   8.7441   8.9702   9.3158

          k = 0.1667 0.1667-0.4756 (  2522 PWs)   bands (ev):

   -45.8205 -22.5160 -22.4086 -22.4085  -6.9064  -6.3217  -6.0481  -5.0698
    -5.0199  -4.9790  -4.8592  -4.7791   2.7963   5.8992   5.9042   6.5977
     7.4499   7.4737   8.2395   8.8145   9.0274   9.6435

          k = 0.1667 0.3333 0.0000 (  2515 PWs)   bands (ev):

   -45.8204 -22.4760 -22.4444 -22.4087  -6.9624  -6.3096  -6.1764  -5.0775
    -5.0326  -4.9942  -4.8343  -4.7536   3.0290   5.9965   6.5374   6.8316
     7.2087   7.7559   8.0641   8.7077   8.8935   9.6729

          k = 0.1667 0.3333 0.2378 (  2507 PWs)   bands (ev):

   -45.8202 -22.4950 -22.4434 -22.4079  -6.8417  -6.3034  -6.1103  -5.0562
    -5.0329  -4.9713  -4.8165  -4.7127   2.8995   5.8339   6.0007   6.4938
     6.9248   7.5750   8.3982   8.6836   9.0160   9.4041

          k = 0.1667 0.3333-0.4756 (  2514 PWs)   bands (ev):

   -45.8199 -22.5140 -22.4424 -22.4070  -6.7568  -6.2828  -6.0089  -5.0536
    -5.0106  -4.9323  -4.8286  -4.6618   2.7322   5.4996   5.9192   6.2271
     6.4407   7.4372   8.4817   8.7436   8.9234   9.4327

          k = 0.1667-0.5000 0.0000 (  2520 PWs)   bands (ev):

   -45.8201 -22.4750 -22.4615 -22.4079  -6.8069  -6.2654  -6.1999  -5.0803
    -5.0253  -4.9734  -4.8112  -4.7905   2.8426   5.6514   6.6772   6.8632
     7.2005   7.4737   7.9097   8.7798   8.8607   9.9700

          k = 0.1667-0.5000 0.2378 (  2512 PWs)   bands (ev):

   -45.8199 -22.4940 -22.4604 -22.4071  -6.7408  -6.2346  -6.1328  -5.0547
    -5.0203  -4.9508  -4.7950  -4.7068   2.7920   5.6077   5.9096   6.2714
     6.8737   7.7147   8.1805   8.6864   9.0199   9.3646

          k = 0.1667-0.5000-0.4756 (  2520 PWs)   bands (ev):

   -45.8196 -22.5130 -22.4593 -22.4063  -6.7268  -6.2052  -5.9942  -5.0487
    -4.9827  -4.9288  -4.8099  -4.6068   2.7014   5.3834   5.7834   5.8908
     6.3083   7.5518   8.2972   8.6367   8.6660   9.6386

          k = 0.3333 0.3333 0.0000 (  2522 PWs)   bands (ev):

   -45.8198 -22.4744 -22.4427 -22.4425  -6.7242  -6.2528  -6.2246  -5.0594
    -5.0152  -4.9243  -4.7585  -4.7564   2.6704   5.9554   6.1067   6.9336
     7.0878   7.2165   7.9036   8.5061   9.3885   9.3963

          k = 0.3333 0.3333 0.2378 (  2512 PWs)   bands (ev):

   -45.8195 -22.4933 -22.4418 -22.4416  -6.5955  -6.3013  -6.1955  -5.0232
    -5.0091  -4.8668  -4.7132  -4.6791   2.8511   5.5936   5.6601   5.9463
     6.6180   7.0661   8.3813   8.9796   8.9959   9.4028

          k = 0.3333 0.3333-0.4756 (  2502 PWs)   bands (ev):

   -45.8193 -22.5122 -22.4409 -22.4408  -6.5294  -6.3460  -6.0931  -5.0031
    -4.9871  -4.8053  -4.6668  -4.6047   3.0147   5.2072   5.2338   5.7046
     6.3562   6.5357   7.6493   9.3295   9.3766   9.5114

          k = 0.3333-0.5000 0.0000 (  2520 PWs)   bands (ev):

   -45.8195 -22.4734 -22.4596 -22.4417  -6.6182  -6.2368  -6.2171  -5.0521
    -4.9938  -4.8609  -4.7902  -4.7256   2.5029   5.6277   6.1428   6.7535
     7.2624   7.4152   7.5025   8.4901   9.0793   9.5792

          k = 0.3333-0.5000 0.2378 (  2514 PWs)   bands (ev):

   -45.8192 -22.4924 -22.4586 -22.4409  -6.4903  -6.2645  -6.2496  -5.0153
    -4.9837  -4.7791  -4.7092  -4.6519   2.7948   5.4912   5.5839   5.6813
     6.4022   7.1378   7.9104   8.9708   8.9974   9.5582

          k = 0.3333-0.5000-0.4756 (  2496 PWs)   bands (ev):

   -45.8190 -22.5112 -22.4576 -22.4400  -6.4790  -6.3082  -6.1297  -4.9884
    -4.9653  -4.7213  -4.6282  -4.5544   3.1616   4.9598   5.1336   5.4696
     6.1517   6.5417   6.8841   9.4315   9.5324   9.6616

          k =-0.5000-0.5000 0.0000 (  2496 PWs)   bands (ev):

   -45.8192 -22.4724 -22.4586 -22.4586  -6.5728  -6.1958  -6.1958  -5.0425
    -4.9527  -4.8060  -4.8060  -4.6836   2.3332   5.4706   5.9924   6.9660
     6.9660   7.5258   7.5258   8.2435   8.5946   9.8374

          k =-0.5000-0.5000 0.2378 (  2508 PWs)   bands (ev):

   -45.8189 -22.4914 -22.4577 -22.4577  -6.3816  -6.2805  -6.2805  -5.0044
    -4.9509  -4.6681  -4.6681  -4.6515   2.7422   5.4252   5.6056   5.6056
     5.9986   7.0780   7.2670   9.0022   9.0022   9.8219

          k =-0.5000-0.5000-0.4756 (  2504 PWs)   bands (ev):

   -45.8187 -22.5103 -22.4568 -22.4568  -6.3538  -6.3538  -6.1859  -4.9663
    -4.9491  -4.6090  -4.5397  -4.5397   3.4046   4.9744   4.9744   5.3037
     5.9010   6.0049   6.2427   9.6732   9.6732   9.8066

     highest occupied level (ev):    10.3441

!    total energy              =    -380.57134939 Ry
     estimated scf accuracy    <          2.8E-09 Ry

     The total energy is the sum of the following terms:
     one-electron contribution =     -84.30072773 Ry
     hartree contribution      =      71.28692159 Ry
     xc contribution           =    -102.55198453 Ry
     ewald contribution        =    -265.00555872 Ry

     convergence has been achieved in   8 iterations

     negative rho (up, down):  1.525E-02 0.000E+00

     Forces acting on atoms (cartesian axes, Ry/au):

     atom    1 type  1   force =     0.00000000    0.00000000   -0.00856977
     atom    2 type  2   force =     0.00000000    0.00000000   -0.00509019
     atom    3 type  3   force =     0.00000000    0.00000000    0.01139707
     atom    4 type  3   force =     0.00000000    0.00000000    0.00113145
     atom    5 type  3   force =     0.00000000    0.00000000    0.00113145

     Total force =     0.015225     Total SCF correction =     0.000112


     Computing stress (Cartesian axis) and pressure


     negative rho (up, down):  1.525E-02 0.000E+00
          total   stress  (Ry/bohr**3)                   (kbar)     P=      -60.14
  -0.00042213   0.00000000   0.00000000          -62.10        0.00        0.00
   0.00000000  -0.00042213   0.00000000            0.00      -62.10        0.00
   0.00000000   0.00000000  -0.00038223            0.00        0.00      -56.23

     Energy error            =      5.0E-04 Ry
     Gradient error          =      1.1E-02 Ry/Bohr

     number of scf cycles    =   2
     number of bfgs steps    =   1

     energy             old  =    -380.5708520678 Ry
     energy             new  =    -380.5713493878 Ry

     CASE: energy            _new < energy            _old

     new trust radius        =       0.0224089177 bohr
     new conv_thr            =       0.0000000005 Ry


ATOMIC_POSITIONS (crystal)
Pb               0.0000000000        0.0000000000        1.0033733908
Ti               0.5000000000        0.5000000000        0.5374819081
O                0.5000000000        0.5000000000        0.1041018988
O                0.5000000000        0.0000000000        0.6111635452
O                0.0000000000        0.5000000000        0.6111635452



     Writing config-only to output data dir ./pto_50.save/ :
     XML data file
     NEW-OLD atomic charge density approx. for the potential

     Check: negative core charge=   -0.000004

     negative rho (up, down):  1.514E-02 0.000E+00

     total cpu time spent up to now is       23.8 secs

     Self-consistent Calculation

     iteration #  1     ecut=    50.00 Ry     beta= 0.70
     CG style diagonalization
     c_bands:  1 eigenvalues not converged
     ethr =  1.00E-06,  avg # of iterations =  7.0

     negative rho (up, down):  1.511E-02 0.000E+00

     total cpu time spent up to now is       25.3 secs

     total energy              =    -380.57152454 Ry
     estimated scf accuracy    <       0.00024388 Ry

     iteration #  2     ecut=    50.00 Ry     beta= 0.70
     CG style diagonalization
     ethr =  5.54E-07,  avg # of iterations =  4.6

     negative rho (up, down):  1.511E-02 0.000E+00

     total cpu time spent up to now is       26.2 secs

     total energy              =    -380.57149359 Ry
     estimated scf accuracy    <       0.00069251 Ry

     iteration #  3     ecut=    50.00 Ry     beta= 0.70
     CG style diagonalization
     ethr =  5.54E-07,  avg # of iterations =  4.2

     negative rho (up, down):  1.511E-02 0.000E+00

     total cpu time spent up to now is       27.1 secs

     total energy              =    -380.57163132 Ry
     estimated scf accuracy    <       0.00005652 Ry

     iteration #  4     ecut=    50.00 Ry     beta= 0.70
     CG style diagonalization
     ethr =  1.28E-07,  avg # of iterations =  3.7

     negative rho (up, down):  1.511E-02 0.000E+00

     total cpu time spent up to now is       27.8 secs

     total energy              =    -380.57164527 Ry
     estimated scf accuracy    <       0.00000613 Ry

     iteration #  5     ecut=    50.00 Ry     beta= 0.70
     CG style diagonalization
     ethr =  1.39E-08,  avg # of iterations =  4.2

     negative rho (up, down):  1.511E-02 0.000E+00

     total cpu time spent up to now is       28.7 secs

     total energy              =    -380.57164872 Ry
     estimated scf accuracy    <       0.00000057 Ry

     iteration #  6     ecut=    50.00 Ry     beta= 0.70
     CG style diagonalization
     ethr =  1.29E-09,  avg # of iterations =  4.6

     negative rho (up, down):  1.511E-02 0.000E+00

     total cpu time spent up to now is       29.6 secs

     total energy              =    -380.57164913 Ry
     estimated scf accuracy    <       0.00000029 Ry

     iteration #  7     ecut=    50.00 Ry     beta= 0.70
     CG style diagonalization
     ethr =  6.57E-10,  avg # of iterations =  4.0

     negative rho (up, down):  1.511E-02 0.000E+00

     total cpu time spent up to now is       30.4 secs

     total energy              =    -380.57164920 Ry
     estimated scf accuracy    <       0.00000007 Ry

     iteration #  8     ecut=    50.00 Ry     beta= 0.70
     CG style diagonalization
     ethr =  1.66E-10,  avg # of iterations =  4.5

     negative rho (up, down):  1.511E-02 0.000E+00

     total cpu time spent up to now is       31.3 secs

     total energy              =    -380.57164924 Ry
     estimated scf accuracy    <          3.7E-09 Ry

     iteration #  9     ecut=    50.00 Ry     beta= 0.70
     CG style diagonalization
     ethr =  8.50E-12,  avg # of iterations =  6.9

     negative rho (up, down):  1.511E-02 0.000E+00

     total cpu time spent up to now is       32.7 secs

     total energy              =    -380.57164926 Ry
     estimated scf accuracy    <          7.1E-10 Ry

     iteration # 10     ecut=    50.00 Ry     beta= 0.70
     CG style diagonalization
     ethr =  1.61E-12,  avg # of iterations =  5.3

     negative rho (up, down):  1.511E-02 0.000E+00

     total cpu time spent up to now is       33.8 secs

     End of self-consistent calculation

          k = 0.0000 0.0000 0.0000 (  2525 PWs)   bands (ev):

   -45.7866 -22.4681 -22.3583 -22.3583  -7.5142  -6.4306  -6.2205  -5.0283
    -5.0283  -4.9961  -4.8835  -4.7548   4.2052   6.3095   6.3095   6.6966
     8.1387   8.1387   8.4908   8.6632   8.9502   8.9502

          k = 0.0000 0.0000 0.2378 (  2517 PWs)   bands (ev):

   -45.7863 -22.4877 -22.3575 -22.3575  -7.3169  -6.3722  -6.1667  -5.0434
    -5.0434  -4.9948  -4.8752  -4.8255   3.4367   6.3588   6.3588   6.8241
     7.9227   7.9227   8.4058   8.7910   9.0500   9.0500

          k = 0.0000 0.0000-0.4756 (  2530 PWs)   bands (ev):

   -45.7860 -22.5072 -22.3567 -22.3567  -7.1000  -6.3080  -6.1227  -5.0584
    -5.0584  -4.9935  -4.9020  -4.8685   2.9252   6.1782   6.3889   6.3889
     7.7840   7.7840   8.3246   9.1192   9.1192  10.0038

          k = 0.0000 0.1667 0.0000 (  2525 PWs)   bands (ev):

   -45.7862 -22.4673 -22.3755 -22.3576  -7.3802  -6.4026  -6.1943  -5.0500
    -5.0270  -5.0087  -4.8834  -4.7454   3.7865   6.3518   6.4199   6.6999
     8.1223   8.1638   8.4752   8.5783   8.6225   8.9943

          k = 0.0000 0.1667 0.2378 (  2521 PWs)   bands (ev):

   -45.7860 -22.4868 -22.3747 -22.3568  -7.1985  -6.3602  -6.1352  -5.0470
    -5.0425  -5.0080  -4.8811  -4.7818   3.2339   6.1425   6.4771   6.9141
     7.6177   7.9174   8.2635   8.6589   8.7196   9.3630

          k = 0.0000 0.1667-0.4756 (  2516 PWs)   bands (ev):

   -45.7857 -22.5062 -22.3738 -22.3560  -7.0086  -6.3118  -6.0765  -5.0580
    -5.0413  -5.0072  -4.8878  -4.8160   2.8079   5.8309   6.5098   6.5986
     7.4434   7.7865   8.3425   8.7121   8.7982   9.9435

          k = 0.0000 0.3333 0.0000 (  2514 PWs)   bands (ev):

   -45.7856 -22.4658 -22.4099 -22.3561  -7.0879  -6.3434  -6.1571  -5.0821
    -5.0340  -5.0240  -4.8710  -4.7551   3.2157   5.9923   6.6670   6.7098
     7.8426   7.8858   8.2644   8.3436   8.7014   9.5938

          k = 0.0000 0.3333 0.2378 (  2507 PWs)   bands (ev):

   -45.7853 -22.4850 -22.4088 -22.3553  -6.9681  -6.3066  -6.0777  -5.0516
    -5.0407  -5.0340  -4.8702  -4.7271   2.8899   5.8615   6.5573   6.7896
     7.2926   7.7144   7.8583   8.3466   8.9036   9.6730

          k = 0.0000 0.3333-0.4756 (  2518 PWs)   bands (ev):

   -45.7851 -22.5041 -22.4078 -22.3545  -6.8788  -6.2443  -5.9723  -5.0570
    -5.0343  -5.0124  -4.9069  -4.6790   2.5987   5.5357   6.3398   6.8152
     7.1850   7.3862   7.6660   8.3911   9.2589   9.5437

          k = 0.0000-0.5000 0.0000 (  2488 PWs)   bands (ev):

   -45.7853 -22.4649 -22.4270 -22.3554  -6.9251  -6.2972  -6.1650  -5.0955
    -5.0464  -5.0226  -4.8336  -4.7969   3.0077   5.6459   6.9224   6.9829
     7.3693   7.4788   8.2638   8.2961   8.7346  10.3348

          k = 0.0000-0.5000 0.2378 (  2506 PWs)   bands (ev):

   -45.7850 -22.4840 -22.4259 -22.3546  -6.8674  -6.2276  -6.0770  -5.0625
    -5.0471  -5.0397  -4.8371  -4.7235   2.7504   5.6082   6.5780   6.8323
     7.1771   7.2837   7.9678   8.3080   8.9128   9.8356

          k = 0.0000-0.5000-0.4756 (  2516 PWs)   bands (ev):

   -45.7847 -22.5030 -22.4247 -22.3537  -6.8496  -6.1530  -5.9252  -5.0565
    -5.0477  -5.0218  -4.8894  -4.6235   2.5129   5.4048   6.0415   6.8982
     7.1109   7.3875   7.4041   8.3149   9.1447   9.6023

          k = 0.1667 0.1667 0.0000 (  2498 PWs)   bands (ev):

   -45.7859 -22.4666 -22.3750 -22.3746  -7.2494  -6.3734  -6.1883  -5.0551
    -5.0416  -5.0098  -4.8605  -4.7363   3.4931   6.3048   6.5259   6.7214
     7.6670   7.8432   8.4724   8.5728   8.8927   9.1840

          k = 0.1667 0.1667 0.2378 (  2513 PWs)   bands (ev):

   -45.7856 -22.4860 -22.3740 -22.3738  -7.0786  -6.3497  -6.1303  -5.0576
    -5.0365  -5.0028  -4.8530  -4.7503   3.1244   6.0917   6.1734   6.8565
     7.5227   7.5447   8.2951   8.7353   8.9631   9.3142

          k = 0.1667 0.1667-0.4756 (  2522 PWs)   bands (ev):

   -45.7854 -22.5053 -22.3731 -22.3730  -6.9069  -6.3257  -6.0628  -5.0691
    -5.0192  -4.9773  -4.8617  -4.7693   2.7859   5.8851   5.8877   6.6053
     7.4341   7.4744   8.2114   8.8051   9.0174   9.6529

          k = 0.1667 0.3333 0.0000 (  2515 PWs)   bands (ev):

   -45.7853 -22.4650 -22.4090 -22.3732  -6.9677  -6.3152  -6.1894  -5.0758
    -5.0316  -4.9939  -4.8323  -4.7446   3.0263   6.0025   6.5296   6.8351
     7.2011   7.7044   8.0658   8.6902   8.8808   9.6542

          k = 0.1667 0.3333 0.2378 (  2507 PWs)   bands (ev):

   -45.7850 -22.4842 -22.4080 -22.3724  -6.8449  -6.3092  -6.1243  -5.0549
    -5.0314  -4.9720  -4.8150  -4.7036   2.8962   5.8272   5.9910   6.4948
     6.9177   7.5709   8.3777   8.6639   9.0003   9.4004

          k = 0.1667 0.3333-0.4756 (  2514 PWs)   bands (ev):

   -45.7847 -22.5033 -22.4070 -22.3715  -6.7582  -6.2884  -6.0240  -5.0531
    -5.0095  -4.9332  -4.8264  -4.6535   2.7277   5.4795   5.9098   6.2297
     6.4444   7.4416   8.4470   8.7396   8.9268   9.4142

          k = 0.1667-0.5000 0.0000 (  2520 PWs)   bands (ev):

   -45.7850 -22.4641 -22.4261 -22.3725  -6.8127  -6.2713  -6.2147  -5.0782
    -5.0241  -4.9741  -4.8027  -4.7856   2.8395   5.6628   6.6527   6.8706
     7.2081   7.4790   7.8444   8.7719   8.8369   9.9665

          k = 0.1667-0.5000 0.2378 (  2512 PWs)   bands (ev):

   -45.7847 -22.4832 -22.4250 -22.3716  -6.7440  -6.2410  -6.1483  -5.0533
    -5.0185  -4.9537  -4.7898  -4.6986   2.7898   5.6133   5.9002   6.2619
     6.8689   7.7067   8.1752   8.6538   9.0153   9.3527

          k = 0.1667-0.5000-0.4756 (  2520 PWs)   bands (ev):

   -45.7844 -22.5022 -22.4239 -22.3708  -6.7286  -6.2120  -6.0093  -5.0481
    -4.9807  -4.9333  -4.8039  -4.5994   2.7005   5.3672   5.7739   5.8928
     6.3086   7.5587   8.2953   8.6062   8.6686   9.6134

          k = 0.3333 0.3333 0.0000 (  2522 PWs)   bands (ev):

   -45.7846 -22.4634 -22.4074 -22.4071  -6.7326  -6.2597  -6.2352  -5.0570
    -5.0142  -4.9219  -4.7597  -4.7466   2.6641   5.9561   6.1239   6.9104
     7.0903   7.1706   7.9210   8.4924   9.3832   9.3900

          k = 0.3333 0.3333 0.2378 (  2512 PWs)   bands (ev):

   -45.7844 -22.4825 -22.4064 -22.4062  -6.6012  -6.3072  -6.2071  -5.0209
    -5.0087  -4.8680  -4.7133  -4.6700   2.8437   5.5834   5.6543   5.9487
     6.6278   7.0644   8.3792   8.9643   8.9726   9.3964

          k = 0.3333 0.3333-0.4756 (  2502 PWs)   bands (ev):

   -45.7841 -22.5014 -22.4054 -22.4053  -6.5331  -6.3511  -6.1048  -5.0031
    -4.9850  -4.8107  -4.6653  -4.5963   3.0053   5.1972   5.2240   5.7055
     6.3588   6.5549   7.6558   9.3003   9.3738   9.4879

          k = 0.3333-0.5000 0.0000 (  2520 PWs)   bands (ev):

   -45.7843 -22.4625 -22.4242 -22.4063  -6.6283  -6.2464  -6.2248  -5.0497
    -4.9927  -4.8561  -4.7820  -4.7272   2.4949   5.6356   6.1609   6.7256
     7.2200   7.4219   7.5066   8.4842   9.0846   9.5767

          k = 0.3333-0.5000 0.2378 (  2514 PWs)   bands (ev):

   -45.7841 -22.4815 -22.4232 -22.4055  -6.4968  -6.2712  -6.2600  -5.0131
    -4.9831  -4.7832  -4.7017  -4.6483   2.7851   5.4830   5.5874   5.6787
     6.4128   7.1338   7.9218   8.9524   8.9734   9.5541

          k = 0.3333-0.5000-0.4756 (  2496 PWs)   bands (ev):

   -45.7838 -22.5004 -22.4222 -22.4046  -6.4831  -6.3141  -6.1397  -4.9875
    -4.9638  -4.7311  -4.6216  -4.5489   3.1489   4.9542   5.1197   5.4789
     6.1594   6.5522   6.8994   9.4041   9.5298   9.6373

          k =-0.5000-0.5000 0.0000 (  2496 PWs)   bands (ev):

   -45.7840 -22.4615 -22.4232 -22.4232  -6.5840  -6.2045  -6.2045  -5.0400
    -4.9524  -4.7951  -4.7951  -4.6930   2.3225   5.4766   6.0178   6.9329
     6.9329   7.5303   7.5303   8.2386   8.6118   9.8351

          k =-0.5000-0.5000 0.2378 (  2508 PWs)   bands (ev):

   -45.7837 -22.4806 -22.4223 -22.4223  -6.3915  -6.2874  -6.2874  -5.0021
    -4.9506  -4.6629  -4.6595  -4.6595   2.7281   5.4327   5.5946   5.5946
     6.0241   7.0737   7.2868   8.9826   8.9826   9.8197

          k =-0.5000-0.5000-0.4756 (  2504 PWs)   bands (ev):

   -45.7835 -22.4995 -22.4214 -22.4214  -6.3594  -6.3594  -6.1940  -4.9641
    -4.9488  -4.6232  -4.5328  -4.5328   3.3792   4.9668   4.9668   5.3141
     5.9320   6.0304   6.2370   9.6497   9.6497   9.8044

     highest occupied level (ev):    10.3348

!    total energy              =    -380.57164926 Ry
     estimated scf accuracy    <          9.5E-11 Ry

     The total energy is the sum of the following terms:
     one-electron contribution =     -84.63978785 Ry
     hartree contribution      =      71.46573714 Ry
     xc contribution           =    -102.56424729 Ry
     ewald contribution        =    -264.83335125 Ry

     convergence has been achieved in  10 iterations

     negative rho (up, down):  1.511E-02 0.000E+00

     Forces acting on atoms (cartesian axes, Ry/au):

     atom    1 type  1   force =     0.00000000    0.00000000   -0.00854558
     atom    2 type  2   force =     0.00000000    0.00000000    0.00274676
     atom    3 type  3   force =     0.00000000    0.00000000    0.00125467
     atom    4 type  3   force =     0.00000000    0.00000000    0.00227207
     atom    5 type  3   force =     0.00000000    0.00000000    0.00227207

     Total force =     0.009616     Total SCF correction =     0.000013


     Computing stress (Cartesian axis) and pressure


     negative rho (up, down):  1.511E-02 0.000E+00
          total   stress  (Ry/bohr**3)                   (kbar)     P=      -53.69
  -0.00040576   0.00000000   0.00000000          -59.69        0.00        0.00
   0.00000000  -0.00040576   0.00000000            0.00      -59.69        0.00
   0.00000000   0.00000000  -0.00028337            0.00        0.00      -41.69

     Energy error            =      3.0E-04 Ry
     Gradient error          =      8.5E-03 Ry/Bohr

     number of scf cycles    =   3
     number of bfgs steps    =   2

     energy             old  =    -380.5713493878 Ry
     energy             new  =    -380.5716492585 Ry

     CASE: energy            _new < energy            _old

     new trust radius        =       0.0190058384 bohr
     new conv_thr            =       0.0000000003 Ry


ATOMIC_POSITIONS (crystal)
Pb               0.0000000000        0.0000000000        1.0009203526
Ti               0.5000000000        0.5000000000        0.5372203875
O                0.5000000000        0.5000000000        0.1058204067
O                0.5000000000        0.0000000000        0.6116615706
O                0.0000000000        0.5000000000        0.6116615706



     Writing config-only to output data dir ./pto_50.save/ :
     XML data file
     NEW-OLD atomic charge density approx. for the potential

     Check: negative core charge=   -0.000004

     negative rho (up, down):  1.493E-02 0.000E+00

     total cpu time spent up to now is       34.9 secs

     Self-consistent Calculation

     iteration #  1     ecut=    50.00 Ry     beta= 0.70
     CG style diagonalization
     ethr =  1.00E-06,  avg # of iterations =  5.6

     negative rho (up, down):  1.490E-02 0.000E+00

     total cpu time spent up to now is       36.2 secs

     total energy              =    -380.57175580 Ry
     estimated scf accuracy    <       0.00005559 Ry

     iteration #  2     ecut=    50.00 Ry     beta= 0.70
     CG style diagonalization
     ethr =  1.26E-07,  avg # of iterations =  4.8

     negative rho (up, down):  1.490E-02 0.000E+00

     total cpu time spent up to now is       37.1 secs

     total energy              =    -380.57175984 Ry
     estimated scf accuracy    <       0.00013446 Ry

     iteration #  3     ecut=    50.00 Ry     beta= 0.70
     CG style diagonalization
     ethr =  1.26E-07,  avg # of iterations =  4.2

     negative rho (up, down):  1.489E-02 0.000E+00

     total cpu time spent up to now is       38.0 secs

     total energy              =    -380.57178839 Ry
     estimated scf accuracy    <       0.00001666 Ry

     iteration #  4     ecut=    50.00 Ry     beta= 0.70
     CG style diagonalization
     ethr =  3.79E-08,  avg # of iterations =  3.6

     negative rho (up, down):  1.489E-02 0.000E+00

     total cpu time spent up to now is       38.7 secs

     total energy              =    -380.57179186 Ry
     estimated scf accuracy    <       0.00000201 Ry

     iteration #  5     ecut=    50.00 Ry     beta= 0.70
     CG style diagonalization
     ethr =  4.57E-09,  avg # of iterations =  4.1

     negative rho (up, down):  1.489E-02 0.000E+00

     total cpu time spent up to now is       39.5 secs

     total energy              =    -380.57179290 Ry
     estimated scf accuracy    <       0.00000008 Ry

     iteration #  6     ecut=    50.00 Ry     beta= 0.70
     CG style diagonalization
     c_bands:  1 eigenvalues not converged
     ethr =  1.91E-10,  avg # of iterations =  6.1

     negative rho (up, down):  1.489E-02 0.000E+00

     total cpu time spent up to now is       40.7 secs

     total energy              =    -380.57179307 Ry
     estimated scf accuracy    <       0.00000015 Ry

     iteration #  7     ecut=    50.00 Ry     beta= 0.70
     CG style diagonalization
     ethr =  1.91E-10,  avg # of iterations =  3.9

     negative rho (up, down):  1.489E-02 0.000E+00

     total cpu time spent up to now is       41.5 secs

     total energy              =    -380.57179308 Ry
     estimated scf accuracy    <       0.00000003 Ry

     iteration #  8     ecut=    50.00 Ry     beta= 0.70
     CG style diagonalization
     ethr =  7.63E-11,  avg # of iterations =  4.0

     negative rho (up, down):  1.489E-02 0.000E+00

     total cpu time spent up to now is       42.3 secs

     total energy              =    -380.57179309 Ry
     estimated scf accuracy    <          3.2E-09 Ry

     iteration #  9     ecut=    50.00 Ry     beta= 0.70
     CG style diagonalization
     ethr =  7.18E-12,  avg # of iterations =  5.7

     negative rho (up, down):  1.489E-02 0.000E+00

     total cpu time spent up to now is       43.5 secs

     End of self-consistent calculation

          k = 0.0000 0.0000 0.0000 (  2525 PWs)   bands (ev):

   -45.7733 -22.4659 -22.3455 -22.3455  -7.5245  -6.4451  -6.2213  -5.0224
    -5.0224  -4.9890  -4.8832  -4.7404   4.2018   6.3002   6.3002   6.7302
     8.1096   8.1096   8.4843   8.6345   8.9389   8.9389

          k = 0.0000 0.0000 0.2378 (  2517 PWs)   bands (ev):

   -45.7731 -22.4855 -22.3447 -22.3447  -7.3286  -6.3879  -6.1670  -5.0374
    -5.0374  -4.9878  -4.8738  -4.8097   3.4358   6.3446   6.3446   6.8411
     7.9041   7.9041   8.3991   8.7825   9.0370   9.0370

          k = 0.0000 0.0000-0.4756 (  2530 PWs)   bands (ev):

   -45.7728 -22.5050 -22.3439 -22.3439  -7.1139  -6.3254  -6.1218  -5.0524
    -5.0524  -4.9865  -4.8844  -4.8656   2.9224   6.1908   6.3688   6.3688
     7.7750   7.7750   8.3179   9.1050   9.1050  10.0019

          k = 0.0000 0.1667 0.0000 (  2525 PWs)   bands (ev):

   -45.7730 -22.4651 -22.3628 -22.3447  -7.3906  -6.4177  -6.1970  -5.0442
    -5.0210  -5.0017  -4.8803  -4.7307   3.7857   6.3444   6.4104   6.7109
     8.1115   8.1343   8.4651   8.5680   8.6027   8.9822

          k = 0.0000 0.1667 0.2378 (  2521 PWs)   bands (ev):

   -45.7727 -22.4846 -22.3619 -22.3439  -7.2104  -6.3760  -6.1371  -5.0402
    -5.0365  -5.0009  -4.8777  -4.7666   3.2347   6.1304   6.4629   6.9218
     7.6056   7.8982   8.2526   8.6469   8.7077   9.3598

          k = 0.0000 0.1667-0.4756 (  2516 PWs)   bands (ev):

   -45.7725 -22.5040 -22.3610 -22.3431  -7.0225  -6.3287  -6.0770  -5.0519
    -5.0336  -5.0001  -4.8831  -4.8010   2.8077   5.8213   6.4899   6.6006
     7.4359   7.7760   8.3273   8.7002   8.7860   9.9483

          k = 0.0000 0.3333 0.0000 (  2514 PWs)   bands (ev):

   -45.7724 -22.4636 -22.3972 -22.3433  -7.0986  -6.3594  -6.1643  -5.0753
    -5.0269  -5.0180  -4.8620  -4.7409   3.2171   5.9857   6.6642   6.6999
     7.8319   7.8794   8.2300   8.3348   8.6795   9.5979

          k = 0.0000 0.3333 0.2378 (  2507 PWs)   bands (ev):

   -45.7721 -22.4828 -22.3961 -22.3425  -6.9803  -6.3228  -6.0832  -5.0441
    -5.0347  -5.0269  -4.8626  -4.7125   2.8933   5.8506   6.5538   6.7759
     7.2777   7.6988   7.8554   8.3291   8.8900   9.6767

          k = 0.0000 0.3333-0.4756 (  2518 PWs)   bands (ev):

   -45.7718 -22.5019 -22.3951 -22.3417  -6.8921  -6.2619  -5.9758  -5.0510
    -5.0272  -5.0041  -4.8983  -4.6657   2.6031   5.5207   6.3408   6.7963
     7.1679   7.3841   7.6524   8.3794   9.2447   9.5525

          k = 0.0000-0.5000 0.0000 (  2488 PWs)   bands (ev):

   -45.7720 -22.4627 -22.4144 -22.3426  -6.9361  -6.3128  -6.1755  -5.0878
    -5.0393  -5.0166  -4.8166  -4.7881   3.0096   5.6426   6.9090   6.9710
     7.3663   7.4750   8.2535   8.2597   8.7118  10.3367

          k = 0.0000-0.5000 0.2378 (  2506 PWs)   bands (ev):

   -45.7718 -22.4818 -22.4132 -22.3418  -6.8798  -6.2448  -6.0837  -5.0544
    -5.0399  -5.0336  -4.8274  -4.7091   2.7550   5.6024   6.5706   6.8139
     7.1640   7.2705   7.9634   8.2860   8.9020   9.8396

          k = 0.0000-0.5000-0.4756 (  2516 PWs)   bands (ev):

   -45.7715 -22.5008 -22.4120 -22.3409  -6.8623  -6.1723  -5.9298  -5.0505
    -5.0406  -5.0132  -4.8782  -4.6112   2.5196   5.3923   6.0372   6.8736
     7.0931   7.3730   7.4093   8.3015   9.1548   9.5883

          k = 0.1667 0.1667 0.0000 (  2498 PWs)   bands (ev):

   -45.7727 -22.4644 -22.3622 -22.3618  -7.2599  -6.3890  -6.1924  -5.0490
    -5.0354  -5.0028  -4.8557  -4.7213   3.4914   6.2987   6.5200   6.7223
     7.6454   7.8314   8.4582   8.5674   8.8805   9.1681

          k = 0.1667 0.1667 0.2378 (  2513 PWs)   bands (ev):

   -45.7724 -22.4838 -22.3613 -22.3610  -7.0906  -6.3657  -6.1330  -5.0512
    -5.0295  -4.9960  -4.8486  -4.7353   3.1245   6.0811   6.1621   6.8562
     7.5142   7.5338   8.2763   8.7238   8.9499   9.3153

          k = 0.1667 0.1667-0.4756 (  2522 PWs)   bands (ev):

   -45.7722 -22.5031 -22.3603 -22.3602  -6.9210  -6.3421  -6.0637  -5.0626
    -5.0120  -4.9705  -4.8571  -4.7539   2.7858   5.8721   5.8798   6.6021
     7.4151   7.4721   8.1995   8.7925   9.0031   9.6599

          k = 0.1667 0.3333 0.0000 (  2515 PWs)   bands (ev):

   -45.7721 -22.4628 -22.3963 -22.3604  -6.9780  -6.3319  -6.1969  -5.0687
    -5.0251  -4.9869  -4.8239  -4.7298   3.0234   5.9970   6.5209   6.8332
     7.1899   7.6836   8.0614   8.6777   8.8655   9.6513

          k = 0.1667 0.3333 0.2378 (  2507 PWs)   bands (ev):

   -45.7718 -22.4820 -22.3953 -22.3596  -6.8571  -6.3253  -6.1291  -5.0479
    -5.0244  -4.9659  -4.8074  -4.6893   2.8956   5.8172   5.9792   6.4906
     6.9113   7.5663   8.3613   8.6496   8.9869   9.4036

          k = 0.1667 0.3333-0.4756 (  2514 PWs)   bands (ev):

   -45.7715 -22.5011 -22.3943 -22.3587  -6.7720  -6.3049  -6.0256  -5.0467
    -5.0025  -4.9278  -4.8180  -4.6405   2.7288   5.4662   5.8954   6.2284
     6.4378   7.4384   8.4319   8.7256   8.9330   9.4033

          k = 0.1667-0.5000 0.0000 (  2520 PWs)   bands (ev):

   -45.7717 -22.4619 -22.4134 -22.3597  -6.8228  -6.2878  -6.2248  -5.0707
    -5.0175  -4.9677  -4.7874  -4.7752   2.8362   5.6597   6.6370   6.8657
     7.2051   7.4768   7.8185   8.7584   8.8210   9.9706

          k = 0.1667-0.5000 0.2378 (  2512 PWs)   bands (ev):

   -45.7715 -22.4810 -22.4123 -22.3588  -6.7565  -6.2581  -6.1531  -5.0462
    -5.0115  -4.9488  -4.7793  -4.6850   2.7891   5.6078   5.8866   6.2539
     6.8642   7.7004   8.1638   8.6356   9.0050   9.3565

          k = 0.1667-0.5000-0.4756 (  2520 PWs)   bands (ev):

   -45.7712 -22.5000 -22.4112 -22.3580  -6.7418  -6.2295  -6.0108  -5.0417
    -4.9734  -4.9296  -4.7928  -4.5877   2.7027   5.3543   5.7539   5.8897
     6.3073   7.5557   8.3003   8.5910   8.6626   9.5989

          k = 0.3333 0.3333 0.0000 (  2522 PWs)   bands (ev):

   -45.7714 -22.4611 -22.3947 -22.3944  -6.7399  -6.2780  -6.2459  -5.0496
    -5.0071  -4.9132  -4.7529  -4.7310   2.6541   5.9484   6.1244   6.8992
     7.0871   7.1569   7.9195   8.4858   9.3678   9.3937

          k = 0.3333 0.3333 0.2378 (  2512 PWs)   bands (ev):

   -45.7712 -22.4802 -22.3937 -22.3935  -6.6124  -6.3237  -6.2117  -5.0133
    -5.0021  -4.8626  -4.7061  -4.6561   2.8335   5.5740   5.6496   5.9426
     6.6292   7.0636   8.3829   8.9524   8.9631   9.3810

          k = 0.3333 0.3333-0.4756 (  2502 PWs)   bands (ev):

   -45.7709 -22.4992 -22.3927 -22.3926  -6.5475  -6.3661  -6.1038  -4.9967
    -4.9776  -4.8084  -4.6578  -4.5840   2.9961   5.1927   5.2081   5.7022
     6.3578   6.5585   7.6728   9.2844   9.3588   9.4738

          k = 0.3333-0.5000 0.0000 (  2520 PWs)   bands (ev):

   -45.7711 -22.4602 -22.4115 -22.3936  -6.6321  -6.2616  -6.2434  -5.0422
    -4.9854  -4.8454  -4.7681  -4.7198   2.4817   5.6311   6.1616   6.7164
     7.2076   7.4171   7.5022   8.4800   9.0942   9.5622

          k = 0.3333-0.5000 0.2378 (  2514 PWs)   bands (ev):

   -45.7708 -22.4793 -22.4105 -22.3927  -6.5068  -6.2880  -6.2653  -5.0056
    -4.9763  -4.7798  -4.6896  -4.6379   2.7699   5.4780   5.5819   5.6755
     6.4131   7.1323   7.9368   8.9424   8.9591   9.5389

          k = 0.3333-0.5000-0.4756 (  2496 PWs)   bands (ev):

   -45.7706 -22.4982 -22.4095 -22.3919  -6.4973  -6.3294  -6.1375  -4.9807
    -4.9566  -4.7315  -4.6112  -4.5388   3.1314   4.9450   5.1138   5.4780
     6.1588   6.5526   6.9262   9.3894   9.5142   9.6240

          k =-0.5000-0.5000 0.0000 (  2496 PWs)   bands (ev):

   -45.7708 -22.4593 -22.4106 -22.4106  -6.5830  -6.2243  -6.2243  -5.0325
    -4.9455  -4.7786  -4.7786  -4.6929   2.3048   5.4713   6.0221   6.9261
     6.9261   7.5232   7.5232   8.2382   8.6257   9.8198

          k =-0.5000-0.5000 0.2378 (  2508 PWs)   bands (ev):

   -45.7705 -22.4784 -22.4096 -22.4096  -6.3894  -6.3041  -6.3041  -4.9946
    -4.9437  -4.6642  -4.6465  -4.6465   2.7049   5.4286   5.5921   5.5921
     6.0284   7.0721   7.3093   8.9711   8.9711   9.8045

          k =-0.5000-0.5000-0.4756 (  2504 PWs)   bands (ev):

   -45.7703 -22.4973 -22.4087 -22.4087  -6.3739  -6.3739  -6.1905  -4.9566
    -4.9419  -4.6262  -4.5226  -4.5226   3.3393   4.9662   4.9662   5.3133
     5.9730   6.0348   6.2324   9.6372   9.6372   9.7894

     highest occupied level (ev):    10.3367

!    total energy              =    -380.57179310 Ry
     estimated scf accuracy    <          3.0E-10 Ry

     The total energy is the sum of the following terms:
     one-electron contribution =     -84.95554069 Ry
     hartree contribution      =      71.62707212 Ry
     xc contribution           =    -102.57261712 Ry
     ewald contribution        =    -264.67070741 Ry

     convergence has been achieved in   9 iterations

     negative rho (up, down):  1.489E-02 0.000E+00

     Forces acting on atoms (cartesian axes, Ry/au):

     atom    1 type  1   force =     0.00000000    0.00000000   -0.00713354
     atom    2 type  2   force =     0.00000000    0.00000000    0.00538939
     atom    3 type  3   force =     0.00000000    0.00000000   -0.00359273
     atom    4 type  3   force =     0.00000000    0.00000000    0.00266844
     atom    5 type  3   force =     0.00000000    0.00000000    0.00266844

     Total force =     0.010348     Total SCF correction =     0.000024


     Computing stress (Cartesian axis) and pressure


     negative rho (up, down):  1.489E-02 0.000E+00
          total   stress  (Ry/bohr**3)                   (kbar)     P=      -49.36
  -0.00038958   0.00000000   0.00000000          -57.31        0.00        0.00
   0.00000000  -0.00038958   0.00000000            0.00      -57.31        0.00
   0.00000000   0.00000000  -0.00022748            0.00        0.00      -33.46

     Energy error            =      1.4E-04 Ry
     Gradient error          =      7.1E-03 Ry/Bohr

     number of scf cycles    =   4
     number of bfgs steps    =   3

     energy             old  =    -380.5716492585 Ry
     energy             new  =    -380.5717930983 Ry

     CASE: energy            _new < energy            _old

     new trust radius        =       0.0209064222 bohr
     new conv_thr            =       0.0000000001 Ry


ATOMIC_POSITIONS (crystal)
Pb               0.0000000000        0.0000000000        0.9982220106
Ti               0.5000000000        0.5000000000        0.5374972314
O                0.5000000000        0.5000000000        0.1068789173
O                0.5000000000        0.0000000000        0.6123430643
O                0.0000000000        0.5000000000        0.6123430643



     Writing config-only to output data dir ./pto_50.save/ :
     XML data file
     NEW-OLD atomic charge density approx. for the potential

     Check: negative core charge=   -0.000004

     negative rho (up, down):  1.513E-02 0.000E+00

     total cpu time spent up to now is       44.6 secs

     Self-consistent Calculation

     iteration #  1     ecut=    50.00 Ry     beta= 0.70
     CG style diagonalization
     ethr =  1.00E-06,  avg # of iterations =  5.4

     Threshold (ethr) on eigenvalues was too large:
     Diagonalizing with lowered threshold

     CG style diagonalization
     c_bands:  1 eigenvalues not converged
     c_bands:  1 eigenvalues not converged
     c_bands:  1 eigenvalues not converged
     c_bands:  1 eigenvalues not converged
     c_bands:  1 eigenvalues not converged
     c_bands:  2 eigenvalues not converged
     c_bands:  1 eigenvalues not converged
     ethr =  4.33E-08,  avg # of iterations =  5.9

     negative rho (up, down):  1.510E-02 0.000E+00

     total cpu time spent up to now is       47.1 secs

     total energy              =    -380.57191510 Ry
     estimated scf accuracy    <       0.00002046 Ry

     iteration #  2     ecut=    50.00 Ry     beta= 0.70
     CG style diagonalization
     ethr =  4.65E-08,  avg # of iterations =  4.2

     negative rho (up, down):  1.509E-02 0.000E+00

     total cpu time spent up to now is       47.9 secs

     total energy              =    -380.57191471 Ry
     estimated scf accuracy    <       0.00001564 Ry

     iteration #  3     ecut=    50.00 Ry     beta= 0.70
     CG style diagonalization
     ethr =  3.55E-08,  avg # of iterations =  4.1

     negative rho (up, down):  1.509E-02 0.000E+00

     total cpu time spent up to now is       48.8 secs

     total energy              =    -380.57191881 Ry
     estimated scf accuracy    <       0.00001110 Ry

     iteration #  4     ecut=    50.00 Ry     beta= 0.70
     CG style diagonalization
     ethr =  2.52E-08,  avg # of iterations =  3.5

     negative rho (up, down):  1.508E-02 0.000E+00

     total cpu time spent up to now is       49.5 secs

     total energy              =    -380.57192054 Ry
     estimated scf accuracy    <       0.00000012 Ry

     iteration #  5     ecut=    50.00 Ry     beta= 0.70
     CG style diagonalization
     ethr =  2.66E-10,  avg # of iterations =  5.9

     negative rho (up, down):  1.508E-02 0.000E+00

     total cpu time spent up to now is       50.6 secs

     total energy              =    -380.57192082 Ry
     estimated scf accuracy    <       0.00000024 Ry

     iteration #  6     ecut=    50.00 Ry     beta= 0.70
     CG style diagonalization
     ethr =  2.66E-10,  avg # of iterations =  3.9

     negative rho (up, down):  1.508E-02 0.000E+00

     total cpu time spent up to now is       51.4 secs

     total energy              =    -380.57192085 Ry
     estimated scf accuracy    <       0.00000004 Ry

     iteration #  7     ecut=    50.00 Ry     beta= 0.70
     CG style diagonalization
     ethr =  8.38E-11,  avg # of iterations =  3.9

     negative rho (up, down):  1.508E-02 0.000E+00

     total cpu time spent up to now is       52.2 secs

     total energy              =    -380.57192085 Ry
     estimated scf accuracy    <       0.00000001 Ry

     iteration #  8     ecut=    50.00 Ry     beta= 0.70
     CG style diagonalization
     ethr =  2.57E-11,  avg # of iterations =  4.3

     negative rho (up, down):  1.508E-02 0.000E+00

     total cpu time spent up to now is       53.1 secs

     total energy              =    -380.57192086 Ry
     estimated scf accuracy    <          7.2E-10 Ry

     iteration #  9     ecut=    50.00 Ry     beta= 0.70
     CG style diagonalization
     ethr =  1.63E-12,  avg # of iterations =  6.8

     negative rho (up, down):  1.508E-02 0.000E+00

     total cpu time spent up to now is       54.4 secs

     End of self-consistent calculation

          k = 0.0000 0.0000 0.0000 (  2525 PWs)   bands (ev):

   -45.7724 -22.4679 -22.3454 -22.3454  -7.5396  -6.4666  -6.2179  -5.0135
    -5.0135  -4.9779  -4.8796  -4.7223   4.2019   6.2861   6.2861   6.7605
     8.1016   8.1016   8.4748   8.6223   8.9200   8.9200

          k = 0.0000 0.0000 0.2378 (  2517 PWs)   bands (ev):

   -45.7721 -22.4876 -22.3447 -22.3447  -7.3467  -6.4112  -6.1619  -5.0285
    -5.0285  -4.9766  -4.8687  -4.7899   3.4413   6.3286   6.3286   6.8565
     7.8990   7.8990   8.3897   8.7794   9.0173   9.0173

          k = 0.0000 0.0000-0.4756 (  2530 PWs)   bands (ev):

   -45.7719 -22.5071 -22.3439 -22.3439  -7.1364  -6.3508  -6.1137  -5.0435
    -5.0435  -4.9753  -4.8623  -4.8588   2.9286   6.2014   6.3509   6.3509
     7.7728   7.7728   8.3085   9.0839   9.0839   9.9980

          k = 0.0000 0.1667 0.0000 (  2525 PWs)   bands (ev):

   -45.7721 -22.4672 -22.3628 -22.3447  -7.4057  -6.4397  -6.1956  -5.0353
    -5.0120  -4.9905  -4.8739  -4.7123   3.7870   6.3332   6.3958   6.7209
     8.1128   8.1261   8.4529   8.5504   8.5889   8.9741

          k = 0.0000 0.1667 0.2378 (  2521 PWs)   bands (ev):

   -45.7718 -22.4867 -22.3619 -22.3439  -7.2284  -6.3991  -6.1337  -5.0302
    -5.0276  -4.9897  -4.8709  -4.7476   3.2403   6.1179   6.4466   6.9269
     7.6005   7.8915   8.2396   8.6374   8.6904   9.3565

          k = 0.0000 0.1667-0.4756 (  2516 PWs)   bands (ev):

   -45.7715 -22.5061 -22.3610 -22.3431  -7.0447  -6.3532  -6.0704  -5.0430
    -5.0226  -4.9889  -4.8747  -4.7820   2.8146   5.8139   6.4719   6.5987
     7.4319   7.7716   8.3046   8.6916   8.7677   9.9518

          k = 0.0000 0.3333 0.0000 (  2514 PWs)   bands (ev):

   -45.7714 -22.4656 -22.3973 -22.3433  -7.1137  -6.3820  -6.1677  -5.0653
    -5.0157  -5.0091  -4.8498  -4.7229   3.2197   5.9736   6.6629   6.6837
     7.8205   7.8686   8.2156   8.3218   8.6672   9.6086

          k = 0.0000 0.3333 0.2378 (  2507 PWs)   bands (ev):

   -45.7712 -22.4849 -22.3962 -22.3425  -6.9987  -6.3454  -6.0834  -5.0333
    -5.0257  -5.0157  -4.8515  -4.6943   2.8995   5.8372   6.5496   6.7590
     7.2615   7.6862   7.8520   8.3172   8.8794   9.6842

          k = 0.0000 0.3333-0.4756 (  2518 PWs)   bands (ev):

   -45.7709 -22.5040 -22.3951 -22.3416  -6.9129  -6.2866  -5.9721  -5.0420
    -5.0160  -4.9923  -4.8859  -4.6495   2.6116   5.5088   6.3370   6.7794
     7.1471   7.3770   7.6390   8.3679   9.2417   9.5593

          k = 0.0000-0.5000 0.0000 (  2488 PWs)   bands (ev):

   -45.7711 -22.4647 -22.4145 -22.3426  -6.9516  -6.3350  -6.1819  -5.0769
    -5.0280  -5.0077  -4.7957  -4.7761   3.0129   5.6315   6.9017   6.9512
     7.3569   7.4669   8.2394   8.2452   8.6986  10.3450

          k = 0.0000-0.5000 0.2378 (  2506 PWs)   bands (ev):

   -45.7708 -22.4839 -22.4133 -22.3417  -6.8986  -6.2689  -6.0839  -5.0430
    -5.0287  -5.0247  -4.8141  -4.6914   2.7618   5.5905   6.5634   6.7952
     7.1424   7.2605   7.9577   8.2753   8.8918   9.8514

          k = 0.0000-0.5000-0.4756 (  2516 PWs)   bands (ev):

   -45.7706 -22.5029 -22.4121 -22.3409  -6.8822  -6.1987  -5.9267  -5.0415
    -5.0294  -5.0014  -4.8632  -4.5961   2.5293   5.3800   6.0302   6.8444
     7.0824   7.3492   7.4087   8.2931   9.1726   9.5790

          k = 0.1667 0.1667 0.0000 (  2498 PWs)   bands (ev):

   -45.7718 -22.4664 -22.3622 -22.3618  -7.2746  -6.4118  -6.1926  -5.0398
    -5.0261  -4.9919  -4.8475  -4.7027   3.4906   6.2868   6.5102   6.7246
     7.6398   7.8174   8.4550   8.5586   8.8615   9.1660

          k = 0.1667 0.1667 0.2378 (  2513 PWs)   bands (ev):

   -45.7715 -22.4858 -22.3613 -22.3610  -7.1086  -6.3889  -6.1305  -5.0415
    -5.0192  -4.9855  -4.8406  -4.7167   3.1281   6.0700   6.1495   6.8550
     7.5104   7.5203   8.2691   8.7102   8.9329   9.3184

          k = 0.1667 0.1667-0.4756 (  2522 PWs)   bands (ev):

   -45.7712 -22.5051 -22.3603 -22.3602  -6.9432  -6.3659  -6.0573  -5.0527
    -5.0010  -4.9608  -4.8487  -4.7350   2.7916   5.8619   5.8731   6.5933
     7.3943   7.4688   8.1963   8.7774   8.9861   9.6664

          k = 0.1667 0.3333 0.0000 (  2515 PWs)   bands (ev):

   -45.7711 -22.4648 -22.3964 -22.3605  -6.9918  -6.3553  -6.2014  -5.0584
    -5.0155  -4.9759  -4.8118  -4.7113   3.0202   5.9852   6.5118   6.8289
     7.1760   7.6805   8.0534   8.6677   8.8485   9.6572

          k = 0.1667 0.3333 0.2378 (  2507 PWs)   bands (ev):

   -45.7709 -22.4840 -22.3953 -22.3596  -6.8750  -6.3479  -6.1288  -5.0376
    -5.0142  -4.9559  -4.7962  -4.6716   2.8964   5.8054   5.9662   6.4833
     6.9055   7.5622   8.3481   8.6368   8.9745   9.4107

          k = 0.1667 0.3333-0.4756 (  2514 PWs)   bands (ev):

   -45.7706 -22.5031 -22.3943 -22.3587  -6.7930  -6.3281  -6.0202  -5.0369
    -4.9919  -4.9186  -4.8059  -4.6245   2.7331   5.4562   5.8777   6.2255
     6.4259   7.4312   8.4276   8.7053   8.9422   9.3957

          k = 0.1667-0.5000 0.0000 (  2520 PWs)   bands (ev):

   -45.7708 -22.4639 -22.4135 -22.3597  -6.8361  -6.3110  -6.2322  -5.0601
    -5.0078  -4.9571  -4.7680  -4.7615   2.8323   5.6490   6.6267   6.8535
     7.1968   7.4706   7.8140   8.7410   8.8098   9.9792

          k = 0.1667-0.5000 0.2378 (  2512 PWs)   bands (ev):

   -45.7705 -22.4830 -22.4124 -22.3588  -6.7748  -6.2818  -6.1521  -5.0358
    -5.0013  -4.9395  -4.7655  -4.6681   2.7890   5.5964   5.8712   6.2464
     6.8593   7.6957   8.1493   8.6245   8.9920   9.3683

          k = 0.1667-0.5000-0.4756 (  2520 PWs)   bands (ev):

   -45.7703 -22.5020 -22.4113 -22.3580  -6.7618  -6.2537  -6.0052  -5.0319
    -4.9631  -4.9212  -4.7783  -4.5731   2.7067   5.3434   5.7281   5.8832
     6.3053   7.5476   8.3082   8.5839   8.6537   9.5899

          k = 0.3333 0.3333 0.0000 (  2522 PWs)   bands (ev):

   -45.7705 -22.4632 -22.3947 -22.3944  -6.7480  -6.3032  -6.2562  -5.0391
    -4.9964  -4.9008  -4.7415  -4.7119   2.6414   5.9359   6.1157   6.8958
     7.0802   7.1610   7.9080   8.4836   9.3461   9.4034

          k = 0.3333 0.3333 0.2378 (  2512 PWs)   bands (ev):

   -45.7702 -22.4823 -22.3938 -22.3935  -6.6279  -6.3467  -6.2120  -5.0027
    -4.9918  -4.8532  -4.6949  -4.6392   2.8213   5.5656   5.6457   5.9316
     6.6266   7.0639   8.3910   8.9423   8.9606   9.3600

          k = 0.3333 0.3333-0.4756 (  2502 PWs)   bands (ev):

   -45.7699 -22.5013 -22.3928 -22.3926  -6.5686  -6.3872  -6.0961  -4.9867
    -4.9670  -4.8017  -4.6469  -4.5690   2.9864   5.1892   5.1915   5.6960
     6.3556   6.5541   7.6969   9.2756   9.3365   9.4649

          k = 0.3333-0.5000 0.0000 (  2520 PWs)   bands (ev):

   -45.7702 -22.4623 -22.4116 -22.3937  -6.6336  -6.2795  -6.2688  -5.0316
    -4.9746  -4.8313  -4.7508  -4.7070   2.4649   5.6199   6.1527   6.7183
     7.2128   7.4059   7.4922   8.4774   9.1066   9.5407

          k = 0.3333-0.5000 0.2378 (  2514 PWs)   bands (ev):

   -45.7699 -22.4813 -22.4106 -22.3928  -6.5204  -6.3110  -6.2669  -4.9950
    -4.9658  -4.7720  -4.6746  -4.6236   2.7510   5.4754   5.5720   5.6717
     6.4081   7.1328   7.9547   8.9367   8.9501   9.5171

          k = 0.3333-0.5000-0.4756 (  2496 PWs)   bands (ev):

   -45.7696 -22.5003 -22.4096 -22.3919  -6.5174  -6.3506  -6.1289  -4.9703
    -4.9461  -4.7264  -4.5984  -4.5260   3.1102   4.9347   5.1124   5.4710
     6.1541   6.5483   6.9603   9.3814   9.4911   9.6166

          k =-0.5000-0.5000 0.0000 (  2496 PWs)   bands (ev):

   -45.7698 -22.4614 -22.4106 -22.4106  -6.5756  -6.2507  -6.2507  -5.0219
    -4.9347  -4.7587  -4.7587  -4.6874   2.2823   5.4598   6.0154   6.9347
     6.9347   7.5092   7.5092   8.2407   8.6388   9.7969

          k =-0.5000-0.5000 0.2378 (  2508 PWs)   bands (ev):

   -45.7696 -22.4804 -22.4097 -22.4097  -6.3810  -6.3269  -6.3269  -4.9840
    -4.9329  -4.6597  -4.6309  -4.6309   2.6759   5.4181   5.5949   5.5949
     6.0217   7.0724   7.3343   8.9639   8.9639   9.7817

          k =-0.5000-0.5000-0.4756 (  2504 PWs)   bands (ev):

   -45.7693 -22.4993 -22.4088 -22.4088  -6.3941  -6.3941  -6.1808  -4.9460
    -4.9311  -4.6230  -4.5102  -4.5102   3.2906   4.9701   4.9701   5.3059
     6.0205   6.0280   6.2290   9.6306   9.6306   9.7667

     highest occupied level (ev):    10.3450

!    total energy              =    -380.57192086 Ry
     estimated scf accuracy    <          6.3E-11 Ry

     The total energy is the sum of the following terms:
     one-electron contribution =     -85.25925601 Ry
     hartree contribution      =      71.77905424 Ry
     xc contribution           =    -102.57879285 Ry
     ewald contribution        =    -264.51292624 Ry

     convergence has been achieved in   9 iterations

     negative rho (up, down):  1.508E-02 0.000E+00

     Forces acting on atoms (cartesian axes, Ry/au):

     atom    1 type  1   force =     0.00000000    0.00000000   -0.00486142
     atom    2 type  2   force =     0.00000000    0.00000000    0.00484019
     atom    3 type  3   force =     0.00000000    0.00000000   -0.00508205
     atom    4 type  3   force =     0.00000000    0.00000000    0.00255164
     atom    5 type  3   force =     0.00000000    0.00000000    0.00255164

     Total force =     0.009269     Total SCF correction =     0.000014


     Computing stress (Cartesian axis) and pressure


     negative rho (up, down):  1.508E-02 0.000E+00
          total   stress  (Ry/bohr**3)                   (kbar)     P=      -46.29
  -0.00037336   0.00000000   0.00000000          -54.92        0.00        0.00
   0.00000000  -0.00037336   0.00000000            0.00      -54.92        0.00
   0.00000000   0.00000000  -0.00019725            0.00        0.00      -29.02

     Energy error            =      1.3E-04 Ry
     Gradient error          =      5.1E-03 Ry/Bohr

     number of scf cycles    =   5
     number of bfgs steps    =   4

     energy             old  =    -380.5717930983 Ry
     energy             new  =    -380.5719208582 Ry

     CASE: energy            _new < energy            _old

     new trust radius        =       0.0313596333 bohr
     new conv_thr            =       0.0000000001 Ry


ATOMIC_POSITIONS (crystal)
Pb               0.0000000000        0.0000000000        0.9941744976
Ti               0.5000000000        0.5000000000        0.5382817401
O                0.5000000000        0.5000000000        0.1076668793
O                0.5000000000        0.0000000000        0.6135805855
O                0.0000000000        0.5000000000        0.6135805855



     Writing config-only to output data dir ./pto_50.save/ :
     XML data file
     NEW-OLD atomic charge density approx. for the potential

     Check: negative core charge=   -0.000004

     negative rho (up, down):  1.556E-02 0.000E+00

     total cpu time spent up to now is       55.6 secs

     Self-consistent Calculation

     iteration #  1     ecut=    50.00 Ry     beta= 0.70
     CG style diagonalization
     ethr =  1.00E-06,  avg # of iterations =  6.8

     negative rho (up, down):  1.551E-02 0.000E+00

     total cpu time spent up to now is       57.1 secs

     total energy              =    -380.57201020 Ry
     estimated scf accuracy    <       0.00004540 Ry

     iteration #  2     ecut=    50.00 Ry     beta= 0.70
     CG style diagonalization
     ethr =  1.03E-07,  avg # of iterations =  4.5

     negative rho (up, down):  1.549E-02 0.000E+00

     total cpu time spent up to now is       58.0 secs

     total energy              =    -380.57202743 Ry
     estimated scf accuracy    <       0.00003063 Ry

     iteration #  3     ecut=    50.00 Ry     beta= 0.70
     CG style diagonalization
     ethr =  6.96E-08,  avg # of iterations =  4.1

     negative rho (up, down):  1.548E-02 0.000E+00

     total cpu time spent up to now is       58.8 secs

     total energy              =    -380.57203539 Ry
     estimated scf accuracy    <       0.00002103 Ry

     iteration #  4     ecut=    50.00 Ry     beta= 0.70
     CG style diagonalization
     ethr =  4.78E-08,  avg # of iterations =  3.6

     negative rho (up, down):  1.548E-02 0.000E+00

     total cpu time spent up to now is       59.5 secs

     total energy              =    -380.57203932 Ry
     estimated scf accuracy    <       0.00000136 Ry

     iteration #  5     ecut=    50.00 Ry     beta= 0.70
     CG style diagonalization
     ethr =  3.08E-09,  avg # of iterations =  4.3

     negative rho (up, down):  1.548E-02 0.000E+00

     total cpu time spent up to now is       60.4 secs

     total energy              =    -380.57204010 Ry
     estimated scf accuracy    <       0.00000026 Ry

     iteration #  6     ecut=    50.00 Ry     beta= 0.70
     CG style diagonalization
     ethr =  5.94E-10,  avg # of iterations =  4.9

     negative rho (up, down):  1.548E-02 0.000E+00

     total cpu time spent up to now is       61.4 secs

     total energy              =    -380.57204027 Ry
     estimated scf accuracy    <       0.00000006 Ry

     iteration #  7     ecut=    50.00 Ry     beta= 0.70
     CG style diagonalization
     ethr =  1.47E-10,  avg # of iterations =  4.7

     negative rho (up, down):  1.548E-02 0.000E+00

     total cpu time spent up to now is       62.3 secs

     total energy              =    -380.57204032 Ry
     estimated scf accuracy    <          7.6E-09 Ry

     iteration #  8     ecut=    50.00 Ry     beta= 0.70
     CG style diagonalization
     ethr =  1.73E-11,  avg # of iterations =  5.9

     negative rho (up, down):  1.548E-02 0.000E+00

     total cpu time spent up to now is       63.5 secs

     total energy              =    -380.57204033 Ry
     estimated scf accuracy    <          1.1E-09 Ry

     iteration #  9     ecut=    50.00 Ry     beta= 0.70
     CG style diagonalization
     ethr =  2.58E-12,  avg # of iterations =  5.9

     negative rho (up, down):  1.548E-02 0.000E+00

     total cpu time spent up to now is       64.7 secs

     End of self-consistent calculation

          k = 0.0000 0.0000 0.0000 (  2525 PWs)   bands (ev):

   -45.7832 -22.4751 -22.3580 -22.3580  -7.5667  -6.5046  -6.2090  -4.9976
    -4.9976  -4.9576  -4.8708  -4.6921   4.2062   6.2602   6.2602   6.8005
     8.1093   8.1093   8.4576   8.6201   8.8853   8.8853

          k = 0.0000 0.0000 0.2378 (  2517 PWs)   bands (ev):

   -45.7829 -22.4947 -22.3572 -22.3572  -7.3794  -6.4519  -6.1496  -5.0126
    -5.0126  -4.9563  -4.8575  -4.7568   3.4557   6.3022   6.3022   6.8764
     7.9046   7.9046   8.3728   8.7806   8.9823   8.9823

          k = 0.0000 0.0000-0.4756 (  2530 PWs)   bands (ev):

   -45.7827 -22.5142 -22.3565 -22.3565  -7.1772  -6.3950  -6.0957  -5.0276
    -5.0276  -4.9550  -4.8448  -4.8257   2.9464   6.2141   6.3245   6.3245
     7.7774   7.7774   8.2917   9.0469   9.0469   9.9910

          k = 0.0000 0.1667 0.0000 (  2525 PWs)   bands (ev):

   -45.7829 -22.4744 -22.3754 -22.3573  -7.4326  -6.4785  -6.1895  -5.0192
    -4.9962  -4.9702  -4.8612  -4.6817   3.7910   6.3128   6.3689   6.7346
     8.1252   8.1339   8.4325   8.5174   8.5743   8.9672

          k = 0.0000 0.1667 0.2378 (  2521 PWs)   bands (ev):

   -45.7826 -22.4938 -22.3745 -22.3565  -7.2611  -6.4394  -6.1237  -5.0125
    -5.0117  -4.9694  -4.8573  -4.7160   3.2531   6.0981   6.4194   6.9317
     7.5996   7.8937   8.2186   8.6256   8.6606   9.3526

          k = 0.0000 0.1667-0.4756 (  2516 PWs)   bands (ev):

   -45.7823 -22.5131 -22.3736 -22.3557  -7.0850  -6.3958  -6.0545  -5.0271
    -5.0035  -4.9686  -4.8588  -4.7500   2.8316   5.8040   6.4453   6.5920
     7.4302   7.7724   8.2649   8.6817   8.7358   9.9564

          k = 0.0000 0.3333 0.0000 (  2514 PWs)   bands (ev):

   -45.7822 -22.4728 -22.4099 -22.3559  -7.1407  -6.4212  -6.1685  -5.0473
    -4.9954  -4.9931  -4.8290  -4.6925   3.2243   5.9513   6.6537   6.6639
     7.8040   7.8474   8.2135   8.2981   8.6584   9.6304

          k = 0.0000 0.3333 0.2378 (  2507 PWs)   bands (ev):

   -45.7820 -22.4920 -22.4088 -22.3550  -7.0317  -6.3848  -6.0783  -5.0142
    -5.0098  -4.9954  -4.8319  -4.6643   2.9110   5.8154   6.5433   6.7301
     7.2377   7.6701   7.8462   8.3065   8.8668   9.6989

          k = 0.0000 0.3333-0.4756 (  2518 PWs)   bands (ev):

   -45.7817 -22.5111 -22.4078 -22.3542  -6.9503  -6.3293  -5.9603  -5.0261
    -4.9957  -4.9718  -4.8641  -4.6224   2.6278   5.4935   6.3285   6.7543
     7.1124   7.3635   7.6201   8.3530   9.2465   9.5689

          k = 0.0000-0.5000 0.0000 (  2488 PWs)   bands (ev):

   -45.7819 -22.4719 -22.4271 -22.3551  -6.9797  -6.3738  -6.1862  -5.0578
    -5.0077  -4.9918  -4.7617  -4.7550   3.0184   5.6092   6.8994   6.9150
     7.3373   7.4495   8.2142   8.2446   8.6886  10.3633

          k = 0.0000-0.5000 0.2378 (  2506 PWs)   bands (ev):

   -45.7816 -22.4910 -22.4260 -22.3543  -6.9322  -6.3108  -6.0781  -5.0231
    -5.0087  -5.0084  -4.7911  -4.6624   2.7736   5.5681   6.5536   6.7692
     7.1032   7.2469   7.9480   8.2712   8.8783   9.8758

          k = 0.0000-0.5000-0.4756 (  2516 PWs)   bands (ev):

   -45.7814 -22.5099 -22.4248 -22.3535  -6.9176  -6.2441  -5.9154  -5.0255
    -5.0090  -4.9810  -4.8375  -4.5712   2.5460   5.3624   6.0189   6.7988
     7.0709   7.3063   7.4021   8.2871   9.2071   9.5694

          k = 0.1667 0.1667 0.0000 (  2498 PWs)   bands (ev):

   -45.7825 -22.4736 -22.3748 -22.3744  -7.3009  -6.4514  -6.1890  -5.0230
    -5.0094  -4.9723  -4.8319  -4.6718   3.4902   6.2632   6.4918   6.7295
     7.6464   7.7950   8.4603   8.5427   8.8284   9.1760

          k = 0.1667 0.1667 0.2378 (  2513 PWs)   bands (ev):

   -45.7823 -22.4930 -22.3739 -22.3736  -7.1410  -6.4294  -6.1215  -5.0242
    -5.0007  -4.9666  -4.8254  -4.6856   3.1367   6.0521   6.1294   6.8520
     7.4987   7.5102   8.2695   8.6871   8.9061   9.3258

          k = 0.1667 0.1667-0.4756 (  2522 PWs)   bands (ev):

   -45.7820 -22.5122 -22.3729 -22.3728  -6.9831  -6.4072  -6.0416  -5.0351
    -4.9811  -4.9435  -4.8325  -4.7035   2.8058   5.8482   5.8628   6.5760
     7.3619   7.4645   8.2006   8.7512   8.9605   9.6763

          k = 0.1667 0.3333 0.0000 (  2515 PWs)   bands (ev):

   -45.7819 -22.4720 -22.4090 -22.3730  -7.0167  -6.3958  -6.2042  -5.0401
    -4.9983  -4.9560  -4.7908  -4.6804   3.0148   5.9625   6.4972   6.8216
     7.1538   7.6928   8.0389   8.6548   8.8233   9.6742

          k = 0.1667 0.3333 0.2378 (  2507 PWs)   bands (ev):

   -45.7816 -22.4911 -22.4080 -22.3722  -6.9073  -6.3874  -6.1231  -5.0193
    -4.9960  -4.9374  -4.7763  -4.6422   2.8984   5.7864   5.9465   6.4691
     6.8982   7.5579   8.3320   8.6196   8.9580   9.4254

          k = 0.1667 0.3333-0.4756 (  2514 PWs)   bands (ev):

   -45.7814 -22.5102 -22.4070 -22.3713  -6.8305  -6.3686  -6.0060  -5.0193
    -4.9729  -4.9015  -4.7848  -4.5978   2.7420   5.4441   5.8484   6.2194
     6.4053   7.4182   8.4306   8.6699   8.9604   9.3877

          k = 0.1667-0.5000 0.0000 (  2520 PWs)   bands (ev):

   -45.7816 -22.4711 -22.4262 -22.3723  -6.8604  -6.3513  -6.2387  -5.0413
    -4.9906  -4.9375  -4.7382  -4.7359   2.8255   5.6271   6.6175   6.8279
     7.1817   7.4579   7.8276   8.7114   8.7983   9.9964

          k = 0.1667-0.5000 0.2378 (  2512 PWs)   bands (ev):

   -45.7813 -22.4901 -22.4251 -22.3714  -6.8075  -6.3229  -6.1450  -5.0175
    -4.9833  -4.9215  -4.7421  -4.6401   2.7888   5.5751   5.8479   6.2356
     6.8515   7.6920   8.1259   8.6149   8.9716   9.3925

          k = 0.1667-0.5000-0.4756 (  2520 PWs)   bands (ev):

   -45.7811 -22.5091 -22.4239 -22.3706  -6.7973  -6.2955  -5.9909  -5.0144
    -4.9449  -4.9042  -4.7540  -4.5490   2.7138   5.3292   5.6866   5.8711
     6.3018   7.5325   8.3176   8.5809   8.6437   9.5818

          k = 0.3333 0.3333 0.0000 (  2522 PWs)   bands (ev):

   -45.7813 -22.4704 -22.4074 -22.4071  -6.7630  -6.3464  -6.2690  -5.0206
    -4.9775  -4.8793  -4.7204  -4.6803   2.6198   5.9134   6.0948   6.8967
     7.0696   7.1836   7.8832   8.4855   9.3090   9.4232

          k = 0.3333 0.3333 0.2378 (  2512 PWs)   bands (ev):

   -45.7810 -22.4894 -22.4064 -22.4062  -6.6565  -6.3864  -6.2074  -4.9840
    -4.9733  -4.8356  -4.6745  -4.6112   2.8009   5.5547   5.6401   5.9107
     6.6208   7.0660   8.4076   8.9291   8.9640   9.3250

          k = 0.3333 0.3333-0.4756 (  2502 PWs)   bands (ev):

   -45.7807 -22.5083 -22.4054 -22.4053  -6.6057  -6.4240  -6.0792  -4.9686
    -4.9483  -4.7872  -4.6276  -4.5443   2.9710   5.1607   5.1924   5.6828
     6.3525   6.5421   7.7393   9.2692   9.2966   9.4573

          k = 0.3333-0.5000 0.0000 (  2520 PWs)   bands (ev):

   -45.7809 -22.4694 -22.4243 -22.4063  -6.6370  -6.3120  -6.3052  -5.0130
    -4.9552  -4.8079  -4.7222  -4.6830   2.4367   5.5982   6.1315   6.7312
     7.2355   7.3856   7.4743   8.4760   9.1275   9.5034

          k = 0.3333-0.5000 0.2378 (  2514 PWs)   bands (ev):

   -45.7807 -22.4884 -22.4233 -22.4054  -6.5469  -6.3508  -6.2632  -4.9764
    -4.9471  -4.7562  -4.6498  -4.5990   2.7193   5.4747   5.5533   5.6658
     6.3972   7.1364   7.9842   8.9330   8.9421   9.4794

          k = 0.3333-0.5000-0.4756 (  2496 PWs)   bands (ev):

   -45.7804 -22.5073 -22.4223 -22.4045  -6.5528  -6.3874  -6.1110  -4.9518
    -4.9275  -4.7137  -4.5772  -4.5043   3.0749   4.9209   5.1147   5.4545
     6.1449   6.5394   7.0167   9.3759   9.4505   9.6111

          k =-0.5000-0.5000 0.0000 (  2496 PWs)   bands (ev):

   -45.7806 -22.4685 -22.4233 -22.4233  -6.5593  -6.2955  -6.2955  -5.0033
    -4.9153  -4.7265  -4.7265  -4.6741   2.2448   5.4381   5.9968   6.9605
     6.9605   7.4845   7.4845   8.2474   8.6583   9.7564

          k =-0.5000-0.5000 0.2378 (  2508 PWs)   bands (ev):

   -45.7804 -22.4875 -22.4224 -22.4224  -6.3661  -6.3661  -6.3635  -4.9654
    -4.9134  -4.6476  -4.6052  -4.6052   2.6277   5.3972   5.6040   5.6040
     6.0031   7.0752   7.3741   8.9580   8.9580   9.7415

          k =-0.5000-0.5000-0.4756 (  2504 PWs)   bands (ev):

   -45.7801 -22.5064 -22.4215 -22.4215  -6.4290  -6.4290  -6.1617  -4.9274
    -4.9116  -4.6124  -4.4897  -4.4897   3.2125   4.9804   4.9804   5.2886
     6.0094   6.0951   6.2269   9.6266   9.6266   9.7267

     highest occupied level (ev):    10.3633

!    total energy              =    -380.57204034 Ry
     estimated scf accuracy    <          1.0E-10 Ry

     The total energy is the sum of the following terms:
     one-electron contribution =     -85.68603497 Ry
     hartree contribution      =      71.98946701 Ry
     xc contribution           =    -102.58553515 Ry
     ewald contribution        =    -264.28993723 Ry

     convergence has been achieved in   9 iterations

     negative rho (up, down):  1.548E-02 0.000E+00

     Forces acting on atoms (cartesian axes, Ry/au):

     atom    1 type  1   force =     0.00000000    0.00000000   -0.00071935
     atom    2 type  2   force =     0.00000000    0.00000000    0.00106147
     atom    3 type  3   force =     0.00000000    0.00000000   -0.00366931
     atom    4 type  3   force =     0.00000000    0.00000000    0.00166359
     atom    5 type  3   force =     0.00000000    0.00000000    0.00166359

     Total force =     0.004543     Total SCF correction =     0.000050


     Computing stress (Cartesian axis) and pressure


     negative rho (up, down):  1.548E-02 0.000E+00
          total   stress  (Ry/bohr**3)                   (kbar)     P=      -43.11
  -0.00035000   0.00000000   0.00000000          -51.49        0.00        0.00
   0.00000000  -0.00035000   0.00000000            0.00      -51.49        0.00
   0.00000000   0.00000000  -0.00017922            0.00        0.00      -26.36

     Energy error            =      1.2E-04 Ry
     Gradient error          =      3.7E-03 Ry/Bohr

     number of scf cycles    =   6
     number of bfgs steps    =   5

     energy             old  =    -380.5719208582 Ry
     energy             new  =    -380.5720403351 Ry

     CASE: energy            _new < energy            _old

     new trust radius        =       0.0055771792 bohr
     new conv_thr            =       0.0000000001 Ry


ATOMIC_POSITIONS (crystal)
Pb               0.0000000000        0.0000000000        0.9934546644
Ti               0.5000000000        0.5000000000        0.5384844968
O                0.5000000000        0.5000000000        0.1073350142
O                0.5000000000        0.0000000000        0.6140050563
O                0.0000000000        0.5000000000        0.6140050563



     Writing config-only to output data dir ./pto_50.save/ :
     XML data file
     NEW-OLD atomic charge density approx. for the potential

     Check: negative core charge=   -0.000004

     negative rho (up, down):  1.556E-02 0.000E+00

     total cpu time spent up to now is       65.9 secs

     Self-consistent Calculation

     iteration #  1     ecut=    50.00 Ry     beta= 0.70
     CG style diagonalization
     ethr =  1.00E-06,  avg # of iterations =  3.7

     Threshold (ethr) on eigenvalues was too large:
     Diagonalizing with lowered threshold

     CG style diagonalization
     c_bands:  2 eigenvalues not converged
     c_bands:  1 eigenvalues not converged
     c_bands:  1 eigenvalues not converged
     c_bands:  1 eigenvalues not converged
     c_bands:  1 eigenvalues not converged
     c_bands:  1 eigenvalues not converged
     c_bands:  1 eigenvalues not converged
     c_bands:  1 eigenvalues not converged
     c_bands:  2 eigenvalues not converged
     c_bands:  1 eigenvalues not converged
     ethr =  2.14E-08,  avg # of iterations =  6.5

     negative rho (up, down):  1.556E-02 0.000E+00

     total cpu time spent up to now is       68.1 secs

     total energy              =    -380.57205150 Ry
     estimated scf accuracy    <       0.00001080 Ry

     iteration #  2     ecut=    50.00 Ry     beta= 0.70
     CG style diagonalization
     ethr =  2.45E-08,  avg # of iterations =  4.6

     negative rho (up, down):  1.555E-02 0.000E+00

     total cpu time spent up to now is       69.0 secs

     total energy              =    -380.57205024 Ry
     estimated scf accuracy    <       0.00003056 Ry

     iteration #  3     ecut=    50.00 Ry     beta= 0.70
     CG style diagonalization
     ethr =  2.45E-08,  avg # of iterations =  4.2

     negative rho (up, down):  1.555E-02 0.000E+00

     total cpu time spent up to now is       69.8 secs

     total energy              =    -380.57205623 Ry
     estimated scf accuracy    <       0.00000264 Ry

     iteration #  4     ecut=    50.00 Ry     beta= 0.70
     CG style diagonalization
     ethr =  5.99E-09,  avg # of iterations =  3.6

     negative rho (up, down):  1.555E-02 0.000E+00

     total cpu time spent up to now is       70.5 secs

     total energy              =    -380.57205680 Ry
     estimated scf accuracy    <       0.00000027 Ry

     iteration #  5     ecut=    50.00 Ry     beta= 0.70
     CG style diagonalization
     ethr =  6.19E-10,  avg # of iterations =  4.1

     negative rho (up, down):  1.555E-02 0.000E+00

     total cpu time spent up to now is       71.4 secs

     total energy              =    -380.57205693 Ry
     estimated scf accuracy    <       0.00000005 Ry

     iteration #  6     ecut=    50.00 Ry     beta= 0.70
     CG style diagonalization
     ethr =  1.14E-10,  avg # of iterations =  4.2

     negative rho (up, down):  1.555E-02 0.000E+00

     total cpu time spent up to now is       72.2 secs

     total energy              =    -380.57205695 Ry
     estimated scf accuracy    <          8.4E-09 Ry

     iteration #  7     ecut=    50.00 Ry     beta= 0.70
     CG style diagonalization
     ethr =  1.91E-11,  avg # of iterations =  4.5

     negative rho (up, down):  1.555E-02 0.000E+00

     total cpu time spent up to now is       73.1 secs

     total energy              =    -380.57205696 Ry
     estimated scf accuracy    <          1.6E-09 Ry

     iteration #  8     ecut=    50.00 Ry     beta= 0.70
     CG style diagonalization
     ethr =  3.55E-12,  avg # of iterations =  4.9

     negative rho (up, down):  1.555E-02 0.000E+00

     total cpu time spent up to now is       74.1 secs

     total energy              =    -380.57205696 Ry
     estimated scf accuracy    <          2.2E-10 Ry

     iteration #  9     ecut=    50.00 Ry     beta= 0.70
     CG style diagonalization
     ethr =  4.92E-13,  avg # of iterations =  5.8

     negative rho (up, down):  1.555E-02 0.000E+00

     total cpu time spent up to now is       75.2 secs

     End of self-consistent calculation

          k = 0.0000 0.0000 0.0000 (  2525 PWs)   bands (ev):

   -45.7911 -22.4785 -22.3663 -22.3663  -7.5735  -6.5134  -6.2055  -4.9931
    -4.9931  -4.9517  -4.8672  -4.6845   4.2096   6.2529   6.2529   6.8044
     8.1184   8.1184   8.4524   8.6268   8.8760   8.8760

          k = 0.0000 0.0000 0.2378 (  2517 PWs)   bands (ev):

   -45.7908 -22.4981 -22.3655 -22.3655  -7.3877  -6.4613  -6.1452  -5.0081
    -5.0081  -4.9504  -4.8533  -4.7485   3.4616   6.2949   6.2949   6.8782
     7.9118   7.9118   8.3677   8.7834   8.9736   8.9736

          k = 0.0000 0.0000-0.4756 (  2530 PWs)   bands (ev):

   -45.7905 -22.5176 -22.3647 -22.3647  -7.1875  -6.4051  -6.0899  -5.0230
    -5.0230  -4.9491  -4.8400  -4.8168   2.9538   6.2147   6.3177   6.3177
     7.7834   7.7834   8.2867   9.0380   9.0380   9.9895

          k = 0.0000 0.1667 0.0000 (  2525 PWs)   bands (ev):

   -45.7907 -22.4778 -22.3836 -22.3656  -7.4394  -6.4875  -6.1866  -5.0145
    -4.9916  -4.9643  -4.8570  -4.6741   3.7932   6.3078   6.3614   6.7358
     8.1317   8.1434   8.4276   8.5082   8.5738   8.9689

          k = 0.0000 0.1667 0.2378 (  2521 PWs)   bands (ev):

   -45.7905 -22.4972 -22.3827 -22.3648  -7.2694  -6.4488  -6.1197  -5.0075
    -5.0072  -4.9635  -4.8528  -4.7081   3.2578   6.0934   6.4121   6.9311
     7.6026   7.8996   8.2147   8.6238   8.6536   9.3528

          k = 0.0000 0.1667-0.4756 (  2516 PWs)   bands (ev):

   -45.7902 -22.5166 -22.3819 -22.3640  -7.0951  -6.4057  -6.0492  -5.0225
    -4.9983  -4.9628  -4.8537  -4.7420   2.8379   5.8018   6.4385   6.5884
     7.4331   7.7772   8.2553   8.6805   8.7284   9.9579

          k = 0.0000 0.3333 0.0000 (  2514 PWs)   bands (ev):

   -45.7901 -22.4762 -22.4181 -22.3641  -7.1475  -6.4305  -6.1667  -5.0422
    -4.9898  -4.9884  -4.8235  -4.6850   3.2257   5.9460   6.6457   6.6661
     7.8026   7.8411   8.2210   8.2914   8.6606   9.6367

          k = 0.0000 0.3333 0.2378 (  2507 PWs)   bands (ev):

   -45.7898 -22.4954 -22.4171 -22.3633  -7.0399  -6.3941  -6.0751  -5.0089
    -5.0052  -4.9896  -4.8264  -4.6570   2.9143   5.8107   6.5427   6.7225
     7.2347   7.6678   7.8447   8.3083   8.8660   9.7031

          k = 0.0000 0.3333-0.4756 (  2518 PWs)   bands (ev):

   -45.7896 -22.5145 -22.4160 -22.3625  -6.9594  -6.3395  -5.9556  -5.0215
    -4.9898  -4.9662  -4.8581  -4.6157   2.6327   5.4912   6.3274   6.7480
     7.1057   7.3589   7.6177   8.3526   9.2513   9.5712

          k = 0.0000-0.5000 0.0000 (  2488 PWs)   bands (ev):

   -45.7898 -22.4753 -22.4353 -22.3634  -6.9867  -6.3834  -6.1847  -5.0526
    -5.0019  -4.9872  -4.7536  -4.7494   3.0198   5.6039   6.9047   6.9062
     7.3317   7.4432   8.2073   8.2530   8.6907  10.3692

          k = 0.0000-0.5000 0.2378 (  2506 PWs)   bands (ev):

   -45.7895 -22.4944 -22.4342 -22.3626  -6.9404  -6.3210  -6.0746  -5.0178
    -5.0042  -5.0025  -4.7850  -4.6553   2.7768   5.5629   6.5529   6.7662
     7.0937   7.2431   7.9457   8.2765   8.8769   9.8830

          k = 0.0000-0.5000-0.4756 (  2516 PWs)   bands (ev):

   -45.7892 -22.5133 -22.4330 -22.3617  -6.9261  -6.2551  -5.9108  -5.0210
    -5.0032  -4.9756  -4.8308  -4.5650   2.5504   5.3592   6.0182   6.7901
     7.0685   7.2960   7.3984   8.2906   9.2175   9.5695

          k = 0.1667 0.1667 0.0000 (  2498 PWs)   bands (ev):

   -45.7904 -22.4771 -22.3830 -22.3827  -7.3076  -6.4607  -6.1865  -5.0182
    -5.0047  -4.9666  -4.8272  -4.6641   3.4908   6.2559   6.4877   6.7299
     7.6541   7.7904   8.4658   8.5382   8.8211   9.1834

          k = 0.1667 0.1667 0.2378 (  2513 PWs)   bands (ev):

   -45.7901 -22.4964 -22.3821 -22.3818  -7.1493  -6.4388  -6.1177  -5.0192
    -4.9955  -4.9612  -4.8206  -4.6780   3.1400   6.0473   6.1252   6.8503
     7.4942   7.5137   8.2746   8.6813   8.9008   9.3290

          k = 0.1667 0.1667-0.4756 (  2522 PWs)   bands (ev):

   -45.7899 -22.5156 -22.3812 -22.3810  -6.9931  -6.4168  -6.0363  -5.0301
    -4.9754  -4.9386  -4.8274  -4.6958   2.8110   5.8451   5.8604   6.5715
     7.3546   7.4659   8.2062   8.7447   8.9557   9.6792

          k = 0.1667 0.3333 0.0000 (  2515 PWs)   bands (ev):

   -45.7898 -22.4755 -22.4172 -22.3813  -7.0230  -6.4053  -6.2031  -5.0350
    -4.9935  -4.9502  -4.7850  -4.6728   3.0139   5.9568   6.4937   6.8207
     7.1491   7.7025   8.0362   8.6530   8.8190   9.6808

          k = 0.1667 0.3333 0.2378 (  2507 PWs)   bands (ev):

   -45.7895 -22.4946 -22.4162 -22.3804  -6.9153  -6.3967  -6.1199  -5.0141
    -4.9909  -4.9318  -4.7708  -4.6350   2.8994   5.7824   5.9430   6.4649
     6.8979   7.5591   8.3312   8.6175   8.9558   9.4299

          k = 0.1667 0.3333-0.4756 (  2514 PWs)   bands (ev):

   -45.7892 -22.5136 -22.4152 -22.3796  -6.8397  -6.3783  -6.0011  -5.0143
    -4.9676  -4.8963  -4.7790  -4.5912   2.7452   5.4425   5.8421   6.2175
     6.4013   7.4157   8.4356   8.6619   8.9659   9.3874

          k = 0.1667-0.5000 0.0000 (  2520 PWs)   bands (ev):

   -45.7895 -22.4745 -22.4344 -22.3805  -6.8665  -6.3611  -6.2381  -5.0362
    -4.9857  -4.9317  -4.7321  -4.7280   2.8241   5.6220   6.6186   6.8194
     7.1795   7.4549   7.8387   8.7043   8.7986  10.0015

          k = 0.1667-0.5000 0.2378 (  2512 PWs)   bands (ev):

   -45.7892 -22.4936 -22.4333 -22.3797  -6.8155  -6.3329  -6.1416  -5.0123
    -4.9783  -4.9159  -4.7360  -4.6331   2.7892   5.5703   5.8442   6.2336
     6.8498   7.6939   8.1221   8.6159   8.9677   9.3994

          k = 0.1667-0.5000-0.4756 (  2520 PWs)   bands (ev):

   -45.7889 -22.5125 -22.4322 -22.3788  -6.8058  -6.3056  -5.9861  -5.0095
    -4.9399  -4.8987  -4.7479  -4.5430   2.7161   5.3273   5.6781   5.8686
     6.3008   7.5296   8.3201   8.5834   8.6425   9.5826

          k = 0.3333 0.3333 0.0000 (  2522 PWs)   bands (ev):

   -45.7891 -22.4738 -22.4156 -22.4153  -6.7671  -6.3565  -6.2704  -5.0156
    -4.9721  -4.8732  -4.7143  -4.6727   2.6152   5.9079   6.0883   6.8985
     7.0694   7.1948   7.8768   8.4888   9.3004   9.4293

          k = 0.3333 0.3333 0.2378 (  2512 PWs)   bands (ev):

   -45.7889 -22.4928 -22.4146 -22.4144  -6.6638  -6.3958  -6.2048  -4.9789
    -4.9680  -4.8302  -4.6687  -4.6044   2.7968   5.5538   5.6391   5.9052
     6.6207   7.0679   8.4139   8.9277   8.9671   9.3172

          k = 0.3333 0.3333-0.4756 (  2502 PWs)   bands (ev):

   -45.7886 -22.5117 -22.4136 -22.4135  -6.6148  -6.4328  -6.0741  -4.9633
    -4.9432  -4.7821  -4.6223  -4.5382   2.9683   5.1557   5.1937   5.6779
     6.3534   6.5396   7.7506   9.2708   9.2869   9.4581

          k = 0.3333-0.5000 0.0000 (  2520 PWs)   bands (ev):

   -45.7888 -22.4729 -22.4325 -22.4145  -6.6381  -6.3224  -6.3097  -5.0079
    -4.9498  -4.8015  -4.7152  -4.6762   2.4306   5.5931   6.1250   6.7373
     7.2453   7.3822   7.4715   8.4775   9.1327   9.4945

          k = 0.3333-0.5000 0.2378 (  2514 PWs)   bands (ev):

   -45.7885 -22.4919 -22.4315 -22.4137  -6.5538  -6.3604  -6.2608  -4.9713
    -4.9417  -4.7508  -4.6437  -4.5926   2.7125   5.4763   5.5488   5.6648
     6.3952   7.1391   7.9914   8.9343   8.9432   9.4705

          k = 0.3333-0.5000-0.4756 (  2496 PWs)   bands (ev):

   -45.7883 -22.5107 -22.4305 -22.4128  -6.5613  -6.3962  -6.1059  -4.9466
    -4.9224  -4.7085  -4.5719  -4.4988   3.0676   4.9191   5.1171   5.4486
     6.1435   6.5387   7.0298   9.3775   9.4408   9.6126

          k =-0.5000-0.5000 0.0000 (  2496 PWs)   bands (ev):

   -45.7885 -22.4719 -22.4315 -22.4315  -6.5544  -6.3062  -6.3062  -4.9982
    -4.9097  -4.7188  -4.7188  -4.6688   2.2368   5.4330   5.9916   6.9695
     6.9695   7.4804   7.4804   8.2505   8.6625   9.7467

          k =-0.5000-0.5000 0.2378 (  2508 PWs)   bands (ev):

   -45.7882 -22.4909 -22.4306 -22.4306  -6.3755  -6.3755  -6.3585  -4.9603
    -4.9078  -4.6423  -4.5990  -4.5990   2.6173   5.3917   5.6082   5.6082
     5.9979   7.0775   7.3826   8.9593   8.9593   9.7318

          k =-0.5000-0.5000-0.4756 (  2504 PWs)   bands (ev):

   -45.7880 -22.5098 -22.4297 -22.4297  -6.4375  -6.4375  -6.1565  -4.9224
    -4.9060  -4.6071  -4.4847  -4.4847   3.1960   4.9847   4.9847   5.2824
     6.0042   6.1109   6.2290   9.6283   9.6283   9.7170

     highest occupied level (ev):    10.3692

!    total energy              =    -380.57205696 Ry
     estimated scf accuracy    <          7.1E-12 Ry

     The total energy is the sum of the following terms:
     one-electron contribution =     -85.74076485 Ry
     hartree contribution      =      72.01500277 Ry
     xc contribution           =    -102.58542764 Ry
     ewald contribution        =    -264.26086724 Ry

     convergence has been achieved in   9 iterations

     negative rho (up, down):  1.555E-02 0.000E+00

     Forces acting on atoms (cartesian axes, Ry/au):

     atom    1 type  1   force =     0.00000000    0.00000000    0.00024837
     atom    2 type  2   force =     0.00000000    0.00000000   -0.00076573
     atom    3 type  3   force =     0.00000000    0.00000000   -0.00154312
     atom    4 type  3   force =     0.00000000    0.00000000    0.00103024
     atom    5 type  3   force =     0.00000000    0.00000000    0.00103024

     Total force =     0.002270     Total SCF correction =     0.000013


     Computing stress (Cartesian axis) and pressure


     negative rho (up, down):  1.555E-02 0.000E+00
          total   stress  (Ry/bohr**3)                   (kbar)     P=      -43.32
  -0.00034732   0.00000000   0.00000000          -51.09        0.00        0.00
   0.00000000  -0.00034732   0.00000000            0.00      -51.09        0.00
   0.00000000   0.00000000  -0.00018875            0.00        0.00      -27.77

     Energy error            =      1.7E-05 Ry
     Gradient error          =      1.5E-03 Ry/Bohr

     number of scf cycles    =   7
     number of bfgs steps    =   6

     energy             old  =    -380.5720403351 Ry
     energy             new  =    -380.5720569582 Ry

     CASE: energy            _new < energy            _old

     new trust radius        =       0.0032304571 bohr
     new conv_thr            =            1.0E-10 Ry


ATOMIC_POSITIONS (crystal)
Pb               0.0000000000        0.0000000000        0.9934480215
Ti               0.5000000000        0.5000000000        0.5383935833
O                0.5000000000        0.5000000000        0.1069180668
O                0.5000000000        0.0000000000        0.6142623082
O                0.0000000000        0.5000000000        0.6142623082



     Writing config-only to output data dir ./pto_50.save/ :
     XML data file
     NEW-OLD atomic charge density approx. for the potential

     Check: negative core charge=   -0.000004

     negative rho (up, down):  1.555E-02 0.000E+00

     total cpu time spent up to now is       76.4 secs

     Self-consistent Calculation

     iteration #  1     ecut=    50.00 Ry     beta= 0.70
     CG style diagonalization
     ethr =  1.00E-06,  avg # of iterations =  2.7

     Threshold (ethr) on eigenvalues was too large:
     Diagonalizing with lowered threshold

     CG style diagonalization
     c_bands:  2 eigenvalues not converged
     c_bands:  1 eigenvalues not converged
     c_bands:  1 eigenvalues not converged
     c_bands:  1 eigenvalues not converged
     c_bands:  1 eigenvalues not converged
     c_bands:  1 eigenvalues not converged
     ethr =  5.34E-09,  avg # of iterations =  5.9

     negative rho (up, down):  1.555E-02 0.000E+00

     total cpu time spent up to now is       78.3 secs

     total energy              =    -380.57206127 Ry
     estimated scf accuracy    <       0.00000449 Ry

     iteration #  2     ecut=    50.00 Ry     beta= 0.70
     CG style diagonalization
     ethr =  1.02E-08,  avg # of iterations =  4.7

     negative rho (up, down):  1.555E-02 0.000E+00

     total cpu time spent up to now is       79.3 secs

     total energy              =    -380.57206029 Ry
     estimated scf accuracy    <       0.00001707 Ry

     iteration #  3     ecut=    50.00 Ry     beta= 0.70
     CG style diagonalization
     ethr =  1.02E-08,  avg # of iterations =  4.2

     negative rho (up, down):  1.555E-02 0.000E+00

     total cpu time spent up to now is       80.1 secs

     total energy              =    -380.57206336 Ry
     estimated scf accuracy    <       0.00000077 Ry

     iteration #  4     ecut=    50.00 Ry     beta= 0.70
     CG style diagonalization
     ethr =  1.75E-09,  avg # of iterations =  3.7

     negative rho (up, down):  1.555E-02 0.000E+00

     total cpu time spent up to now is       80.8 secs

     total energy              =    -380.57206356 Ry
     estimated scf accuracy    <       0.00000009 Ry

     iteration #  5     ecut=    50.00 Ry     beta= 0.70
     CG style diagonalization
     ethr =  2.00E-10,  avg # of iterations =  3.9

     negative rho (up, down):  1.555E-02 0.000E+00

     total cpu time spent up to now is       81.6 secs

     total energy              =    -380.57206359 Ry
     estimated scf accuracy    <       0.00000001 Ry

     iteration #  6     ecut=    50.00 Ry     beta= 0.70
     CG style diagonalization
     ethr =  2.69E-11,  avg # of iterations =  4.0

     negative rho (up, down):  1.555E-02 0.000E+00

     total cpu time spent up to now is       82.4 secs

     total energy              =    -380.57206359 Ry
     estimated scf accuracy    <          2.1E-09 Ry

     iteration #  7     ecut=    50.00 Ry     beta= 0.70
     CG style diagonalization
     ethr =  4.68E-12,  avg # of iterations =  4.2

     negative rho (up, down):  1.555E-02 0.000E+00

     total cpu time spent up to now is       83.3 secs

     total energy              =    -380.57206359 Ry
     estimated scf accuracy    <          3.5E-10 Ry

     iteration #  8     ecut=    50.00 Ry     beta= 0.70
     CG style diagonalization
     ethr =  7.89E-13,  avg # of iterations =  4.9

     negative rho (up, down):  1.555E-02 0.000E+00

     total cpu time spent up to now is       84.2 secs

     End of self-consistent calculation

          k = 0.0000 0.0000 0.0000 (  2525 PWs)   bands (ev):

   -45.7952 -22.4803 -22.3703 -22.3703  -7.5752  -6.5145  -6.2042  -4.9913
    -4.9913  -4.9494  -4.8652  -4.6819   4.2124   6.2502   6.2502   6.8020
     8.1216   8.1216   8.4500   8.6307   8.8735   8.8735

          k = 0.0000 0.0000 0.2378 (  2517 PWs)   bands (ev):

   -45.7949 -22.4998 -22.3695 -22.3695  -7.3895  -6.4625  -6.1438  -5.0063
    -5.0063  -4.9481  -4.8512  -4.7459   3.4644   6.2916   6.2916   6.8767
     7.9155   7.9155   8.3653   8.7852   8.9718   8.9718

          k = 0.0000 0.0000-0.4756 (  2530 PWs)   bands (ev):

   -45.7946 -22.5193 -22.3687 -22.3687  -7.1896  -6.4064  -6.0885  -5.0213
    -5.0213  -4.9468  -4.8378  -4.8139   2.9570   6.2135   6.3136   6.3136
     7.7882   7.7882   8.2843   9.0362   9.0362   9.9898

          k = 0.0000 0.1667 0.0000 (  2525 PWs)   bands (ev):

   -45.7948 -22.4795 -22.3876 -22.3696  -7.4410  -6.4887  -6.1853  -5.0126
    -4.9899  -4.9620  -4.8551  -4.6716   3.7947   6.3069   6.3588   6.7342
     8.1344   8.1470   8.4258   8.5055   8.5743   8.9706

          k = 0.0000 0.1667 0.2378 (  2521 PWs)   bands (ev):

   -45.7946 -22.4990 -22.3867 -22.3688  -7.2712  -6.4501  -6.1184  -5.0056
    -5.0054  -4.9613  -4.8508  -4.7056   3.2598   6.0916   6.4088   6.9297
     7.6048   7.9029   8.2148   8.6230   8.6525   9.3537

          k = 0.0000 0.1667-0.4756 (  2516 PWs)   bands (ev):

   -45.7943 -22.5183 -22.3859 -22.3680  -7.0971  -6.4071  -6.0478  -5.0208
    -4.9963  -4.9605  -4.8516  -4.7394   2.8405   5.8002   6.4345   6.5863
     7.4364   7.7814   8.2535   8.6797   8.7274   9.9594

          k = 0.0000 0.3333 0.0000 (  2514 PWs)   bands (ev):

   -45.7942 -22.4780 -22.4221 -22.3681  -7.1491  -6.4321  -6.1655  -5.0403
    -4.9876  -4.9865  -4.8216  -4.6826   3.2263   5.9457   6.6435   6.6682
     7.8048   7.8391   8.2241   8.2890   8.6621   9.6381

          k = 0.0000 0.3333 0.2378 (  2507 PWs)   bands (ev):

   -45.7939 -22.4971 -22.4210 -22.3673  -7.0415  -6.3959  -6.0739  -5.0069
    -5.0035  -4.9873  -4.8244  -4.6546   2.9156   5.8103   6.5435   6.7196
     7.2365   7.6674   7.8442   8.3109   8.8665   9.7043

          k = 0.0000 0.3333-0.4756 (  2518 PWs)   bands (ev):

   -45.7936 -22.5162 -22.4199 -22.3665  -6.9609  -6.3416  -5.9544  -5.0198
    -4.9876  -4.9642  -4.8560  -4.6134   2.6344   5.4905   6.3294   6.7443
     7.1056   7.3572   7.6185   8.3550   9.2529   9.5728

          k = 0.0000-0.5000 0.0000 (  2488 PWs)   bands (ev):

   -45.7939 -22.4770 -22.4393 -22.3674  -6.9881  -6.3855  -6.1835  -5.0507
    -4.9996  -4.9854  -4.7513  -4.7474   3.0202   5.6045   6.9049   6.9101
     7.3308   7.4400   8.2049   8.2566   8.6921  10.3709

          k = 0.0000-0.5000 0.2378 (  2506 PWs)   bands (ev):

   -45.7936 -22.4961 -22.4381 -22.3666  -6.9417  -6.3233  -6.0733  -5.0158
    -5.0024  -5.0003  -4.7829  -4.6531   2.7778   5.5631   6.5541   6.7679
     7.0924   7.2399   7.9450   8.2806   8.8776   9.8850

          k = 0.0000-0.5000-0.4756 (  2516 PWs)   bands (ev):

   -45.7933 -22.5151 -22.4369 -22.3657  -6.9273  -6.2577  -5.9096  -5.0192
    -5.0010  -4.9736  -4.8285  -4.5629   2.5520   5.3587   6.0209   6.7897
     7.0654   7.2946   7.3967   8.2949   9.2214   9.5702

          k = 0.1667 0.1667 0.0000 (  2498 PWs)   bands (ev):

   -45.7945 -22.4788 -22.3870 -22.3867  -7.3093  -6.4621  -6.1853  -5.0163
    -5.0028  -4.9645  -4.8252  -4.6616   3.4917   6.2533   6.4876   6.7286
     7.6575   7.7899   8.4686   8.5363   8.8208   9.1863

          k = 0.1667 0.1667 0.2378 (  2513 PWs)   bands (ev):

   -45.7942 -22.4981 -22.3861 -22.3858  -7.1511  -6.4402  -6.1164  -5.0173
    -4.9935  -4.9591  -4.8186  -4.6755   3.1416   6.0449   6.1243   6.8489
     7.4938   7.5170   8.2775   8.6795   8.9003   9.3311

          k = 0.1667 0.1667-0.4756 (  2522 PWs)   bands (ev):

   -45.7940 -22.5173 -22.3852 -22.3850  -6.9952  -6.4183  -6.0349  -5.0282
    -4.9732  -4.9368  -4.8253  -4.6933   2.8132   5.8429   5.8589   6.5710
     7.3525   7.4691   8.2096   8.7430   8.9548   9.6812

          k = 0.1667 0.3333 0.0000 (  2515 PWs)   bands (ev):

   -45.7939 -22.4772 -22.4212 -22.3853  -7.0246  -6.4071  -6.2022  -5.0331
    -4.9916  -4.9480  -4.7830  -4.6704   3.0141   5.9563   6.4924   6.8220
     7.1483   7.7071   8.0371   8.6528   8.8190   9.6829

          k = 0.1667 0.3333 0.2378 (  2507 PWs)   bands (ev):

   -45.7936 -22.4963 -22.4202 -22.3844  -6.9171  -6.3985  -6.1188  -5.0122
    -4.9890  -4.9296  -4.7687  -4.6327   2.9002   5.7819   5.9429   6.4633
     6.8990   7.5613   8.3330   8.6175   8.9558   9.4313

          k = 0.1667 0.3333-0.4756 (  2514 PWs)   bands (ev):

   -45.7933 -22.5153 -22.4191 -22.3836  -6.8414  -6.3802  -5.9999  -5.0124
    -4.9655  -4.8942  -4.7769  -4.5890   2.7466   5.4421   5.8411   6.2165
     6.4023   7.4167   8.4385   8.6607   8.9680   9.3876

          k = 0.1667-0.5000 0.0000 (  2520 PWs)   bands (ev):

   -45.7935 -22.4763 -22.4383 -22.3845  -6.8680  -6.3633  -6.2373  -5.0343
    -4.9838  -4.9293  -4.7300  -4.7257   2.8241   5.6225   6.6203   6.8159
     7.1816   7.4554   7.8434   8.7025   8.7997  10.0030

          k = 0.1667-0.5000 0.2378 (  2512 PWs)   bands (ev):

   -45.7933 -22.4953 -22.4372 -22.3837  -6.8170  -6.3351  -6.1404  -5.0104
    -4.9765  -4.9136  -4.7340  -4.6309   2.7897   5.5705   5.8449   6.2330
     6.8494   7.6968   8.1233   8.6166   8.9675   9.4007

          k = 0.1667-0.5000-0.4756 (  2520 PWs)   bands (ev):

   -45.7930 -22.5142 -22.4361 -22.3828  -6.8072  -6.3079  -5.9850  -5.0075
    -4.9381  -4.8963  -4.7458  -4.5409   2.7173   5.3272   5.6775   5.8692
     6.3005   7.5308   8.3220   8.5847   8.6426   9.5834

          k = 0.3333 0.3333 0.0000 (  2522 PWs)   bands (ev):

   -45.7932 -22.4756 -22.4195 -22.4192  -6.7683  -6.3586  -6.2702  -5.0137
    -4.9701  -4.8709  -4.7120  -4.6703   2.6148   5.9072   6.0873   6.8991
     7.0716   7.1990   7.8771   8.4915   9.2988   9.4311

          k = 0.3333 0.3333 0.2378 (  2512 PWs)   bands (ev):

   -45.7930 -22.4946 -22.4186 -22.4184  -6.6656  -6.3977  -6.2040  -4.9770
    -4.9660  -4.8279  -4.6665  -4.6022   2.7966   5.5545   5.6390   5.9040
     6.6234   7.0695   8.4175   8.9281   8.9679   9.3159

          k = 0.3333 0.3333-0.4756 (  2502 PWs)   bands (ev):

   -45.7927 -22.5135 -22.4176 -22.4175  -6.6168  -6.4345  -6.0730  -4.9613
    -4.9413  -4.7798  -4.6202  -4.5363   2.9686   5.1558   5.1943   5.6752
     6.3559   6.5416   7.7543   9.2719   9.2850   9.4588

          k = 0.3333-0.5000 0.0000 (  2520 PWs)   bands (ev):

   -45.7929 -22.4746 -22.4364 -22.4185  -6.6387  -6.3247  -6.3103  -5.0061
    -4.9477  -4.7991  -4.7130  -4.6737   2.4300   5.5932   6.1244   6.7390
     7.2479   7.3841   7.4733   8.4792   9.1341   9.4929

          k = 0.3333-0.5000 0.2378 (  2514 PWs)   bands (ev):

   -45.7926 -22.4936 -22.4354 -22.4176  -6.5554  -6.3625  -6.2601  -4.9694
    -4.9396  -4.7483  -4.6418  -4.5904   2.7118   5.4779   5.5485   5.6648
     6.3969   7.1413   7.9939   8.9353   8.9444   9.4689

          k = 0.3333-0.5000-0.4756 (  2496 PWs)   bands (ev):

   -45.7924 -22.5124 -22.4344 -22.4167  -6.5630  -6.3982  -6.1050  -4.9445
    -4.9204  -4.7059  -4.5702  -4.4969   3.0670   4.9199   5.1185   5.4463
     6.1453   6.5415   7.0329   9.3784   9.4391   9.6136

          k =-0.5000-0.5000 0.0000 (  2496 PWs)   bands (ev):

   -45.7926 -22.4737 -22.4354 -22.4354  -6.5535  -6.3085  -6.3085  -4.9963
    -4.9075  -4.7165  -4.7165  -4.6662   2.2358   5.4331   5.9928   6.9711
     6.9711   7.4824   7.4824   8.2522   8.6642   9.7449

          k =-0.5000-0.5000 0.2378 (  2508 PWs)   bands (ev):

   -45.7923 -22.4926 -22.4345 -22.4345  -6.3776  -6.3776  -6.3576  -4.9584
    -4.9057  -4.6396  -4.5971  -4.5971   2.6160   5.3911   5.6103   5.6103
     5.9990   7.0792   7.3846   8.9606   8.9606   9.7300

          k =-0.5000-0.5000-0.4756 (  2504 PWs)   bands (ev):

   -45.7921 -22.5115 -22.4336 -22.4336  -6.4393  -6.4393  -6.1556  -4.9205
    -4.9039  -4.6043  -4.4831  -4.4831   3.1937   4.9870   4.9870   5.2803
     6.0054   6.1139   6.2321   9.6293   9.6293   9.7153

     highest occupied level (ev):    10.3709

!    total energy              =    -380.57206359 Ry
     estimated scf accuracy    <          1.6E-11 Ry

     The total energy is the sum of the following terms:
     one-electron contribution =     -85.72354199 Ry
     hartree contribution      =      72.00576671 Ry
     xc contribution           =    -102.58455472 Ry
     ewald contribution        =    -264.26973360 Ry

     convergence has been achieved in   8 iterations

     negative rho (up, down):  1.555E-02 0.000E+00

     Forces acting on atoms (cartesian axes, Ry/au):

     atom    1 type  1   force =     0.00000000    0.00000000    0.00032635
     atom    2 type  2   force =     0.00000000    0.00000000   -0.00124638
     atom    3 type  3   force =     0.00000000    0.00000000   -0.00012723
     atom    4 type  3   force =     0.00000000    0.00000000    0.00052363
     atom    5 type  3   force =     0.00000000    0.00000000    0.00052363

     Total force =     0.001491     Total SCF correction =     0.000012


     Computing stress (Cartesian axis) and pressure


     negative rho (up, down):  1.555E-02 0.000E+00
          total   stress  (Ry/bohr**3)                   (kbar)     P=      -43.87
  -0.00034909   0.00000000   0.00000000          -51.35        0.00        0.00
   0.00000000  -0.00034909   0.00000000            0.00      -51.35        0.00
   0.00000000   0.00000000  -0.00019653            0.00        0.00      -28.91

     Energy error            =      6.6E-06 Ry
     Gradient error          =      1.2E-03 Ry/Bohr

     number of scf cycles    =   8
     number of bfgs steps    =   7

     energy             old  =    -380.5720569582 Ry
     energy             new  =    -380.5720635948 Ry

     CASE: energy            _new < energy            _old

     new trust radius        =       0.0019180970 bohr
     new conv_thr            =            1.0E-10 Ry


ATOMIC_POSITIONS (crystal)
Pb               0.0000000000        0.0000000000        0.9935307630
Ti               0.5000000000        0.5000000000        0.5381610617
O                0.5000000000        0.5000000000        0.1066705026
O                0.5000000000        0.0000000000        0.6144609804
O                0.0000000000        0.5000000000        0.6144609804



     Writing config-only to output data dir ./pto_50.save/ :
     XML data file
     NEW-OLD atomic charge density approx. for the potential

     Check: negative core charge=   -0.000004

     negative rho (up, down):  1.554E-02 0.000E+00

     total cpu time spent up to now is       85.4 secs

     Self-consistent Calculation

     iteration #  1     ecut=    50.00 Ry     beta= 0.70
     CG style diagonalization
     ethr =  1.00E-06,  avg # of iterations =  3.0

     Threshold (ethr) on eigenvalues was too large:
     Diagonalizing with lowered threshold

     CG style diagonalization
     c_bands:  1 eigenvalues not converged
     c_bands:  1 eigenvalues not converged
     c_bands:  1 eigenvalues not converged
     c_bands:  1 eigenvalues not converged
     c_bands:  1 eigenvalues not converged
     c_bands:  2 eigenvalues not converged
     c_bands:  1 eigenvalues not converged
     c_bands:  1 eigenvalues not converged
     c_bands:  1 eigenvalues not converged
     ethr =  2.12E-09,  avg # of iterations =  7.3

     negative rho (up, down):  1.554E-02 0.000E+00

     total cpu time spent up to now is       87.7 secs

     total energy              =    -380.57206607 Ry
     estimated scf accuracy    <       0.00000104 Ry

     iteration #  2     ecut=    50.00 Ry     beta= 0.70
     CG style diagonalization
     ethr =  2.35E-09,  avg # of iterations =  4.5

     negative rho (up, down):  1.554E-02 0.000E+00

     total cpu time spent up to now is       88.6 secs

     total energy              =    -380.57206587 Ry
     estimated scf accuracy    <       0.00000357 Ry

     iteration #  3     ecut=    50.00 Ry     beta= 0.70
     CG style diagonalization
     ethr =  2.35E-09,  avg # of iterations =  4.2

     negative rho (up, down):  1.554E-02 0.000E+00

     total cpu time spent up to now is       89.4 secs

     total energy              =    -380.57206653 Ry
     estimated scf accuracy    <       0.00000015 Ry

     iteration #  4     ecut=    50.00 Ry     beta= 0.70
     CG style diagonalization
     ethr =  3.33E-10,  avg # of iterations =  3.7

     negative rho (up, down):  1.554E-02 0.000E+00

     total cpu time spent up to now is       90.1 secs

     total energy              =    -380.57206657 Ry
     estimated scf accuracy    <       0.00000001 Ry

     iteration #  5     ecut=    50.00 Ry     beta= 0.70
     CG style diagonalization
     ethr =  3.31E-11,  avg # of iterations =  4.6

     negative rho (up, down):  1.554E-02 0.000E+00

     total cpu time spent up to now is       91.1 secs

     total energy              =    -380.57206658 Ry
     estimated scf accuracy    <          5.3E-09 Ry

     iteration #  6     ecut=    50.00 Ry     beta= 0.70
     CG style diagonalization
     ethr =  1.21E-11,  avg # of iterations =  4.0

     negative rho (up, down):  1.554E-02 0.000E+00

     total cpu time spent up to now is       91.9 secs

     total energy              =    -380.57206658 Ry
     estimated scf accuracy    <          9.1E-10 Ry

     iteration #  7     ecut=    50.00 Ry     beta= 0.70
     CG style diagonalization
     ethr =  2.06E-12,  avg # of iterations =  4.5

     negative rho (up, down):  1.554E-02 0.000E+00

     total cpu time spent up to now is       92.8 secs

     total energy              =    -380.57206658 Ry
     estimated scf accuracy    <          2.0E-10 Ry

     iteration #  8     ecut=    50.00 Ry     beta= 0.70
     CG style diagonalization
     ethr =  4.45E-13,  avg # of iterations =  5.0

     negative rho (up, down):  1.554E-02 0.000E+00

     total cpu time spent up to now is       93.8 secs

     End of self-consistent calculation

          k = 0.0000 0.0000 0.0000 (  2525 PWs)   bands (ev):

   -45.7959 -22.4808 -22.3708 -22.3708  -7.5753  -6.5135  -6.2040  -4.9904
    -4.9904  -4.9483  -4.8642  -4.6805   4.2143   6.2490   6.2490   6.8003
     8.1191   8.1191   8.4485   8.6302   8.8733   8.8733

          k = 0.0000 0.0000 0.2378 (  2517 PWs)   bands (ev):

   -45.7956 -22.5004 -22.3700 -22.3700  -7.3894  -6.4615  -6.1439  -5.0054
    -5.0054  -4.9470  -4.8502  -4.7444   3.4655   6.2889   6.2889   6.8754
     7.9156   7.9156   8.3638   8.7856   8.9719   8.9719

          k = 0.0000 0.0000-0.4756 (  2530 PWs)   bands (ev):

   -45.7953 -22.5198 -22.3692 -22.3692  -7.1892  -6.4054  -6.0890  -5.0204
    -5.0204  -4.9457  -4.8368  -4.8125   2.9578   6.2127   6.3092   6.3092
     7.7909   7.7909   8.2828   9.0364   9.0364   9.9906

          k = 0.0000 0.1667 0.0000 (  2525 PWs)   bands (ev):

   -45.7955 -22.4801 -22.3881 -22.3701  -7.4413  -6.4878  -6.1851  -5.0116
    -4.9889  -4.9610  -4.8541  -4.6701   3.7957   6.3071   6.3579   6.7327
     8.1342   8.1449   8.4246   8.5050   8.5735   8.9710

          k = 0.0000 0.1667 0.2378 (  2521 PWs)   bands (ev):

   -45.7953 -22.4995 -22.3872 -22.3693  -7.2712  -6.4493  -6.1186  -5.0047
    -5.0045  -4.9602  -4.8498  -4.7042   3.2606   6.0902   6.4064   6.9289
     7.6053   7.9028   8.2158   8.6215   8.6528   9.3545

          k = 0.0000 0.1667-0.4756 (  2516 PWs)   bands (ev):

   -45.7950 -22.5188 -22.3863 -22.3685  -7.0967  -6.4063  -6.0483  -5.0199
    -4.9953  -4.9594  -4.8506  -4.7381   2.8411   5.7980   6.4303   6.5855
     7.4386   7.7838   8.2539   8.6780   8.7281   9.9612

          k = 0.0000 0.3333 0.0000 (  2514 PWs)   bands (ev):

   -45.7949 -22.4785 -22.4225 -22.3686  -7.1493  -6.4318  -6.1655  -5.0393
    -4.9866  -4.9855  -4.8206  -4.6813   3.2266   5.9470   6.6432   6.6698
     7.8071   7.8387   8.2216   8.2880   8.6611   9.6376

          k = 0.0000 0.3333 0.2378 (  2507 PWs)   bands (ev):

   -45.7946 -22.4977 -22.4215 -22.3678  -7.0413  -6.3957  -6.0742  -5.0059
    -5.0025  -4.9863  -4.8234  -4.6533   2.9161   5.8106   6.5444   6.7179
     7.2387   7.6665   7.8438   8.3118   8.8664   9.7045

          k = 0.0000 0.3333-0.4756 (  2518 PWs)   bands (ev):

   -45.7944 -22.5167 -22.4204 -22.3670  -6.9603  -6.3416  -5.9551  -5.0188
    -4.9865  -4.9631  -4.8549  -4.6122   2.6350   5.4892   6.3325   6.7406
     7.1065   7.3572   7.6193   8.3571   9.2515   9.5750

          k = 0.0000-0.5000 0.0000 (  2488 PWs)   bands (ev):

   -45.7946 -22.4776 -22.4397 -22.3679  -6.9881  -6.3858  -6.1834  -5.0497
    -4.9986  -4.9845  -4.7502  -4.7463   3.0202   5.6073   6.9060   6.9138
     7.3316   7.4382   8.2038   8.2545   8.6911  10.3708

          k = 0.0000-0.5000 0.2378 (  2506 PWs)   bands (ev):

   -45.7943 -22.4967 -22.4385 -22.3671  -6.9412  -6.3236  -6.0738  -5.0148
    -5.0015  -4.9993  -4.7818  -4.6520   2.7783   5.5650   6.5553   6.7697
     7.0935   7.2362   7.9447   8.2815   8.8781   9.8848

          k = 0.0000-0.5000-0.4756 (  2516 PWs)   bands (ev):

   -45.7940 -22.5156 -22.4374 -22.3662  -6.9264  -6.2581  -5.9105  -5.0183
    -4.9999  -4.9726  -4.8274  -4.5616   2.5528   5.3583   6.0243   6.7907
     7.0607   7.2958   7.3966   8.2978   9.2229   9.5698

          k = 0.1667 0.1667 0.0000 (  2498 PWs)   bands (ev):

   -45.7952 -22.4793 -22.3875 -22.3871  -7.3096  -6.4614  -6.1852  -5.0154
    -5.0019  -4.9634  -4.8242  -4.6602   3.4925   6.2524   6.4884   6.7271
     7.6567   7.7900   8.4685   8.5352   8.8224   9.1854

          k = 0.1667 0.1667 0.2378 (  2513 PWs)   bands (ev):

   -45.7950 -22.4987 -22.3866 -22.3863  -7.1512  -6.4395  -6.1166  -5.0164
    -4.9925  -4.9581  -4.8176  -4.6741   3.1422   6.0428   6.1239   6.8476
     7.4942   7.5190   8.2775   8.6786   8.9005   9.3325

          k = 0.1667 0.1667-0.4756 (  2522 PWs)   bands (ev):

   -45.7947 -22.5179 -22.3857 -22.3855  -6.9949  -6.4176  -6.0355  -5.0272
    -4.9722  -4.9358  -4.8243  -4.6920   2.8138   5.8402   5.8571   6.5721
     7.3512   7.4724   8.2106   8.7424   8.9543   9.6833

          k = 0.1667 0.3333 0.0000 (  2515 PWs)   bands (ev):

   -45.7946 -22.4777 -22.4216 -22.3858  -7.0250  -6.4068  -6.2021  -5.0322
    -4.9906  -4.9469  -4.7820  -4.6691   3.0145   5.9575   6.4915   6.8238
     7.1481   7.7069   8.0390   8.6521   8.8193   9.6826

          k = 0.1667 0.3333 0.2378 (  2507 PWs)   bands (ev):

   -45.7943 -22.4969 -22.4206 -22.3849  -6.9171  -6.3983  -6.1191  -5.0112
    -4.9881  -4.9286  -4.7678  -4.6314   2.9007   5.7821   5.9432   6.4626
     6.9001   7.5633   8.3344   8.6170   8.9555   9.4316

          k = 0.1667 0.3333-0.4756 (  2514 PWs)   bands (ev):

   -45.7940 -22.5159 -22.4196 -22.3841  -6.8411  -6.3801  -6.0006  -5.0114
    -4.9645  -4.8931  -4.7759  -4.5878   2.7471   5.4410   5.8411   6.2160
     6.4048   7.4188   8.4388   8.6611   8.9689   9.3872

          k = 0.1667-0.5000 0.0000 (  2520 PWs)   bands (ev):

   -45.7943 -22.4768 -22.4388 -22.3850  -6.8682  -6.3636  -6.2372  -5.0333
    -4.9829  -4.9282  -4.7290  -4.7246   2.8243   5.6253   6.6208   6.8145
     7.1847   7.4571   7.8424   8.7019   8.7994  10.0032

          k = 0.1667-0.5000 0.2378 (  2512 PWs)   bands (ev):

   -45.7940 -22.4959 -22.4376 -22.3841  -6.8168  -6.3354  -6.1409  -5.0094
    -4.9755  -4.9125  -4.7329  -4.6298   2.7902   5.5723   5.8461   6.2325
     6.8491   7.6991   8.1253   8.6154   8.9680   9.3998

          k = 0.1667-0.5000-0.4756 (  2520 PWs)   bands (ev):

   -45.7937 -22.5148 -22.4365 -22.3833  -6.8066  -6.3082  -5.9858  -5.0066
    -4.9371  -4.8953  -4.7447  -4.5397   2.7180   5.3268   5.6786   5.8706
     6.3003   7.5334   8.3235   8.5838   8.6432   9.5828

          k = 0.3333 0.3333 0.0000 (  2522 PWs)   bands (ev):

   -45.7939 -22.4761 -22.4200 -22.4197  -6.7691  -6.3585  -6.2703  -5.0128
    -4.9691  -4.8698  -4.7110  -4.6690   2.6153   5.9079   6.0889   6.8984
     7.0741   7.1982   7.8800   8.4930   9.2991   9.4312

          k = 0.3333 0.3333 0.2378 (  2512 PWs)   bands (ev):

   -45.7937 -22.4951 -22.4190 -22.4188  -6.6660  -6.3976  -6.2044  -4.9760
    -4.9650  -4.8268  -4.6655  -4.6010   2.7970   5.5551   5.6389   5.9044
     6.6270   7.0708   8.4198   8.9282   8.9668   9.3161

          k = 0.3333 0.3333-0.4756 (  2502 PWs)   bands (ev):

   -45.7934 -22.5140 -22.4180 -22.4179  -6.6168  -6.4344  -6.0738  -4.9603
    -4.9403  -4.7788  -4.6192  -4.5352   2.9691   5.1568   5.1942   5.6734
     6.3588   6.5457   7.7560   9.2710   9.2853   9.4579

          k = 0.3333-0.5000 0.0000 (  2520 PWs)   bands (ev):

   -45.7936 -22.4752 -22.4368 -22.4189  -6.6395  -6.3250  -6.3104  -5.0051
    -4.9467  -4.7979  -4.7119  -4.6726   2.4304   5.5953   6.1265   6.7379
     7.2462   7.3874   7.4762   8.4804   9.1348   9.4934

          k = 0.3333-0.5000 0.2378 (  2514 PWs)   bands (ev):

   -45.7934 -22.4941 -22.4359 -22.4181  -6.5556  -6.3627  -6.2606  -4.9684
    -4.9386  -4.7472  -4.6408  -4.5893   2.7123   5.4788   5.5498   5.6651
     6.4001   7.1429   7.9955   8.9351   8.9441   9.4692

          k = 0.3333-0.5000-0.4756 (  2496 PWs)   bands (ev):

   -45.7931 -22.5130 -22.4349 -22.4172  -6.5629  -6.3984  -6.1058  -4.9436
    -4.9194  -4.7049  -4.5693  -4.4958   3.0676   4.9210   5.1188   5.4457
     6.1482   6.5455   7.0338   9.3774   9.4396   9.6129

          k =-0.5000-0.5000 0.0000 (  2496 PWs)   bands (ev):

   -45.7933 -22.4742 -22.4359 -22.4359  -6.5544  -6.3088  -6.3088  -4.9954
    -4.9065  -4.7154  -4.7154  -4.6650   2.2363   5.4350   5.9969   6.9689
     6.9689   7.4858   7.4858   8.2530   8.6659   9.7453

          k =-0.5000-0.5000 0.2378 (  2508 PWs)   bands (ev):

   -45.7930 -22.4932 -22.4350 -22.4350  -6.3778  -6.3778  -6.3585  -4.9575
    -4.9046  -4.6384  -4.5961  -4.5961   2.6165   5.3923   5.6110   5.6110
     6.0032   7.0804   7.3857   8.9607   8.9607   9.7305

          k =-0.5000-0.5000-0.4756 (  2504 PWs)   bands (ev):

   -45.7928 -22.5120 -22.4341 -22.4341  -6.4394  -6.4394  -6.1565  -4.9195
    -4.9028  -4.6032  -4.4822  -4.4822   3.1942   4.9881   4.9881   5.2799
     6.0095   6.1147   6.2348   9.6286   9.6286   9.7157

     highest occupied level (ev):    10.3708

!    total energy              =    -380.57206658 Ry
     estimated scf accuracy    <          8.9E-12 Ry

     The total energy is the sum of the following terms:
     one-electron contribution =     -85.70744538 Ry
     hartree contribution      =      71.99797495 Ry
     xc contribution           =    -102.58424230 Ry
     ewald contribution        =    -264.27835385 Ry

     convergence has been achieved in   8 iterations

     negative rho (up, down):  1.554E-02 0.000E+00

     Forces acting on atoms (cartesian axes, Ry/au):

     atom    1 type  1   force =     0.00000000    0.00000000    0.00014966
     atom    2 type  2   force =     0.00000000    0.00000000   -0.00083761
     atom    3 type  3   force =     0.00000000    0.00000000    0.00037555
     atom    4 type  3   force =     0.00000000    0.00000000    0.00015620
     atom    5 type  3   force =     0.00000000    0.00000000    0.00015620

     Total force =     0.000956     Total SCF correction =     0.000006


     Computing stress (Cartesian axis) and pressure


     negative rho (up, down):  1.554E-02 0.000E+00
          total   stress  (Ry/bohr**3)                   (kbar)     P=      -44.10
  -0.00035098   0.00000000   0.00000000          -51.63        0.00        0.00
   0.00000000  -0.00035098   0.00000000            0.00      -51.63        0.00
   0.00000000   0.00000000  -0.00019744            0.00        0.00      -29.04

     Energy error            =      3.0E-06 Ry
     Gradient error          =      8.4E-04 Ry/Bohr

     bfgs converged in   9 scf cycles and   8 bfgs steps
     (criteria: energy <  1.0E-04 Ry, force <  1.0E-03 Ry/Bohr)

     End of BFGS Geometry Optimization

     Final energy             =    -380.5720665802 Ry

     File ./pto_50.bfgs deleted, as requested
Begin final coordinates

ATOMIC_POSITIONS (crystal)
Pb               0.0000000000        0.0000000000        0.9935307630
Ti               0.5000000000        0.5000000000        0.5381610617
O                0.5000000000        0.5000000000        0.1066705026
O                0.5000000000        0.0000000000        0.6144609804
O                0.0000000000        0.5000000000        0.6144609804
End final coordinates



     Writing all to output data dir ./pto_50.save/ :
     XML data file, charge density, pseudopotentials, collected wavefunctions
 
     init_run     :      0.39s CPU      0.47s WALL (       1 calls)
     electrons    :     78.66s CPU     83.70s WALL (       9 calls)
     update_pot   :      0.03s CPU      0.03s WALL (       8 calls)
     forces       :      0.94s CPU      0.98s WALL (       9 calls)
     stress       :      8.74s CPU      8.85s WALL (       9 calls)

     Called by init_run:
     wfcinit      :      0.16s CPU      0.18s WALL (       1 calls)
     potinit      :      0.01s CPU      0.01s WALL (       1 calls)
     hinit0       :      0.12s CPU      0.15s WALL (       1 calls)

     Called by electrons:
     c_bands      :     66.59s CPU     70.67s WALL (      88 calls)
     sum_band     :      8.19s CPU      8.62s WALL (      88 calls)
     v_of_rho     :      0.14s CPU      0.14s WALL (      93 calls)
     newd         :      3.94s CPU      4.35s WALL (      93 calls)
     mix_rho      :      0.09s CPU      0.10s WALL (      88 calls)

     Called by c_bands:
     init_us_2    :      0.59s CPU      0.62s WALL (    5850 calls)
     init_us_2:cp :      0.58s CPU      0.61s WALL (    5850 calls)
     ccgdiagg     :     59.96s CPU     63.72s WALL (    2640 calls)
     wfcrot       :      6.32s CPU      6.63s WALL (    2280 calls)

     Called by *cgdiagg:
     h_psi        :     37.26s CPU     39.50s WALL (  223926 calls)
     s_psi        :      6.53s CPU      6.96s WALL (  445572 calls)

     Called by h_psi:
     h_psi:calbec :      5.82s CPU      6.18s WALL (  223926 calls)
     vloc_psi     :     26.14s CPU     27.71s WALL (  223926 calls)
     add_vuspsi   :      3.48s CPU      3.70s WALL (  223926 calls)
     hs_1psi      :     36.81s CPU     39.10s WALL (  221646 calls)
     s_1psi       :      9.09s CPU      9.64s WALL (  221646 calls)

     General routines
     calbec       :     10.57s CPU     11.23s WALL (  449562 calls)
     fft          :      0.16s CPU      0.18s WALL (     624 calls)
     ffts         :      0.01s CPU      0.01s WALL (     181 calls)
     fftw         :     22.16s CPU     23.42s WALL (  602232 calls)
     interpolate  :      0.03s CPU      0.03s WALL (      93 calls)
 
     Parallel routines
 
     PWSCF        :   1m29.34s CPU   1m35.23s WALL

 
   This run was terminated on:   0:20:15  13Nov2025            

=------------------------------------------------------------------------------=
   JOB DONE.
=------------------------------------------------------------------------------=
TACC:  Shutdown complete. Exiting. 
