TACC:  Starting up job 2403586 
TACC:  Starting parallel tasks... 

     Program PWSCF v.7.3 starts on 23Sep2025 at 13:25:45 

     This program is part of the open-source Quantum ESPRESSO suite
     for quantum simulation of materials; please cite
         "P. Giannozzi et al., J. Phys.:Condens. Matter 21 395502 (2009);
         "P. Giannozzi et al., J. Phys.:Condens. Matter 29 465901 (2017);
         "P. Giannozzi et al., J. Chem. Phys. 152 154105 (2020);
          URL http://www.quantum-espresso.org", 
     in publications or presentations arising from this work. More details at
     http://www.quantum-espresso.org/quote

     Parallel version (MPI & OpenMP), running on      10 processor cores
     Number of MPI processes:                10
     Threads/MPI process:                     1

     MPI processes distributed on     1 nodes
     187029 MiB available memory on the printing compute node when the environment starts
 
     Waiting for input...
     Reading input from standard input
Warning: card &CELL ignored
Warning: card  CELL_DYNAMICS = 'BFGS', ignored
Warning: card  PRESS=0.D0, ignored
Warning: card / ignored
     Message from routine read_cards :
     DEPRECATED: no units specified in ATOMIC_POSITIONS card
     Message from routine read_cards :
     ATOMIC_POSITIONS: units set to alat

     Current dimensions of program PWSCF are:
     Max number of different atomic species (ntypx) = 10
     Max number of k-points (npk) =  40000
     Max angular momentum in pseudopotentials (lmaxx) =  4
 
     R & G space division:  proc/nbgrp/npool/nimage =      10
     Subspace diagonalization in iterative solution of the eigenvalue problem:
     a serial algorithm will be used

 
     Parallelization info
     --------------------
     sticks:   dense  smooth     PW     G-vecs:    dense   smooth      PW
     Min         430     173     49                21291     5381     837
     Max         431     175     50                21292     5382     840
     Sum        4309    1733    497               212911    53811    8385
 
     Using Slab Decomposition
 


     bravais-lattice index     =            1
     lattice parameter (alat)  =       7.3573  a.u.
     unit-cell volume          =     398.2496 (a.u.)^3
     number of atoms/cell      =            5
     number of atomic types    =            3
     number of electrons       =        40.00
     number of Kohn-Sham states=           20
     kinetic-energy cutoff     =     100.0000  Ry
     charge density cutoff     =    1000.0000  Ry
     scf convergence threshold =      1.0E-08
     mixing beta               =       0.7000
     number of iterations used =            8  plain     mixing
     Exchange-correlation= SLA  PZ   NOGX NOGC
                           (   1   1   0   0   0   0   0)

     celldm(1)=   7.357300  celldm(2)=   0.000000  celldm(3)=   0.000000
     celldm(4)=   0.000000  celldm(5)=   0.000000  celldm(6)=   0.000000

     crystal axes: (cart. coord. in units of alat)
               a(1) = (   1.000000   0.000000   0.000000 )  
               a(2) = (   0.000000   1.000000   0.000000 )  
               a(3) = (   0.000000   0.000000   1.000000 )  

     reciprocal axes: (cart. coord. in units 2 pi/alat)
               b(1) = (  1.000000  0.000000  0.000000 )  
               b(2) = (  0.000000  1.000000  0.000000 )  
               b(3) = (  0.000000  0.000000  1.000000 )  


     PseudoPot. # 1 for Ca read from file:
     /scratch/11018/zhc/assisgnment1/CaTiO3/Ca_LDA.UPF
     MD5 check sum: d2d4e7693e10d071152e9eeb7dd009f3
     Pseudo is Ultrasoft + core correction, Zval = 10.0
     Generated by new atomic code, or converted to UPF format
     Using radial grid of  845 points,  6 beta functions with: 
                l(1) =   0
                l(2) =   0
                l(3) =   1
                l(4) =   1
                l(5) =   2
                l(6) =   2
     Q(r) pseudized with  8 coefficients,  rinner =    1.500   1.500   1.500
                                                       1.500   1.500

     PseudoPot. # 2 for Ti read from file:
     /scratch/11018/zhc/assisgnment1/CaTiO3/Ti_LDA.UPF
     MD5 check sum: 0d9f225c038fe889ca2a701dcc8d72cb
     Pseudo is Ultrasoft + core correction, Zval = 12.0
     Generated by new atomic code, or converted to UPF format
     Using radial grid of  851 points,  6 beta functions with: 
                l(1) =   0
                l(2) =   0
                l(3) =   1
                l(4) =   1
                l(5) =   2
                l(6) =   2
     Q(r) pseudized with  6 coefficients,  rinner =    1.000   1.000   1.000
                                                       1.000   1.000

     PseudoPot. # 3 for O  read from file:
     /scratch/11018/zhc/assisgnment1/CaTiO3/O_LDA.UPF
     MD5 check sum: 194b818514d2a7dbb603bb78519a4f40
     Pseudo is Ultrasoft + core correction, Zval =  6.0
     Generated by new atomic code, or converted to UPF format
     Using radial grid of  737 points,  5 beta functions with: 
                l(1) =   0
                l(2) =   0
                l(3) =   1
                l(4) =   1
                l(5) =   2
     Q(r) pseudized with  8 coefficients,  rinner =    0.900   0.900   0.900
                                                       0.900   0.900

     atomic species   valence    mass     pseudopotential
     Ca               10.00    40.07800     Ca( 1.00)
     Ti               12.00    47.88000     Ti( 1.00)
     O                 6.00    16.00000     O ( 1.00)

      8 Sym. Ops. (no inversion) found



   Cartesian axes

     site n.     atom                  positions (alat units)
         1        Ca     tau(   1) = (   0.0000000   0.0000000   0.0500000  )
         2        Ti     tau(   2) = (   0.5000000   0.5000000   0.5000000  )
         3        O      tau(   3) = (   0.5000000   0.5000000   0.0000000  )
         4        O      tau(   4) = (   0.5000000   0.0000000   0.5000000  )
         5        O      tau(   5) = (   0.0000000   0.5000000   0.5000000  )

     number of k points=    18
                       cart. coord. in units 2pi/alat
        k(    1) = (   0.0000000   0.0000000   0.0000000), wk =   0.0312500
        k(    2) = (   0.0000000   0.0000000   0.2500000), wk =   0.0625000
        k(    3) = (   0.0000000   0.0000000  -0.5000000), wk =   0.0312500
        k(    4) = (   0.0000000   0.2500000   0.2500000), wk =   0.2500000
        k(    5) = (   0.0000000   0.2500000  -0.5000000), wk =   0.1250000
        k(    6) = (   0.0000000  -0.5000000  -0.5000000), wk =   0.0625000
        k(    7) = (   0.2500000   0.2500000   0.2500000), wk =   0.2500000
        k(    8) = (   0.2500000   0.2500000  -0.5000000), wk =   0.1250000
        k(    9) = (   0.2500000  -0.5000000  -0.5000000), wk =   0.1250000
        k(   10) = (  -0.5000000  -0.5000000  -0.5000000), wk =   0.0312500
        k(   11) = (   0.2500000   0.0000000   0.0000000), wk =   0.1250000
        k(   12) = (  -0.5000000   0.0000000   0.0000000), wk =   0.0625000
        k(   13) = (   0.2500000  -0.2500000   0.0000000), wk =   0.1250000
        k(   14) = (  -0.5000000  -0.2500000   0.0000000), wk =   0.1250000
        k(   15) = (   0.0000000  -0.5000000   0.2500000), wk =   0.1250000
        k(   16) = (  -0.5000000   0.5000000   0.0000000), wk =   0.0312500
        k(   17) = (  -0.5000000  -0.2500000   0.2500000), wk =   0.2500000
        k(   18) = (  -0.5000000   0.5000000   0.2500000), wk =   0.0625000

     Dense  grid:   212911 G-vectors     FFT dimensions: (  75,  75,  75)

     Smooth grid:    53811 G-vectors     FFT dimensions: (  48,  48,  48)

     Estimated max dynamical RAM per process >      90.70 MB

     Estimated total dynamical RAM >     906.99 MB

     Check: negative core charge=   -0.000001

     Initial potential from superposition of free atoms

     starting charge      38.9952, renormalised to      40.0000

     negative rho (up, down):  8.541E-04 0.000E+00
     Starting wfcs are   32 randomized atomic wfcs

     total cpu time spent up to now is        0.8 secs

     Self-consistent Calculation

     iteration #  1     ecut=   100.00 Ry     beta= 0.70
     CG style diagonalization
     ethr =  1.00E-02,  avg # of iterations =  2.2

     negative rho (up, down):  1.121E-03 0.000E+00

     total cpu time spent up to now is        1.6 secs

     total energy              =    -291.28912082 Ry
     estimated scf accuracy    <       0.84216131 Ry

     iteration #  2     ecut=   100.00 Ry     beta= 0.70
     CG style diagonalization
     ethr =  2.11E-03,  avg # of iterations =  5.1

     negative rho (up, down):  6.531E-04 0.000E+00

     total cpu time spent up to now is        2.7 secs

     total energy              =    -290.61957532 Ry
     estimated scf accuracy    <       6.45074573 Ry

     iteration #  3     ecut=   100.00 Ry     beta= 0.70
     CG style diagonalization
     ethr =  2.11E-03,  avg # of iterations =  4.6

     negative rho (up, down):  7.532E-04 0.000E+00

     total cpu time spent up to now is        3.8 secs

     total energy              =    -291.72843384 Ry
     estimated scf accuracy    <       0.17841130 Ry

     iteration #  4     ecut=   100.00 Ry     beta= 0.70
     CG style diagonalization
     ethr =  4.46E-04,  avg # of iterations =  3.5

     negative rho (up, down):  8.274E-04 0.000E+00

     total cpu time spent up to now is        4.7 secs

     total energy              =    -291.74043691 Ry
     estimated scf accuracy    <       0.05107914 Ry

     iteration #  5     ecut=   100.00 Ry     beta= 0.70
     CG style diagonalization
     ethr =  1.28E-04,  avg # of iterations =  3.5

     negative rho (up, down):  8.543E-04 0.000E+00

     total cpu time spent up to now is        5.5 secs

     total energy              =    -291.75032635 Ry
     estimated scf accuracy    <       0.00088504 Ry

     iteration #  6     ecut=   100.00 Ry     beta= 0.70
     CG style diagonalization
     ethr =  2.21E-06,  avg # of iterations =  4.6

     negative rho (up, down):  8.653E-04 0.000E+00

     total cpu time spent up to now is        6.6 secs

     total energy              =    -291.75161090 Ry
     estimated scf accuracy    <       0.00072851 Ry

     iteration #  7     ecut=   100.00 Ry     beta= 0.70
     CG style diagonalization
     ethr =  1.82E-06,  avg # of iterations =  3.3

     negative rho (up, down):  8.571E-04 0.000E+00

     total cpu time spent up to now is        7.4 secs

     total energy              =    -291.75152995 Ry
     estimated scf accuracy    <       0.00047713 Ry

     iteration #  8     ecut=   100.00 Ry     beta= 0.70
     CG style diagonalization
     ethr =  1.19E-06,  avg # of iterations =  3.3

     negative rho (up, down):  8.549E-04 0.000E+00

     total cpu time spent up to now is        8.2 secs

     total energy              =    -291.75155120 Ry
     estimated scf accuracy    <       0.00008599 Ry

     iteration #  9     ecut=   100.00 Ry     beta= 0.70
     CG style diagonalization
     ethr =  2.15E-07,  avg # of iterations =  3.5

     negative rho (up, down):  8.531E-04 0.000E+00

     total cpu time spent up to now is        9.1 secs

     total energy              =    -291.75156342 Ry
     estimated scf accuracy    <       0.00000559 Ry

     iteration # 10     ecut=   100.00 Ry     beta= 0.70
     CG style diagonalization
     ethr =  1.40E-08,  avg # of iterations =  4.3

     negative rho (up, down):  8.534E-04 0.000E+00

     total cpu time spent up to now is       10.1 secs

     total energy              =    -291.75156823 Ry
     estimated scf accuracy    <       0.00000163 Ry

     iteration # 11     ecut=   100.00 Ry     beta= 0.70
     CG style diagonalization
     ethr =  4.09E-09,  avg # of iterations =  3.5

     negative rho (up, down):  8.535E-04 0.000E+00

     total cpu time spent up to now is       11.0 secs

     total energy              =    -291.75156850 Ry
     estimated scf accuracy    <       0.00000024 Ry

     iteration # 12     ecut=   100.00 Ry     beta= 0.70
     CG style diagonalization
     ethr =  6.07E-10,  avg # of iterations =  3.7

     negative rho (up, down):  8.536E-04 0.000E+00

     total cpu time spent up to now is       11.9 secs

     End of self-consistent calculation

          k = 0.0000 0.0000 0.0000 (  6763 PWs)   bands (ev):

   -47.1967 -30.1500 -23.7912 -23.7912 -23.7824 -11.3729 -11.3510 -11.3510
    -8.5641  -7.4866  -7.4368   5.5480   5.5526   5.5526   7.4488   7.4550
     7.4550   8.1796   8.1796   8.1950

          k = 0.0000 0.0000 0.2500 (  6743 PWs)   bands (ev):

   -47.1961 -30.1471 -23.8183 -23.7895 -23.7895 -11.4929 -11.3454 -11.3454
    -8.2490  -7.4666  -7.2805   4.9363   5.5959   5.5959   6.7797   6.7836
     6.7836   7.0343   7.9670   7.9670

          k = 0.0000 0.0000-0.5000 (  6696 PWs)   bands (ev):

   -47.1955 -30.1442 -23.8537 -23.7878 -23.7878 -11.6025 -11.3399 -11.3399
    -7.9334  -7.4464  -7.1074   4.2351   5.7880   5.7880   5.9039   6.0925
     6.0925   6.6816   7.8754   7.8754

          k = 0.0000 0.2500 0.2500 (  6715 PWs)   bands (ev):

   -47.1955 -30.1440 -23.8259 -23.8170 -23.7878 -11.4800 -11.4249 -11.3394
    -8.0064  -7.3592  -7.2092   4.6510   5.1422   5.5141   5.6202   6.4390
     6.8463   7.0576   7.5021   7.8789

          k = 0.0000 0.2500-0.5000 (  6726 PWs)   bands (ev):

   -47.1949 -30.1409 -23.8528 -23.8245 -23.7861 -11.5488 -11.4158 -11.3332
    -7.8230  -7.2824  -7.0252   4.2240   4.4435   5.1248   5.7738   5.9480
     6.5048   6.9929   7.2741   7.9887

          k = 0.0000-0.5000-0.5000 (  6728 PWs)   bands (ev):

   -47.1943 -30.1376 -23.8608 -23.8519 -23.7845 -11.4926 -11.4915 -11.3266
    -7.8138  -6.9852  -6.9436   3.7861   4.0566   4.3668   5.7481   5.8108
     6.6903   6.7188   6.8805   8.5872

          k = 0.2500 0.2500 0.2500 (  6698 PWs)   bands (ev):

   -47.1949 -30.1408 -23.8243 -23.8243 -23.8154 -11.4644 -11.4072 -11.4061
    -7.7399  -7.2505  -7.2191   4.4802   5.0759   5.0807   5.5273   5.5301
     5.7545   7.6375   7.6838   8.0147

          k = 0.2500 0.2500-0.5000 (  6718 PWs)   bands (ev):

   -47.1943 -30.1377 -23.8513 -23.8230 -23.8225 -11.5091 -11.4075 -11.3901
    -7.5473  -7.2644  -7.0062   4.2228   4.4562   4.8155   4.9115   5.3052
     5.7238   7.6648   7.7820   8.1321

          k = 0.2500-0.5000-0.5000 (  6720 PWs)   bands (ev):

   -47.1937 -30.1345 -23.8589 -23.8498 -23.8209 -11.4662 -11.4657 -11.3820
    -7.4598  -7.0261  -6.9864   4.0379   4.0665   4.3757   4.7698   4.8034
     5.4163   7.8933   7.9513   8.6219

          k =-0.5000-0.5000-0.5000 (  6776 PWs)   bands (ev):

   -47.1931 -30.1315 -23.8569 -23.8569 -23.8477 -11.4394 -11.4394 -11.4365
    -7.0678  -7.0678  -7.0309   3.9336   4.2774   4.3013   4.3013   4.3682
     4.3893   8.6006   8.6562   8.6562

          k = 0.2500 0.0000 0.0000 (  6743 PWs)   bands (ev):

   -47.1961 -30.1471 -23.8272 -23.7894 -23.7808 -11.4806 -11.3606 -11.3456
    -8.2405  -7.4368  -7.3158   4.9197   5.5974   5.5987   6.7561   6.7562
     6.7896   7.0736   7.9976   8.0013

          k =-0.5000 0.0000 0.0000 (  6696 PWs)   bands (ev):

   -47.1955 -30.1441 -23.8627 -23.7877 -23.7792 -11.5956 -11.3518 -11.3402
    -7.9123  -7.4200  -7.1498   4.2023   5.8254   5.8521   5.9020   6.0240
     6.0251   6.7497   7.9145   7.9152

          k = 0.2500-0.2500 0.0000 (  6715 PWs)   bands (ev):

   -47.1955 -30.1439 -23.8262 -23.8256 -23.7792 -11.4725 -11.4242 -11.3503
    -7.9935  -7.3413  -7.2369   4.6289   5.1368   5.4709   5.6603   6.4535
     6.8917   7.0914   7.5276   7.8118

          k =-0.5000-0.2500 0.0000 (  6726 PWs)   bands (ev):

   -47.1949 -30.1407 -23.8619 -23.8246 -23.7775 -11.5430 -11.4180 -11.3416
    -7.7930  -7.2685  -7.0634   4.1856   4.4215   5.1301   5.8333   5.9264
     6.5368   7.0467   7.3123   7.9252

          k = 0.0000-0.5000 0.2500 (  6726 PWs)   bands (ev):

   -47.1949 -30.1408 -23.8618 -23.8158 -23.7861 -11.5441 -11.4228 -11.3334
    -7.8171  -7.2442  -7.0669   4.1892   4.4394   5.1704   5.8215   5.8826
     6.4838   7.0301   7.2940   8.0014

          k =-0.5000 0.5000 0.0000 (  6728 PWs)   bands (ev):

   -47.1943 -30.1373 -23.8611 -23.8611 -23.7759 -11.4907 -11.4907 -11.3339
    -7.7789  -6.9786  -6.9786   3.7779   4.0264   4.3507   5.8016   5.8016
     6.7364   6.7364   6.9188   8.5089

          k =-0.5000-0.2500 0.2500 (  6718 PWs)   bands (ev):

   -47.1943 -30.1376 -23.8604 -23.8228 -23.8139 -11.5046 -11.4168 -11.3875
    -7.5307  -7.2404  -7.0440   4.1847   4.4387   4.8071   4.9435   5.3250
     5.7534   7.7279   7.7465   8.1121

          k =-0.5000 0.5000 0.2500 (  6720 PWs)   bands (ev):

   -47.1937 -30.1344 -23.8590 -23.8590 -23.8120 -11.4653 -11.4653 -11.3855
    -7.4233  -7.0229  -7.0229   4.0227   4.0424   4.3595   4.8026   4.8026
     5.4537   7.9530   7.9530   8.5542

     highest occupied level (ev):     8.6562

!    total energy              =    -291.75156855 Ry
     estimated scf accuracy    <          7.6E-09 Ry

     The total energy is the sum of the following terms:
     one-electron contribution =     -94.03880404 Ry
     hartree contribution      =      66.23061922 Ry
     xc contribution           =     -51.22346738 Ry
     ewald contribution        =    -212.71991636 Ry

     convergence has been achieved in  12 iterations

     negative rho (up, down):  8.536E-04 0.000E+00

     Forces acting on atoms (cartesian axes, Ry/au):

     atom    1 type  1   force =     0.00000000    0.00000000   -0.00148708
     atom    2 type  2   force =     0.00000000    0.00000000    0.01693012
     atom    3 type  3   force =     0.00000000    0.00000000    0.00782864
     atom    4 type  3   force =     0.00000000    0.00000000   -0.01163584
     atom    5 type  3   force =     0.00000000    0.00000000   -0.01163584

     Total force =     0.024918     Total SCF correction =     0.000043


     Computing stress (Cartesian axis) and pressure


     negative rho (up, down):  8.536E-04 0.000E+00
          total   stress  (Ry/bohr**3)                   (kbar)     P=     -113.25
  -0.00077094   0.00000000   0.00000000         -113.41        0.00        0.00
   0.00000000  -0.00077094   0.00000000            0.00     -113.41        0.00
   0.00000000   0.00000000  -0.00076767            0.00        0.00     -112.93


     Writing all to output data dir ./CTO_DIS_K4.save/ :
     XML data file, charge density, pseudopotentials, collected wavefunctions
 
     init_run     :      0.48s CPU      0.59s WALL (       1 calls)
     electrons    :     10.50s CPU     11.07s WALL (       1 calls)
     forces       :      0.22s CPU      0.23s WALL (       1 calls)
     stress       :      1.66s CPU      1.70s WALL (       1 calls)

     Called by init_run:
     wfcinit      :      0.18s CPU      0.20s WALL (       1 calls)
     potinit      :      0.01s CPU      0.02s WALL (       1 calls)
     hinit0       :      0.14s CPU      0.18s WALL (       1 calls)

     Called by electrons:
     c_bands      :      7.00s CPU      7.25s WALL (      12 calls)
     sum_band     :      2.11s CPU      2.24s WALL (      12 calls)
     v_of_rho     :      0.04s CPU      0.05s WALL (      13 calls)
     newd         :      1.38s CPU      1.57s WALL (      13 calls)
     mix_rho      :      0.03s CPU      0.04s WALL (      12 calls)

     Called by c_bands:
     init_us_2    :      0.13s CPU      0.13s WALL (     486 calls)
     init_us_2:cp :      0.13s CPU      0.13s WALL (     486 calls)
     ccgdiagg     :      6.00s CPU      6.21s WALL (     216 calls)
     wfcrot       :      1.07s CPU      1.12s WALL (     216 calls)

     Called by *cgdiagg:
     h_psi        :      4.41s CPU      4.56s WALL (   12559 calls)
     s_psi        :      0.78s CPU      0.81s WALL (   24902 calls)

     Called by h_psi:
     h_psi:calbec :      0.75s CPU      0.78s WALL (   12559 calls)
     vloc_psi     :      3.10s CPU      3.20s WALL (   12559 calls)
     add_vuspsi   :      0.44s CPU      0.46s WALL (   12559 calls)
     hs_1psi      :      3.96s CPU      4.10s WALL (   12343 calls)
     s_1psi       :      0.95s CPU      0.98s WALL (   12343 calls)

     General routines
     calbec       :      1.29s CPU      1.34s WALL (   25208 calls)
     fft          :      0.06s CPU      0.08s WALL (      84 calls)
     ffts         :      0.00s CPU      0.01s WALL (      25 calls)
     fftw         :      2.44s CPU      2.52s WALL (   38078 calls)
     interpolate  :      0.01s CPU      0.02s WALL (      13 calls)
 
     Parallel routines
 
     PWSCF        :     13.08s CPU     14.30s WALL

 
   This run was terminated on:  13:26: 0  23Sep2025            

=------------------------------------------------------------------------------=
   JOB DONE.
=------------------------------------------------------------------------------=
TACC:  Shutdown complete. Exiting. 
