TACC:  Starting up job 2409258 
TACC:  Starting parallel tasks... 

     Program PWSCF v.7.3 starts on 24Sep2025 at 14:51:59 

     This program is part of the open-source Quantum ESPRESSO suite
     for quantum simulation of materials; please cite
         "P. Giannozzi et al., J. Phys.:Condens. Matter 21 395502 (2009);
         "P. Giannozzi et al., J. Phys.:Condens. Matter 29 465901 (2017);
         "P. Giannozzi et al., J. Chem. Phys. 152 154105 (2020);
          URL http://www.quantum-espresso.org", 
     in publications or presentations arising from this work. More details at
     http://www.quantum-espresso.org/quote

     Parallel version (MPI & OpenMP), running on      10 processor cores
     Number of MPI processes:                10
     Threads/MPI process:                     1

     MPI processes distributed on     1 nodes
     189301 MiB available memory on the printing compute node when the environment starts
 
     Waiting for input...
     Reading input from standard input
Warning: card &CELL ignored
Warning: card  CELL_DYNAMICS = 'BFGS', ignored
Warning: card  PRESS=0.D0, ignored
Warning: card / ignored
     Message from routine read_cards :
     DEPRECATED: no units specified in ATOMIC_POSITIONS card
     Message from routine read_cards :
     ATOMIC_POSITIONS: units set to alat

     Current dimensions of program PWSCF are:
     Max number of different atomic species (ntypx) = 10
     Max number of k-points (npk) =  40000
     Max angular momentum in pseudopotentials (lmaxx) =  4
 
     R & G space division:  proc/nbgrp/npool/nimage =      10
     Subspace diagonalization in iterative solution of the eigenvalue problem:
     a serial algorithm will be used

 
     Parallelization info
     --------------------
     sticks:   dense  smooth     PW     G-vecs:    dense   smooth      PW
     Min         454     181     51                23060     5825     903
     Max         455     182     52                23061     5828     906
     Sum        4545    1813    517               230605    58269    9045
 
     Using Slab Decomposition
 


     bravais-lattice index     =            1
     lattice parameter (alat)  =       7.5616  a.u.
     unit-cell volume          =     432.3513 (a.u.)^3
     number of atoms/cell      =            5
     number of atomic types    =            3
     number of electrons       =        40.00
     number of Kohn-Sham states=           20
     kinetic-energy cutoff     =     100.0000  Ry
     charge density cutoff     =    1000.0000  Ry
     scf convergence threshold =      1.0E-08
     mixing beta               =       0.7000
     number of iterations used =            8  plain     mixing
     Exchange-correlation= SLA  PZ   NOGX NOGC
                           (   1   1   0   0   0   0   0)

     celldm(1)=   7.561575  celldm(2)=   0.000000  celldm(3)=   0.000000
     celldm(4)=   0.000000  celldm(5)=   0.000000  celldm(6)=   0.000000

     crystal axes: (cart. coord. in units of alat)
               a(1) = (   1.000000   0.000000   0.000000 )  
               a(2) = (   0.000000   1.000000   0.000000 )  
               a(3) = (   0.000000   0.000000   1.000000 )  

     reciprocal axes: (cart. coord. in units 2 pi/alat)
               b(1) = (  1.000000  0.000000  0.000000 )  
               b(2) = (  0.000000  1.000000  0.000000 )  
               b(3) = (  0.000000  0.000000  1.000000 )  


     PseudoPot. # 1 for Ca read from file:
     /scratch/11018/zhc/assisgnment1/CaTiO3/Ca_LDA.UPF
     MD5 check sum: d2d4e7693e10d071152e9eeb7dd009f3
     Pseudo is Ultrasoft + core correction, Zval = 10.0
     Generated by new atomic code, or converted to UPF format
     Using radial grid of  845 points,  6 beta functions with: 
                l(1) =   0
                l(2) =   0
                l(3) =   1
                l(4) =   1
                l(5) =   2
                l(6) =   2
     Q(r) pseudized with  8 coefficients,  rinner =    1.500   1.500   1.500
                                                       1.500   1.500

     PseudoPot. # 2 for Ti read from file:
     /scratch/11018/zhc/assisgnment1/CaTiO3/Ti_LDA.UPF
     MD5 check sum: 0d9f225c038fe889ca2a701dcc8d72cb
     Pseudo is Ultrasoft + core correction, Zval = 12.0
     Generated by new atomic code, or converted to UPF format
     Using radial grid of  851 points,  6 beta functions with: 
                l(1) =   0
                l(2) =   0
                l(3) =   1
                l(4) =   1
                l(5) =   2
                l(6) =   2
     Q(r) pseudized with  6 coefficients,  rinner =    1.000   1.000   1.000
                                                       1.000   1.000

     PseudoPot. # 3 for O  read from file:
     /scratch/11018/zhc/assisgnment1/CaTiO3/O_LDA.UPF
     MD5 check sum: 194b818514d2a7dbb603bb78519a4f40
     Pseudo is Ultrasoft + core correction, Zval =  6.0
     Generated by new atomic code, or converted to UPF format
     Using radial grid of  737 points,  5 beta functions with: 
                l(1) =   0
                l(2) =   0
                l(3) =   1
                l(4) =   1
                l(5) =   2
     Q(r) pseudized with  8 coefficients,  rinner =    0.900   0.900   0.900
                                                       0.900   0.900

     atomic species   valence    mass     pseudopotential
     Ca               10.00    40.07800     Ca( 1.00)
     Ti               12.00    47.88000     Ti( 1.00)
     O                 6.00    16.00000     O ( 1.00)

     48 Sym. Ops., with inversion, found



   Cartesian axes

     site n.     atom                  positions (alat units)
         1        Ca     tau(   1) = (   0.0000000   0.0000000   0.0000000  )
         2        Ti     tau(   2) = (   0.5000000   0.5000000   0.5000000  )
         3        O      tau(   3) = (   0.5000000   0.5000000   0.0000000  )
         4        O      tau(   4) = (   0.5000000   0.0000000   0.5000000  )
         5        O      tau(   5) = (   0.0000000   0.5000000   0.5000000  )

     number of k points=    20
                       cart. coord. in units 2pi/alat
        k(    1) = (   0.0000000   0.0000000   0.0000000), wk =   0.0092593
        k(    2) = (   0.0000000   0.0000000   0.1666667), wk =   0.0555556
        k(    3) = (   0.0000000   0.0000000   0.3333333), wk =   0.0555556
        k(    4) = (   0.0000000   0.0000000  -0.5000000), wk =   0.0277778
        k(    5) = (   0.0000000   0.1666667   0.1666667), wk =   0.1111111
        k(    6) = (   0.0000000   0.1666667   0.3333333), wk =   0.2222222
        k(    7) = (   0.0000000   0.1666667  -0.5000000), wk =   0.1111111
        k(    8) = (   0.0000000   0.3333333   0.3333333), wk =   0.1111111
        k(    9) = (   0.0000000   0.3333333  -0.5000000), wk =   0.1111111
        k(   10) = (   0.0000000  -0.5000000  -0.5000000), wk =   0.0277778
        k(   11) = (   0.1666667   0.1666667   0.1666667), wk =   0.0740741
        k(   12) = (   0.1666667   0.1666667   0.3333333), wk =   0.2222222
        k(   13) = (   0.1666667   0.1666667  -0.5000000), wk =   0.1111111
        k(   14) = (   0.1666667   0.3333333   0.3333333), wk =   0.2222222
        k(   15) = (   0.1666667   0.3333333  -0.5000000), wk =   0.2222222
        k(   16) = (   0.1666667  -0.5000000  -0.5000000), wk =   0.0555556
        k(   17) = (   0.3333333   0.3333333   0.3333333), wk =   0.0740741
        k(   18) = (   0.3333333   0.3333333  -0.5000000), wk =   0.1111111
        k(   19) = (   0.3333333  -0.5000000  -0.5000000), wk =   0.0555556
        k(   20) = (  -0.5000000  -0.5000000  -0.5000000), wk =   0.0092593

     Dense  grid:   230605 G-vectors     FFT dimensions: (  80,  80,  80)

     Smooth grid:    58269 G-vectors     FFT dimensions: (  50,  50,  50)

     Estimated max dynamical RAM per process >      98.23 MB

     Estimated total dynamical RAM >     982.31 MB

     Check: negative core charge=   -0.000001

     Initial potential from superposition of free atoms

     starting charge      38.9952, renormalised to      40.0000

     negative rho (up, down):  7.969E-04 0.000E+00
     Starting wfcs are   32 randomized atomic wfcs

     total cpu time spent up to now is        1.0 secs

     Self-consistent Calculation

     iteration #  1     ecut=   100.00 Ry     beta= 0.70
     CG style diagonalization
     ethr =  1.00E-02,  avg # of iterations =  2.2

     negative rho (up, down):  1.412E-03 0.000E+00

     total cpu time spent up to now is        2.0 secs

     total energy              =    -291.23778704 Ry
     estimated scf accuracy    <       0.85179120 Ry

     iteration #  2     ecut=   100.00 Ry     beta= 0.70
     CG style diagonalization
     ethr =  2.13E-03,  avg # of iterations =  5.4

     negative rho (up, down):  4.447E-04 0.000E+00

     total cpu time spent up to now is        3.6 secs

     total energy              =    -290.04378657 Ry
     estimated scf accuracy    <      11.16627632 Ry

     iteration #  3     ecut=   100.00 Ry     beta= 0.70
     CG style diagonalization
     ethr =  2.13E-03,  avg # of iterations =  4.7

     negative rho (up, down):  5.278E-04 0.000E+00

     total cpu time spent up to now is        5.1 secs

     total energy              =    -291.67680458 Ry
     estimated scf accuracy    <       0.23698338 Ry

     iteration #  4     ecut=   100.00 Ry     beta= 0.70
     CG style diagonalization
     ethr =  5.92E-04,  avg # of iterations =  3.5

     negative rho (up, down):  6.407E-04 0.000E+00

     total cpu time spent up to now is        6.2 secs

     total energy              =    -291.70164375 Ry
     estimated scf accuracy    <       0.08852414 Ry

     iteration #  5     ecut=   100.00 Ry     beta= 0.70
     CG style diagonalization
     ethr =  2.21E-04,  avg # of iterations =  3.4

     negative rho (up, down):  7.473E-04 0.000E+00

     total cpu time spent up to now is        7.3 secs

     total energy              =    -291.70881503 Ry
     estimated scf accuracy    <       0.01137067 Ry

     iteration #  6     ecut=   100.00 Ry     beta= 0.70
     CG style diagonalization
     ethr =  2.84E-05,  avg # of iterations =  3.7

     negative rho (up, down):  7.883E-04 0.000E+00

     total cpu time spent up to now is        8.5 secs

     total energy              =    -291.71212436 Ry
     estimated scf accuracy    <       0.00006255 Ry

     iteration #  7     ecut=   100.00 Ry     beta= 0.70
     CG style diagonalization
     ethr =  1.56E-07,  avg # of iterations =  5.2

     negative rho (up, down):  7.891E-04 0.000E+00

     total cpu time spent up to now is       10.1 secs

     total energy              =    -291.71256159 Ry
     estimated scf accuracy    <       0.00036589 Ry

     iteration #  8     ecut=   100.00 Ry     beta= 0.70
     CG style diagonalization
     ethr =  1.56E-07,  avg # of iterations =  3.9

     negative rho (up, down):  7.845E-04 0.000E+00

     total cpu time spent up to now is       11.3 secs

     total energy              =    -291.71257185 Ry
     estimated scf accuracy    <       0.00005405 Ry

     iteration #  9     ecut=   100.00 Ry     beta= 0.70
     CG style diagonalization
     ethr =  1.35E-07,  avg # of iterations =  3.5

     negative rho (up, down):  7.824E-04 0.000E+00

     total cpu time spent up to now is       12.4 secs

     total energy              =    -291.71257723 Ry
     estimated scf accuracy    <       0.00000405 Ry

     iteration # 10     ecut=   100.00 Ry     beta= 0.70
     CG style diagonalization
     ethr =  1.01E-08,  avg # of iterations =  3.8

     negative rho (up, down):  7.817E-04 0.000E+00

     total cpu time spent up to now is       13.7 secs

     total energy              =    -291.71257866 Ry
     estimated scf accuracy    <       0.00000010 Ry

     iteration # 11     ecut=   100.00 Ry     beta= 0.70
     CG style diagonalization
     ethr =  2.62E-10,  avg # of iterations =  4.9

     negative rho (up, down):  7.821E-04 0.000E+00

     total cpu time spent up to now is       15.1 secs

     total energy              =    -291.71257930 Ry
     estimated scf accuracy    <       0.00000035 Ry

     iteration # 12     ecut=   100.00 Ry     beta= 0.70
     CG style diagonalization
     ethr =  2.62E-10,  avg # of iterations =  3.8

     negative rho (up, down):  7.825E-04 0.000E+00

     total cpu time spent up to now is       16.4 secs

     total energy              =    -291.71257933 Ry
     estimated scf accuracy    <       0.00000002 Ry

     iteration # 13     ecut=   100.00 Ry     beta= 0.70
     CG style diagonalization
     ethr =  4.40E-11,  avg # of iterations =  4.2

     negative rho (up, down):  7.823E-04 0.000E+00

     total cpu time spent up to now is       17.7 secs

     total energy              =    -291.71257934 Ry
     estimated scf accuracy    <       0.00000002 Ry

     iteration # 14     ecut=   100.00 Ry     beta= 0.70
     CG style diagonalization
     ethr =  4.40E-11,  avg # of iterations =  3.5

     negative rho (up, down):  7.822E-04 0.000E+00

     total cpu time spent up to now is       18.8 secs

     End of self-consistent calculation

          k = 0.0000 0.0000 0.0000 (  7153 PWs)   bands (ev):

   -48.5280 -31.5471 -25.0631 -25.0631 -25.0631 -12.7259 -12.7259 -12.7259
    -9.2854  -8.2709  -8.2709   4.6513   4.6513   4.6513   6.5799   6.5799
     6.5799   7.1256   7.1256   7.1256

          k = 0.0000 0.0000 0.1667 (  7256 PWs)   bands (ev):

   -48.5278 -31.5462 -25.0752 -25.0626 -25.0626 -12.7628 -12.7239 -12.7239
    -9.1617  -8.2630  -8.2223   4.3696   4.6777   4.6777   6.2467   6.2467
     6.3852   6.3914   7.0102   7.0102

          k = 0.0000 0.0000 0.3333 (  7284 PWs)   bands (ev):

   -48.5274 -31.5442 -25.0994 -25.0615 -25.0615 -12.8340 -12.7201 -12.7201
    -8.9072  -8.2472  -8.1226   3.7737   4.7814   4.7814   5.4058   5.6318
     5.6318   6.0429   6.9093   6.9093

          k = 0.0000 0.0000-0.5000 (  7256 PWs)   bands (ev):

   -48.5272 -31.5433 -25.1113 -25.0610 -25.0610 -12.8683 -12.7182 -12.7182
    -8.7766  -8.2392  -8.0704   3.4520   4.9284   4.9284   5.0497   5.2720
     5.2720   5.8893   6.8733   6.8733

          k = 0.0000 0.1667 0.1667 (  7289 PWs)   bands (ev):

   -48.5276 -31.5452 -25.0748 -25.0747 -25.0620 -12.7668 -12.7483 -12.7219
    -9.0466  -8.2371  -8.1938   4.2286   4.5318   4.7017   5.5516   6.0437
     6.3239   6.4641   6.7486   6.7866

          k = 0.0000 0.1667 0.3333 (  7304 PWs)   bands (ev):

   -48.5272 -31.5432 -25.0989 -25.0738 -25.0610 -12.8237 -12.7461 -12.7179
    -8.8156  -8.2138  -8.0980   3.7396   4.3697   4.7986   4.8026   5.5482
     5.7462   6.4052   6.5949   6.6819

          k = 0.0000 0.1667-0.5000 (  7306 PWs)   bands (ev):

   -48.5271 -31.5422 -25.1110 -25.0733 -25.0604 -12.8543 -12.7421 -12.7159
    -8.7024  -8.2026  -8.0410   3.4442   4.1879   4.6366   4.9475   5.2114
     5.5448   6.3948   6.5416   6.5948

          k = 0.0000 0.3333 0.3333 (  7309 PWs)   bands (ev):

   -48.5269 -31.5412 -25.0982 -25.0981 -25.0599 -12.8090 -12.7915 -12.7136
    -8.6635  -8.1164  -8.0351   3.5221   3.9154   3.9808   4.8690   5.3198
     5.8091   5.9572   6.1825   7.1925

          k = 0.0000 0.3333-0.5000 (  7314 PWs)   bands (ev):

   -48.5267 -31.5402 -25.1103 -25.0977 -25.0594 -12.8263 -12.7892 -12.7114
    -8.6094  -8.0594  -7.9824   3.3894   3.4390   3.9132   4.9991   5.0944
     5.7351   5.9399   6.0425   7.3176

          k = 0.0000-0.5000-0.5000 (  7316 PWs)   bands (ev):

   -48.5265 -31.5391 -25.1099 -25.1099 -25.0589 -12.8123 -12.8123 -12.7091
    -8.5890  -7.9532  -7.9532   3.1681   3.2444   3.6382   5.0379   5.0379
     5.8262   5.8264   5.8264   7.5406

          k = 0.1667 0.1667 0.1667 (  7313 PWs)   bands (ev):

   -48.5274 -31.5442 -25.0743 -25.0743 -25.0742 -12.7688 -12.7447 -12.7447
    -8.9348  -8.1914  -8.1914   4.1007   4.5352   4.5352   5.4875   5.4875
     5.7750   6.6707   6.6707   6.8206

          k = 0.1667 0.1667 0.3333 (  7284 PWs)   bands (ev):

   -48.5271 -31.5422 -25.0985 -25.0733 -25.0731 -12.8144 -12.7469 -12.7374
    -8.7133  -8.1866  -8.0861   3.7065   4.2857   4.5237   4.7163   4.9526
     5.6785   6.4535   6.6326   6.8221

          k = 0.1667 0.1667-0.5000 (  7294 PWs)   bands (ev):

   -48.5269 -31.5412 -25.1105 -25.0729 -25.0726 -12.8418 -12.7430 -12.7337
    -8.6069  -8.1842  -8.0221   3.4391   4.0831   4.4839   4.5002   4.7954
     5.7306   6.3188   6.6151   6.7475

          k = 0.1667 0.3333 0.3333 (  7304 PWs)   bands (ev):

   -48.5267 -31.5402 -25.0976 -25.0975 -25.0721 -12.8012 -12.7849 -12.7340
    -8.5391  -8.1071  -8.0432   3.5306   3.9643   3.9821   4.4251   4.6973
     5.2031   6.5469   6.5811   7.2183

          k = 0.1667 0.3333-0.5000 (  7314 PWs)   bands (ev):

   -48.5265 -31.5392 -25.1097 -25.0971 -25.0716 -12.8169 -12.7830 -12.7305
    -8.4783  -8.0701  -7.9848   3.3906   3.5189   3.9127   4.4007   4.5470
     5.1946   6.5073   6.5728   7.3379

          k = 0.1667-0.5000-0.5000 (  7288 PWs)   bands (ev):

   -48.5263 -31.5382 -25.1092 -25.1092 -25.0711 -12.8044 -12.8044 -12.7271
    -8.4519  -7.9663  -7.9663   3.2485   3.2743   3.6421   4.4200   4.4200
     5.1227   6.5410   6.5410   7.5609

          k = 0.3333 0.3333 0.3333 (  7298 PWs)   bands (ev):

   -48.5263 -31.5383 -25.0966 -25.0964 -25.0964 -12.7882 -12.7716 -12.7716
    -8.3041  -8.0596  -8.0596   3.4823   3.9475   3.9475   4.0159   4.1454
     4.1454   7.0447   7.0447   7.3405

          k = 0.3333 0.3333-0.5000 (  7318 PWs)   bands (ev):

   -48.5262 -31.5373 -25.1085 -25.0960 -25.0958 -12.7980 -12.7739 -12.7649
    -8.2237  -8.0679  -7.9900   3.3505   3.6264   3.8274   3.8330   4.0564
     4.1522   7.1286   7.2064   7.4345

          k = 0.3333-0.5000-0.5000 (  7320 PWs)   bands (ev):

   -48.5260 -31.5363 -25.1080 -25.1080 -25.0953 -12.7885 -12.7885 -12.7628
    -8.1612  -7.9928  -7.9928   3.2109   3.4934   3.6497   3.8210   3.8210
     4.0246   7.3237   7.3237   7.6022

          k =-0.5000-0.5000-0.5000 (  7400 PWs)   bands (ev):

   -48.5258 -31.5354 -25.1073 -25.1073 -25.1073 -12.7805 -12.7805 -12.7805
    -8.0062  -8.0062  -8.0062   3.0856   3.6068   3.6068   3.6068   3.6536
     3.6536   7.6233   7.6233   7.6233

     highest occupied level (ev):     7.6233

!    total energy              =    -291.71257934 Ry
     estimated scf accuracy    <          8.7E-10 Ry

     The total energy is the sum of the following terms:
     one-electron contribution =    -101.74178255 Ry
     hartree contribution      =      68.36226480 Ry
     xc contribution           =     -50.94657087 Ry
     ewald contribution        =    -207.38649071 Ry

     convergence has been achieved in  14 iterations

     negative rho (up, down):  7.822E-04 0.000E+00

     Forces acting on atoms (cartesian axes, Ry/au):

     atom    1 type  1   force =     0.00000000    0.00000000    0.00000000
     atom    2 type  2   force =     0.00000000    0.00000000    0.00000000
     atom    3 type  3   force =     0.00000000    0.00000000    0.00000000
     atom    4 type  3   force =     0.00000000    0.00000000    0.00000000
     atom    5 type  3   force =     0.00000000    0.00000000    0.00000000

     Total force =     0.000000     Total SCF correction =     0.000000


     Computing stress (Cartesian axis) and pressure


     negative rho (up, down):  7.822E-04 0.000E+00
          total   stress  (Ry/bohr**3)                   (kbar)     P=     -222.31
  -0.00151122   0.00000000   0.00000000         -222.31        0.00        0.00
   0.00000000  -0.00151122   0.00000000            0.00     -222.31        0.00
   0.00000000   0.00000000  -0.00151122            0.00        0.00     -222.31


     Writing all to output data dir ./CTO_module_20.save/ :
     XML data file, charge density, pseudopotentials, collected wavefunctions
 
     init_run     :      0.60s CPU      0.71s WALL (       1 calls)
     electrons    :     17.12s CPU     17.86s WALL (       1 calls)
     forces       :      0.23s CPU      0.26s WALL (       1 calls)
     stress       :      1.91s CPU      1.99s WALL (       1 calls)

     Called by init_run:
     wfcinit      :      0.27s CPU      0.30s WALL (       1 calls)
     potinit      :      0.02s CPU      0.02s WALL (       1 calls)
     hinit0       :      0.15s CPU      0.18s WALL (       1 calls)

     Called by electrons:
     c_bands      :     12.38s CPU     12.73s WALL (      14 calls)
     sum_band     :      3.03s CPU      3.18s WALL (      14 calls)
     v_of_rho     :      0.06s CPU      0.06s WALL (      15 calls)
     newd         :      1.69s CPU      1.93s WALL (      15 calls)
     mix_rho      :      0.04s CPU      0.05s WALL (      14 calls)

     Called by c_bands:
     init_us_2    :      0.18s CPU      0.18s WALL (     620 calls)
     init_us_2:cp :      0.17s CPU      0.18s WALL (     620 calls)
     ccgdiagg     :     10.49s CPU     10.79s WALL (     280 calls)
     wfcrot       :      2.02s CPU      2.08s WALL (     280 calls)

     Called by *cgdiagg:
     h_psi        :      8.60s CPU      8.84s WALL (   17384 calls)
     s_psi        :      1.27s CPU      1.31s WALL (   34488 calls)

     Called by h_psi:
     h_psi:calbec :      1.11s CPU      1.14s WALL (   17384 calls)
     vloc_psi     :      6.62s CPU      6.80s WALL (   17384 calls)
     add_vuspsi   :      0.71s CPU      0.73s WALL (   17384 calls)
     hs_1psi      :      7.55s CPU      7.76s WALL (   17104 calls)
     s_1psi       :      1.48s CPU      1.53s WALL (   17104 calls)

     General routines
     calbec       :      1.93s CPU      1.99s WALL (   34868 calls)
     fft          :      0.08s CPU      0.09s WALL (      96 calls)
     ffts         :      0.01s CPU      0.01s WALL (      29 calls)
     fftw         :      5.78s CPU      5.93s WALL (   51488 calls)
     interpolate  :      0.02s CPU      0.02s WALL (      15 calls)
 
     Parallel routines
 
     PWSCF        :     20.10s CPU     21.46s WALL

 
   This run was terminated on:  14:52:21  24Sep2025            

=------------------------------------------------------------------------------=
   JOB DONE.
=------------------------------------------------------------------------------=
TACC:  Shutdown complete. Exiting. 
