TACC:  Starting up job 2553087 
TACC:  Starting parallel tasks... 

     Program PWSCF v.7.3 starts on 15Nov2025 at  2:30:11 

     This program is part of the open-source Quantum ESPRESSO suite
     for quantum simulation of materials; please cite
         "P. Giannozzi et al., J. Phys.:Condens. Matter 21 395502 (2009);
         "P. Giannozzi et al., J. Phys.:Condens. Matter 29 465901 (2017);
         "P. Giannozzi et al., J. Chem. Phys. 152 154105 (2020);
          URL http://www.quantum-espresso.org", 
     in publications or presentations arising from this work. More details at
     http://www.quantum-espresso.org/quote

     Parallel version (MPI & OpenMP), running on      10 processor cores
     Number of MPI processes:                10
     Threads/MPI process:                     1

     MPI processes distributed on     1 nodes
     179977 MiB available memory on the printing compute node when the environment starts
 
     Waiting for input...
     Reading input from standard input
Warning: card &CELL ignored
Warning: card  CELL_DYNAMICS = 'BFGS', ignored
Warning: card  PRESS=0.D0, ignored
Warning: card / ignored

     Current dimensions of program PWSCF are:
     Max number of different atomic species (ntypx) = 10
     Max number of k-points (npk) =  40000
     Max angular momentum in pseudopotentials (lmaxx) =  4
     Message from routine setup:
     using ibrav=0 with symmetry is DISCOURAGED, use correct ibrav instead
 
     R & G space division:  proc/nbgrp/npool/nimage =      10
     Subspace diagonalization in iterative solution of the eigenvalue problem:
     a serial algorithm will be used

 
     Parallelization info
     --------------------
     sticks:   dense  smooth     PW     G-vecs:    dense   smooth      PW
     Min         216      86     26                 7944     2004     338
     Max         217      87     27                 7947     2007     341
     Sum        2161     869    261                79447    20063    3391
 
     Using Slab Decomposition
 


     bravais-lattice index     =            0
     lattice parameter (alat)  =       7.3699  a.u.
     unit-cell volume          =     420.8329 (a.u.)^3
     number of atoms/cell      =            5
     number of atomic types    =            3
     number of electrons       =        44.00
     number of Kohn-Sham states=           22
     kinetic-energy cutoff     =      50.0000  Ry
     charge density cutoff     =     500.0000  Ry
     scf convergence threshold =      1.0E-08
     mixing beta               =       0.7000
     number of iterations used =            8  plain     mixing
     energy convergence thresh.=      1.0E-04
     force convergence thresh. =      1.0E-03
     Exchange-correlation= SLA  PZ   NOGX NOGC
                           (   1   1   0   0   0   0   0)
     nstep                     =           50


     celldm(1)=   7.369932  celldm(2)=   0.000000  celldm(3)=   0.000000
     celldm(4)=   0.000000  celldm(5)=   0.000000  celldm(6)=   0.000000

     crystal axes: (cart. coord. in units of alat)
               a(1) = (   1.000000   0.000000   0.000000 )  
               a(2) = (   0.000000   1.000000   0.000000 )  
               a(3) = (   0.000000   0.000000   1.051282 )  

     reciprocal axes: (cart. coord. in units 2 pi/alat)
               b(1) = (  1.000000  0.000000  0.000000 )  
               b(2) = (  0.000000  1.000000  0.000000 )  
               b(3) = (  0.000000  0.000000  0.951220 )  


     PseudoPot. # 1 for Pb read from file:
     /scratch/11018/zhc/assisgnment3/input_files/Pb_LDA.UPF
     MD5 check sum: 062a37469794d955244864f8fe2e5624
     Pseudo is Ultrasoft + core correction, Zval = 14.0
     Generated by new atomic code, or converted to UPF format
     Using radial grid of  899 points,  6 beta functions with: 
                l(1) =   0
                l(2) =   0
                l(3) =   1
                l(4) =   1
                l(5) =   2
                l(6) =   2
     Q(r) pseudized with  6 coefficients,  rinner =    1.000   1.000   1.000
                                                       1.000   1.000

     PseudoPot. # 2 for Ti read from file:
     /scratch/11018/zhc/assisgnment3/input_files/Ti_LDA.UPF
     MD5 check sum: 0d9f225c038fe889ca2a701dcc8d72cb
     Pseudo is Ultrasoft + core correction, Zval = 12.0
     Generated by new atomic code, or converted to UPF format
     Using radial grid of  851 points,  6 beta functions with: 
                l(1) =   0
                l(2) =   0
                l(3) =   1
                l(4) =   1
                l(5) =   2
                l(6) =   2
     Q(r) pseudized with  6 coefficients,  rinner =    1.000   1.000   1.000
                                                       1.000   1.000

     PseudoPot. # 3 for O  read from file:
     /scratch/11018/zhc/assisgnment3/input_files/O_LDA.UPF
     MD5 check sum: 194b818514d2a7dbb603bb78519a4f40
     Pseudo is Ultrasoft + core correction, Zval =  6.0
     Generated by new atomic code, or converted to UPF format
     Using radial grid of  737 points,  5 beta functions with: 
                l(1) =   0
                l(2) =   0
                l(3) =   1
                l(4) =   1
                l(5) =   2
     Q(r) pseudized with  8 coefficients,  rinner =    0.900   0.900   0.900
                                                       0.900   0.900

     atomic species   valence    mass     pseudopotential
     Pb               14.00   207.20000     Pb( 1.00)
     Ti               12.00    47.88000     Ti( 1.00)
     O                 6.00    16.00000     O ( 1.00)

      8 Sym. Ops. (no inversion) found



   Cartesian axes

     site n.     atom                  positions (alat units)
         1        Pb     tau(   1) = (   0.0000000   0.0000000   1.0580339  )
         2        Ti     tau(   2) = (   0.5000000   0.5000000   0.5681377  )
         3        O      tau(   3) = (   0.5000000   0.5000000   0.1036357  )
         4        O      tau(   4) = (   0.5000000   0.0000000   0.6422586  )
         5        O      tau(   5) = (   0.0000000   0.5000000   0.6422586  )

     number of k points=    40
                       cart. coord. in units 2pi/alat
        k(    1) = (   0.0000000   0.0000000   0.0000000), wk =   0.0092593
        k(    2) = (   0.0000000   0.0000000   0.1585366), wk =   0.0185185
        k(    3) = (   0.0000000   0.0000000   0.3170732), wk =   0.0185185
        k(    4) = (   0.0000000   0.0000000  -0.4756098), wk =   0.0092593
        k(    5) = (   0.0000000   0.1666667   0.0000000), wk =   0.0370370
        k(    6) = (   0.0000000   0.1666667   0.1585366), wk =   0.0740741
        k(    7) = (   0.0000000   0.1666667   0.3170732), wk =   0.0740741
        k(    8) = (   0.0000000   0.1666667  -0.4756098), wk =   0.0370370
        k(    9) = (   0.0000000   0.3333333   0.0000000), wk =   0.0370370
        k(   10) = (   0.0000000   0.3333333   0.1585366), wk =   0.0740741
        k(   11) = (   0.0000000   0.3333333   0.3170732), wk =   0.0740741
        k(   12) = (   0.0000000   0.3333333  -0.4756098), wk =   0.0370370
        k(   13) = (   0.0000000  -0.5000000   0.0000000), wk =   0.0185185
        k(   14) = (   0.0000000  -0.5000000   0.1585366), wk =   0.0370370
        k(   15) = (   0.0000000  -0.5000000   0.3170732), wk =   0.0370370
        k(   16) = (   0.0000000  -0.5000000  -0.4756098), wk =   0.0185185
        k(   17) = (   0.1666667   0.1666667   0.0000000), wk =   0.0370370
        k(   18) = (   0.1666667   0.1666667   0.1585366), wk =   0.0740741
        k(   19) = (   0.1666667   0.1666667   0.3170732), wk =   0.0740741
        k(   20) = (   0.1666667   0.1666667  -0.4756098), wk =   0.0370370
        k(   21) = (   0.1666667   0.3333333   0.0000000), wk =   0.0740741
        k(   22) = (   0.1666667   0.3333333   0.1585366), wk =   0.1481481
        k(   23) = (   0.1666667   0.3333333   0.3170732), wk =   0.1481481
        k(   24) = (   0.1666667   0.3333333  -0.4756098), wk =   0.0740741
        k(   25) = (   0.1666667  -0.5000000   0.0000000), wk =   0.0370370
        k(   26) = (   0.1666667  -0.5000000   0.1585366), wk =   0.0740741
        k(   27) = (   0.1666667  -0.5000000   0.3170732), wk =   0.0740741
        k(   28) = (   0.1666667  -0.5000000  -0.4756098), wk =   0.0370370
        k(   29) = (   0.3333333   0.3333333   0.0000000), wk =   0.0370370
        k(   30) = (   0.3333333   0.3333333   0.1585366), wk =   0.0740741
        k(   31) = (   0.3333333   0.3333333   0.3170732), wk =   0.0740741
        k(   32) = (   0.3333333   0.3333333  -0.4756098), wk =   0.0370370
        k(   33) = (   0.3333333  -0.5000000   0.0000000), wk =   0.0370370
        k(   34) = (   0.3333333  -0.5000000   0.1585366), wk =   0.0740741
        k(   35) = (   0.3333333  -0.5000000   0.3170732), wk =   0.0740741
        k(   36) = (   0.3333333  -0.5000000  -0.4756098), wk =   0.0370370
        k(   37) = (  -0.5000000  -0.5000000   0.0000000), wk =   0.0092593
        k(   38) = (  -0.5000000  -0.5000000   0.1585366), wk =   0.0185185
        k(   39) = (  -0.5000000  -0.5000000   0.3170732), wk =   0.0185185
        k(   40) = (  -0.5000000  -0.5000000  -0.4756098), wk =   0.0092593

     Dense  grid:    79447 G-vectors     FFT dimensions: (  54,  54,  60)

     Smooth grid:    20063 G-vectors     FFT dimensions: (  36,  36,  36)

     Estimated max dynamical RAM per process >      38.44 MB

     Estimated total dynamical RAM >     384.41 MB

     Check: negative core charge=   -0.000004

     Initial potential from superposition of free atoms

     starting charge      42.9982, renormalised to      44.0000

     negative rho (up, down):  1.690E-02 0.000E+00
     Starting wfcs are   31 randomized atomic wfcs

     total cpu time spent up to now is        0.7 secs

     Self-consistent Calculation

     iteration #  1     ecut=    50.00 Ry     beta= 0.70
     CG style diagonalization
     ethr =  1.00E-02,  avg # of iterations =  2.1

     negative rho (up, down):  1.407E-02 0.000E+00

     total cpu time spent up to now is        1.4 secs

     total energy              =    -380.04854683 Ry
     estimated scf accuracy    <       1.03206926 Ry

     iteration #  2     ecut=    50.00 Ry     beta= 0.70
     CG style diagonalization
     ethr =  2.35E-03,  avg # of iterations =  4.9

     negative rho (up, down):  1.454E-02 0.000E+00

     total cpu time spent up to now is        2.7 secs

     total energy              =    -379.55392080 Ry
     estimated scf accuracy    <       5.13005493 Ry

     iteration #  3     ecut=    50.00 Ry     beta= 0.70
     CG style diagonalization
     ethr =  2.35E-03,  avg # of iterations =  4.5

     negative rho (up, down):  1.524E-02 0.000E+00

     total cpu time spent up to now is        3.9 secs

     total energy              =    -380.53103363 Ry
     estimated scf accuracy    <       0.36986741 Ry

     iteration #  4     ecut=    50.00 Ry     beta= 0.70
     CG style diagonalization
     ethr =  8.41E-04,  avg # of iterations =  3.4

     negative rho (up, down):  1.523E-02 0.000E+00

     total cpu time spent up to now is        4.8 secs

     total energy              =    -380.55365125 Ry
     estimated scf accuracy    <       0.07041540 Ry

     iteration #  5     ecut=    50.00 Ry     beta= 0.70
     CG style diagonalization
     ethr =  1.60E-04,  avg # of iterations =  3.7

     negative rho (up, down):  1.524E-02 0.000E+00

     total cpu time spent up to now is        5.7 secs

     total energy              =    -380.56629015 Ry
     estimated scf accuracy    <       0.00972427 Ry

     iteration #  6     ecut=    50.00 Ry     beta= 0.70
     CG style diagonalization
     ethr =  2.21E-05,  avg # of iterations =  4.1

     negative rho (up, down):  1.524E-02 0.000E+00

     total cpu time spent up to now is        6.8 secs

     total energy              =    -380.57078899 Ry
     estimated scf accuracy    <       0.00625983 Ry

     iteration #  7     ecut=    50.00 Ry     beta= 0.70
     CG style diagonalization
     ethr =  1.42E-05,  avg # of iterations =  3.2

     negative rho (up, down):  1.525E-02 0.000E+00

     total cpu time spent up to now is        7.6 secs

     total energy              =    -380.57060933 Ry
     estimated scf accuracy    <       0.00222340 Ry

     iteration #  8     ecut=    50.00 Ry     beta= 0.70
     CG style diagonalization
     ethr =  5.05E-06,  avg # of iterations =  3.6

     negative rho (up, down):  1.527E-02 0.000E+00

     total cpu time spent up to now is        8.5 secs

     total energy              =    -380.57102717 Ry
     estimated scf accuracy    <       0.00000629 Ry

     iteration #  9     ecut=    50.00 Ry     beta= 0.70
     CG style diagonalization
     c_bands:  1 eigenvalues not converged
     c_bands:  1 eigenvalues not converged
     c_bands:  1 eigenvalues not converged
     c_bands:  1 eigenvalues not converged
     c_bands:  1 eigenvalues not converged
     c_bands:  1 eigenvalues not converged
     ethr =  1.43E-08,  avg # of iterations =  8.8

     negative rho (up, down):  1.531E-02 0.000E+00

     total cpu time spent up to now is       10.9 secs

     total energy              =    -380.57108990 Ry
     estimated scf accuracy    <       0.00001772 Ry

     iteration # 10     ecut=    50.00 Ry     beta= 0.70
     CG style diagonalization
     ethr =  1.43E-08,  avg # of iterations =  3.4

     negative rho (up, down):  1.540E-02 0.000E+00

     total cpu time spent up to now is       11.7 secs

     total energy              =    -380.57108623 Ry
     estimated scf accuracy    <       0.00000966 Ry

     iteration # 11     ecut=    50.00 Ry     beta= 0.70
     CG style diagonalization
     ethr =  1.43E-08,  avg # of iterations =  4.1

     negative rho (up, down):  1.540E-02 0.000E+00

     total cpu time spent up to now is       12.8 secs

     total energy              =    -380.57108867 Ry
     estimated scf accuracy    <       0.00000182 Ry

     iteration # 12     ecut=    50.00 Ry     beta= 0.70
     CG style diagonalization
     ethr =  4.15E-09,  avg # of iterations =  4.3

     negative rho (up, down):  1.541E-02 0.000E+00

     total cpu time spent up to now is       13.9 secs

     total energy              =    -380.57108934 Ry
     estimated scf accuracy    <       0.00000002 Ry

     iteration # 13     ecut=    50.00 Ry     beta= 0.70
     CG style diagonalization
     c_bands:  1 eigenvalues not converged
     c_bands:  2 eigenvalues not converged
     c_bands:  1 eigenvalues not converged
     c_bands:  1 eigenvalues not converged
     c_bands:  1 eigenvalues not converged
     c_bands:  1 eigenvalues not converged
     c_bands:  2 eigenvalues not converged
     c_bands:  1 eigenvalues not converged
     c_bands:  3 eigenvalues not converged
     c_bands:  1 eigenvalues not converged
     c_bands:  2 eigenvalues not converged
     c_bands:  1 eigenvalues not converged
     c_bands:  1 eigenvalues not converged
     c_bands:  1 eigenvalues not converged
     c_bands:  3 eigenvalues not converged
     c_bands:  1 eigenvalues not converged
     c_bands:  2 eigenvalues not converged
     ethr =  3.68E-11,  avg # of iterations = 13.3

     negative rho (up, down):  1.540E-02 0.000E+00

     total cpu time spent up to now is       17.4 secs

     total energy              =    -380.57108988 Ry
     estimated scf accuracy    <       0.00000002 Ry

     iteration # 14     ecut=    50.00 Ry     beta= 0.70
     CG style diagonalization
     ethr =  3.68E-11,  avg # of iterations =  4.4

     negative rho (up, down):  1.541E-02 0.000E+00

     total cpu time spent up to now is       18.5 secs

     End of self-consistent calculation

          k = 0.0000 0.0000 0.0000 (  2525 PWs)   bands (ev):

   -45.8549 -22.4896 -22.4278 -22.4278  -7.5144  -6.4343  -6.2031  -5.0268
    -5.0268  -4.9921  -4.8709  -4.7662   4.2240   6.3078   6.3078   6.6257
     8.2736   8.2736   8.4918   8.7773   8.9406   8.9406

          k = 0.0000 0.0000 0.1585 (  2537 PWs)   bands (ev):

   -45.8547 -22.4994 -22.4274 -22.4274  -7.4197  -6.4055  -6.1736  -5.0344
    -5.0344  -4.9914  -4.8668  -4.8012   3.7890   6.3437   6.3437   6.8933
     8.1262   8.1262   8.4491   8.6093   9.0017   9.0017

          k = 0.0000 0.0000 0.3171 (  2510 PWs)   bands (ev):

   -45.8545 -22.5188 -22.4267 -22.4267  -7.2185  -6.3439  -6.1194  -5.0496
    -5.0496  -4.9902  -4.8751  -4.8599   3.1938   6.4072   6.4072   6.4941
     7.9077   7.9077   8.3669   9.0839   9.0839   9.3011

          k = 0.0000 0.0000-0.4756 (  2530 PWs)   bands (ev):

   -45.8543 -22.5285 -22.4263 -22.4263  -7.1103  -6.3106  -6.0961  -5.0571
    -5.0571  -4.9895  -4.9145  -4.8573   2.9644   6.1461   6.4333   6.4333
     7.8237   7.8237   8.3271   9.1169   9.1169   9.9990

          k = 0.0000 0.1667 0.0000 (  2525 PWs)   bands (ev):

   -45.8545 -22.4890 -22.4450 -22.4271  -7.3795  -6.4050  -6.1742  -5.0475
    -5.0255  -5.0048  -4.8758  -4.7570   3.7956   6.3509   6.4168   6.6734
     8.1852   8.2971   8.4912   8.5706   8.6704   9.0378

          k = 0.0000 0.1667 0.1585 (  2515 PWs)   bands (ev):

   -45.8544 -22.4986 -22.4446 -22.4267  -7.2917  -6.3839  -6.1430  -5.0472
    -5.0333  -5.0044  -4.8729  -4.7757   3.5011   6.2371   6.4568   6.9026
     7.8888   8.1195   8.3662   8.6246   8.6674   9.1782

          k = 0.0000 0.1667 0.3171 (  2516 PWs)   bands (ev):

   -45.8541 -22.5179 -22.4437 -22.4259  -7.1108  -6.3384  -6.0795  -5.0489
    -5.0433  -5.0036  -4.8761  -4.8101   3.0314   6.0498   6.5256   6.7344
     7.5380   7.9029   8.2829   8.7300   8.7610   9.6133

          k = 0.0000 0.1667-0.4756 (  2516 PWs)   bands (ev):

   -45.8540 -22.5275 -22.4433 -22.4255  -7.0178  -6.3129  -6.0476  -5.0567
    -5.0411  -5.0033  -4.8806  -4.8266   2.8358   5.8573   6.5525   6.5785
     7.4663   7.8265   8.3387   8.7468   8.7953   9.9281

          k = 0.0000 0.3333 0.0000 (  2514 PWs)   bands (ev):

   -45.8539 -22.4879 -22.4788 -22.4257  -7.0860  -6.3420  -6.1305  -5.0806
    -5.0303  -5.0226  -4.8735  -4.7651   3.2188   5.9813   6.6724   6.7029
     7.8543   7.8763   8.3457   8.4074   8.7744   9.6129

          k = 0.0000 0.3333 0.1585 (  2504 PWs)   bands (ev):

   -45.8538 -22.4971 -22.4785 -22.4253  -7.0256  -6.3247  -6.0926  -5.0665
    -5.0315  -5.0298  -4.8643  -4.7577   3.0519   5.9340   6.6428   6.7552
     7.5042   7.8047   8.2356   8.4048   8.6893   9.6982

          k = 0.0000 0.3333 0.3171 (  2508 PWs)   bands (ev):

   -45.8535 -22.5161 -22.4776 -22.4244  -6.9245  -6.2754  -5.9966  -5.0476
    -5.0331  -5.0304  -4.8848  -4.7152   2.7469   5.7577   6.4292   6.8341
     7.2334   7.5660   7.7082   8.4075   9.1551   9.6096

          k = 0.0000 0.3333-0.4756 (  2518 PWs)   bands (ev):

   -45.8534 -22.5255 -22.4771 -22.4240  -6.8861  -6.2406  -5.9382  -5.0558
    -5.0305  -5.0127  -4.9064  -4.6901   2.6069   5.5735   6.3166   6.8546
     7.2007   7.3660   7.6890   8.4122   9.3274   9.5165

          k = 0.0000-0.5000 0.0000 (  2488 PWs)   bands (ev):

   -45.8536 -22.4963 -22.4865 -22.4250  -6.9235  -6.2951  -6.1321  -5.0959
    -5.0428  -5.0213  -4.8472  -4.7991   3.0107   5.6191   6.9604   6.9714
     7.3490   7.4687   8.2687   8.4477   8.8105  10.3555

          k = 0.0000-0.5000 0.1585 (  2518 PWs)   bands (ev):

   -45.8535 -22.4960 -22.4958 -22.4245  -6.8920  -6.2601  -6.0944  -5.0802
    -5.0431  -5.0299  -4.8187  -4.7898   2.8784   5.6112   6.8803   6.9529
     7.0665   7.3921   8.3458   8.4173   8.6319  10.1035

          k = 0.0000-0.5000 0.3171 (  2518 PWs)   bands (ev):

   -45.8532 -22.5150 -22.4946 -22.4237  -6.8596  -6.1865  -5.9704  -5.0469
    -5.0451  -5.0437  -4.8643  -4.6834   2.6298   5.5413   6.2744   6.8731
     7.2415   7.2680   7.6502   8.3731   9.1527   9.6585

          k = 0.0000-0.5000-0.4756 (  2516 PWs)   bands (ev):

   -45.8531 -22.5244 -22.4940 -22.4233  -6.8560  -6.1476  -5.8864  -5.0553
    -5.0440  -5.0236  -4.8930  -4.6341   2.5125   5.4240   6.0398   6.9196
     7.1684   7.3702   7.3753   8.3568   9.1474   9.6523

          k = 0.1667 0.1667 0.0000 (  2498 PWs)   bands (ev):

   -45.8542 -22.4883 -22.4443 -22.4441  -7.2473  -6.3747  -6.1668  -5.0530
    -5.0396  -5.0070  -4.8546  -4.7482   3.4995   6.2928   6.5218   6.7218
     7.7666   7.8513   8.5424   8.5677   8.8876   9.2651

          k = 0.1667 0.1667 0.1585 (  2509 PWs)   bands (ev):

   -45.8541 -22.4979 -22.4439 -22.4437  -7.1643  -6.3628  -6.1366  -5.0482
    -5.0450  -5.0042  -4.8489  -4.7547   3.3153   6.2020   6.2685   6.9181
     7.6321   7.7486   8.3925   8.6835   8.9311   9.2205

          k = 0.1667 0.1667 0.3171 (  2523 PWs)   bands (ev):

   -45.8538 -22.5171 -22.4430 -22.4429  -6.9975  -6.3388  -6.0701  -5.0618
    -5.0246  -4.9928  -4.8468  -4.7715   2.9687   6.0131   6.1004   6.6854
     7.4642   7.5029   8.3320   8.7879   9.0056   9.4781

          k = 0.1667 0.1667-0.4756 (  2522 PWs)   bands (ev):

   -45.8537 -22.5266 -22.4426 -22.4425  -6.9145  -6.3268  -6.0323  -5.0667
    -5.0164  -4.9771  -4.8536  -4.7819   2.8089   5.9071   5.9188   6.5858
     7.4566   7.4710   8.2666   8.8173   9.0318   9.6361

          k = 0.1667 0.3333 0.0000 (  2515 PWs)   bands (ev):

   -45.8536 -22.4871 -22.4779 -22.4426  -6.9629  -6.3130  -6.1659  -5.0753
    -5.0299  -4.9904  -4.8317  -4.7557   3.0306   5.9859   6.5408   6.8249
     7.2116   7.8036   8.0605   8.7207   8.8992   9.6938

          k = 0.1667 0.3333 0.1585 (  2507 PWs)   bands (ev):

   -45.8535 -22.4964 -22.4777 -22.4422  -6.9006  -6.3110  -6.1354  -5.0627
    -5.0329  -4.9792  -4.8187  -4.7379   2.9723   5.9260   6.1696   6.6357
     7.1783   7.7298   8.2351   8.6884   8.9201   9.5482

          k = 0.1667 0.3333 0.3171 (  2505 PWs)   bands (ev):

   -45.8532 -22.5153 -22.4768 -22.4414  -6.7995  -6.2979  -6.0500  -5.0507
    -5.0205  -4.9513  -4.8160  -4.6900   2.8241   5.6984   5.9362   6.3703
     6.6392   7.4801   8.5090   8.7082   9.0756   9.3439

          k = 0.1667 0.3333-0.4756 (  2514 PWs)   bands (ev):

   -45.8531 -22.5247 -22.4763 -22.4410  -6.7634  -6.2860  -5.9931  -5.0504
    -5.0077  -4.9281  -4.8262  -4.6643   2.7381   5.5155   5.9215   6.2216
     6.4324   7.4295   8.5135   8.7405   8.9215   9.4489

          k = 0.1667-0.5000 0.0000 (  2520 PWs)   bands (ev):

   -45.8533 -22.4954 -22.4858 -22.4419  -6.8068  -6.2681  -6.1887  -5.0784
    -5.0228  -4.9686  -4.8124  -4.7902   2.8442   5.6356   6.6961   6.8510
     7.1897   7.4643   7.9743   8.7812   8.8779   9.9759

          k = 0.1667-0.5000 0.1585 (  2520 PWs)   bands (ev):

   -45.8532 -22.4953 -22.4948 -22.4415  -6.7688  -6.2524  -6.1630  -5.0634
    -5.0237  -4.9556  -4.7916  -4.7606   2.8242   5.6237   6.1288   6.5591
     7.1356   7.8810   7.9039   8.7315   8.9043   9.6432

          k = 0.1667-0.5000 0.3171 (  2502 PWs)   bands (ev):

   -45.8529 -22.5142 -22.4937 -22.4407  -6.7338  -6.2220  -6.0555  -5.0474
    -5.0033  -4.9335  -4.8009  -4.6579   2.7536   5.5332   5.8080   6.0440
     6.5895   7.6041   8.3268   8.6980   8.8671   9.4402

          k = 0.1667-0.5000-0.4756 (  2520 PWs)   bands (ev):

   -45.8528 -22.5236 -22.4932 -22.4402  -6.7328  -6.2073  -5.9784  -5.0457
    -4.9809  -4.9212  -4.8104  -4.6089   2.7035   5.3935   5.7828   5.8879
     6.3050   7.5410   8.3019   8.6585   8.6644   9.6604

          k = 0.3333 0.3333 0.0000 (  2522 PWs)   bands (ev):

   -45.8530 -22.4859 -22.4764 -22.4758  -6.7196  -6.2555  -6.2185  -5.0577
    -5.0122  -4.9222  -4.7589  -4.7530   2.6720   5.9499   6.0857   6.9492
     7.0869   7.2632   7.8808   8.5164   9.3855   9.4054

          k = 0.3333 0.3333 0.1585 (  2516 PWs)   bands (ev):

   -45.8528 -22.4949 -22.4760 -22.4759  -6.6516  -6.2803  -6.2094  -5.0397
    -5.0089  -4.8920  -4.7315  -4.7200   2.7631   5.8662   5.8958   6.0866
     6.7549   7.4584   8.4379   8.6043   9.0689   9.3921

          k = 0.3333 0.3333 0.3171 (  2506 PWs)   bands (ev):

   -45.8526 -22.5135 -22.4752 -22.4751  -6.5566  -6.3269  -6.1419  -5.0032
    -5.0025  -4.8318  -4.6856  -4.6444   2.9417   5.3712   5.4314   5.8525
     6.5447   6.6699   8.0498   9.1956   9.2554   9.4253

          k = 0.3333 0.3333-0.4756 (  2502 PWs)   bands (ev):

   -45.8524 -22.5229 -22.4747 -22.4747  -6.5336  -6.3489  -6.0799  -4.9994
    -4.9852  -4.7979  -4.6639  -4.6075   3.0205   5.2158   5.2360   5.7005
     6.3520   6.5141   7.6503   9.3552   9.3708   9.5310

          k = 0.3333-0.5000 0.0000 (  2520 PWs)   bands (ev):

   -45.8527 -22.4935 -22.4846 -22.4752  -6.6097  -6.2343  -6.2189  -5.0505
    -4.9907  -4.8604  -4.7918  -4.7192   2.5049   5.6153   6.1211   6.7791
     7.3003   7.4051   7.4992   8.4918   9.0786   9.5734

          k = 0.3333-0.5000 0.1585 (  2514 PWs)   bands (ev):

   -45.8525 -22.4938 -22.4930 -22.4751  -6.5377  -6.2516  -6.2431  -5.0317
    -4.9854  -4.8116  -4.7515  -4.6889   2.6437   5.6010   5.9224   5.9489
     6.5643   7.5935   8.1855   8.6734   8.7151   9.5566

          k = 0.3333-0.5000 0.3171 (  2504 PWs)   bands (ev):

   -45.8523 -22.5125 -22.4920 -22.4743  -6.4738  -6.2886  -6.1930  -4.9970
    -4.9738  -4.7403  -4.6706  -4.6039   2.9705   5.1888   5.3979   5.5419
     6.2895   6.7580   7.4140   9.2716   9.3410   9.5614

          k = 0.3333-0.5000-0.4756 (  2496 PWs)   bands (ev):

   -45.8521 -22.5219 -22.4916 -22.4739  -6.4823  -6.3101  -6.1178  -4.9855
    -4.9627  -4.7099  -4.6301  -4.5550   3.1665   4.9605   5.1459   5.4568
     6.1409   6.5287   6.8811   9.4550   9.5261   9.6822

          k =-0.5000-0.5000 0.0000 (  2496 PWs)   bands (ev):

   -45.8523 -22.4925 -22.4925 -22.4832  -6.5601  -6.1971  -6.1971  -5.0408
    -4.9490  -4.8093  -4.8093  -4.6722   2.3357   5.4602   5.9639   6.9976
     6.9976   7.5191   7.5191   8.2457   8.5819   9.8310

          k =-0.5000-0.5000 0.1585 (  2516 PWs)   bands (ev):

   -45.8522 -22.4927 -22.4921 -22.4921  -6.4656  -6.2414  -6.2414  -5.0218
    -4.9481  -4.7386  -4.7386  -4.6565   2.5232   5.4413   5.9669   6.0699
     6.0699   7.6105   7.8989   8.5132   8.5132   9.8232

          k =-0.5000-0.5000 0.3171 (  2504 PWs)   bands (ev):

   -45.8520 -22.5115 -22.4912 -22.4912  -6.3200  -6.3200  -6.2731  -4.9836
    -4.9462  -4.6178  -4.6056  -4.6056   3.0237   5.2708   5.2708   5.3690
     5.9731   6.6087   6.6254   9.3958   9.3958   9.8078

          k =-0.5000-0.5000-0.4756 (  2504 PWs)   bands (ev):

   -45.8518 -22.5209 -22.4907 -22.4907  -6.3556  -6.3556  -6.1755  -4.9645
    -4.9453  -4.5937  -4.5421  -4.5421   3.4114   4.9821   4.9821   5.2900
     5.8882   5.9762   6.2455   9.6930   9.6930   9.8001

     highest occupied level (ev):    10.3555

!    total energy              =    -380.57108988 Ry
     estimated scf accuracy    <          2.5E-09 Ry

     The total energy is the sum of the following terms:
     one-electron contribution =     -84.08386806 Ry
     hartree contribution      =      71.16894146 Ry
     xc contribution           =    -102.54200384 Ry
     ewald contribution        =    -265.11415945 Ry

     convergence has been achieved in  14 iterations

     negative rho (up, down):  1.541E-02 0.000E+00

     Forces acting on atoms (cartesian axes, Ry/au):

     atom    1 type  1   force =     0.00000000    0.00000000   -0.00785953
     atom    2 type  2   force =     0.00000000    0.00000000   -0.01196498
     atom    3 type  3   force =     0.00000000    0.00000000    0.02004718
     atom    4 type  3   force =     0.00000000    0.00000000   -0.00011134
     atom    5 type  3   force =     0.00000000    0.00000000   -0.00011134

     Total force =     0.024634     Total SCF correction =     0.000068


     Computing stress (Cartesian axis) and pressure


     negative rho (up, down):  1.541E-02 0.000E+00
          total   stress  (Ry/bohr**3)                   (kbar)     P=      -65.64
  -0.00043304   0.00000000   0.00000000          -63.70        0.00        0.00
   0.00000000  -0.00043304   0.00000000            0.00      -63.70        0.00
   0.00000000   0.00000000  -0.00047251            0.00        0.00      -69.51


     BFGS Geometry Optimization
     Energy error            =      0.0E+00 Ry
     Gradient error          =      2.0E-02 Ry/Bohr

     number of scf cycles    =   1
     number of bfgs steps    =   0

     energy             new  =    -380.5710898829 Ry

     new trust radius        =       0.0200471791 bohr
     new conv_thr            =       0.0000000100 Ry


ATOMIC_POSITIONS (crystal)
Pb               0.0000000000        0.0000000000        1.0054080977
Ti               0.5000000000        0.5000000000        0.5388794058
O                0.5000000000        0.5000000000        0.1011677425
O                0.5000000000        0.0000000000        0.6109145209
O                0.0000000000        0.5000000000        0.6109145209



     Writing config-only to output data dir ./pto_k6.save/ :
     XML data file
     NEW-OLD atomic charge density approx. for the potential

     Check: negative core charge=   -0.000004

     negative rho (up, down):  1.527E-02 0.000E+00

     total cpu time spent up to now is       20.0 secs

     Self-consistent Calculation

     iteration #  1     ecut=    50.00 Ry     beta= 0.70
     CG style diagonalization
     c_bands:  1 eigenvalues not converged
     c_bands:  1 eigenvalues not converged
     c_bands:  1 eigenvalues not converged
     c_bands:  1 eigenvalues not converged
     c_bands:  1 eigenvalues not converged
     ethr =  1.00E-06,  avg # of iterations =  6.7

     negative rho (up, down):  1.525E-02 0.000E+00

     total cpu time spent up to now is       21.9 secs

     total energy              =    -380.57144685 Ry
     estimated scf accuracy    <       0.00023177 Ry

     iteration #  2     ecut=    50.00 Ry     beta= 0.70
     CG style diagonalization
     ethr =  5.27E-07,  avg # of iterations =  4.7

     negative rho (up, down):  1.526E-02 0.000E+00

     total cpu time spent up to now is       23.1 secs

     total energy              =    -380.57141969 Ry
     estimated scf accuracy    <       0.00068485 Ry

     iteration #  3     ecut=    50.00 Ry     beta= 0.70
     CG style diagonalization
     ethr =  5.27E-07,  avg # of iterations =  4.3

     negative rho (up, down):  1.526E-02 0.000E+00

     total cpu time spent up to now is       24.2 secs

     total energy              =    -380.57155434 Ry
     estimated scf accuracy    <       0.00005169 Ry

     iteration #  4     ecut=    50.00 Ry     beta= 0.70
     CG style diagonalization
     ethr =  1.17E-07,  avg # of iterations =  3.7

     negative rho (up, down):  1.525E-02 0.000E+00

     total cpu time spent up to now is       25.2 secs

     total energy              =    -380.57156748 Ry
     estimated scf accuracy    <       0.00000545 Ry

     iteration #  5     ecut=    50.00 Ry     beta= 0.70
     CG style diagonalization
     ethr =  1.24E-08,  avg # of iterations =  4.3

     negative rho (up, down):  1.525E-02 0.000E+00

     total cpu time spent up to now is       26.3 secs

     total energy              =    -380.57157064 Ry
     estimated scf accuracy    <       0.00000058 Ry

     iteration #  6     ecut=    50.00 Ry     beta= 0.70
     CG style diagonalization
     ethr =  1.31E-09,  avg # of iterations =  4.6

     negative rho (up, down):  1.525E-02 0.000E+00

     total cpu time spent up to now is       27.5 secs

     total energy              =    -380.57157099 Ry
     estimated scf accuracy    <       0.00000032 Ry

     iteration #  7     ecut=    50.00 Ry     beta= 0.70
     CG style diagonalization
     ethr =  7.35E-10,  avg # of iterations =  3.9

     negative rho (up, down):  1.525E-02 0.000E+00

     total cpu time spent up to now is       28.6 secs

     total energy              =    -380.57157105 Ry
     estimated scf accuracy    <       0.00000008 Ry

     iteration #  8     ecut=    50.00 Ry     beta= 0.70
     CG style diagonalization
     ethr =  1.93E-10,  avg # of iterations =  4.2

     negative rho (up, down):  1.525E-02 0.000E+00

     total cpu time spent up to now is       29.7 secs

     End of self-consistent calculation

          k = 0.0000 0.0000 0.0000 (  2525 PWs)   bands (ev):

   -45.8207 -22.4773 -22.3930 -22.3930  -7.5118  -6.4284  -6.2135  -5.0293
    -5.0293  -4.9963  -4.8781  -4.7640   4.2144   6.3112   6.3112   6.6552
     8.2071   8.2071   8.4931   8.7214   8.9489   8.9489

          k = 0.0000 0.0000 0.1585 (  2537 PWs)   bands (ev):

   -45.8206 -22.4871 -22.3927 -22.3927  -7.4158  -6.3996  -6.1851  -5.0369
    -5.0369  -4.9957  -4.8740  -4.7990   3.7779   6.3428   6.3428   6.9178
     8.0733   8.0733   8.4502   8.5715   9.0075   9.0075

          k = 0.0000 0.0000 0.3171 (  2510 PWs)   bands (ev):

   -45.8203 -22.5066 -22.3919 -22.3919  -7.2113  -6.3378  -6.1337  -5.0520
    -5.0520  -4.9944  -4.8731  -4.8671   3.1767   6.3954   6.3954   6.5058
     7.8768   7.8768   8.3676   9.0890   9.0890   9.2957

          k = 0.0000 0.0000-0.4756 (  2530 PWs)   bands (ev):

   -45.8201 -22.5163 -22.3915 -22.3915  -7.1009  -6.3045  -6.1122  -5.0595
    -5.0595  -4.9938  -4.9126  -4.8644   2.9436   6.1591   6.4149   6.4149
     7.8038   7.8038   8.3276   9.1219   9.1219  10.0021

          k = 0.0000 0.1667 0.0000 (  2525 PWs)   bands (ev):

   -45.8204 -22.4766 -22.4103 -22.3923  -7.3773  -6.3997  -6.1856  -5.0505
    -5.0280  -5.0091  -4.8810  -4.7547   3.7907   6.3529   6.4210   6.6854
     8.1540   8.2321   8.4840   8.5771   8.6507   9.0152

          k = 0.0000 0.1667 0.1585 (  2515 PWs)   bands (ev):

   -45.8202 -22.4864 -22.4098 -22.3919  -7.2882  -6.3786  -6.1555  -5.0500
    -5.0358  -5.0087  -4.8784  -4.7734   3.4941   6.2354   6.4569   6.9122
     7.8664   8.0708   8.3524   8.6107   8.6683   9.1706

          k = 0.0000 0.1667 0.3171 (  2516 PWs)   bands (ev):

   -45.8200 -22.5057 -22.4090 -22.3912  -7.1040  -6.3333  -6.0948  -5.0513
    -5.0458  -5.0079  -4.8816  -4.8082   3.0192   6.0366   6.5149   6.7485
     7.5200   7.8732   8.2872   8.7137   8.7646   9.6167

          k = 0.0000 0.1667-0.4756 (  2516 PWs)   bands (ev):

   -45.8198 -22.5154 -22.4085 -22.3908  -7.0090  -6.3077  -6.0646  -5.0591
    -5.0434  -5.0075  -4.8860  -4.8249   2.8206   5.8448   6.5350   6.5889
     7.4556   7.8069   8.3449   8.7307   8.8001   9.9352

          k = 0.0000 0.3333 0.0000 (  2514 PWs)   bands (ev):

   -45.8197 -22.4751 -22.4445 -22.3909  -7.0845  -6.3384  -6.1443  -5.0833
    -5.0344  -5.0251  -4.8747  -4.7636   3.2167   5.9891   6.6703   6.7094
     7.8506   7.8836   8.3374   8.3464   8.7397   9.6008

          k = 0.0000 0.3333 0.1585 (  2504 PWs)   bands (ev):

   -45.8196 -22.4847 -22.4440 -22.3905  -7.0223  -6.3218  -6.1075  -5.0691
    -5.0349  -5.0330  -4.8664  -4.7553   3.0490   5.9387   6.6409   6.7583
     7.4999   7.7971   8.2241   8.3598   8.6780   9.6884

          k = 0.0000 0.3333 0.3171 (  2508 PWs)   bands (ev):

   -45.8193 -22.5038 -22.4430 -22.3897  -6.9181  -6.2730  -6.0142  -5.0500
    -5.0356  -5.0345  -4.8874  -4.7127   2.7423   5.7480   6.4351   6.8260
     7.2277   7.5737   7.6951   8.3902   9.1348   9.6088

          k = 0.0000 0.3333-0.4756 (  2518 PWs)   bands (ev):

   -45.8192 -22.5133 -22.4424 -22.3893  -6.8785  -6.2379  -5.9574  -5.0582
    -5.0347  -5.0149  -4.9091  -4.6876   2.6012   5.5563   6.3287   6.8388
     7.1966   7.3776   7.6799   8.4031   9.2935   9.5288

          k = 0.0000-0.5000 0.0000 (  2488 PWs)   bands (ev):

   -45.8194 -22.4742 -22.4617 -22.3902  -6.9217  -6.2921  -6.1485  -5.0978
    -5.0469  -5.0237  -4.8444  -4.8004   3.0085   5.6346   6.9437   6.9809
     7.3601   7.4753   8.2683   8.3739   8.7745  10.3433

          k = 0.0000-0.5000 0.1585 (  2518 PWs)   bands (ev):

   -45.8193 -22.4837 -22.4611 -22.3898  -6.8883  -6.2572  -6.1127  -5.0820
    -5.0472  -5.0323  -4.8198  -4.7872   2.8764   5.6252   6.8685   6.9531
     7.0763   7.3874   8.3313   8.3612   8.6270  10.0901

          k = 0.0000-0.5000 0.3171 (  2518 PWs)   bands (ev):

   -45.8190 -22.5027 -22.4599 -22.3889  -6.8533  -6.1840  -5.9913  -5.0493
    -5.0478  -5.0467  -4.8654  -4.6809   2.6280   5.5460   6.2684   6.8662
     7.2209   7.2783   7.6599   8.3432   9.1491   9.6369

          k = 0.0000-0.5000-0.4756 (  2516 PWs)   bands (ev):

   -45.8189 -22.5122 -22.4593 -22.3885  -6.8490  -6.1453  -5.9080  -5.0577
    -5.0481  -5.0250  -4.8941  -4.6317   2.5109   5.4170   6.0408   6.9147
     7.1423   7.3859   7.3871   8.3366   9.1446   9.6270

          k = 0.1667 0.1667 0.0000 (  2498 PWs)   bands (ev):

   -45.8200 -22.4759 -22.4097 -22.4093  -7.2460  -6.3698  -6.1786  -5.0559
    -5.0425  -5.0106  -4.8593  -4.7458   3.4964   6.3010   6.5252   6.7220
     7.7179   7.8503   8.5062   8.5720   8.8934   9.2246

          k = 0.1667 0.1667 0.1585 (  2509 PWs)   bands (ev):

   -45.8199 -22.4856 -22.4092 -22.4089  -7.1615  -6.3579  -6.1497  -5.0511
    -5.0477  -5.0078  -4.8539  -4.7523   3.3101   6.2025   6.2671   6.9188
     7.6046   7.7492   8.3531   8.6809   8.9328   9.2031

          k = 0.1667 0.1667 0.3171 (  2523 PWs)   bands (ev):

   -45.8197 -22.5048 -22.4083 -22.4081  -6.9914  -6.3339  -6.0862  -5.0649
    -5.0277  -4.9957  -4.8523  -4.7689   2.9589   6.0022   6.0901   6.6949
     7.4610   7.4981   8.2975   8.7851   9.0017   9.4826

          k = 0.1667 0.1667-0.4756 (  2522 PWs)   bands (ev):

   -45.8195 -22.5144 -22.4079 -22.4077  -6.9065  -6.3218  -6.0501  -5.0699
    -5.0200  -4.9791  -4.8595  -4.7792   2.7963   5.8977   5.9040   6.5974
     7.4500   7.4734   8.2387   8.8144   9.0272   9.6433

          k = 0.1667 0.3333 0.0000 (  2515 PWs)   bands (ev):

   -45.8194 -22.4744 -22.4436 -22.4079  -6.9631  -6.3097  -6.1778  -5.0775
    -5.0326  -4.9943  -4.8345  -4.7537   3.0289   5.9965   6.5374   6.8308
     7.2085   7.7557   8.0632   8.7066   8.8930   9.6724

          k = 0.1667 0.3333 0.1585 (  2507 PWs)   bands (ev):

   -45.8193 -22.4839 -22.4431 -22.4075  -6.8990  -6.3081  -6.1487  -5.0650
    -5.0356  -4.9836  -4.8217  -4.7356   2.9698   5.9313   6.1652   6.6401
     7.1695   7.7162   8.2257   8.6682   8.9132   9.5362

          k = 0.1667 0.3333 0.3171 (  2505 PWs)   bands (ev):

   -45.8190 -22.5030 -22.4421 -22.4067  -6.7943  -6.2950  -6.0665  -5.0538
    -5.0230  -4.9558  -4.8187  -4.6876   2.8194   5.6881   5.9329   6.3760
     6.6392   7.4851   8.4856   8.7014   9.0700   9.3324

          k = 0.1667 0.3333-0.4756 (  2514 PWs)   bands (ev):

   -45.8189 -22.5125 -22.4416 -22.4063  -6.7569  -6.2829  -6.0109  -5.0537
    -5.0107  -4.9325  -4.8288  -4.6619   2.7321   5.4990   5.9190   6.2261
     6.4407   7.4371   8.4810   8.7435   8.9232   9.4320

          k = 0.1667-0.5000 0.0000 (  2520 PWs)   bands (ev):

   -45.8191 -22.4734 -22.4607 -22.4072  -6.8078  -6.2654  -6.2013  -5.0804
    -5.0254  -4.9736  -4.8114  -4.7906   2.8425   5.6513   6.6771   6.8630
     7.2003   7.4722   7.9094   8.7795   8.8594   9.9694

          k = 0.1667-0.5000 0.1585 (  2520 PWs)   bands (ev):

   -45.8190 -22.4830 -22.4602 -22.4068  -6.7671  -6.2498  -6.1778  -5.0655
    -5.0262  -4.9615  -4.7918  -4.7591   2.8222   5.6379   6.1232   6.5575
     7.1356   7.8763   7.8813   8.7065   8.9012   9.6341

          k = 0.1667-0.5000 0.3171 (  2502 PWs)   bands (ev):

   -45.8187 -22.5019 -22.4591 -22.4059  -6.7287  -6.2197  -6.0731  -5.0503
    -5.0051  -4.9408  -4.8008  -4.6560   2.7514   5.5357   5.8070   6.0395
     6.5869   7.6100   8.3273   8.6680   8.8717   9.4175

          k = 0.1667-0.5000-0.4756 (  2520 PWs)   bands (ev):

   -45.8186 -22.5114 -22.4585 -22.4055  -6.7269  -6.2051  -5.9963  -5.0488
    -4.9827  -4.9292  -4.8100  -4.6070   2.7012   5.3828   5.7834   5.8907
     6.3070   7.5515   8.2971   8.6360   8.6660   9.6378

          k = 0.3333 0.3333 0.0000 (  2522 PWs)   bands (ev):

   -45.8188 -22.4728 -22.4419 -22.4417  -6.7253  -6.2528  -6.2255  -5.0594
    -5.0153  -4.9245  -4.7589  -4.7565   2.6704   5.9555   6.1065   6.9331
     7.0871   7.2161   7.9030   8.5039   9.3884   9.3957

          k = 0.3333 0.3333 0.1585 (  2516 PWs)   bands (ev):

   -45.8187 -22.4823 -22.4415 -22.4413  -6.6546  -6.2776  -6.2187  -5.0414
    -5.0123  -4.8954  -4.7369  -4.7174   2.7609   5.8645   5.9022   6.0876
     6.7515   7.4543   8.4259   8.5969   9.0555   9.3945

          k = 0.3333 0.3333 0.3171 (  2506 PWs)   bands (ev):

   -45.8184 -22.5012 -22.4406 -22.4404  -6.5541  -6.3241  -6.1559  -5.0063
    -5.0050  -4.8379  -4.6898  -4.6417   2.9375   5.3664   5.4242   5.8576
     6.5624   6.6712   8.0479   9.1696   9.2471   9.4207

          k = 0.3333 0.3333-0.4756 (  2502 PWs)   bands (ev):

   -45.8183 -22.5107 -22.4401 -22.4400  -6.5294  -6.3460  -6.0951  -5.0033
    -4.9871  -4.8057  -4.6671  -4.6047   3.0146   5.2069   5.2338   5.7036
     6.3555   6.5354   7.6490   9.3288   9.3766   9.5108

          k = 0.3333-0.5000 0.0000 (  2520 PWs)   bands (ev):

   -45.8185 -22.4718 -22.4588 -22.4409  -6.6198  -6.2372  -6.2171  -5.0521
    -4.9939  -4.8610  -4.7903  -4.7260   2.5029   5.6277   6.1426   6.7529
     7.2616   7.4150   7.5016   8.4878   9.0789   9.5792

          k = 0.3333-0.5000 0.1585 (  2514 PWs)   bands (ev):

   -45.8183 -22.4813 -22.4583 -22.4405  -6.5445  -6.2573  -6.2413  -5.0334
    -4.9888  -4.8151  -4.7498  -4.6937   2.6413   5.6130   5.9129   5.9566
     6.5633   7.5846   8.1888   8.6579   8.7044   9.5614

          k = 0.3333-0.5000 0.3171 (  2504 PWs)   bands (ev):

   -45.8181 -22.5002 -22.4574 -22.4397  -6.4718  -6.2867  -6.2061  -4.9992
    -4.9771  -4.7499  -4.6687  -4.6045   2.9669   5.1851   5.3875   5.5550
     6.3037   6.7604   7.4180   9.2482   9.3258   9.5626

          k = 0.3333-0.5000-0.4756 (  2496 PWs)   bands (ev):

   -45.8179 -22.5097 -22.4569 -22.4392  -6.4790  -6.3082  -6.1316  -4.9885
    -4.9653  -4.7218  -4.6283  -4.5546   3.1614   4.9597   5.1332   5.4689
     6.1508   6.5410   6.8840   9.4307   9.5324   9.6607

          k =-0.5000-0.5000 0.0000 (  2496 PWs)   bands (ev):

   -45.8182 -22.4708 -22.4579 -22.4579  -6.5748  -6.1958  -6.1958  -5.0424
    -4.9529  -4.8060  -4.8060  -4.6842   2.3333   5.4706   5.9922   6.9651
     6.9651   7.5256   7.5256   8.2405   8.5946   9.8374

          k =-0.5000-0.5000 0.1585 (  2516 PWs)   bands (ev):

   -45.8180 -22.4804 -22.4574 -22.4574  -6.4798  -6.2399  -6.2399  -5.0234
    -4.9520  -4.7356  -4.7356  -4.6692   2.5204   5.4522   5.9952   6.0563
     6.0563   7.6061   7.9101   8.4997   8.4997   9.8296

          k =-0.5000-0.5000 0.3171 (  2504 PWs)   bands (ev):

   -45.8178 -22.4993 -22.4565 -22.4565  -6.3183  -6.3183  -6.2861  -4.9853
    -4.9502  -4.6325  -4.6031  -4.6031   3.0193   5.2614   5.2614   5.3813
     6.0015   6.6198   6.6212   9.3765   9.3765   9.8143

          k =-0.5000-0.5000-0.4756 (  2504 PWs)   bands (ev):

   -45.8176 -22.5087 -22.4561 -22.4561  -6.3538  -6.3538  -6.1877  -4.9663
    -4.9493  -4.6097  -4.5398  -4.5398   3.4046   4.9738   4.9738   5.3031
     5.9012   6.0046   6.2413   9.6723   9.6723   9.8066

     highest occupied level (ev):    10.3433

!    total energy              =    -380.57157109 Ry
     estimated scf accuracy    <          4.4E-09 Ry

     The total energy is the sum of the following terms:
     one-electron contribution =     -84.29828101 Ry
     hartree contribution      =      71.28517932 Ry
     xc contribution           =    -102.55163197 Ry
     ewald contribution        =    -265.00683743 Ry

     convergence has been achieved in   8 iterations

     negative rho (up, down):  1.525E-02 0.000E+00

     Forces acting on atoms (cartesian axes, Ry/au):

     atom    1 type  1   force =     0.00000000    0.00000000   -0.00855673
     atom    2 type  2   force =     0.00000000    0.00000000   -0.00493610
     atom    3 type  3   force =     0.00000000    0.00000000    0.01126656
     atom    4 type  3   force =     0.00000000    0.00000000    0.00111314
     atom    5 type  3   force =     0.00000000    0.00000000    0.00111314

     Total force =     0.015066     Total SCF correction =     0.000110


     Computing stress (Cartesian axis) and pressure


     negative rho (up, down):  1.525E-02 0.000E+00
          total   stress  (Ry/bohr**3)                   (kbar)     P=      -60.38
  -0.00042165   0.00000000   0.00000000          -62.03        0.00        0.00
   0.00000000  -0.00042165   0.00000000            0.00      -62.03        0.00
   0.00000000   0.00000000  -0.00038812            0.00        0.00      -57.09

     Energy error            =      4.8E-04 Ry
     Gradient error          =      1.1E-02 Ry/Bohr

     number of scf cycles    =   2
     number of bfgs steps    =   1

     energy             old  =    -380.5710898829 Ry
     energy             new  =    -380.5715710866 Ry

     CASE: energy            _new < energy            _old

     new trust radius        =       0.0220518971 bohr
     new conv_thr            =       0.0000000005 Ry


ATOMIC_POSITIONS (crystal)
Pb               0.0000000000        0.0000000000        1.0033906205
Ti               0.5000000000        0.5000000000        0.5375701687
O                0.5000000000        0.5000000000        0.1040139282
O                0.5000000000        0.0000000000        0.6111547853
O                0.0000000000        0.5000000000        0.6111547853



     Writing config-only to output data dir ./pto_k6.save/ :
     XML data file
     NEW-OLD atomic charge density approx. for the potential

     Check: negative core charge=   -0.000004

     negative rho (up, down):  1.514E-02 0.000E+00

     total cpu time spent up to now is       31.1 secs

     Self-consistent Calculation

     iteration #  1     ecut=    50.00 Ry     beta= 0.70
     CG style diagonalization
     c_bands:  1 eigenvalues not converged
     ethr =  1.00E-06,  avg # of iterations =  7.0

     negative rho (up, down):  1.511E-02 0.000E+00

     total cpu time spent up to now is       33.1 secs

     total energy              =    -380.57174902 Ry
     estimated scf accuracy    <       0.00023016 Ry

     iteration #  2     ecut=    50.00 Ry     beta= 0.70
     CG style diagonalization
     ethr =  5.23E-07,  avg # of iterations =  4.6

     negative rho (up, down):  1.512E-02 0.000E+00

     total cpu time spent up to now is       34.3 secs

     total energy              =    -380.57171895 Ry
     estimated scf accuracy    <       0.00065372 Ry

     iteration #  3     ecut=    50.00 Ry     beta= 0.70
     CG style diagonalization
     ethr =  5.23E-07,  avg # of iterations =  4.2

     negative rho (up, down):  1.511E-02 0.000E+00

     total cpu time spent up to now is       35.4 secs

     total energy              =    -380.57184909 Ry
     estimated scf accuracy    <       0.00005412 Ry

     iteration #  4     ecut=    50.00 Ry     beta= 0.70
     CG style diagonalization
     ethr =  1.23E-07,  avg # of iterations =  3.7

     negative rho (up, down):  1.511E-02 0.000E+00

     total cpu time spent up to now is       36.4 secs

     total energy              =    -380.57186214 Ry
     estimated scf accuracy    <       0.00000617 Ry

     iteration #  5     ecut=    50.00 Ry     beta= 0.70
     CG style diagonalization
     ethr =  1.40E-08,  avg # of iterations =  4.2

     negative rho (up, down):  1.511E-02 0.000E+00

     total cpu time spent up to now is       37.5 secs

     total energy              =    -380.57186550 Ry
     estimated scf accuracy    <       0.00000063 Ry

     iteration #  6     ecut=    50.00 Ry     beta= 0.70
     CG style diagonalization
     ethr =  1.42E-09,  avg # of iterations =  4.7

     negative rho (up, down):  1.511E-02 0.000E+00

     total cpu time spent up to now is       38.7 secs

     total energy              =    -380.57186593 Ry
     estimated scf accuracy    <       0.00000032 Ry

     iteration #  7     ecut=    50.00 Ry     beta= 0.70
     CG style diagonalization
     ethr =  7.19E-10,  avg # of iterations =  4.0

     negative rho (up, down):  1.511E-02 0.000E+00

     total cpu time spent up to now is       39.7 secs

     total energy              =    -380.57186600 Ry
     estimated scf accuracy    <       0.00000007 Ry

     iteration #  8     ecut=    50.00 Ry     beta= 0.70
     CG style diagonalization
     ethr =  1.48E-10,  avg # of iterations =  4.6

     negative rho (up, down):  1.511E-02 0.000E+00

     total cpu time spent up to now is       40.9 secs

     total energy              =    -380.57186604 Ry
     estimated scf accuracy    <          4.2E-09 Ry

     iteration #  9     ecut=    50.00 Ry     beta= 0.70
     CG style diagonalization
     ethr =  9.60E-12,  avg # of iterations =  6.7

     negative rho (up, down):  1.511E-02 0.000E+00

     total cpu time spent up to now is       42.7 secs

     End of self-consistent calculation

          k = 0.0000 0.0000 0.0000 (  2525 PWs)   bands (ev):

   -45.7866 -22.4669 -22.3586 -22.3586  -7.5149  -6.4310  -6.2217  -5.0283
    -5.0283  -4.9961  -4.8835  -4.7551   4.2053   6.3091   6.3091   6.6950
     8.1405   8.1405   8.4908   8.6634   8.9499   8.9499

          k = 0.0000 0.0000 0.1585 (  2537 PWs)   bands (ev):

   -45.7864 -22.4768 -22.3582 -22.3582  -7.4182  -6.4025  -6.1940  -5.0358
    -5.0358  -4.9955  -4.8792  -4.7898   3.7686   6.3360   6.3360   6.9499
     8.0199   8.0199   8.4477   8.5321   9.0061   9.0061

          k = 0.0000 0.0000 0.3171 (  2510 PWs)   bands (ev):

   -45.7862 -22.4963 -22.3574 -22.3574  -7.2120  -6.3413  -6.1444  -5.0509
    -5.0509  -4.9942  -4.8716  -4.8631   3.1625   6.3770   6.3770   6.5214
     7.8458   7.8458   8.3648   9.0864   9.0864   9.2900

          k = 0.0000 0.0000-0.4756 (  2530 PWs)   bands (ev):

   -45.7860 -22.5061 -22.3570 -22.3570  -7.1005  -6.3084  -6.1242  -5.0584
    -5.0584  -4.9936  -4.9022  -4.8684   2.9258   6.1756   6.3896   6.3896
     7.7839   7.7839   8.3246   9.1190   9.1190  10.0035

          k = 0.0000 0.1667 0.0000 (  2525 PWs)   bands (ev):

   -45.7862 -22.4662 -22.3758 -22.3578  -7.3809  -6.4030  -6.1955  -5.0500
    -5.0269  -5.0088  -4.8835  -4.7456   3.7864   6.3512   6.4195   6.6996
     8.1224   8.1655   8.4750   8.5781   8.6224   8.9944

          k = 0.0000 0.1667 0.1585 (  2515 PWs)   bands (ev):

   -45.7861 -22.4760 -22.3754 -22.3574  -7.2910  -6.3823  -6.1661  -5.0490
    -5.0347  -5.0084  -4.8810  -4.7641   3.4887   6.2293   6.4509   6.9226
     7.8434   8.0198   8.3337   8.5949   8.6644   9.1614

          k = 0.0000 0.1667 0.3171 (  2516 PWs)   bands (ev):

   -45.7858 -22.4954 -22.3745 -22.3567  -7.1051  -6.3375  -6.1070  -5.0502
    -5.0441  -5.0077  -4.8838  -4.7991   3.0097   6.0200   6.4973   6.7624
     7.4997   7.8423   8.2846   8.6953   8.7619   9.6197

          k = 0.0000 0.1667-0.4756 (  2516 PWs)   bands (ev):

   -45.7857 -22.5051 -22.3741 -22.3563  -7.0090  -6.3122  -6.0779  -5.0579
    -5.0413  -5.0073  -4.8878  -4.8162   2.8083   5.8302   6.5105   6.5976
     7.4431   7.7864   8.3422   8.7123   8.7980   9.9430

          k = 0.0000 0.3333 0.0000 (  2514 PWs)   bands (ev):

   -45.7856 -22.4646 -22.4102 -22.3564  -7.0886  -6.3437  -6.1582  -5.0820
    -5.0341  -5.0240  -4.8711  -4.7553   3.2156   5.9920   6.6665   6.7095
     7.8418   7.8852   8.2665   8.3431   8.7012   9.5936

          k = 0.0000 0.3333 0.1585 (  2504 PWs)   bands (ev):

   -45.7855 -22.4743 -22.4097 -22.3560  -7.0256  -6.3276  -6.1218  -5.0676
    -5.0345  -5.0319  -4.8642  -4.7460   3.0479   5.9383   6.6364   6.7547
     7.4905   7.7819   8.2101   8.3155   8.6633   9.6817

          k = 0.0000 0.3333 0.3171 (  2508 PWs)   bands (ev):

   -45.7852 -22.4935 -22.4086 -22.3552  -6.9195  -6.2796  -6.0298  -5.0488
    -5.0342  -5.0335  -4.8852  -4.7038   2.7404   5.7334   6.4396   6.8107
     7.2133   7.5802   7.6765   8.3709   9.1104   9.6123

          k = 0.0000 0.3333-0.4756 (  2518 PWs)   bands (ev):

   -45.7851 -22.5030 -22.4081 -22.3548  -6.8792  -6.2446  -5.9738  -5.0570
    -5.0344  -5.0124  -4.9069  -4.6791   2.5987   5.5353   6.3388   6.8158
     7.1847   7.3853   7.6659   8.3909   9.2594   9.5429

          k = 0.0000-0.5000 0.0000 (  2488 PWs)   bands (ev):

   -45.7853 -22.4637 -22.4273 -22.3557  -6.9259  -6.2974  -6.1662  -5.0954
    -5.0465  -5.0226  -4.8338  -4.7970   3.0076   5.6452   6.9227   6.9826
     7.3676   7.4783   8.2632   8.2982   8.7345  10.3345

          k = 0.0000-0.5000 0.1585 (  2518 PWs)   bands (ev):

   -45.7852 -22.4733 -22.4268 -22.3553  -6.8913  -6.2631  -6.1308  -5.0795
    -5.0468  -5.0311  -4.8162  -4.7774   2.8762   5.6340   6.8505   6.9505
     7.0778   7.3779   8.3042   8.3140   8.6175  10.0812

          k = 0.0000-0.5000 0.3171 (  2518 PWs)   bands (ev):

   -45.7849 -22.4924 -22.4256 -22.3544  -6.8547  -6.1911  -6.0099  -5.0481
    -5.0475  -5.0438  -4.8611  -4.6724   2.6292   5.5448   6.2613   6.8499
     7.1956   7.2796   7.6678   8.3121   9.1410   9.6218

          k = 0.0000-0.5000-0.4756 (  2516 PWs)   bands (ev):

   -45.7848 -22.5019 -22.4250 -22.3540  -6.8499  -6.1531  -5.9268  -5.0565
    -5.0478  -5.0218  -4.8895  -4.6237   2.5127   5.4043   6.0408   6.8982
     7.1118   7.3871   7.4026   8.3148   9.1448   9.6021

          k = 0.1667 0.1667 0.0000 (  2498 PWs)   bands (ev):

   -45.7859 -22.4654 -22.3752 -22.3749  -7.2501  -6.3738  -6.1895  -5.0551
    -5.0416  -5.0099  -4.8605  -4.7365   3.4930   6.3043   6.5251   6.7217
     7.6684   7.8429   8.4716   8.5723   8.8922   9.1848

          k = 0.1667 0.1667 0.1585 (  2509 PWs)   bands (ev):

   -45.7858 -22.4752 -22.3748 -22.3745  -7.1649  -6.3619  -6.1613  -5.0501
    -5.0466  -5.0071  -4.8554  -4.7429   3.3057   6.1981   6.2620   6.9176
     7.5758   7.7452   8.3127   8.6738   8.9285   9.1870

          k = 0.1667 0.1667 0.3171 (  2523 PWs)   bands (ev):

   -45.7855 -22.4945 -22.3739 -22.3737  -6.9931  -6.3380  -6.0995  -5.0640
    -5.0265  -4.9945  -4.8543  -4.7594   2.9511   5.9872   6.0763   6.7025
     7.4502   7.4916   8.2630   8.7759   8.9926   9.4880

          k = 0.1667 0.1667-0.4756 (  2522 PWs)   bands (ev):

   -45.7854 -22.5041 -22.3734 -22.3733  -6.9073  -6.3260  -6.0642  -5.0691
    -5.0193  -4.9772  -4.8617  -4.7694   2.7862   5.8854   5.8866   6.6047
     7.4343   7.4739   8.2112   8.8050   9.0173   9.6523

          k = 0.1667 0.3333 0.0000 (  2515 PWs)   bands (ev):

   -45.7853 -22.4639 -22.4093 -22.3735  -6.9685  -6.3155  -6.1904  -5.0757
    -5.0315  -4.9939  -4.8324  -4.7448   3.0262   6.0021   6.5296   6.8341
     7.2010   7.7055   8.0646   8.6895   8.8804   9.6542

          k = 0.1667 0.3333 0.1585 (  2507 PWs)   bands (ev):

   -45.7852 -22.4735 -22.4088 -22.3731  -6.9033  -6.3140  -6.1617  -5.0632
    -5.0344  -4.9837  -4.8201  -4.7264   2.9669   5.9315   6.1564   6.6407
     7.1578   7.7008   8.2113   8.6459   8.9007   9.5276

          k = 0.1667 0.3333 0.3171 (  2505 PWs)   bands (ev):

   -45.7849 -22.4926 -22.4078 -22.3722  -6.7968  -6.3009  -6.0806  -5.0529
    -5.0214  -4.9565  -4.8168  -4.6790   2.8158   5.6736   5.9234   6.3788
     6.6368   7.4869   8.4558   8.6919   9.0613   9.3237

          k = 0.1667 0.3333-0.4756 (  2514 PWs)   bands (ev):

   -45.7848 -22.5021 -22.4073 -22.3718  -6.7586  -6.2886  -6.0254  -5.0531
    -5.0095  -4.9333  -4.8265  -4.6536   2.7278   5.4793   5.9095   6.2286
     6.4440   7.4411   8.4472   8.7393   8.9266   9.4140

          k = 0.1667-0.5000 0.0000 (  2520 PWs)   bands (ev):

   -45.7850 -22.4630 -22.4264 -22.3727  -6.8136  -6.2714  -6.2157  -5.0781
    -5.0241  -4.9742  -4.8029  -4.7857   2.8395   5.6621   6.6531   6.8701
     7.2075   7.4773   7.8458   8.7716   8.8362   9.9662

          k = 0.1667-0.5000 0.1585 (  2520 PWs)   bands (ev):

   -45.7848 -22.4725 -22.4258 -22.3723  -6.7717  -6.2561  -6.1926  -5.0635
    -5.0247  -4.9633  -4.7868  -4.7507   2.8196   5.6470   6.1123   6.5515
     7.1336   7.8476   7.8760   8.6786   8.8920   9.6302

          k = 0.1667-0.5000 0.3171 (  2502 PWs)   bands (ev):

   -45.7846 -22.4916 -22.4247 -22.3715  -6.7312  -6.2264  -6.0880  -5.0492
    -5.0029  -4.9442  -4.7953  -4.6482   2.7498   5.5322   5.7979   6.0337
     6.5831   7.6124   8.3225   8.6362   8.8758   9.3950

          k = 0.1667-0.5000-0.4756 (  2520 PWs)   bands (ev):

   -45.7844 -22.5011 -22.4242 -22.3710  -6.7289  -6.2121  -6.0108  -5.0481
    -4.9806  -4.9335  -4.8040  -4.5996   2.7003   5.3669   5.7738   5.8925
     6.3074   7.5580   8.2953   8.6062   8.6683   9.6132

          k = 0.3333 0.3333 0.0000 (  2522 PWs)   bands (ev):

   -45.7847 -22.4623 -22.4077 -22.4074  -6.7336  -6.2599  -6.2359  -5.0569
    -5.0142  -4.9219  -4.7599  -4.7468   2.6641   5.9560   6.1230   6.9106
     7.0893   7.1715   7.9198   8.4906   9.3830   9.3897

          k = 0.3333 0.3333 0.1585 (  2516 PWs)   bands (ev):

   -45.7845 -22.4718 -22.4072 -22.4069  -6.6617  -6.2841  -6.2295  -5.0389
    -5.0115  -4.8946  -4.7374  -4.7080   2.7542   5.8581   5.9047   6.0857
     6.7476   7.4499   8.4105   8.5867   9.0474   9.3888

          k = 0.3333 0.3333 0.3171 (  2506 PWs)   bands (ev):

   -45.7843 -22.4908 -22.4062 -22.4061  -6.5586  -6.3297  -6.1674  -5.0059
    -5.0027  -4.8408  -4.6890  -4.6330   2.9292   5.3566   5.4155   5.8591
     6.5778   6.6718   8.0515   9.1419   9.2326   9.4106

          k = 0.3333 0.3333-0.4756 (  2502 PWs)   bands (ev):

   -45.7841 -22.5003 -22.4057 -22.4056  -6.5333  -6.3512  -6.1062  -5.0031
    -4.9849  -4.8108  -4.6655  -4.5964   3.0053   5.1971   5.2239   5.7044
     6.3579   6.5538   7.6556   9.3002   9.3735   9.4878

          k = 0.3333-0.5000 0.0000 (  2520 PWs)   bands (ev):

   -45.7843 -22.4613 -22.4245 -22.4066  -6.6295  -6.2468  -6.2249  -5.0496
    -4.9927  -4.8561  -4.7821  -4.7274   2.4949   5.6351   6.1600   6.7259
     7.2207   7.4212   7.5053   8.4822   9.0842   9.5764

          k = 0.3333-0.5000 0.1585 (  2514 PWs)   bands (ev):

   -45.7842 -22.4709 -22.4240 -22.4062  -6.5529  -6.2668  -6.2486  -5.0310
    -4.9880  -4.8148  -4.7419  -4.6924   2.6326   5.6200   5.9019   5.9603
     6.5615   7.5762   8.1897   8.6400   8.6994   9.5576

          k = 0.3333-0.5000 0.3171 (  2504 PWs)   bands (ev):

   -45.7839 -22.4899 -22.4230 -22.4053  -6.4769  -6.2931  -6.2163  -4.9973
    -4.9762  -4.7569  -4.6617  -4.5996   2.9559   5.1787   5.3755   5.5641
     6.3154   6.7618   7.4309   9.2224   9.3069   9.5567

          k = 0.3333-0.5000-0.4756 (  2496 PWs)   bands (ev):

   -45.7838 -22.4993 -22.4225 -22.4049  -6.4833  -6.3142  -6.1411  -4.9875
    -4.9637  -4.7314  -4.6216  -4.5490   3.1488   4.9540   5.1197   5.4779
     6.1581   6.5510   6.8993   9.4040   9.5295   9.6371

          k =-0.5000-0.5000 0.0000 (  2496 PWs)   bands (ev):

   -45.7840 -22.4604 -22.4235 -22.4235  -6.5855  -6.2046  -6.2046  -5.0399
    -4.9525  -4.7952  -4.7952  -4.6932   2.3226   5.4762   6.0166   6.9332
     6.9332   7.5296   7.5296   8.2360   8.6114   9.8348

          k =-0.5000-0.5000 0.1585 (  2516 PWs)   bands (ev):

   -45.7839 -22.4699 -22.4231 -22.4231  -6.4899  -6.2477  -6.2477  -5.0209
    -4.9516  -4.7260  -4.7260  -4.6792   2.5084   5.4583   6.0197   6.0427
     6.0427   7.6021   7.9277   8.4844   8.4844   9.8271

          k =-0.5000-0.5000 0.3171 (  2504 PWs)   bands (ev):

   -45.7836 -22.4889 -22.4222 -22.4222  -6.3246  -6.3246  -6.2947  -4.9830
    -4.9498  -4.6448  -4.5953  -4.5953   3.0017   5.2526   5.2526   5.3896
     6.0261   6.6165   6.6426   9.3550   9.3550   9.8118

          k =-0.5000-0.5000-0.4756 (  2504 PWs)   bands (ev):

   -45.7835 -22.4984 -22.4217 -22.4217  -6.3595  -6.3595  -6.1954  -4.9640
    -4.9489  -4.6234  -4.5329  -4.5329   3.3793   4.9664   4.9664   5.3131
     5.9318   6.0292   6.2356   9.6495   9.6495   9.8041

     highest occupied level (ev):    10.3345

!    total energy              =    -380.57186605 Ry
     estimated scf accuracy    <          4.5E-10 Ry

     The total energy is the sum of the following terms:
     one-electron contribution =     -84.63240765 Ry
     hartree contribution      =      71.46123291 Ry
     xc contribution           =    -102.56364123 Ry
     ewald contribution        =    -264.83705009 Ry

     convergence has been achieved in   9 iterations

     negative rho (up, down):  1.511E-02 0.000E+00

     Forces acting on atoms (cartesian axes, Ry/au):

     atom    1 type  1   force =     0.00000000    0.00000000   -0.00847911
     atom    2 type  2   force =     0.00000000    0.00000000    0.00264084
     atom    3 type  3   force =     0.00000000    0.00000000    0.00136919
     atom    4 type  3   force =     0.00000000    0.00000000    0.00223454
     atom    5 type  3   force =     0.00000000    0.00000000    0.00223454

     Total force =     0.009525     Total SCF correction =     0.000082


     Computing stress (Cartesian axis) and pressure


     negative rho (up, down):  1.511E-02 0.000E+00
          total   stress  (Ry/bohr**3)                   (kbar)     P=      -54.08
  -0.00040569   0.00000000   0.00000000          -59.68        0.00        0.00
   0.00000000  -0.00040569   0.00000000            0.00      -59.68        0.00
   0.00000000   0.00000000  -0.00029154            0.00        0.00      -42.89

     Energy error            =      2.9E-04 Ry
     Gradient error          =      8.5E-03 Ry/Bohr

     number of scf cycles    =   3
     number of bfgs steps    =   2

     energy             old  =    -380.5715710866 Ry
     energy             new  =    -380.5718660546 Ry

     CASE: energy            _new < energy            _old

     new trust radius        =       0.0192770298 bohr
     new conv_thr            =       0.0000000003 Ry


ATOMIC_POSITIONS (crystal)
Pb               0.0000000000        0.0000000000        1.0009025803
Ti               0.5000000000        0.5000000000        0.5372973359
O                0.5000000000        0.5000000000        0.1057795831
O                0.5000000000        0.0000000000        0.6116523944
O                0.0000000000        0.5000000000        0.6116523944



     Writing config-only to output data dir ./pto_k6.save/ :
     XML data file
     NEW-OLD atomic charge density approx. for the potential

     Check: negative core charge=   -0.000004

     negative rho (up, down):  1.493E-02 0.000E+00

     total cpu time spent up to now is       44.2 secs

     Self-consistent Calculation

     iteration #  1     ecut=    50.00 Ry     beta= 0.70
     CG style diagonalization
     ethr =  1.00E-06,  avg # of iterations =  5.7

     negative rho (up, down):  1.490E-02 0.000E+00

     total cpu time spent up to now is       45.8 secs

     total energy              =    -380.57197264 Ry
     estimated scf accuracy    <       0.00005840 Ry

     iteration #  2     ecut=    50.00 Ry     beta= 0.70
     CG style diagonalization
     ethr =  1.33E-07,  avg # of iterations =  4.7

     negative rho (up, down):  1.490E-02 0.000E+00

     total cpu time spent up to now is       47.0 secs

     total energy              =    -380.57197530 Ry
     estimated scf accuracy    <       0.00014569 Ry

     iteration #  3     ecut=    50.00 Ry     beta= 0.70
     CG style diagonalization
     ethr =  1.33E-07,  avg # of iterations =  4.2

     negative rho (up, down):  1.489E-02 0.000E+00

     total cpu time spent up to now is       48.1 secs

     total energy              =    -380.57200583 Ry
     estimated scf accuracy    <       0.00001682 Ry

     iteration #  4     ecut=    50.00 Ry     beta= 0.70
     CG style diagonalization
     ethr =  3.82E-08,  avg # of iterations =  3.7

     negative rho (up, down):  1.489E-02 0.000E+00

     total cpu time spent up to now is       49.1 secs

     total energy              =    -380.57200950 Ry
     estimated scf accuracy    <       0.00000229 Ry

     iteration #  5     ecut=    50.00 Ry     beta= 0.70
     CG style diagonalization
     ethr =  5.19E-09,  avg # of iterations =  4.1

     negative rho (up, down):  1.489E-02 0.000E+00

     total cpu time spent up to now is       50.1 secs

     total energy              =    -380.57201059 Ry
     estimated scf accuracy    <       0.00000009 Ry

     iteration #  6     ecut=    50.00 Ry     beta= 0.70
     CG style diagonalization
     ethr =  2.08E-10,  avg # of iterations =  6.0

     negative rho (up, down):  1.489E-02 0.000E+00

     total cpu time spent up to now is       51.7 secs

     total energy              =    -380.57201076 Ry
     estimated scf accuracy    <       0.00000015 Ry

     iteration #  7     ecut=    50.00 Ry     beta= 0.70
     CG style diagonalization
     ethr =  2.08E-10,  avg # of iterations =  3.9

     negative rho (up, down):  1.489E-02 0.000E+00

     total cpu time spent up to now is       52.7 secs

     total energy              =    -380.57201078 Ry
     estimated scf accuracy    <       0.00000003 Ry

     iteration #  8     ecut=    50.00 Ry     beta= 0.70
     CG style diagonalization
     ethr =  7.43E-11,  avg # of iterations =  4.1

     negative rho (up, down):  1.489E-02 0.000E+00

     total cpu time spent up to now is       53.8 secs

     total energy              =    -380.57201079 Ry
     estimated scf accuracy    <          1.7E-09 Ry

     iteration #  9     ecut=    50.00 Ry     beta= 0.70
     CG style diagonalization
     ethr =  3.94E-12,  avg # of iterations =  6.7

     negative rho (up, down):  1.489E-02 0.000E+00

     total cpu time spent up to now is       55.6 secs

     End of self-consistent calculation

          k = 0.0000 0.0000 0.0000 (  2525 PWs)   bands (ev):

   -45.7729 -22.4646 -22.3453 -22.3453  -7.5253  -6.4456  -6.2226  -5.0223
    -5.0223  -4.9891  -4.8834  -4.7406   4.2017   6.2998   6.2998   6.7293
     8.1106   8.1106   8.4842   8.6340   8.9385   8.9385

          k = 0.0000 0.0000 0.1585 (  2537 PWs)   bands (ev):

   -45.7728 -22.4745 -22.3449 -22.3449  -7.4292  -6.4176  -6.1947  -5.0299
    -5.0299  -4.9885  -4.8785  -4.7746   3.7674   6.3243   6.3243   6.9767
     7.9956   7.9956   8.4411   8.5118   8.9937   8.9937

          k = 0.0000 0.0000 0.3171 (  2510 PWs)   bands (ev):

   -45.7725 -22.4941 -22.3441 -22.3441  -7.2247  -6.3580  -6.1443  -5.0449
    -5.0449  -4.9872  -4.8696  -4.8464   3.1608   6.3597   6.3597   6.5348
     7.8316   7.8316   8.3581   9.0728   9.0728   9.2868

          k = 0.0000 0.0000-0.4756 (  2530 PWs)   bands (ev):

   -45.7724 -22.5038 -22.3437 -22.3437  -7.1144  -6.3260  -6.1233  -5.0524
    -5.0524  -4.9866  -4.8845  -4.8657   2.9229   6.1886   6.3692   6.3692
     7.7745   7.7745   8.3178   9.1046   9.1046  10.0015

          k = 0.0000 0.1667 0.0000 (  2525 PWs)   bands (ev):

   -45.7726 -22.4639 -22.3626 -22.3446  -7.3914  -6.4182  -6.1983  -5.0442
    -5.0209  -5.0018  -4.8804  -4.7308   3.7856   6.3437   6.4100   6.7109
     8.1111   8.1352   8.4648   8.5678   8.6022   8.9820

          k = 0.0000 0.1667 0.1585 (  2515 PWs)   bands (ev):

   -45.7725 -22.4737 -22.3622 -22.3442  -7.3022  -6.3978  -6.1686  -5.0427
    -5.0287  -5.0014  -4.8780  -4.7490   3.4891   6.2198   6.4391   6.9298
     7.8339   7.9955   8.3188   8.5830   8.6526   9.1537

          k = 0.0000 0.1667 0.3171 (  2516 PWs)   bands (ev):

   -45.7722 -22.4931 -22.3613 -22.3434  -7.1179  -6.3539  -6.1085  -5.0442
    -5.0370  -5.0006  -4.8799  -4.7839   3.0101   6.0072   6.4802   6.7693
     7.4882   7.8270   8.2726   8.6830   8.7499   9.6207

          k = 0.0000 0.1667-0.4756 (  2516 PWs)   bands (ev):

   -45.7721 -22.5028 -22.3609 -22.3430  -7.0230  -6.3292  -6.0786  -5.0519
    -5.0336  -5.0002  -4.8832  -4.8011   2.8079   5.8204   6.4903   6.5997
     7.4354   7.7756   8.3269   8.7002   8.7857   9.9479

          k = 0.0000 0.3333 0.0000 (  2514 PWs)   bands (ev):

   -45.7720 -22.4623 -22.3971 -22.3432  -7.0994  -6.3598  -6.1656  -5.0753
    -5.0270  -5.0180  -4.8620  -4.7410   3.2170   5.9854   6.6636   6.6995
     7.8309   7.8788   8.2313   8.3342   8.6788   9.5977

          k = 0.0000 0.3333 0.1585 (  2504 PWs)   bands (ev):

   -45.7718 -22.4719 -22.3965 -22.3427  -7.0371  -6.3438  -6.1283  -5.0605
    -5.0276  -5.0257  -4.8565  -4.7310   3.0504   5.9301   6.6314   6.7431
     7.4791   7.7679   8.2006   8.2918   8.6507   9.6837

          k = 0.0000 0.3333 0.3171 (  2508 PWs)   bands (ev):

   -45.7716 -22.4912 -22.3955 -22.3419  -6.9324  -6.2964  -6.0346  -5.0428
    -5.0272  -5.0258  -4.8771  -4.6898   2.7444   5.7195   6.4390   6.7944
     7.1939   7.5815   7.6611   8.3565   9.0951   9.6193

          k = 0.0000 0.3333-0.4756 (  2518 PWs)   bands (ev):

   -45.7714 -22.5007 -22.3949 -22.3415  -6.8925  -6.2624  -5.9775  -5.0509
    -5.0273  -5.0041  -4.8984  -4.6658   2.6030   5.5201   6.3399   6.7967
     7.1674   7.3832   7.6521   8.3790   9.2448   9.5519

          k = 0.0000-0.5000 0.0000 (  2488 PWs)   bands (ev):

   -45.7716 -22.4614 -22.4142 -22.3424  -6.9369  -6.3131  -6.1770  -5.0878
    -5.0394  -5.0166  -4.8166  -4.7882   3.0095   5.6419   6.9090   6.9707
     7.3646   7.4745   8.2529   8.2609   8.7112  10.3363

          k = 0.0000-0.5000 0.1585 (  2518 PWs)   bands (ev):

   -45.7715 -22.4710 -22.4137 -22.3420  -6.9032  -6.2796  -6.1395  -5.0716
    -5.0397  -5.0251  -4.8069  -4.7617   2.8795   5.6298   6.8343   6.9444
     7.0653   7.3684   8.2753   8.3019   8.6065  10.0844

          k = 0.0000-0.5000 0.3171 (  2518 PWs)   bands (ev):

   -45.7712 -22.4901 -22.4125 -22.3412  -6.8675  -6.2095  -6.0156  -5.0420
    -5.0404  -5.0354  -4.8507  -4.6591   2.6349   5.5362   6.2544   6.8284
     7.1796   7.2658   7.6690   8.2944   9.1341   9.6226

          k = 0.0000-0.5000-0.4756 (  2516 PWs)   bands (ev):

   -45.7711 -22.4996 -22.4119 -22.3408  -6.8628  -6.1725  -5.9316  -5.0504
    -5.0407  -5.0132  -4.8783  -4.6113   2.5195   5.3916   6.0364   6.8733
     7.0937   7.3725   7.4081   8.3010   9.1548   9.5877

          k = 0.1667 0.1667 0.0000 (  2498 PWs)   bands (ev):

   -45.7723 -22.4631 -22.3620 -22.3617  -7.2607  -6.3895  -6.1937  -5.0490
    -5.0355  -5.0029  -4.8559  -4.7214   3.4913   6.2982   6.5192   6.7227
     7.6461   7.8309   8.4570   8.5669   8.8799   9.1684

          k = 0.1667 0.1667 0.1585 (  2509 PWs)   bands (ev):

   -45.7721 -22.4728 -22.3616 -22.3613  -7.1762  -6.3779  -6.1650  -5.0439
    -5.0400  -5.0002  -4.8510  -4.7279   3.3051   6.1894   6.2538   6.9154
     7.5618   7.7371   8.2925   8.6641   8.9157   9.1820

          k = 0.1667 0.1667 0.3171 (  2523 PWs)   bands (ev):

   -45.7719 -22.4922 -22.3607 -22.3604  -7.0061  -6.3544  -6.1015  -5.0575
    -5.0193  -4.9878  -4.8500  -4.7441   2.9512   5.9750   6.0641   6.7037
     7.4347   7.4865   8.2470   8.7635   8.9787   9.4922

          k = 0.1667 0.1667-0.4756 (  2522 PWs)   bands (ev):

   -45.7717 -22.5018 -22.3602 -22.3600  -6.9214  -6.3426  -6.0653  -5.0626
    -5.0121  -4.9705  -4.8573  -4.7540   2.7860   5.8722   5.8786   6.6015
     7.4151   7.4715   8.1989   8.7923   9.0028   9.6595

          k = 0.1667 0.3333 0.0000 (  2515 PWs)   bands (ev):

   -45.7716 -22.4615 -22.3962 -22.3603  -6.9788  -6.3323  -6.1981  -5.0687
    -5.0251  -4.9870  -4.8240  -4.7299   3.0233   5.9966   6.5208   6.8323
     7.1896   7.6841   8.0601   8.6768   8.8649   9.6511

          k = 0.1667 0.3333 0.1585 (  2507 PWs)   bands (ev):

   -45.7715 -22.4711 -22.3957 -22.3599  -6.9146  -6.3305  -6.1681  -5.0560
    -5.0278  -4.9773  -4.8124  -4.7114   2.9651   5.9240   6.1462   6.6360
     7.1484   7.6930   8.1980   8.6309   8.8861   9.5285

          k = 0.1667 0.3333 0.3171 (  2505 PWs)   bands (ev):

   -45.7712 -22.4903 -22.3946 -22.3590  -6.8099  -6.3173  -6.0840  -5.0463
    -5.0142  -4.9508  -4.8090  -4.6653   2.8161   5.6612   5.9096   6.3765
     6.6313   7.4833   8.4380   8.6787   9.0553   9.3218

          k = 0.1667 0.3333-0.4756 (  2514 PWs)   bands (ev):

   -45.7711 -22.4998 -22.3941 -22.3586  -6.7724  -6.3053  -6.0272  -5.0467
    -5.0025  -4.9279  -4.8181  -4.6406   2.7288   5.4658   5.8950   6.2274
     6.4373   7.4378   8.4316   8.7252   8.9328   9.4028

          k = 0.1667-0.5000 0.0000 (  2520 PWs)   bands (ev):

   -45.7713 -22.4606 -22.4133 -22.3595  -6.8237  -6.2881  -6.2261  -5.0707
    -5.0175  -4.9678  -4.7875  -4.7753   2.8361   5.6591   6.6370   6.8654
     7.2045   7.4752   7.8191   8.7580   8.8200   9.9702

          k = 0.1667-0.5000 0.1585 (  2520 PWs)   bands (ev):

   -45.7712 -22.4702 -22.4127 -22.3591  -6.7831  -6.2731  -6.2000  -5.0561
    -5.0181  -4.9579  -4.7764  -4.7360   2.8175   5.6431   6.1001   6.5433
     7.1289   7.8345   7.8657   8.6605   8.8785   9.6359

          k = 0.1667-0.5000 0.3171 (  2502 PWs)   bands (ev):

   -45.7709 -22.4893 -22.4116 -22.3582  -6.7444  -6.2439  -6.0910  -5.0425
    -4.9956  -4.9400  -4.7845  -4.6355   2.7505   5.5232   5.7815   6.0276
     6.5797   7.6086   8.3131   8.6188   8.8784   9.3841

          k = 0.1667-0.5000-0.4756 (  2520 PWs)   bands (ev):

   -45.7708 -22.4988 -22.4111 -22.3578  -6.7422  -6.2298  -6.0124  -5.0417
    -4.9734  -4.9299  -4.7928  -4.5878   2.7025   5.3537   5.7535   5.8893
     6.3061   7.5550   8.3003   8.5907   8.6623   9.5984

          k = 0.3333 0.3333 0.0000 (  2522 PWs)   bands (ev):

   -45.7710 -22.4599 -22.3945 -22.3942  -6.7410  -6.2784  -6.2468  -5.0495
    -5.0071  -4.9133  -4.7532  -4.7311   2.6539   5.9482   6.1236   6.8991
     7.0861   7.1572   7.9184   8.4839   9.3674   9.3934

          k = 0.3333 0.3333 0.1585 (  2516 PWs)   bands (ev):

   -45.7709 -22.4695 -22.3941 -22.3938  -6.6708  -6.3016  -6.2375  -5.0314
    -5.0047  -4.8877  -4.7304  -4.6932   2.7438   5.8492   5.9014   6.0797
     6.7453   7.4478   8.4000   8.5769   9.0510   9.3732

          k = 0.3333 0.3333 0.3171 (  2506 PWs)   bands (ev):

   -45.7706 -22.4885 -22.3931 -22.3929  -6.5720  -6.3456  -6.1689  -4.9995
    -4.9952  -4.8370  -4.6818  -4.6198   2.9192   5.3449   5.4105   5.8538
     6.5808   6.6711   8.0635   9.1265   9.2193   9.3951

          k = 0.3333 0.3333-0.4756 (  2502 PWs)   bands (ev):

   -45.7705 -22.4980 -22.3926 -22.3925  -6.5478  -6.3664  -6.1053  -4.9968
    -4.9775  -4.8087  -4.6580  -4.5840   2.9959   5.1925   5.2078   5.7012
     6.3569   6.5575   7.6727   9.2840   9.3585   9.4734

          k = 0.3333-0.5000 0.0000 (  2520 PWs)   bands (ev):

   -45.7707 -22.4590 -22.4114 -22.3935  -6.6334  -6.2622  -6.2437  -5.0421
    -4.9855  -4.8455  -4.7682  -4.7200   2.4815   5.6306   6.1608   6.7164
     7.2078   7.4163   7.5008   8.4779   9.0939   9.5619

          k = 0.3333-0.5000 0.1585 (  2514 PWs)   bands (ev):

   -45.7706 -22.4685 -22.4109 -22.3930  -6.5589  -6.2781  -6.2664  -5.0235
    -4.9811  -4.8084  -4.7289  -4.6830   2.6183   5.6155   5.8963   5.9575
     6.5590   7.5735   8.1876   8.6276   8.7050   9.5423

          k = 0.3333-0.5000 0.3171 (  2504 PWs)   bands (ev):

   -45.7703 -22.4875 -22.4099 -22.3922  -6.4902  -6.3093  -6.2167  -4.9902
    -4.9694  -4.7558  -4.6504  -4.5891   2.9393   5.1727   5.3693   5.5620
     6.3163   6.7611   7.4515   9.2072   9.2937   9.5416

          k = 0.3333-0.5000-0.4756 (  2496 PWs)   bands (ev):

   -45.7702 -22.4970 -22.4094 -22.3917  -6.4975  -6.3296  -6.1390  -4.9807
    -4.9566  -4.7319  -4.6112  -4.5389   3.1311   4.9446   5.1136   5.4772
     6.1575   6.5515   6.9264   9.3890   9.5138   9.6235

          k =-0.5000-0.5000 0.0000 (  2496 PWs)   bands (ev):

   -45.7704 -22.4581 -22.4104 -22.4104  -6.5846  -6.2245  -6.2245  -5.0324
    -4.9456  -4.7786  -4.7786  -4.6933   2.3046   5.4708   6.0212   6.9260
     6.9260   7.5224   7.5224   8.2356   8.6255   9.8194

          k =-0.5000-0.5000 0.1585 (  2516 PWs)   bands (ev):

   -45.7702 -22.4676 -22.4100 -22.4100  -6.4885  -6.2660  -6.2660  -5.0134
    -4.9447  -4.7113  -4.7113  -4.6799   2.4881   5.4535   6.0243   6.0387
     6.0387   7.6012   7.9460   8.4739   8.4739   9.8117

          k =-0.5000-0.5000 0.3171 (  2504 PWs)   bands (ev):

   -45.7700 -22.4866 -22.4091 -22.4091  -6.3403  -6.3403  -6.2920  -4.9755
    -4.9429  -4.6471  -4.5838  -4.5838   2.9729   5.2510   5.2510   5.3869
     6.0306   6.6138   6.6718   9.3425   9.3425   9.7966

          k =-0.5000-0.5000-0.4756 (  2504 PWs)   bands (ev):

   -45.7698 -22.4961 -22.4086 -22.4086  -6.3742  -6.3742  -6.1919  -4.9565
    -4.9420  -4.6267  -4.5226  -4.5226   3.3389   4.9658   4.9658   5.3124
     5.9734   6.0338   6.2309   9.6367   9.6367   9.7890

     highest occupied level (ev):    10.3363

!    total energy              =    -380.57201079 Ry
     estimated scf accuracy    <          2.7E-10 Ry

     The total energy is the sum of the following terms:
     one-electron contribution =     -84.95360931 Ry
     hartree contribution      =      71.62536567 Ry
     xc contribution           =    -102.57219139 Ry
     ewald contribution        =    -264.67157576 Ry

     convergence has been achieved in   9 iterations

     negative rho (up, down):  1.489E-02 0.000E+00

     Forces acting on atoms (cartesian axes, Ry/au):

     atom    1 type  1   force =     0.00000000    0.00000000   -0.00706200
     atom    2 type  2   force =     0.00000000    0.00000000    0.00536516
     atom    3 type  3   force =     0.00000000    0.00000000   -0.00361680
     atom    4 type  3   force =     0.00000000    0.00000000    0.00265682
     atom    5 type  3   force =     0.00000000    0.00000000    0.00265682

     Total force =     0.010289     Total SCF correction =     0.000052


     Computing stress (Cartesian axis) and pressure


     negative rho (up, down):  1.489E-02 0.000E+00
          total   stress  (Ry/bohr**3)                   (kbar)     P=      -49.65
  -0.00038918   0.00000000   0.00000000          -57.25        0.00        0.00
   0.00000000  -0.00038918   0.00000000            0.00      -57.25        0.00
   0.00000000   0.00000000  -0.00023426            0.00        0.00      -34.46

     Energy error            =      1.4E-04 Ry
     Gradient error          =      7.1E-03 Ry/Bohr

     number of scf cycles    =   4
     number of bfgs steps    =   3

     energy             old  =    -380.5718660546 Ry
     energy             new  =    -380.5720107940 Ry

     CASE: energy            _new < energy            _old

     new trust radius        =       0.0330547724 bohr
     new conv_thr            =       0.0000000001 Ry


ATOMIC_POSITIONS (crystal)
Pb               0.0000000000        0.0000000000        0.9966362797
Ti               0.5000000000        0.5000000000        0.5377345385
O                0.5000000000        0.5000000000        0.1074672021
O                0.5000000000        0.0000000000        0.6127231338
O                0.0000000000        0.5000000000        0.6127231338



     Writing config-only to output data dir ./pto_k6.save/ :
     XML data file
     NEW-OLD atomic charge density approx. for the potential

     Check: negative core charge=   -0.000004

     negative rho (up, down):  1.528E-02 0.000E+00

     total cpu time spent up to now is       57.0 secs

     Self-consistent Calculation

     iteration #  1     ecut=    50.00 Ry     beta= 0.70
     CG style diagonalization
     c_bands:  1 eigenvalues not converged
     ethr =  1.00E-06,  avg # of iterations =  6.5

     negative rho (up, down):  1.523E-02 0.000E+00

     total cpu time spent up to now is       58.9 secs

     total energy              =    -380.57215401 Ry
     estimated scf accuracy    <       0.00004975 Ry

     iteration #  2     ecut=    50.00 Ry     beta= 0.70
     CG style diagonalization
     ethr =  1.13E-07,  avg # of iterations =  4.6

     negative rho (up, down):  1.522E-02 0.000E+00

     total cpu time spent up to now is       60.1 secs

     total energy              =    -380.57216494 Ry
     estimated scf accuracy    <       0.00003804 Ry

     iteration #  3     ecut=    50.00 Ry     beta= 0.70
     CG style diagonalization
     ethr =  8.64E-08,  avg # of iterations =  4.2

     negative rho (up, down):  1.521E-02 0.000E+00

     total cpu time spent up to now is       61.2 secs

     total energy              =    -380.57217526 Ry
     estimated scf accuracy    <       0.00002953 Ry

     iteration #  4     ecut=    50.00 Ry     beta= 0.70
     CG style diagonalization
     ethr =  6.71E-08,  avg # of iterations =  3.6

     negative rho (up, down):  1.521E-02 0.000E+00

     total cpu time spent up to now is       62.1 secs

     total energy              =    -380.57218002 Ry
     estimated scf accuracy    <       0.00000048 Ry

     iteration #  5     ecut=    50.00 Ry     beta= 0.70
     CG style diagonalization
     ethr =  1.10E-09,  avg # of iterations =  5.7

     negative rho (up, down):  1.521E-02 0.000E+00

     total cpu time spent up to now is       63.6 secs

     total energy              =    -380.57218101 Ry
     estimated scf accuracy    <       0.00000041 Ry

     iteration #  6     ecut=    50.00 Ry     beta= 0.70
     CG style diagonalization
     ethr =  9.37E-10,  avg # of iterations =  3.6

     negative rho (up, down):  1.521E-02 0.000E+00

     total cpu time spent up to now is       64.5 secs

     total energy              =    -380.57218105 Ry
     estimated scf accuracy    <       0.00000008 Ry

     iteration #  7     ecut=    50.00 Ry     beta= 0.70
     CG style diagonalization
     ethr =  1.84E-10,  avg # of iterations =  4.5

     negative rho (up, down):  1.521E-02 0.000E+00

     total cpu time spent up to now is       65.7 secs

     total energy              =    -380.57218110 Ry
     estimated scf accuracy    <          3.6E-09 Ry

     iteration #  8     ecut=    50.00 Ry     beta= 0.70
     CG style diagonalization
     ethr =  8.23E-12,  avg # of iterations =  7.4

     negative rho (up, down):  1.521E-02 0.000E+00

     total cpu time spent up to now is       67.7 secs

     total energy              =    -380.57218111 Ry
     estimated scf accuracy    <          1.4E-09 Ry

     iteration #  9     ecut=    50.00 Ry     beta= 0.70
     CG style diagonalization
     ethr =  3.24E-12,  avg # of iterations =  4.7

     negative rho (up, down):  1.521E-02 0.000E+00

     total cpu time spent up to now is       68.9 secs

     total energy              =    -380.57218112 Ry
     estimated scf accuracy    <          5.6E-10 Ry

     iteration # 10     ecut=    50.00 Ry     beta= 0.70
     CG style diagonalization
     ethr =  1.28E-12,  avg # of iterations =  4.4

     negative rho (up, down):  1.521E-02 0.000E+00

     total cpu time spent up to now is       70.0 secs

     End of self-consistent calculation

          k = 0.0000 0.0000 0.0000 (  2525 PWs)   bands (ev):

   -45.7714 -22.4679 -22.3452 -22.3452  -7.5493  -6.4800  -6.2173  -5.0083
    -5.0083  -4.9715  -4.8777  -4.7119   4.2019   6.2774   6.2774   6.7775
     8.0979   8.0979   8.4692   8.6145   8.9086   8.9086

          k = 0.0000 0.0000 0.1585 (  2537 PWs)   bands (ev):

   -45.7712 -22.4778 -22.3448 -22.3448  -7.4554  -6.4533  -6.1882  -5.0159
    -5.0159  -4.9709  -4.8717  -4.7446   3.7736   6.3005   6.3005   7.0133
     7.9850   7.9850   8.4261   8.4984   8.9632   8.9632

          k = 0.0000 0.0000 0.3171 (  2510 PWs)   bands (ev):

   -45.7710 -22.4973 -22.3440 -22.3440  -7.2566  -6.3967  -6.1343  -5.0308
    -5.0308  -4.9696  -4.8603  -4.8133   3.1704   6.3328   6.3328   6.5534
     7.8255   7.8255   8.3432   9.0404   9.0404   9.2844

          k = 0.0000 0.0000-0.4756 (  2530 PWs)   bands (ev):

   -45.7708 -22.5071 -22.3436 -22.3436  -7.1502  -6.3664  -6.1105  -5.0383
    -5.0383  -4.9690  -4.8550  -4.8496   2.9326   6.2054   6.3408   6.3408
     7.7707   7.7707   8.3030   9.0712   9.0712   9.9954

          k = 0.0000 0.1667 0.0000 (  2525 PWs)   bands (ev):

   -45.7710 -22.4672 -22.3626 -22.3445  -7.4154  -6.4534  -6.1961  -5.0302
    -5.0069  -4.9841  -4.8703  -4.7017   3.7876   6.3258   6.3868   6.7268
     8.1131   8.1221   8.4454   8.5398   8.5803   8.9691

          k = 0.0000 0.1667 0.1585 (  2515 PWs)   bands (ev):

   -45.7709 -22.4769 -22.3621 -22.3441  -7.3284  -6.4338  -6.1649  -5.0278
    -5.0147  -4.9838  -4.8678  -4.7193   3.4954   6.2009   6.4146   6.9388
     7.8316   7.9831   8.2997   8.5665   8.6255   9.1434

          k = 0.0000 0.1667 0.3171 (  2516 PWs)   bands (ev):

   -45.7706 -22.4964 -22.3613 -22.3433  -7.1498  -6.3916  -6.1009  -5.0301
    -5.0205  -4.9830  -4.8680  -4.7537   3.0203   5.9895   6.4530   6.7739
     7.4792   7.8180   8.2449   8.6689   8.7218   9.6210

          k = 0.0000 0.1667-0.4756 (  2516 PWs)   bands (ev):

   -45.7705 -22.5060 -22.3608 -22.3429  -7.0584  -6.3682  -6.0682  -5.0378
    -5.0163  -4.9826  -4.8700  -4.7709   2.8188   5.8087   6.4618   6.5969
     7.4287   7.7684   8.2909   8.6865   8.7566   9.9534

          k = 0.0000 0.3333 0.0000 (  2514 PWs)   bands (ev):

   -45.7704 -22.4656 -22.3971 -22.3431  -7.1235  -6.3958  -6.1710  -5.0594
    -5.0093  -5.0039  -4.8429  -4.7124   3.2210   5.9661   6.6616   6.6737
     7.8126   7.8615   8.2083   8.3136   8.6593   9.6147

          k = 0.0000 0.3333 0.1585 (  2504 PWs)   bands (ev):

   -45.7703 -22.4752 -22.3966 -22.3426  -7.0638  -6.3796  -6.1312  -5.0440
    -5.0124  -5.0091  -4.8391  -4.7014   3.0576   5.9099   6.6240   6.7167
     7.4602   7.7486   8.1900   8.2717   8.6324   9.6952

          k = 0.0000 0.3333 0.3171 (  2508 PWs)   bands (ev):

   -45.7700 -22.4944 -22.3955 -22.3418  -6.9639  -6.3335  -6.0320  -5.0287
    -5.0095  -5.0080  -4.8586  -4.6625   2.7562   5.6984   6.4340   6.7674
     7.1595   7.5783   7.6404   8.3382   9.0805   9.6332

          k = 0.0000 0.3333-0.4756 (  2518 PWs)   bands (ev):

   -45.7699 -22.5040 -22.3949 -22.3414  -6.9257  -6.3016  -5.9716  -5.0368
    -5.0096  -4.9855  -4.8788  -4.6400   2.6165   5.5012   6.3337   6.7698
     7.1336   7.3726   7.6307   8.3607   9.2396   9.5630

          k = 0.0000-0.5000 0.0000 (  2488 PWs)   bands (ev):

   -45.7701 -22.4647 -22.4143 -22.3423  -6.9618  -6.3484  -6.1869  -5.0705
    -5.0216  -5.0025  -4.7837  -4.7691   3.0146   5.6242   6.8973   6.9390
     7.3497   7.4616   8.2305   8.2378   8.6903  10.3495

          k = 0.0000-0.5000 0.1585 (  2518 PWs)   bands (ev):

   -45.7699 -22.4743 -22.4137 -22.3419  -6.9311  -6.3164  -6.1440  -5.0540
    -5.0220  -5.0110  -4.7869  -4.7314   2.8877   5.6116   6.8126   6.9316
     7.0323   7.3537   8.2557   8.2876   8.5878  10.1008

          k = 0.0000-0.5000 0.3171 (  2518 PWs)   bands (ev):

   -45.7697 -22.4933 -22.4125 -22.3411  -6.8987  -6.2495  -6.0127  -5.0279
    -5.0227  -5.0170  -4.8284  -4.6332   2.6480   5.5165   6.2437   6.7909
     7.1629   7.2297   7.6643   8.2792   9.1268   9.6375

          k = 0.0000-0.5000-0.4756 (  2516 PWs)   bands (ev):

   -45.7695 -22.5028 -22.4119 -22.3406  -6.8945  -6.2146  -5.9266  -5.0363
    -5.0230  -4.9945  -4.8546  -4.5874   2.5347   5.3722   6.0251   6.8270
     7.0766   7.3347   7.4071   8.2874   9.1831   9.5730

          k = 0.1667 0.1667 0.0000 (  2498 PWs)   bands (ev):

   -45.7707 -22.4664 -22.3620 -22.3616  -7.2842  -6.4257  -6.1941  -5.0344
    -5.0208  -4.9857  -4.8428  -4.6919   3.4899   6.2793   6.5032   6.7266
     7.6371   7.8086   8.4518   8.5531   8.8498   9.1651

          k = 0.1667 0.1667 0.1585 (  2509 PWs)   bands (ev):

   -45.7706 -22.4761 -22.3615 -22.3612  -7.2021  -6.4145  -6.1633  -5.0288
    -5.0244  -4.9833  -4.8383  -4.6984   3.3078   6.1711   6.2374   6.9110
     7.5546   7.7212   8.2796   8.6456   8.8875   9.1850

          k = 0.1667 0.1667 0.3171 (  2523 PWs)   bands (ev):

   -45.7703 -22.4955 -22.3606 -22.3604  -7.0379  -6.3918  -6.0946  -5.0420
    -5.0022  -4.9718  -4.8373  -4.7144   2.9590   5.9581   6.0452   6.7002
     7.4064   7.4807   8.2388   8.7400   8.9523   9.4988

          k = 0.1667 0.1667-0.4756 (  2522 PWs)   bands (ev):

   -45.7702 -22.5051 -22.3601 -22.3600  -6.9568  -6.3804  -6.0551  -5.0471
    -4.9947  -4.9551  -4.8440  -4.7240   2.7952   5.8561   5.8677   6.5875
     7.3822   7.4660   8.1937   8.7680   8.9761   9.6698

          k = 0.1667 0.3333 0.0000 (  2515 PWs)   bands (ev):

   -45.7701 -22.4648 -22.3962 -22.3602  -7.0010  -6.3696  -6.2052  -5.0524
    -5.0100  -4.9697  -4.8050  -4.7005   3.0181   5.9778   6.5063   6.8255
     7.1676   7.6790   8.0473   8.6609   8.8380   9.6606

          k = 0.1667 0.3333 0.1585 (  2507 PWs)   bands (ev):

   -45.7699 -22.4744 -22.3957 -22.3598  -6.9401  -6.3670  -6.1715  -5.0393
    -5.0123  -4.9608  -4.7945  -4.6823   2.9630   5.9052   6.1296   6.6234
     7.1364   7.6890   8.1792   8.6128   8.8610   9.5393

          k = 0.1667 0.3333 0.3171 (  2505 PWs)   bands (ev):

   -45.7697 -22.4935 -22.3947 -22.3589  -6.8414  -6.3535  -6.0793  -5.0305
    -4.9975  -4.9356  -4.7909  -4.6385   2.8201   5.6436   5.8842   6.3676
     6.6206   7.4737   8.4222   8.6529   9.0498   9.3245

          k = 0.1667 0.3333-0.4756 (  2514 PWs)   bands (ev):

   -45.7695 -22.5031 -22.3941 -22.3585  -6.8059  -6.3423  -6.0186  -5.0313
    -4.9858  -4.9134  -4.7990  -4.6152   2.7354   5.4500   5.8668   6.2226
     6.4185   7.4264   8.4245   8.6928   8.9476   9.3909

          k = 0.1667-0.5000 0.0000 (  2520 PWs)   bands (ev):

   -45.7698 -22.4639 -22.4134 -22.3595  -6.8451  -6.3250  -6.2375  -5.0538
    -5.0022  -4.9511  -4.7568  -4.7536   2.8297   5.6419   6.6207   6.8460
     7.1912   7.4651   7.8118   8.7303   8.8021   9.9839

          k = 0.1667-0.5000 0.1585 (  2520 PWs)   bands (ev):

   -45.7696 -22.4735 -22.4128 -22.3590  -6.8089  -6.3104  -6.2043  -5.0392
    -5.0025  -4.9424  -4.7548  -4.7072   2.8140   5.6255   6.0810   6.5286
     7.1190   7.8296   7.8459   8.6406   8.8528   9.6542

          k = 0.1667-0.5000 0.3171 (  2502 PWs)   bands (ev):

   -45.7694 -22.4925 -22.4117 -22.3582  -6.7756  -6.2820  -6.0851  -5.0267
    -4.9792  -4.9260  -4.7624  -4.6107   2.7534   5.5049   5.7499   6.0172
     6.5746   7.5980   8.2934   8.6043   8.8830   9.3776

          k = 0.1667-0.5000-0.4756 (  2520 PWs)   bands (ev):

   -45.7692 -22.5020 -22.4111 -22.3577  -6.7741  -6.2683  -6.0035  -5.0263
    -4.9571  -4.9165  -4.7700  -4.5648   2.7087   5.3365   5.7128   5.8789
     6.3030   7.5421   8.3114   8.5793   8.6495   9.5841

          k = 0.3333 0.3333 0.0000 (  2522 PWs)   bands (ev):

   -45.7694 -22.4632 -22.3946 -22.3942  -6.7542  -6.3184  -6.2629  -5.0329
    -4.9904  -4.8939  -4.7351  -4.7007   2.6335   5.9283   6.1097   6.8936
     7.0751   7.1636   7.9001   8.4803   9.3330   9.4088

          k = 0.3333 0.3333 0.1585 (  2516 PWs)   bands (ev):

   -45.7693 -22.4727 -22.3941 -22.3938  -6.6896  -6.3399  -6.2460  -5.0147
    -4.9882  -4.8708  -4.7124  -4.6647   2.7236   5.8335   5.8913   6.0667
     6.7442   7.4474   8.3896   8.5619   9.0672   9.3391

          k = 0.3333 0.3333 0.3171 (  2506 PWs)   bands (ev):

   -45.7690 -22.4917 -22.3931 -22.3929  -6.6023  -6.3806  -6.1619  -4.9835
    -4.9784  -4.8243  -4.6642  -4.5945   2.9010   5.3259   5.4067   5.8384
     6.5748   6.6700   8.0921   9.1132   9.1990   9.3657

          k = 0.3333 0.3333-0.4756 (  2502 PWs)   bands (ev):

   -45.7689 -22.5012 -22.3926 -22.3925  -6.5814  -6.4001  -6.0931  -4.9810
    -4.9608  -4.7980  -4.6407  -4.5603   2.9802   5.1780   5.1904   5.6913
     6.3532   6.5505   7.7109   9.2700   9.3228   9.4594

          k = 0.3333-0.5000 0.0000 (  2520 PWs)   bands (ev):

   -45.7691 -22.4622 -22.4114 -22.3935  -6.6362  -6.2901  -6.2839  -5.0253
    -4.9684  -4.8236  -4.7408  -4.6996   2.4547   5.6128   6.1467   6.7195
     7.2158   7.3984   7.4850   8.4737   9.1136   9.5278

          k = 0.3333-0.5000 0.1585 (  2514 PWs)   bands (ev):

   -45.7690 -22.4718 -22.4109 -22.3931  -6.5696  -6.3048  -6.2947  -5.0067
    -4.9644  -4.7924  -4.7034  -4.6606   2.5898   5.5980   5.8940   5.9478
     6.5545   7.5753   8.1827   8.6133   8.7235   9.5070

          k = 0.3333-0.5000 0.3171 (  2504 PWs)   bands (ev):

   -45.7687 -22.4908 -22.4100 -22.3922  -6.5203  -6.3445  -6.2079  -4.9736
    -4.9529  -4.7460  -4.6285  -4.5673   2.9070   5.1650   5.3654   5.5478
     6.3078   6.7590   7.4921   9.1934   9.2784   9.5092

          k = 0.3333-0.5000-0.4756 (  2496 PWs)   bands (ev):

   -45.7686 -22.5002 -22.4095 -22.3917  -6.5297  -6.3634  -6.1254  -4.9644
    -4.9400  -4.7239  -4.5910  -4.5186   3.0971   4.9287   5.1113   5.4661
     6.1501   6.5445   6.9804   9.3763   9.4770   9.6116

          k =-0.5000-0.5000 0.0000 (  2496 PWs)   bands (ev):

   -45.7688 -22.4613 -22.4105 -22.4105  -6.5728  -6.2665  -6.2665  -5.0156
    -4.9286  -4.7471  -4.7471  -4.6847   2.2687   5.4526   6.0103   6.9397
     6.9397   7.5001   7.5001   8.2394   8.6464   9.7829

          k =-0.5000-0.5000 0.1585 (  2516 PWs)   bands (ev):

   -45.7687 -22.4708 -22.4100 -22.4100  -6.4760  -6.3048  -6.3048  -4.9967
    -4.9277  -4.6834  -4.6834  -4.6720   2.4479   5.4359   6.0135   6.0425
     6.0425   7.6033   7.9763   8.4622   8.4622   9.7754

          k =-0.5000-0.5000 0.3171 (  2504 PWs)   bands (ev):

   -45.7684 -22.4898 -22.4091 -22.4091  -6.3744  -6.3744  -6.2778  -4.9588
    -4.9259  -4.6411  -4.5617  -4.5617   2.9165   5.2563   5.2563   5.3719
     6.0198   6.6120   6.7243   9.3313   9.3313   9.7604

          k =-0.5000-0.5000-0.4756 (  2504 PWs)   bands (ev):

   -45.7683 -22.4993 -22.4086 -22.4086  -6.4063  -6.4063  -6.1766  -4.9398
    -4.9250  -4.6218  -4.5030  -4.5030   3.2618   4.9719   4.9719   5.3007
     6.0230   6.0485   6.2255   9.6261   9.6261   9.7529

     highest occupied level (ev):    10.3495

!    total energy              =    -380.57218112 Ry
     estimated scf accuracy    <          1.1E-10 Ry

     The total energy is the sum of the following terms:
     one-electron contribution =     -85.43915203 Ry
     hartree contribution      =      71.86834775 Ry
     xc contribution           =    -102.58207291 Ry
     ewald contribution        =    -264.41930392 Ry

     convergence has been achieved in  10 iterations

     negative rho (up, down):  1.521E-02 0.000E+00

     Forces acting on atoms (cartesian axes, Ry/au):

     atom    1 type  1   force =     0.00000000    0.00000000   -0.00342127
     atom    2 type  2   force =     0.00000000    0.00000000    0.00452060
     atom    3 type  3   force =     0.00000000    0.00000000   -0.00601738
     atom    4 type  3   force =     0.00000000    0.00000000    0.00245902
     atom    5 type  3   force =     0.00000000    0.00000000    0.00245902

     Total force =     0.008969     Total SCF correction =     0.000033


     Computing stress (Cartesian axis) and pressure


     negative rho (up, down):  1.521E-02 0.000E+00
          total   stress  (Ry/bohr**3)                   (kbar)     P=      -44.71
  -0.00036304   0.00000000   0.00000000          -53.41        0.00        0.00
   0.00000000  -0.00036304   0.00000000            0.00      -53.41        0.00
   0.00000000   0.00000000  -0.00018577            0.00        0.00      -27.33

     Energy error            =      1.7E-04 Ry
     Gradient error          =      6.0E-03 Ry/Bohr

     number of scf cycles    =   5
     number of bfgs steps    =   4

     energy             old  =    -380.5720107940 Ry
     energy             new  =    -380.5721811157 Ry

     CASE: energy            _new < energy            _old

     new trust radius        =       0.0217416248 bohr
     new conv_thr            =       0.0000000002 Ry


ATOMIC_POSITIONS (crystal)
Pb               0.0000000000        0.0000000000        0.9938301401
Ti               0.5000000000        0.5000000000        0.5384462717
O                0.5000000000        0.5000000000        0.1076722724
O                0.5000000000        0.0000000000        0.6136678018
O                0.0000000000        0.5000000000        0.6136678018



     Writing config-only to output data dir ./pto_k6.save/ :
     XML data file
     NEW-OLD atomic charge density approx. for the potential

     Check: negative core charge=   -0.000004

     negative rho (up, down):  1.557E-02 0.000E+00

     total cpu time spent up to now is       71.5 secs

     Self-consistent Calculation

     iteration #  1     ecut=    50.00 Ry     beta= 0.70
     CG style diagonalization
     c_bands:  1 eigenvalues not converged
     ethr =  1.00E-06,  avg # of iterations =  6.0

     Threshold (ethr) on eigenvalues was too large:
     Diagonalizing with lowered threshold

     CG style diagonalization
     c_bands:  1 eigenvalues not converged
     c_bands:  1 eigenvalues not converged
     c_bands:  1 eigenvalues not converged
     c_bands:  1 eigenvalues not converged
     ethr =  7.84E-08,  avg # of iterations =  5.2

     negative rho (up, down):  1.554E-02 0.000E+00

     total cpu time spent up to now is       74.7 secs

     total energy              =    -380.57224308 Ry
     estimated scf accuracy    <       0.00003363 Ry

     iteration #  2     ecut=    50.00 Ry     beta= 0.70
     CG style diagonalization
     ethr =  7.64E-08,  avg # of iterations =  4.5

     negative rho (up, down):  1.553E-02 0.000E+00

     total cpu time spent up to now is       75.8 secs

     total energy              =    -380.57224413 Ry
     estimated scf accuracy    <       0.00004029 Ry

     iteration #  3     ecut=    50.00 Ry     beta= 0.70
     CG style diagonalization
     ethr =  7.64E-08,  avg # of iterations =  4.0

     negative rho (up, down):  1.552E-02 0.000E+00

     total cpu time spent up to now is       76.9 secs

     total energy              =    -380.57225361 Ry
     estimated scf accuracy    <       0.00001258 Ry

     iteration #  4     ecut=    50.00 Ry     beta= 0.70
     CG style diagonalization
     ethr =  2.86E-08,  avg # of iterations =  3.6

     negative rho (up, down):  1.552E-02 0.000E+00

     total cpu time spent up to now is       77.8 secs

     total energy              =    -380.57225591 Ry
     estimated scf accuracy    <       0.00000117 Ry

     iteration #  5     ecut=    50.00 Ry     beta= 0.70
     CG style diagonalization
     ethr =  2.67E-09,  avg # of iterations =  4.1

     negative rho (up, down):  1.552E-02 0.000E+00

     total cpu time spent up to now is       78.9 secs

     total energy              =    -380.57225652 Ry
     estimated scf accuracy    <       0.00000030 Ry

     iteration #  6     ecut=    50.00 Ry     beta= 0.70
     CG style diagonalization
     ethr =  6.83E-10,  avg # of iterations =  4.1

     negative rho (up, down):  1.552E-02 0.000E+00

     total cpu time spent up to now is       79.9 secs

     total energy              =    -380.57225662 Ry
     estimated scf accuracy    <       0.00000005 Ry

     iteration #  7     ecut=    50.00 Ry     beta= 0.70
     CG style diagonalization
     ethr =  1.13E-10,  avg # of iterations =  4.9

     negative rho (up, down):  1.552E-02 0.000E+00

     total cpu time spent up to now is       81.2 secs

     total energy              =    -380.57225666 Ry
     estimated scf accuracy    <          5.1E-09 Ry

     iteration #  8     ecut=    50.00 Ry     beta= 0.70
     CG style diagonalization
     ethr =  1.16E-11,  avg # of iterations =  5.6

     negative rho (up, down):  1.552E-02 0.000E+00

     total cpu time spent up to now is       82.7 secs

     total energy              =    -380.57225666 Ry
     estimated scf accuracy    <          4.7E-10 Ry

     iteration #  9     ecut=    50.00 Ry     beta= 0.70
     CG style diagonalization
     ethr =  1.06E-12,  avg # of iterations =  6.8

     negative rho (up, down):  1.552E-02 0.000E+00

     total cpu time spent up to now is       84.5 secs

     End of self-consistent calculation

          k = 0.0000 0.0000 0.0000 (  2525 PWs)   bands (ev):

   -45.7841 -22.4746 -22.3594 -22.3594  -7.5697  -6.5085  -6.2095  -4.9963
    -4.9963  -4.9560  -4.8702  -4.6898   4.2065   6.2577   6.2577   6.8027
     8.1118   8.1118   8.4562   8.6201   8.8819   8.8819

          k = 0.0000 0.0000 0.1585 (  2537 PWs)   bands (ev):

   -45.7840 -22.4844 -22.3590 -22.3590  -7.4779  -6.4827  -6.1792  -5.0038
    -5.0038  -4.9554  -4.8633  -4.7215   3.7833   6.2810   6.2810   7.0313
     7.9965   7.9965   8.4132   8.5023   8.9371   8.9371

          k = 0.0000 0.0000 0.3171 (  2510 PWs)   bands (ev):

   -45.7837 -22.5039 -22.3582 -22.3582  -7.2842  -6.4283  -6.1218  -5.0188
    -5.0188  -4.9541  -4.8501  -4.7879   3.1848   6.3142   6.3142   6.5627
     7.8338   7.8338   8.3305   9.0135   9.0135   9.2848

          k = 0.0000 0.0000-0.4756 (  2530 PWs)   bands (ev):

   -45.7836 -22.5136 -22.3578 -22.3578  -7.1813  -6.3993  -6.0956  -5.0262
    -5.0262  -4.9535  -4.8437  -4.8229   2.9485   6.2128   6.3230   6.3230
     7.7775   7.7775   8.2904   9.0435   9.0435   9.9900

          k = 0.0000 0.1667 0.0000 (  2525 PWs)   bands (ev):

   -45.7838 -22.4738 -22.3767 -22.3586  -7.4356  -6.4823  -6.1903  -5.0178
    -4.9949  -4.9686  -4.8602  -4.6794   3.7912   6.3104   6.3663   6.7357
     8.1260   8.1362   8.4306   8.5143   8.5729   8.9668

          k = 0.0000 0.1667 0.1585 (  2515 PWs)   bands (ev):

   -45.7836 -22.4836 -22.3763 -22.3582  -7.3507  -6.4633  -6.1576  -5.0149
    -5.0026  -4.9682  -4.8575  -4.6965   3.5032   6.1860   6.3944   6.9429
     7.8378   7.9920   8.2905   8.5574   8.6033   9.1393

          k = 0.0000 0.1667 0.3171 (  2516 PWs)   bands (ev):

   -45.7834 -22.5030 -22.3754 -22.3574  -7.1772  -6.4225  -6.0899  -5.0181
    -5.0066  -4.9674  -4.8564  -4.7304   3.0332   5.9788   6.4340   6.7724
     7.4803   7.8233   8.2224   8.6630   8.6989   9.6214

          k = 0.0000 0.1667-0.4756 (  2516 PWs)   bands (ev):

   -45.7832 -22.5126 -22.3750 -22.3570  -7.0889  -6.4000  -6.0546  -5.0258
    -5.0020  -4.9671  -4.8575  -4.7474   2.8334   5.8026   6.4438   6.5904
     7.4295   7.7721   8.2612   8.6811   8.7328   9.9563

          k = 0.0000 0.3333 0.0000 (  2514 PWs)   bands (ev):

   -45.7831 -22.4723 -22.4113 -22.3572  -7.1438  -6.4250  -6.1697  -5.0458
    -4.9939  -4.9917  -4.8274  -4.6901   3.2246   5.9490   6.6507   6.6635
     7.8017   7.8450   8.2155   8.2955   8.6574   9.6321

          k = 0.0000 0.3333 0.1585 (  2504 PWs)   bands (ev):

   -45.7830 -22.4819 -22.4107 -22.3568  -7.0865  -6.4087  -6.1277  -5.0300
    -5.0003  -4.9937  -4.8245  -4.6790   3.0641   5.8931   6.6205   6.6942
     7.4491   7.7376   8.1859   8.2713   8.6220   9.7078

          k = 0.0000 0.3333 0.3171 (  2508 PWs)   bands (ev):

   -45.7827 -22.5010 -22.4097 -22.3560  -6.9908  -6.3636  -6.0237  -5.0166
    -4.9940  -4.9932  -4.8431  -4.6417   2.7671   5.6852   6.4295   6.7479
     7.1365   7.5729   7.6299   8.3312   9.0777   9.6443

          k = 0.0000 0.3333-0.4756 (  2518 PWs)   bands (ev):

   -45.7826 -22.5105 -22.4091 -22.3556  -6.9540  -6.3334  -5.9608  -5.0248
    -4.9941  -4.9701  -4.8624  -4.6203   2.6292   5.4918   6.3267   6.7528
     7.1090   7.3613   7.6183   8.3514   9.2473   9.5691

          k = 0.0000-0.5000 0.0000 (  2488 PWs)   bands (ev):

   -45.7828 -22.4713 -22.4285 -22.3565  -6.9829  -6.3774  -6.1878  -5.0562
    -5.0061  -4.9904  -4.7590  -4.7534   3.0188   5.6064   6.8995   6.9115
     7.3339   7.4475   8.2115   8.2466   8.6876  10.3646

          k = 0.0000-0.5000 0.1585 (  2518 PWs)   bands (ev):

   -45.7827 -22.4809 -22.4279 -22.3561  -6.9546  -6.3464  -6.1407  -5.0393
    -5.0065  -4.9990  -4.7705  -4.7086   2.8943   5.5938   6.8035   6.9219
     7.0037   7.3428   8.2607   8.2817   8.5752  10.1183

          k = 0.0000-0.5000 0.3171 (  2518 PWs)   bands (ev):

   -45.7824 -22.4999 -22.4267 -22.3552  -6.9251  -6.2819  -6.0038  -5.0159
    -5.0072  -5.0019  -4.8104  -4.6137   2.6588   5.5007   6.2382   6.7664
     7.1560   7.1986   7.6569   8.2796   9.1258   9.6550

          k = 0.0000-0.5000-0.4756 (  2516 PWs)   bands (ev):

   -45.7823 -22.5094 -22.4261 -22.3548  -6.9212  -6.2482  -5.9160  -5.0242
    -5.0075  -4.9793  -4.8355  -4.5692   2.5472   5.3604   6.0170   6.7948
     7.0710   7.3021   7.4001   8.2862   9.2101   9.5684

          k = 0.1667 0.1667 0.0000 (  2498 PWs)   bands (ev):

   -45.7835 -22.4731 -22.3761 -22.3758  -7.3039  -6.4553  -6.1900  -5.0216
    -5.0081  -4.9707  -4.8308  -4.6694   3.4900   6.2607   6.4894   6.7303
     7.6483   7.7927   8.4598   8.5410   8.8250   9.1777

          k = 0.1667 0.1667 0.1585 (  2509 PWs)   bands (ev):

   -45.7833 -22.4828 -22.3757 -22.3754  -7.2241  -6.4444  -6.1572  -5.0159
    -5.0111  -4.9686  -4.8264  -4.6758   3.3119   6.1556   6.2250   6.9072
     7.5606   7.7096   8.2838   8.6313   8.8659   9.1945

          k = 0.1667 0.1667 0.3171 (  2523 PWs)   bands (ev):

   -45.7831 -22.5021 -22.3748 -22.3745  -7.0652  -6.4223  -6.0839  -5.0287
    -4.9876  -4.9580  -4.8252  -4.6916   2.9689   5.9476   6.0328   6.6951
     7.3862   7.4803   8.2453   8.7214   8.9345   9.5039

          k = 0.1667 0.1667-0.4756 (  2522 PWs)   bands (ev):

   -45.7829 -22.5117 -22.3743 -22.3741  -6.9870  -6.4112  -6.0417  -5.0337
    -4.9795  -4.9421  -4.8313  -4.7011   2.8072   5.8474   5.8610   6.5737
     7.3594   7.4634   8.2007   8.7487   8.9584   9.6766

          k = 0.1667 0.3333 0.0000 (  2515 PWs)   bands (ev):

   -45.7828 -22.4715 -22.4104 -22.3744  -7.0196  -6.3996  -6.2056  -5.0386
    -4.9969  -4.9545  -4.7892  -4.6780   3.0142   5.9601   6.4960   6.8200
     7.1517   7.6948   8.0364   8.6530   8.8206   9.6758

          k = 0.1667 0.3333 0.1585 (  2507 PWs)   bands (ev):

   -45.7827 -22.4811 -22.4099 -22.3740  -6.9616  -6.3965  -6.1687  -5.0253
    -4.9991  -4.9461  -4.7794  -4.6602   2.9620   5.8893   6.1191   6.6115
     7.1314   7.6932   8.1697   8.6050   8.8440   9.5525

          k = 0.1667 0.3333 0.3171 (  2505 PWs)   bands (ev):

   -45.7824 -22.5001 -22.4088 -22.3731  -6.8680  -6.3831  -6.0700  -5.0170
    -4.9833  -4.9217  -4.7756  -4.6181   2.8247   5.6333   5.8664   6.3579
     6.6140   7.4664   8.4194   8.6349   9.0502   9.3297

          k = 0.1667 0.3333-0.4756 (  2514 PWs)   bands (ev):

   -45.7823 -22.5097 -22.4083 -22.3727  -6.8342  -6.3724  -6.0063  -5.0180
    -4.9714  -4.9001  -4.7832  -4.5958   2.7427   5.4429   5.8457   6.2179
     6.4029   7.4164   8.4308   8.6666   8.9619   9.3867

          k = 0.1667-0.5000 0.0000 (  2520 PWs)   bands (ev):

   -45.7825 -22.4706 -22.4275 -22.3736  -6.8633  -6.3550  -6.2404  -5.0397
    -4.9892  -4.9361  -4.7363  -4.7333   2.8248   5.6244   6.6170   6.8254
     7.1797   7.4550   7.8300   8.7085   8.7966   9.9976

          k = 0.1667-0.5000 0.1585 (  2520 PWs)   bands (ev):

   -45.7824 -22.4801 -22.4270 -22.3732  -6.8309  -6.3407  -6.2016  -5.0251
    -4.9893  -4.9279  -4.7375  -4.6853   2.8114   5.6082   6.0703   6.5172
     7.1111   7.8327   7.8379   8.6338   8.8338   9.6717

          k = 0.1667-0.5000 0.3171 (  2502 PWs)   bands (ev):

   -45.7821 -22.4991 -22.4259 -22.3723  -6.8017  -6.3128  -6.0748  -5.0132
    -4.9654  -4.9122  -4.7449  -4.5917   2.7561   5.4912   5.7276   6.0103
     6.5713   7.5901   8.2781   8.6036   8.8875   9.3803

          k = 0.1667-0.5000-0.4756 (  2520 PWs)   bands (ev):

   -45.7820 -22.5086 -22.4253 -22.3719  -6.8008  -6.2993  -5.9912  -5.0130
    -4.9434  -4.9030  -4.7521  -4.5472   2.7142   5.3276   5.6828   5.8696
     6.3003   7.5303   8.3178   8.5807   8.6430   9.5809

          k = 0.3333 0.3333 0.0000 (  2522 PWs)   bands (ev):

   -45.7822 -22.4698 -22.4087 -22.4084  -6.7653  -6.3503  -6.2708  -5.0191
    -4.9760  -4.8776  -4.7189  -4.6778   2.6178   5.9112   6.0920   6.8966
     7.0679   7.1864   7.8797   8.4837   9.3056   9.4247

          k = 0.3333 0.3333 0.1585 (  2516 PWs)   bands (ev):

   -45.7820 -22.4794 -22.4082 -22.4080  -6.7058  -6.3705  -6.2475  -5.0007
    -4.9741  -4.8559  -4.6964  -4.6431   2.7081   5.8225   5.8816   6.0572
     6.7466   7.4499   8.3886   8.5536   9.0841   9.3122

          k = 0.3333 0.3333 0.3171 (  2506 PWs)   bands (ev):

   -45.7818 -22.4983 -22.4073 -22.4071  -6.6279  -6.4090  -6.1515  -4.9696
    -4.9643  -4.8116  -4.6492  -4.5754   2.8877   5.3147   5.4065   5.8235
     6.5662   6.6706   8.1170   9.1122   9.1850   9.3465

          k = 0.3333 0.3333-0.4756 (  2502 PWs)   bands (ev):

   -45.7816 -22.5078 -22.4068 -22.4066  -6.6092  -6.4275  -6.0792  -4.9672
    -4.9467  -4.7862  -4.6262  -4.5423   2.9695   5.1581   5.1923   5.6807
     6.3511   6.5398   7.7428   9.2686   9.2928   9.4566

          k = 0.3333-0.5000 0.0000 (  2520 PWs)   bands (ev):

   -45.7819 -22.4689 -22.4256 -22.4077  -6.6385  -6.3160  -6.3078  -5.0114
    -4.9537  -4.8062  -4.7199  -4.6811   2.4341   5.5957   6.1286   6.7326
     7.2380   7.3830   7.4715   8.4738   9.1290   9.4999

          k = 0.3333-0.5000 0.1585 (  2514 PWs)   bands (ev):

   -45.7817 -22.4784 -22.4251 -22.4072  -6.5803  -6.3355  -6.3017  -4.9927
    -4.9499  -4.7779  -4.6839  -4.6417   2.5680   5.5812   5.8971   5.9380
     6.5528   7.5811   8.1804   8.6087   8.7411   9.4782

          k = 0.3333-0.5000 0.3171 (  2504 PWs)   bands (ev):

   -45.7815 -22.4974 -22.4242 -22.4063  -6.5455  -6.3728  -6.1964  -4.9596
    -4.9388  -4.7343  -4.6117  -4.5501   2.8826   5.1623   5.3667   5.5322
     6.2975   6.7590   7.5231   9.1916   9.2718   9.4847

          k = 0.3333-0.5000-0.4756 (  2496 PWs)   bands (ev):

   -45.7813 -22.5068 -22.4237 -22.4059  -6.5561  -6.3907  -6.1109  -4.9503
    -4.9260  -4.7129  -4.5755  -4.5027   3.0716   4.9195   5.1148   5.4522
     6.1427   6.5372   7.0215   9.3755   9.4466   9.6105

          k =-0.5000-0.5000 0.0000 (  2496 PWs)   bands (ev):

   -45.7815 -22.4680 -22.4247 -22.4247  -6.5593  -6.2995  -6.2995  -5.0017
    -4.9138  -4.7239  -4.7239  -4.6733   2.2414   5.4357   5.9938   6.9629
     6.9629   7.4816   7.4816   8.2454   8.6596   9.7526

          k =-0.5000-0.5000 0.1585 (  2516 PWs)   bands (ev):

   -45.7814 -22.4775 -22.4242 -22.4242  -6.4622  -6.3357  -6.3357  -4.9827
    -4.9129  -4.6626  -4.6626  -4.6610   2.4175   5.4190   5.9969   6.0513
     6.0513   7.6075   7.9970   8.4589   8.4589   9.7451

          k =-0.5000-0.5000 0.3171 (  2504 PWs)   bands (ev):

   -45.7811 -22.4964 -22.4233 -22.4233  -6.4018  -6.4018  -6.2631  -4.9448
    -4.9111  -4.6307  -4.5450  -4.5450   2.8744   5.2648   5.2648   5.3558
     6.0032   6.6137   6.7617   9.3303   9.3303   9.7303

          k =-0.5000-0.5000-0.4756 (  2504 PWs)   bands (ev):

   -45.7810 -22.5058 -22.4228 -22.4228  -6.4322  -6.4322  -6.1614  -4.9259
    -4.9101  -4.6119  -4.4881  -4.4881   3.2056   4.9809   4.9809   5.2861
     6.0064   6.1015   6.2252   9.6260   9.6260   9.7229

     highest occupied level (ev):    10.3646

!    total energy              =    -380.57225666 Ry
     estimated scf accuracy    <          8.1E-11 Ry

     The total energy is the sum of the following terms:
     one-electron contribution =     -85.71867773 Ry
     hartree contribution      =      72.00467365 Ry
     xc contribution           =    -102.58557075 Ry
     ewald contribution        =    -264.27268183 Ry

     convergence has been achieved in   9 iterations

     negative rho (up, down):  1.552E-02 0.000E+00

     Forces acting on atoms (cartesian axes, Ry/au):

     atom    1 type  1   force =     0.00000000    0.00000000   -0.00028174
     atom    2 type  2   force =     0.00000000    0.00000000    0.00060918
     atom    3 type  3   force =     0.00000000    0.00000000   -0.00347231
     atom    4 type  3   force =     0.00000000    0.00000000    0.00157244
     atom    5 type  3   force =     0.00000000    0.00000000    0.00157244

     Total force =     0.004178     Total SCF correction =     0.000033


     Computing stress (Cartesian axis) and pressure


     negative rho (up, down):  1.552E-02 0.000E+00
          total   stress  (Ry/bohr**3)                   (kbar)     P=      -43.18
  -0.00034757   0.00000000   0.00000000          -51.13        0.00        0.00
   0.00000000  -0.00034757   0.00000000            0.00      -51.13        0.00
   0.00000000   0.00000000  -0.00018548            0.00        0.00      -27.29

     Energy error            =      7.6E-05 Ry
     Gradient error          =      3.5E-03 Ry/Bohr

     number of scf cycles    =   6
     number of bfgs steps    =   5

     energy             old  =    -380.5721811157 Ry
     energy             new  =    -380.5722566648 Ry

     CASE: energy            _new < energy            _old

     new trust radius        =       0.0039630890 bohr
     new conv_thr            =            1.0E-10 Ry


ATOMIC_POSITIONS (crystal)
Pb               0.0000000000        0.0000000000        0.9935112059
Ti               0.5000000000        0.5000000000        0.5385929199
O                0.5000000000        0.5000000000        0.1071607660
O                0.5000000000        0.0000000000        0.6140096981
O                0.0000000000        0.5000000000        0.6140096981



     Writing config-only to output data dir ./pto_k6.save/ :
     XML data file
     NEW-OLD atomic charge density approx. for the potential

     Check: negative core charge=   -0.000004

     negative rho (up, down):  1.555E-02 0.000E+00

     total cpu time spent up to now is       85.9 secs

     Self-consistent Calculation

     iteration #  1     ecut=    50.00 Ry     beta= 0.70
     CG style diagonalization
     ethr =  1.00E-06,  avg # of iterations =  3.2

     Threshold (ethr) on eigenvalues was too large:
     Diagonalizing with lowered threshold

     CG style diagonalization
     c_bands:  1 eigenvalues not converged
     c_bands:  1 eigenvalues not converged
     c_bands:  1 eigenvalues not converged
     c_bands:  1 eigenvalues not converged
     c_bands:  1 eigenvalues not converged
     c_bands:  1 eigenvalues not converged
     c_bands:  1 eigenvalues not converged
     c_bands:  1 eigenvalues not converged
     ethr =  2.66E-08,  avg # of iterations =  6.0

     negative rho (up, down):  1.555E-02 0.000E+00

     total cpu time spent up to now is       88.6 secs

     total energy              =    -380.57226496 Ry
     estimated scf accuracy    <       0.00001189 Ry

     iteration #  2     ecut=    50.00 Ry     beta= 0.70
     CG style diagonalization
     ethr =  2.70E-08,  avg # of iterations =  4.7

     negative rho (up, down):  1.555E-02 0.000E+00

     total cpu time spent up to now is       89.8 secs

     total energy              =    -380.57226333 Ry
     estimated scf accuracy    <       0.00003879 Ry

     iteration #  3     ecut=    50.00 Ry     beta= 0.70
     CG style diagonalization
     ethr =  2.70E-08,  avg # of iterations =  4.3

     negative rho (up, down):  1.555E-02 0.000E+00

     total cpu time spent up to now is       90.9 secs

     total energy              =    -380.57227073 Ry
     estimated scf accuracy    <       0.00000241 Ry

     iteration #  4     ecut=    50.00 Ry     beta= 0.70
     CG style diagonalization
     ethr =  5.48E-09,  avg # of iterations =  3.7

     negative rho (up, down):  1.555E-02 0.000E+00

     total cpu time spent up to now is       91.8 secs

     total energy              =    -380.57227130 Ry
     estimated scf accuracy    <       0.00000021 Ry

     iteration #  5     ecut=    50.00 Ry     beta= 0.70
     CG style diagonalization
     ethr =  4.74E-10,  avg # of iterations =  4.2

     negative rho (up, down):  1.555E-02 0.000E+00

     total cpu time spent up to now is       92.9 secs

     total energy              =    -380.57227142 Ry
     estimated scf accuracy    <       0.00000004 Ry

     iteration #  6     ecut=    50.00 Ry     beta= 0.70
     CG style diagonalization
     ethr =  8.42E-11,  avg # of iterations =  4.3

     negative rho (up, down):  1.555E-02 0.000E+00

     total cpu time spent up to now is       94.1 secs

     total energy              =    -380.57227144 Ry
     estimated scf accuracy    <       0.00000001 Ry

     iteration #  7     ecut=    50.00 Ry     beta= 0.70
     CG style diagonalization
     ethr =  2.36E-11,  avg # of iterations =  4.1

     negative rho (up, down):  1.555E-02 0.000E+00

     total cpu time spent up to now is       95.1 secs

     total energy              =    -380.57227144 Ry
     estimated scf accuracy    <          1.9E-09 Ry

     iteration #  8     ecut=    50.00 Ry     beta= 0.70
     CG style diagonalization
     ethr =  4.24E-12,  avg # of iterations =  4.8

     negative rho (up, down):  1.555E-02 0.000E+00

     total cpu time spent up to now is       96.4 secs

     total energy              =    -380.57227144 Ry
     estimated scf accuracy    <          1.4E-10 Ry

     iteration #  9     ecut=    50.00 Ry     beta= 0.70
     CG style diagonalization
     ethr =  3.19E-13,  avg # of iterations =  6.2

     negative rho (up, down):  1.555E-02 0.000E+00

     total cpu time spent up to now is       98.0 secs

     End of self-consistent calculation

          k = 0.0000 0.0000 0.0000 (  2525 PWs)   bands (ev):

   -45.7921 -22.4777 -22.3676 -22.3676  -7.5742  -6.5138  -6.2065  -4.9930
    -4.9930  -4.9516  -4.8670  -4.6848   4.2100   6.2524   6.2524   6.8018
     8.1219   8.1219   8.4523   8.6286   8.8755   8.8755

          k = 0.0000 0.0000 0.1585 (  2537 PWs)   bands (ev):

   -45.7920 -22.4875 -22.3672 -22.3672  -7.4828  -6.4883  -6.1760  -5.0005
    -5.0005  -4.9510  -4.8600  -4.7164   3.7877   6.2758   6.2758   7.0300
     8.0053   8.0053   8.4093   8.5085   8.9312   8.9312

          k = 0.0000 0.0000 0.3171 (  2510 PWs)   bands (ev):

   -45.7917 -22.5070 -22.3665 -22.3665  -7.2903  -6.4342  -6.1178  -5.0155
    -5.0155  -4.9497  -4.8464  -4.7824   3.1907   6.3095   6.3095   6.5621
     7.8411   7.8411   8.3267   9.0078   9.0078   9.2859

          k = 0.0000 0.0000-0.4756 (  2530 PWs)   bands (ev):

   -45.7916 -22.5168 -22.3661 -22.3661  -7.1881  -6.4055  -6.0911  -5.0229
    -5.0229  -4.9491  -4.8398  -4.8171   2.9550   6.2118   6.3186   6.3186
     7.7841   7.7841   8.2866   9.0377   9.0377   9.9891

          k = 0.0000 0.1667 0.0000 (  2525 PWs)   bands (ev):

   -45.7918 -22.4770 -22.3850 -22.3669  -7.4401  -6.4878  -6.1875  -5.0144
    -4.9915  -4.9643  -4.8569  -4.6744   3.7933   6.3072   6.3609   6.7352
     8.1324   8.1468   8.4275   8.5077   8.5743   8.9696

          k = 0.0000 0.1667 0.1585 (  2515 PWs)   bands (ev):

   -45.7917 -22.4867 -22.3845 -22.3665  -7.3557  -6.4689  -6.1546  -5.0113
    -4.9993  -4.9639  -4.8541  -4.6915   3.5063   6.1827   6.3891   6.9420
     7.8421   8.0000   8.2911   8.5564   8.5987   9.1400

          k = 0.0000 0.1667 0.3171 (  2516 PWs)   bands (ev):

   -45.7914 -22.5061 -22.3837 -22.3657  -7.1833  -6.4284  -6.0860  -5.0148
    -5.0030  -4.9631  -4.8527  -4.7253   3.0378   5.9769   6.4292   6.7699
     7.4842   7.8296   8.2181   8.6628   8.6945   9.6221

          k = 0.0000 0.1667-0.4756 (  2516 PWs)   bands (ev):

   -45.7913 -22.5158 -22.3832 -22.3653  -7.0956  -6.4061  -6.0503  -5.0225
    -4.9983  -4.9627  -4.8536  -4.7423   2.8388   5.8015   6.4394   6.5869
     7.4334   7.7778   8.2550   8.6810   8.7281   9.9573

          k = 0.0000 0.3333 0.0000 (  2514 PWs)   bands (ev):

   -45.7912 -22.4754 -22.4195 -22.3655  -7.1482  -6.4308  -6.1675  -5.0421
    -4.9897  -4.9883  -4.8236  -4.6853   3.2256   5.9456   6.6452   6.6660
     7.8023   7.8404   8.2249   8.2907   8.6613   9.6367

          k = 0.0000 0.3333 0.1585 (  2504 PWs)   bands (ev):

   -45.7910 -22.4850 -22.4189 -22.3651  -7.0914  -6.4144  -6.1251  -5.0262
    -4.9970  -4.9894  -4.8207  -4.6741   3.0659   5.8901   6.6211   6.6888
     7.4497   7.7361   8.1863   8.2768   8.6214   9.7113

          k = 0.0000 0.3333 0.3171 (  2508 PWs)   bands (ev):

   -45.7908 -22.5041 -22.4179 -22.3642  -6.9964  -6.3697  -6.0202  -5.0133
    -4.9897  -4.9893  -4.8390  -4.6372   2.7702   5.6835   6.4297   6.7432
     7.1345   7.5707   7.6298   8.3336   9.0801   9.6470

          k = 0.0000 0.3333-0.4756 (  2518 PWs)   bands (ev):

   -45.7906 -22.5137 -22.4173 -22.3638  -6.9599  -6.3398  -5.9567  -5.0214
    -4.9898  -4.9662  -4.8582  -4.6159   2.6328   5.4913   6.3263   6.7488
     7.1060   7.3574   7.6180   8.3528   9.2527   9.5702

          k = 0.0000-0.5000 0.0000 (  2488 PWs)   bands (ev):

   -45.7908 -22.4745 -22.4367 -22.3648  -6.9874  -6.3835  -6.1856  -5.0525
    -5.0018  -4.9871  -4.7539  -4.7495   3.0197   5.6030   6.9058   6.9061
     7.3299   7.4424   8.2067   8.2569   8.6915  10.3692

          k = 0.0000-0.5000 0.1585 (  2518 PWs)   bands (ev):

   -45.7907 -22.4840 -22.4361 -22.3643  -6.9595  -6.3527  -6.1378  -5.0356
    -5.0022  -4.9957  -4.7664  -4.7038   2.8960   5.5904   6.8061   6.9206
     6.9978   7.3392   8.2691   8.2823   8.5735  10.1234

          k = 0.0000-0.5000 0.3171 (  2518 PWs)   bands (ev):

   -45.7905 -22.5031 -22.4349 -22.3635  -6.9304  -6.2887  -6.0000  -5.0126
    -5.0029  -4.9981  -4.8060  -4.6094   2.6615   5.4980   6.2394   6.7642
     7.1543   7.1923   7.6541   8.2855   9.1281   9.6602

          k = 0.0000-0.5000-0.4756 (  2516 PWs)   bands (ev):

   -45.7903 -22.5125 -22.4343 -22.3631  -6.9265  -6.2552  -5.9119  -5.0209
    -5.0032  -4.9755  -4.8309  -4.5652   2.5503   5.3590   6.0177   6.7905
     7.0699   7.2955   7.3965   8.2912   9.2180   9.5698

          k = 0.1667 0.1667 0.0000 (  2498 PWs)   bands (ev):

   -45.7915 -22.4762 -22.3844 -22.3840  -7.3083  -6.4610  -6.1875  -5.0181
    -5.0046  -4.9666  -4.8271  -4.6644   3.4908   6.2551   6.4871   6.7300
     7.6567   7.7902   8.4658   8.5377   8.8207   9.1853

          k = 0.1667 0.1667 0.1585 (  2509 PWs)   bands (ev):

   -45.7914 -22.4859 -22.3839 -22.3836  -7.2290  -6.4501  -6.1543  -5.0123
    -5.0074  -4.9645  -4.8228  -4.6708   3.3138   6.1513   6.2230   6.9054
     7.5665   7.7078   8.2898   8.6279   8.8625   9.1992

          k = 0.1667 0.1667 0.3171 (  2523 PWs)   bands (ev):

   -45.7911 -22.5052 -22.3830 -22.3828  -7.0712  -6.4282  -6.0801  -5.0251
    -4.9836  -4.9542  -4.8214  -4.6867   2.9726   5.9452   6.0307   6.6932
     7.3825   7.4834   8.2516   8.7173   8.9320   9.5059

          k = 0.1667 0.1667-0.4756 (  2522 PWs)   bands (ev):

   -45.7910 -22.5148 -22.3825 -22.3824  -6.9936  -6.4172  -6.0374  -5.0300
    -4.9754  -4.9386  -4.8274  -4.6961   2.8117   5.8457   5.8596   6.5704
     7.3551   7.4656   8.2069   8.7446   8.9559   9.6786

          k = 0.1667 0.3333 0.0000 (  2515 PWs)   bands (ev):

   -45.7909 -22.4746 -22.4186 -22.3826  -7.0237  -6.4056  -6.2039  -5.0349
    -4.9934  -4.9502  -4.7851  -4.6730   3.0138   5.9562   6.4938   6.8199
     7.1491   7.7051   8.0351   8.6528   8.8189   9.6814

          k = 0.1667 0.3333 0.1585 (  2507 PWs)   bands (ev):

   -45.7907 -22.4842 -22.4181 -22.3822  -6.9663  -6.4024  -6.1664  -5.0216
    -4.9956  -4.9419  -4.7754  -4.6554   2.9623   5.8862   6.1183   6.6081
     7.1325   7.6974   8.1709   8.6056   8.8416   9.5568

          k = 0.1667 0.3333 0.3171 (  2505 PWs)   bands (ev):

   -45.7905 -22.5033 -22.4170 -22.3814  -6.8737  -6.3890  -6.0664  -5.0133
    -4.9795  -4.9177  -4.7717  -4.6136   2.8266   5.6322   5.8639   6.3548
     6.6143   7.4664   8.4226   8.6326   9.0524   9.3316

          k = 0.1667 0.3333-0.4756 (  2514 PWs)   bands (ev):

   -45.7903 -22.5128 -22.4165 -22.3809  -6.8401  -6.3785  -6.0022  -5.0143
    -4.9675  -4.8962  -4.7791  -4.5915   2.7453   5.4428   5.8421   6.2164
     6.4007   7.4152   8.4367   8.6617   8.9659   9.3875

          k = 0.1667-0.5000 0.0000 (  2520 PWs)   bands (ev):

   -45.7905 -22.4737 -22.4357 -22.3819  -6.8673  -6.3613  -6.2389  -5.0361
    -4.9856  -4.9317  -4.7322  -4.7283   2.8241   5.6211   6.6196   6.8186
     7.1791   7.4532   7.8418   8.7040   8.7985  10.0013

          k = 0.1667-0.5000 0.1585 (  2520 PWs)   bands (ev):

   -45.7904 -22.4832 -22.4352 -22.3814  -6.8355  -6.3470  -6.1991  -5.0214
    -4.9857  -4.9235  -4.7334  -4.6805   2.8113   5.6049   6.0703   6.5144
     7.1099   7.8324   7.8447   8.6353   8.8304   9.6761

          k = 0.1667-0.5000 0.3171 (  2502 PWs)   bands (ev):

   -45.7901 -22.5022 -22.4341 -22.3806  -6.8071  -6.3192  -6.0711  -5.0096
    -4.9618  -4.9078  -4.7408  -4.5875   2.7573   5.4891   5.7247   6.0099
     6.5706   7.5903   8.2765   8.6068   8.8890   9.3830

          k = 0.1667-0.5000-0.4756 (  2520 PWs)   bands (ev):

   -45.7900 -22.5117 -22.4335 -22.3802  -6.8062  -6.3057  -5.9873  -5.0094
    -4.9398  -4.8986  -4.7480  -4.5432   2.7160   5.3273   5.6782   5.8683
     6.2996   7.5288   8.3203   8.5843   8.6422   9.5830

          k = 0.3333 0.3333 0.0000 (  2522 PWs)   bands (ev):

   -45.7902 -22.4730 -22.4169 -22.4166  -6.7678  -6.3567  -6.2710  -5.0155
    -4.9721  -4.8732  -4.7144  -4.6729   2.6153   5.9077   6.0869   6.8990
     7.0689   7.1970   7.8753   8.4876   9.3002   9.4293

          k = 0.3333 0.3333 0.1585 (  2516 PWs)   bands (ev):

   -45.7901 -22.4825 -22.4164 -22.4162  -6.7095  -6.3767  -6.2463  -4.9971
    -4.9702  -4.8516  -4.6921  -4.6384   2.7058   5.8208   5.8791   6.0564
     6.7499   7.4518   8.3922   8.5538   9.0885   9.3070

          k = 0.3333 0.3333 0.3171 (  2506 PWs)   bands (ev):

   -45.7898 -22.5015 -22.4155 -22.4153  -6.6334  -6.4147  -6.1481  -4.9657
    -4.9607  -4.8074  -4.6452  -4.5713   2.8860   5.3142   5.4073   5.8192
     6.5654   6.6724   8.1236   9.1150   9.1831   9.3442

          k = 0.3333 0.3333-0.4756 (  2502 PWs)   bands (ev):

   -45.7897 -22.5109 -22.4150 -22.4149  -6.6151  -6.4330  -6.0752  -4.9633
    -4.9431  -4.7820  -4.6223  -4.5385   2.9685   5.1559   5.1938   5.6766
     6.3526   6.5383   7.7505   9.2715   9.2865   9.4587

          k = 0.3333-0.5000 0.0000 (  2520 PWs)   bands (ev):

   -45.7899 -22.4721 -22.4338 -22.4159  -6.6390  -6.3225  -6.3102  -5.0078
    -4.9497  -4.8015  -4.7154  -4.6763   2.4308   5.5924   6.1237   6.7382
     7.2468   7.3816   7.4706   8.4758   9.1323   9.4942

          k = 0.3333-0.5000 0.1585 (  2514 PWs)   bands (ev):

   -45.7898 -22.4816 -22.4333 -22.4154  -6.5827  -6.3418  -6.3018  -4.9891
    -4.9460  -4.7734  -4.6797  -4.6371   2.5645   5.5778   5.8999   5.9356
     6.5546   7.5844   8.1820   8.6106   8.7452   9.4723

          k = 0.3333-0.5000 0.3171 (  2504 PWs)   bands (ev):

   -45.7895 -22.5005 -22.4324 -22.4146  -6.5508  -6.3787  -6.1930  -4.9558
    -4.9349  -4.7298  -4.6081  -4.5461   2.8788   5.1634   5.3686   5.5278
     6.2957   6.7612   7.5293   9.1943   9.2726   9.4803

          k = 0.3333-0.5000-0.4756 (  2496 PWs)   bands (ev):

   -45.7894 -22.5099 -22.4319 -22.4141  -6.5615  -6.3963  -6.1071  -4.9465
    -4.9223  -4.7084  -4.5721  -4.4990   3.0678   4.9191   5.1175   5.4473
     6.1422   6.5376   7.0296   9.3782   9.4405   9.6130

          k =-0.5000-0.5000 0.0000 (  2496 PWs)   bands (ev):

   -45.7896 -22.4711 -22.4329 -22.4329  -6.5556  -6.3062  -6.3062  -4.9981
    -4.9097  -4.7190  -4.7190  -4.6687   2.2370   5.4325   5.9900   6.9705
     6.9705   7.4799   7.4799   8.2482   8.6618   9.7463

          k =-0.5000-0.5000 0.1585 (  2516 PWs)   bands (ev):

   -45.7894 -22.4806 -22.4324 -22.4324  -6.4585  -6.3420  -6.3420  -4.9791
    -4.9088  -4.6583  -4.6583  -4.6563   2.4125   5.4156   5.9931   6.0553
     6.0553   7.6098   8.0005   8.4610   8.4610   9.7388

          k =-0.5000-0.5000 0.3171 (  2504 PWs)   bands (ev):

   -45.7892 -22.4995 -22.4315 -22.4315  -6.4074  -6.4074  -6.2594  -4.9412
    -4.9069  -4.6259  -4.5415  -4.5415   2.8674   5.2687   5.2687   5.3514
     5.9994   6.6162   6.7679   9.3330   9.3330   9.7241

          k =-0.5000-0.5000-0.4756 (  2504 PWs)   bands (ev):

   -45.7890 -22.5090 -22.4310 -22.4310  -6.4376  -6.4376  -6.1577  -4.9222
    -4.9060  -4.6069  -4.4849  -4.4849   3.1964   4.9847   4.9847   5.2811
     6.0026   6.1104   6.2281   9.6287   9.6287   9.7167

     highest occupied level (ev):    10.3692

!    total energy              =    -380.57227144 Ry
     estimated scf accuracy    <          1.5E-11 Ry

     The total energy is the sum of the following terms:
     one-electron contribution =     -85.72473204 Ry
     hartree contribution      =      72.00588024 Ry
     xc contribution           =    -102.58448403 Ry
     ewald contribution        =    -264.26893562 Ry

     convergence has been achieved in   9 iterations

     negative rho (up, down):  1.555E-02 0.000E+00

     Forces acting on atoms (cartesian axes, Ry/au):

     atom    1 type  1   force =     0.00000000    0.00000000    0.00030464
     atom    2 type  2   force =     0.00000000    0.00000000   -0.00110201
     atom    3 type  3   force =     0.00000000    0.00000000   -0.00108820
     atom    4 type  3   force =     0.00000000    0.00000000    0.00094279
     atom    5 type  3   force =     0.00000000    0.00000000    0.00094279

     Total force =     0.002066     Total SCF correction =     0.000008


     Computing stress (Cartesian axis) and pressure


     negative rho (up, down):  1.555E-02 0.000E+00
          total   stress  (Ry/bohr**3)                   (kbar)     P=      -43.91
  -0.00034779   0.00000000   0.00000000          -51.16        0.00        0.00
   0.00000000  -0.00034779   0.00000000            0.00      -51.16        0.00
   0.00000000   0.00000000  -0.00019984            0.00        0.00      -29.40

     Energy error            =      1.5E-05 Ry
     Gradient error          =      1.1E-03 Ry/Bohr

     number of scf cycles    =   7
     number of bfgs steps    =   6

     energy             old  =    -380.5722566648 Ry
     energy             new  =    -380.5722714406 Ry

     CASE: energy            _new < energy            _old

     new trust radius        =       0.0030714405 bohr
     new conv_thr            =            1.0E-10 Ry


ATOMIC_POSITIONS (crystal)
Pb               0.0000000000        0.0000000000        0.9935881234
Ti               0.5000000000        0.5000000000        0.5384462234
O                0.5000000000        0.5000000000        0.1067643425
O                0.5000000000        0.0000000000        0.6142427993
O                0.0000000000        0.5000000000        0.6142427993



     Writing config-only to output data dir ./pto_k6.save/ :
     XML data file
     NEW-OLD atomic charge density approx. for the potential

     Check: negative core charge=   -0.000004

     negative rho (up, down):  1.554E-02 0.000E+00

     total cpu time spent up to now is       99.4 secs

     Self-consistent Calculation

     iteration #  1     ecut=    50.00 Ry     beta= 0.70
     CG style diagonalization
     ethr =  1.00E-06,  avg # of iterations =  2.9

     Threshold (ethr) on eigenvalues was too large:
     Diagonalizing with lowered threshold

     CG style diagonalization
     c_bands:  1 eigenvalues not converged
     c_bands:  1 eigenvalues not converged
     c_bands:  1 eigenvalues not converged
     c_bands:  1 eigenvalues not converged
     c_bands:  1 eigenvalues not converged
     c_bands:  1 eigenvalues not converged
     c_bands:  1 eigenvalues not converged
     ethr =  3.52E-09,  avg # of iterations =  6.8

     negative rho (up, down):  1.554E-02 0.000E+00

     total cpu time spent up to now is      102.2 secs

     total energy              =    -380.57227609 Ry
     estimated scf accuracy    <       0.00000327 Ry

     iteration #  2     ecut=    50.00 Ry     beta= 0.70
     CG style diagonalization
     ethr =  7.43E-09,  avg # of iterations =  4.7

     negative rho (up, down):  1.554E-02 0.000E+00

     total cpu time spent up to now is      103.5 secs

     total energy              =    -380.57227534 Ry
     estimated scf accuracy    <       0.00001261 Ry

     iteration #  3     ecut=    50.00 Ry     beta= 0.70
     CG style diagonalization
     ethr =  7.43E-09,  avg # of iterations =  4.3

     negative rho (up, down):  1.554E-02 0.000E+00

     total cpu time spent up to now is      104.6 secs

     total energy              =    -380.57227761 Ry
     estimated scf accuracy    <       0.00000050 Ry

     iteration #  4     ecut=    50.00 Ry     beta= 0.70
     CG style diagonalization
     ethr =  1.15E-09,  avg # of iterations =  3.7

     negative rho (up, down):  1.554E-02 0.000E+00

     total cpu time spent up to now is      105.5 secs

     total energy              =    -380.57227774 Ry
     estimated scf accuracy    <       0.00000006 Ry

     iteration #  5     ecut=    50.00 Ry     beta= 0.70
     CG style diagonalization
     ethr =  1.31E-10,  avg # of iterations =  4.2

     negative rho (up, down):  1.554E-02 0.000E+00

     total cpu time spent up to now is      106.6 secs

     total energy              =    -380.57227777 Ry
     estimated scf accuracy    <       0.00000001 Ry

     iteration #  6     ecut=    50.00 Ry     beta= 0.70
     CG style diagonalization
     ethr =  2.57E-11,  avg # of iterations =  4.0

     negative rho (up, down):  1.554E-02 0.000E+00

     total cpu time spent up to now is      107.7 secs

     total energy              =    -380.57227777 Ry
     estimated scf accuracy    <          1.6E-09 Ry

     iteration #  7     ecut=    50.00 Ry     beta= 0.70
     CG style diagonalization
     ethr =  3.61E-12,  avg # of iterations =  4.6

     negative rho (up, down):  1.554E-02 0.000E+00

     total cpu time spent up to now is      108.9 secs

     total energy              =    -380.57227777 Ry
     estimated scf accuracy    <          2.7E-10 Ry

     iteration #  8     ecut=    50.00 Ry     beta= 0.70
     CG style diagonalization
     ethr =  6.15E-13,  avg # of iterations =  5.0

     negative rho (up, down):  1.554E-02 0.000E+00

     total cpu time spent up to now is      110.2 secs

     End of self-consistent calculation

          k = 0.0000 0.0000 0.0000 (  2525 PWs)   bands (ev):

   -45.7953 -22.4791 -22.3706 -22.3706  -7.5751  -6.5138  -6.2056  -4.9916
    -4.9916  -4.9499  -4.8653  -4.6829   4.2126   6.2504   6.2504   6.7989
     8.1235   8.1235   8.4503   8.6314   8.8741   8.8741

          k = 0.0000 0.0000 0.1585 (  2537 PWs)   bands (ev):

   -45.7951 -22.4889 -22.3702 -22.3702  -7.4837  -6.4882  -6.1751  -4.9991
    -4.9991  -4.9493  -4.8583  -4.7145   3.7900   6.2734   6.2734   7.0274
     8.0074   8.0074   8.4073   8.5109   8.9302   8.9302

          k = 0.0000 0.0000 0.3171 (  2510 PWs)   bands (ev):

   -45.7948 -22.5084 -22.3694 -22.3694  -7.2911  -6.4342  -6.1171  -5.0141
    -5.0141  -4.9480  -4.8446  -4.7804   3.1929   6.3061   6.3061   6.5607
     7.8446   7.8446   8.3247   9.0070   9.0070   9.2867

          k = 0.0000 0.0000-0.4756 (  2530 PWs)   bands (ev):

   -45.7947 -22.5181 -22.3690 -22.3690  -7.1890  -6.4056  -6.0904  -5.0216
    -5.0216  -4.9474  -4.8381  -4.8151   2.9574   6.2105   6.3146   6.3146
     7.7884   7.7884   8.2846   9.0370   9.0370   9.9897

          k = 0.0000 0.1667 0.0000 (  2525 PWs)   bands (ev):

   -45.7949 -22.4783 -22.3879 -22.3699  -7.4410  -6.4879  -6.1866  -5.0129
    -4.9902  -4.9626  -4.8554  -4.6725   3.7946   6.3069   6.3591   6.7333
     8.1342   8.1488   8.4261   8.5060   8.5747   8.9711

          k = 0.0000 0.1667 0.1585 (  2515 PWs)   bands (ev):

   -45.7948 -22.4881 -22.3875 -22.3695  -7.3566  -6.4690  -6.1537  -5.0099
    -4.9979  -4.9622  -4.8525  -4.6896   3.5078   6.1817   6.3869   6.9405
     7.8436   8.0019   8.2922   8.5554   8.5980   9.1408

          k = 0.0000 0.1667 0.3171 (  2516 PWs)   bands (ev):

   -45.7945 -22.5075 -22.3866 -22.3687  -7.1841  -6.4286  -6.0853  -5.0134
    -5.0015  -4.9614  -4.8510  -4.7234   3.0395   5.9752   6.4259   6.7686
     7.4866   7.8327   8.2181   8.6618   8.6943   9.6233

          k = 0.0000 0.1667-0.4756 (  2516 PWs)   bands (ev):

   -45.7944 -22.5171 -22.3862 -22.3683  -7.0964  -6.4063  -6.0496  -5.0211
    -4.9968  -4.9610  -4.8519  -4.7404   2.8406   5.7998   6.4355   6.5852
     7.4365   7.7817   8.2543   8.6801   8.7280   9.9589

          k = 0.0000 0.3333 0.0000 (  2514 PWs)   bands (ev):

   -45.7943 -22.4768 -22.4224 -22.3684  -7.1491  -6.4313  -6.1667  -5.0406
    -4.9881  -4.9868  -4.8221  -4.6835   3.2261   5.9461   6.6439   6.6680
     7.8048   7.8391   8.2265   8.2890   8.6622   9.6373

          k = 0.0000 0.3333 0.1585 (  2504 PWs)   bands (ev):

   -45.7942 -22.4864 -22.4218 -22.3680  -7.0921  -6.4150  -6.1243  -5.0247
    -4.9956  -4.9877  -4.8192  -4.6724   3.0666   5.8905   6.6221   6.6871
     7.4521   7.7352   8.1863   8.2789   8.6214   9.7119

          k = 0.0000 0.3333 0.3171 (  2508 PWs)   bands (ev):

   -45.7939 -22.5055 -22.4208 -22.3672  -6.9970  -6.3704  -6.0195  -5.0119
    -4.9880  -4.9878  -4.8375  -4.6355   2.7713   5.6831   6.4315   6.7404
     7.1360   7.5700   7.6301   8.3361   9.0810   9.6481

          k = 0.0000 0.3333-0.4756 (  2518 PWs)   bands (ev):

   -45.7938 -22.5150 -22.4203 -22.3668  -6.9603  -6.3407  -5.9562  -5.0201
    -4.9881  -4.9646  -4.8565  -4.6143   2.6341   5.4906   6.3289   6.7454
     7.1067   7.3563   7.6192   8.3554   9.2535   9.5719

          k = 0.0000-0.5000 0.0000 (  2488 PWs)   bands (ev):

   -45.7940 -22.4758 -22.4396 -22.3677  -6.9880  -6.3847  -6.1846  -5.0511
    -5.0002  -4.9858  -4.7523  -4.7480   3.0199   5.6046   6.9057   6.9112
     7.3297   7.4397   8.2049   8.2590   8.6924  10.3702

          k = 0.0000-0.5000 0.1585 (  2518 PWs)   bands (ev):

   -45.7938 -22.4854 -22.4390 -22.3673  -6.9601  -6.3539  -6.1369  -5.0342
    -5.0005  -4.9943  -4.7649  -4.7022   2.8965   5.5918   6.8094   6.9212
     6.9977   7.3362   8.2720   8.2824   8.5734  10.1244

          k = 0.0000-0.5000 0.3171 (  2518 PWs)   bands (ev):

   -45.7936 -22.5044 -22.4378 -22.3665  -6.9307  -6.2899  -5.9994  -5.0112
    -5.0012  -4.9967  -4.8044  -4.6078   2.6625   5.4984   6.2417   6.7655
     7.1508   7.1922   7.6532   8.2893   9.1299   9.6611

          k = 0.0000-0.5000-0.4756 (  2516 PWs)   bands (ev):

   -45.7934 -22.5139 -22.4372 -22.3661  -6.9266  -6.2566  -5.9115  -5.0196
    -5.0015  -4.9740  -4.8292  -4.5636   2.5515   5.3588   6.0209   6.7911
     7.0663   7.2954   7.3953   8.2954   9.2208   9.5703

          k = 0.1667 0.1667 0.0000 (  2498 PWs)   bands (ev):

   -45.7946 -22.4776 -22.3873 -22.3870  -7.3093  -6.4613  -6.1866  -5.0167
    -5.0032  -4.9650  -4.8256  -4.6626   3.4918   6.2533   6.4876   6.7285
     7.6590   7.7901   8.4678   8.5362   8.8214   9.1871

          k = 0.1667 0.1667 0.1585 (  2509 PWs)   bands (ev):

   -45.7945 -22.4873 -22.3869 -22.3866  -7.2300  -6.4504  -6.1535  -5.0109
    -5.0059  -4.9629  -4.8212  -4.6690   3.3149   6.1492   6.2229   6.9038
     7.5693   7.7080   8.2920   8.6265   8.8629   9.2010

          k = 0.1667 0.1667 0.3171 (  2523 PWs)   bands (ev):

   -45.7942 -22.5065 -22.3860 -22.3857  -7.0721  -6.4284  -6.0793  -5.0236
    -4.9821  -4.9527  -4.8198  -4.6849   2.9740   5.9430   6.0297   6.6927
     7.3817   7.4866   8.2541   8.7162   8.9318   9.5078

          k = 0.1667 0.1667-0.4756 (  2522 PWs)   bands (ev):

   -45.7941 -22.5161 -22.3855 -22.3853  -6.9945  -6.4174  -6.0368  -5.0286
    -4.9737  -4.9371  -4.8257  -4.6943   2.8133   5.8435   5.8581   6.5706
     7.3536   7.4690   8.2097   8.7436   8.9554   9.6806

          k = 0.1667 0.3333 0.0000 (  2515 PWs)   bands (ev):

   -45.7940 -22.4760 -22.4215 -22.3856  -7.0246  -6.4062  -6.2032  -5.0335
    -4.9920  -4.9485  -4.7836  -4.6713   3.0142   5.9565   6.4927   6.8215
     7.1488   7.7083   8.0365   8.6526   8.8193   9.6826

          k = 0.1667 0.3333 0.1585 (  2507 PWs)   bands (ev):

   -45.7938 -22.4856 -22.4210 -22.3852  -6.9672  -6.4031  -6.1657  -5.0201
    -4.9941  -4.9402  -4.7739  -4.6537   2.9629   5.8863   6.1188   6.6069
     7.1338   7.6997   8.1732   8.6057   8.8412   9.5579

          k = 0.1667 0.3333 0.3171 (  2505 PWs)   bands (ev):

   -45.7936 -22.5046 -22.4200 -22.3843  -6.8744  -6.3897  -6.0658  -5.0118
    -4.9780  -4.9160  -4.7701  -4.6120   2.8275   5.6319   5.8641   6.3533
     6.6161   7.4683   8.4245   8.6326   9.0535   9.3319

          k = 0.1667 0.3333-0.4756 (  2514 PWs)   bands (ev):

   -45.7934 -22.5141 -22.4194 -22.3839  -6.8408  -6.3793  -6.0017  -5.0128
    -4.9660  -4.8946  -4.7775  -4.5899   2.7464   5.4423   5.8418   6.2157
     6.4024   7.4167   8.4389   8.6614   8.9674   9.3877

          k = 0.1667-0.5000 0.0000 (  2520 PWs)   bands (ev):

   -45.7936 -22.4751 -22.4386 -22.3848  -6.8680  -6.3624  -6.2382  -5.0347
    -4.9842  -4.9299  -4.7307  -4.7267   2.8243   5.6226   6.6211   6.8159
     7.1817   7.4542   7.8448   8.7029   8.7994  10.0022

          k = 0.1667-0.5000 0.1585 (  2520 PWs)   bands (ev):

   -45.7935 -22.4846 -22.4381 -22.3844  -6.8362  -6.3482  -6.1984  -5.0200
    -4.9843  -4.9217  -4.7319  -4.6789   2.8116   5.6063   6.0718   6.5128
     7.1104   7.8347   7.8477   8.6356   8.8297   9.6769

          k = 0.1667-0.5000 0.3171 (  2502 PWs)   bands (ev):

   -45.7932 -22.5036 -22.4370 -22.3835  -6.8075  -6.3204  -6.0706  -5.0081
    -4.9604  -4.9060  -4.7393  -4.5859   2.7581   5.4896   5.7256   6.0104
     6.5702   7.5927   8.2779   8.6073   8.8900   9.3832

          k = 0.1667-0.5000-0.4756 (  2520 PWs)   bands (ev):

   -45.7931 -22.5130 -22.4364 -22.3831  -6.8065  -6.3069  -5.9869  -5.0079
    -4.9384  -4.8968  -4.7465  -4.5416   2.7170   5.3273   5.6786   5.8694
     6.2994   7.5307   8.3221   8.5850   8.6425   9.5836

          k = 0.3333 0.3333 0.0000 (  2522 PWs)   bands (ev):

   -45.7933 -22.4744 -22.4198 -22.4196  -6.7687  -6.3576  -6.2708  -5.0141
    -4.9705  -4.8715  -4.7127  -4.6712   2.6155   5.9077   6.0870   6.8992
     7.0714   7.1995   7.8767   8.4900   9.2997   9.4304

          k = 0.3333 0.3333 0.1585 (  2516 PWs)   bands (ev):

   -45.7932 -22.4839 -22.4193 -22.4191  -6.7105  -6.3775  -6.2459  -4.9957
    -4.9686  -4.8499  -4.6904  -4.6368   2.7060   5.8207   5.8789   6.0575
     6.7530   7.4528   8.3953   8.5547   9.0891   9.3065

          k = 0.3333 0.3333 0.3171 (  2506 PWs)   bands (ev):

   -45.7929 -22.5028 -22.4184 -22.4182  -6.6344  -6.4155  -6.1477  -4.9641
    -4.9593  -4.8056  -4.6436  -4.5698   2.8864   5.3152   5.4075   5.8177
     6.5684   6.6746   8.1262   9.1156   9.1831   9.3441

          k = 0.3333 0.3333-0.4756 (  2502 PWs)   bands (ev):

   -45.7928 -22.5123 -22.4179 -22.4178  -6.6160  -6.4337  -6.0749  -4.9617
    -4.9416  -4.7802  -4.6208  -4.5370   2.9691   5.1566   5.1942   5.6743
     6.3553   6.5412   7.7532   9.2721   9.2858   9.4590

          k = 0.3333-0.5000 0.0000 (  2520 PWs)   bands (ev):

   -45.7930 -22.4734 -22.4367 -22.4188  -6.6396  -6.3237  -6.3103  -5.0064
    -4.9481  -4.7997  -4.7138  -4.6745   2.4308   5.5935   6.1242   6.7390
     7.2479   7.3843   7.4730   8.4774   9.1332   9.4937

          k = 0.3333-0.5000 0.1585 (  2514 PWs)   bands (ev):

   -45.7929 -22.4829 -22.4362 -22.4184  -6.5835  -6.3429  -6.3016  -4.9877
    -4.9444  -4.7715  -4.6782  -4.6354   2.5646   5.5786   5.9013   5.9356
     6.5573   7.5860   8.1844   8.6118   8.7456   9.4717

          k = 0.3333-0.5000 0.3171 (  2504 PWs)   bands (ev):

   -45.7926 -22.5018 -22.4353 -22.4175  -6.5516  -6.3797  -6.1928  -4.9544
    -4.9334  -4.7278  -4.6067  -4.5446   2.8789   5.1648   5.3694   5.5272
     6.2976   6.7641   7.5310   9.1949   9.2733   9.4799

          k = 0.3333-0.5000-0.4756 (  2496 PWs)   bands (ev):

   -45.7925 -22.5113 -22.4348 -22.4170  -6.5622  -6.3973  -6.1069  -4.9450
    -4.9208  -4.7063  -4.5708  -4.4976   3.0680   4.9202   5.1186   5.4456
     6.1445   6.5409   7.0313   9.3786   9.4400   9.6137

          k =-0.5000-0.5000 0.0000 (  2496 PWs)   bands (ev):

   -45.7927 -22.4725 -22.4358 -22.4358  -6.5554  -6.3075  -6.3075  -4.9967
    -4.9080  -4.7175  -4.7175  -4.6666   2.2369   5.4334   5.9923   6.9707
     6.9707   7.4827   7.4827   8.2496   8.6633   9.7457

          k =-0.5000-0.5000 0.1585 (  2516 PWs)   bands (ev):

   -45.7926 -22.4820 -22.4353 -22.4353  -6.4583  -6.3431  -6.3431  -4.9777
    -4.9071  -4.6568  -4.6568  -4.6541   2.4124   5.4162   5.9954   6.0568
     6.0568   7.6112   8.0017   8.4624   8.4624   9.7382

          k =-0.5000-0.5000 0.3171 (  2504 PWs)   bands (ev):

   -45.7923 -22.5009 -22.4344 -22.4344  -6.4083  -6.4083  -6.2592  -4.9398
    -4.9053  -4.6236  -4.5402  -4.5402   2.8671   5.2704   5.2704   5.3510
     6.0017   6.6184   6.7692   9.3338   9.3338   9.7235

          k =-0.5000-0.5000-0.4756 (  2504 PWs)   bands (ev):

   -45.7922 -22.5103 -22.4339 -22.4339  -6.4385  -6.4385  -6.1576  -4.9208
    -4.9044  -4.6046  -4.4837  -4.4837   3.1959   4.9866   4.9866   5.2796
     6.0049   6.1118   6.2312   9.6294   9.6294   9.7161

     highest occupied level (ev):    10.3702

!    total energy              =    -380.57227777 Ry
     estimated scf accuracy    <          1.7E-11 Ry

     The total energy is the sum of the following terms:
     one-electron contribution =     -85.70087552 Ry
     hartree contribution      =      71.99360932 Ry
     xc contribution           =    -102.58364209 Ry
     ewald contribution        =    -264.28136949 Ry

     convergence has been achieved in   8 iterations

     negative rho (up, down):  1.554E-02 0.000E+00

     Forces acting on atoms (cartesian axes, Ry/au):

     atom    1 type  1   force =     0.00000000    0.00000000    0.00024849
     atom    2 type  2   force =     0.00000000    0.00000000   -0.00128528
     atom    3 type  3   force =     0.00000000    0.00000000    0.00009695
     atom    4 type  3   force =     0.00000000    0.00000000    0.00046992
     atom    5 type  3   force =     0.00000000    0.00000000    0.00046992

     Total force =     0.001471     Total SCF correction =     0.000016


     Computing stress (Cartesian axis) and pressure


     negative rho (up, down):  1.554E-02 0.000E+00
          total   stress  (Ry/bohr**3)                   (kbar)     P=      -44.43
  -0.00034998   0.00000000   0.00000000          -51.48        0.00        0.00
   0.00000000  -0.00034998   0.00000000            0.00      -51.48        0.00
   0.00000000   0.00000000  -0.00020616            0.00        0.00      -30.33

     Energy error            =      6.3E-06 Ry
     Gradient error          =      1.3E-03 Ry/Bohr

     number of scf cycles    =   8
     number of bfgs steps    =   7

     energy             old  =    -380.5722714406 Ry
     energy             new  =    -380.5722777718 Ry

     CASE: energy            _new < energy            _old

     new trust radius        =       0.0020193486 bohr
     new conv_thr            =            1.0E-10 Ry


ATOMIC_POSITIONS (crystal)
Pb               0.0000000000        0.0000000000        0.9936195811
Ti               0.5000000000        0.5000000000        0.5381855909
O                0.5000000000        0.5000000000        0.1065677660
O                0.5000000000        0.0000000000        0.6144556750
O                0.0000000000        0.5000000000        0.6144556750



     Writing config-only to output data dir ./pto_k6.save/ :
     XML data file
     NEW-OLD atomic charge density approx. for the potential

     Check: negative core charge=   -0.000004

     negative rho (up, down):  1.553E-02 0.000E+00

     total cpu time spent up to now is      111.6 secs

     Self-consistent Calculation

     iteration #  1     ecut=    50.00 Ry     beta= 0.70
     CG style diagonalization
     ethr =  1.00E-06,  avg # of iterations =  2.9

     Threshold (ethr) on eigenvalues was too large:
     Diagonalizing with lowered threshold

     CG style diagonalization
     c_bands:  2 eigenvalues not converged
     c_bands:  2 eigenvalues not converged
     c_bands:  1 eigenvalues not converged
     c_bands:  1 eigenvalues not converged
     c_bands:  1 eigenvalues not converged
     c_bands:  1 eigenvalues not converged
     c_bands:  1 eigenvalues not converged
     c_bands:  1 eigenvalues not converged
     c_bands:  1 eigenvalues not converged
     c_bands:  1 eigenvalues not converged
     c_bands:  1 eigenvalues not converged
     c_bands:  3 eigenvalues not converged
     c_bands:  1 eigenvalues not converged
     c_bands:  1 eigenvalues not converged
     c_bands:  1 eigenvalues not converged
     c_bands:  1 eigenvalues not converged
     c_bands:  1 eigenvalues not converged
     ethr =  1.58E-09,  avg # of iterations =  7.5

     negative rho (up, down):  1.553E-02 0.000E+00

     total cpu time spent up to now is      114.6 secs

     total energy              =    -380.57228005 Ry
     estimated scf accuracy    <       0.00000082 Ry

     iteration #  2     ecut=    50.00 Ry     beta= 0.70
     CG style diagonalization
     ethr =  1.87E-09,  avg # of iterations =  4.4

     negative rho (up, down):  1.553E-02 0.000E+00

     total cpu time spent up to now is      115.7 secs

     total energy              =    -380.57227992 Ry
     estimated scf accuracy    <       0.00000216 Ry

     iteration #  3     ecut=    50.00 Ry     beta= 0.70
     CG style diagonalization
     ethr =  1.87E-09,  avg # of iterations =  4.1

     negative rho (up, down):  1.553E-02 0.000E+00

     total cpu time spent up to now is      116.8 secs

     total energy              =    -380.57228036 Ry
     estimated scf accuracy    <       0.00000016 Ry

     iteration #  4     ecut=    50.00 Ry     beta= 0.70
     CG style diagonalization
     ethr =  3.63E-10,  avg # of iterations =  3.6

     negative rho (up, down):  1.553E-02 0.000E+00

     total cpu time spent up to now is      117.7 secs

     total energy              =    -380.57228039 Ry
     estimated scf accuracy    <          8.0E-09 Ry

     iteration #  5     ecut=    50.00 Ry     beta= 0.70
     CG style diagonalization
     ethr =  1.83E-11,  avg # of iterations =  4.9

     negative rho (up, down):  1.553E-02 0.000E+00

     total cpu time spent up to now is      119.0 secs

     total energy              =    -380.57228040 Ry
     estimated scf accuracy    <          3.8E-09 Ry

     iteration #  6     ecut=    50.00 Ry     beta= 0.70
     CG style diagonalization
     ethr =  8.57E-12,  avg # of iterations =  3.8

     negative rho (up, down):  1.553E-02 0.000E+00

     total cpu time spent up to now is      120.0 secs

     total energy              =    -380.57228040 Ry
     estimated scf accuracy    <          8.0E-10 Ry

     iteration #  7     ecut=    50.00 Ry     beta= 0.70
     CG style diagonalization
     ethr =  1.83E-12,  avg # of iterations =  4.5

     negative rho (up, down):  1.553E-02 0.000E+00

     total cpu time spent up to now is      121.2 secs

     total energy              =    -380.57228040 Ry
     estimated scf accuracy    <          3.8E-10 Ry

     iteration #  8     ecut=    50.00 Ry     beta= 0.70
     CG style diagonalization
     ethr =  8.69E-13,  avg # of iterations =  4.1

     negative rho (up, down):  1.553E-02 0.000E+00

     total cpu time spent up to now is      122.3 secs

     End of self-consistent calculation

          k = 0.0000 0.0000 0.0000 (  2525 PWs)   bands (ev):

   -45.7954 -22.4795 -22.3705 -22.3705  -7.5754  -6.5130  -6.2056  -4.9906
    -4.9906  -4.9487  -4.8643  -4.6811   4.2144   6.2491   6.2491   6.7981
     8.1197   8.1197   8.4486   8.6298   8.8737   8.8737

          k = 0.0000 0.0000 0.1585 (  2537 PWs)   bands (ev):

   -45.7952 -22.4893 -22.3701 -22.3701  -7.4839  -6.4874  -6.1752  -4.9981
    -4.9981  -4.9481  -4.8573  -4.7126   3.7913   6.2712   6.2712   7.0267
     8.0052   8.0052   8.4057   8.5102   8.9299   8.9299

          k = 0.0000 0.0000 0.3171 (  2510 PWs)   bands (ev):

   -45.7950 -22.5088 -22.3693 -22.3693  -7.2911  -6.4335  -6.1175  -5.0131
    -5.0131  -4.9468  -4.8436  -4.7786   3.1937   6.3021   6.3021   6.5601
     7.8453   7.8453   8.3230   9.0070   9.0070   9.2872

          k = 0.0000 0.0000-0.4756 (  2530 PWs)   bands (ev):

   -45.7948 -22.5185 -22.3689 -22.3689  -7.1887  -6.4048  -6.0910  -5.0206
    -5.0206  -4.9462  -4.8370  -4.8132   2.9580   6.2101   6.3096   6.3096
     7.7907   7.7907   8.2829   9.0370   9.0370   9.9905

          k = 0.0000 0.1667 0.0000 (  2525 PWs)   bands (ev):

   -45.7950 -22.4788 -22.3878 -22.3698  -7.4414  -6.4873  -6.1867  -5.0118
    -4.9891  -4.9614  -4.8544  -4.6708   3.7956   6.3070   6.3580   6.7321
     8.1336   8.1454   8.4245   8.5054   8.5733   8.9710

          k = 0.0000 0.1667 0.1585 (  2515 PWs)   bands (ev):

   -45.7949 -22.4885 -22.3873 -22.3694  -7.3569  -6.4684  -6.1539  -5.0088
    -4.9969  -4.9610  -4.8515  -4.6878   3.5086   6.1807   6.3849   6.9394
     7.8433   7.9997   8.2923   8.5537   8.5977   9.1410

          k = 0.0000 0.1667 0.3171 (  2516 PWs)   bands (ev):

   -45.7946 -22.5079 -22.3865 -22.3686  -7.1841  -6.4280  -6.0858  -5.0124
    -5.0004  -4.9602  -4.8500  -4.7217   3.0401   5.9727   6.4221   6.7682
     7.4873   7.8332   8.2188   8.6598   8.6946   9.6248

          k = 0.0000 0.1667-0.4756 (  2516 PWs)   bands (ev):

   -45.7945 -22.5175 -22.3860 -22.3682  -7.0962  -6.4058  -6.0503  -5.0201
    -4.9956  -4.9598  -4.8508  -4.7387   2.8411   5.7972   6.4307   6.5844
     7.4385   7.7837   8.2545   8.6780   8.7285   9.9609

          k = 0.0000 0.3333 0.0000 (  2514 PWs)   bands (ev):

   -45.7944 -22.4772 -22.4222 -22.3683  -7.1494  -6.4313  -6.1669  -5.0395
    -4.9870  -4.9858  -4.8210  -4.6819   3.2264   5.9474   6.6435   6.6695
     7.8069   7.8387   8.2225   8.2878   8.6604   9.6368

          k = 0.0000 0.3333 0.1585 (  2504 PWs)   bands (ev):

   -45.7943 -22.4868 -22.4217 -22.3679  -7.0923  -6.4151  -6.1247  -5.0236
    -4.9945  -4.9865  -4.8181  -4.6707   3.0670   5.8914   6.6227   6.6860
     7.4540   7.7336   8.1855   8.2776   8.6208   9.7116

          k = 0.0000 0.3333 0.3171 (  2508 PWs)   bands (ev):

   -45.7940 -22.5059 -22.4206 -22.3671  -6.9967  -6.3706  -6.0203  -5.0109
    -4.9868  -4.9866  -4.8363  -4.6339   2.7719   5.6822   6.4336   6.7373
     7.1372   7.5699   7.6295   8.3373   9.0800   9.6491

          k = 0.0000 0.3333-0.4756 (  2518 PWs)   bands (ev):

   -45.7939 -22.5154 -22.4201 -22.3667  -6.9598  -6.3410  -5.9571  -5.0190
    -4.9869  -4.9634  -4.8553  -4.6127   2.6347   5.4888   6.3323   6.7410
     7.1070   7.3564   7.6196   8.3573   9.2514   9.5746

          k = 0.0000-0.5000 0.0000 (  2488 PWs)   bands (ev):

   -45.7941 -22.4763 -22.4394 -22.3676  -6.9882  -6.3852  -6.1848  -5.0499
    -4.9990  -4.9847  -4.7508  -4.7468   3.0200   5.6076   6.9066   6.9144
     7.3306   7.4379   8.2035   8.2553   8.6905  10.3700

          k = 0.0000-0.5000 0.1585 (  2518 PWs)   bands (ev):

   -45.7939 -22.4858 -22.4388 -22.3672  -6.9600  -6.3545  -6.1374  -5.0330
    -4.9993  -4.9933  -4.7637  -4.7007   2.8968   5.5944   6.8114   6.9219
     6.9987   7.3329   8.2705   8.2814   8.5730  10.1243

          k = 0.0000-0.5000 0.3171 (  2518 PWs)   bands (ev):

   -45.7937 -22.5048 -22.4376 -22.3664  -6.9301  -6.2906  -6.0003  -5.0102
    -5.0000  -4.9955  -4.8031  -4.6063   2.6632   5.4992   6.2437   6.7664
     7.1459   7.1933   7.6532   8.2907   9.1308   9.6605

          k = 0.0000-0.5000-0.4756 (  2516 PWs)   bands (ev):

   -45.7935 -22.5143 -22.4370 -22.3659  -6.9260  -6.2574  -5.9126  -5.0185
    -5.0004  -4.9729  -4.8279  -4.5621   2.5524   5.3580   6.0243   6.7916
     7.0609   7.2965   7.3955   8.2979   9.2224   9.5695

          k = 0.1667 0.1667 0.0000 (  2498 PWs)   bands (ev):

   -45.7947 -22.4780 -22.3872 -22.3868  -7.3098  -6.4608  -6.1867  -5.0156
    -5.0021  -4.9638  -4.8245  -4.6608   3.4925   6.2523   6.4882   6.7270
     7.6572   7.7900   8.4671   8.5350   8.8228   9.1855

          k = 0.1667 0.1667 0.1585 (  2509 PWs)   bands (ev):

   -45.7946 -22.4877 -22.3867 -22.3864  -7.2304  -6.4499  -6.1537  -5.0098
    -5.0048  -4.9617  -4.8202  -4.6673   3.3155   6.1475   6.2227   6.9021
     7.5696   7.7084   8.2911   8.6251   8.8636   9.2013

          k = 0.1667 0.1667 0.3171 (  2523 PWs)   bands (ev):

   -45.7943 -22.5070 -22.3858 -22.3856  -7.0723  -6.4280  -6.0799  -5.0226
    -4.9809  -4.9516  -4.8187  -4.6831   2.9745   5.9401   6.0281   6.6928
     7.3809   7.4893   8.2538   8.7153   8.9312   9.5098

          k = 0.1667 0.1667-0.4756 (  2522 PWs)   bands (ev):

   -45.7942 -22.5166 -22.3854 -22.3852  -6.9945  -6.4170  -6.0376  -5.0275
    -4.9726  -4.9360  -4.8246  -4.6926   2.8137   5.8403   5.8560   6.5718
     7.3518   7.4724   8.2101   8.7427   8.9546   9.6830

          k = 0.1667 0.3333 0.0000 (  2515 PWs)   bands (ev):

   -45.7941 -22.4764 -22.4213 -22.3855  -7.0253  -6.4063  -6.2034  -5.0324
    -4.9909  -4.9473  -4.7825  -4.6697   3.0145   5.9578   6.4916   6.8234
     7.1483   7.7071   8.0384   8.6515   8.8192   9.6820

          k = 0.1667 0.3333 0.1585 (  2507 PWs)   bands (ev):

   -45.7939 -22.4860 -22.4208 -22.3850  -6.9676  -6.4031  -6.1661  -5.0190
    -4.9930  -4.9390  -4.7727  -4.6521   2.9633   5.8869   6.1189   6.6061
     7.1344   7.7005   8.1748   8.6045   8.8405   9.5580

          k = 0.1667 0.3333 0.3171 (  2505 PWs)   bands (ev):

   -45.7937 -22.5051 -22.4198 -22.3842  -6.8744  -6.3899  -6.0666  -5.0107
    -4.9769  -4.9149  -4.7689  -4.6104   2.8280   5.6310   5.8642   6.3522
     6.6181   7.4706   8.4246   8.6322   9.0536   9.3318

          k = 0.1667 0.3333-0.4756 (  2514 PWs)   bands (ev):

   -45.7935 -22.5145 -22.4193 -22.3837  -6.8406  -6.3795  -6.0026  -5.0117
    -4.9648  -4.8935  -4.7763  -4.5883   2.7470   5.4407   5.8414   6.2150
     6.4050   7.4188   8.4386   8.6616   8.9685   9.3868

          k = 0.1667-0.5000 0.0000 (  2520 PWs)   bands (ev):

   -45.7938 -22.4755 -22.4385 -22.3847  -6.8685  -6.3630  -6.2384  -5.0336
    -4.9831  -4.9287  -4.7294  -4.7252   2.8244   5.6255   6.6211   6.8146
     7.1850   7.4560   7.8425   8.7021   8.7986  10.0024

          k = 0.1667-0.5000 0.1585 (  2520 PWs)   bands (ev):

   -45.7936 -22.4850 -22.4379 -22.3843  -6.8364  -6.3488  -6.1989  -5.0189
    -4.9832  -4.9206  -4.7306  -4.6774   2.8119   5.6089   6.0728   6.5113
     7.1110   7.8369   7.8482   8.6341   8.8291   9.6768

          k = 0.1667-0.5000 0.3171 (  2502 PWs)   bands (ev):

   -45.7934 -22.5040 -22.4368 -22.3834  -6.8073  -6.3211  -6.0715  -5.0070
    -4.9593  -4.9049  -4.7380  -4.5845   2.7587   5.4903   5.7265   6.0108
     6.5696   7.5954   8.2795   8.6055   8.8912   9.3816

          k = 0.1667-0.5000-0.4756 (  2520 PWs)   bands (ev):

   -45.7932 -22.5135 -22.4362 -22.3830  -6.8061  -6.3076  -5.9879  -5.0069
    -4.9373  -4.8958  -4.7452  -4.5402   2.7178   5.3266   5.6794   5.8708
     6.2992   7.5335   8.3236   8.5835   8.6432   9.5825

          k = 0.3333 0.3333 0.0000 (  2522 PWs)   bands (ev):

   -45.7934 -22.4748 -22.4197 -22.4194  -6.7697  -6.3579  -6.2711  -5.0130
    -4.9694  -4.8702  -4.7115  -4.6696   2.6157   5.9083   6.0889   6.8981
     7.0738   7.1980   7.8799   8.4912   9.2996   9.4305

          k = 0.3333 0.3333 0.1585 (  2516 PWs)   bands (ev):

   -45.7933 -22.4843 -22.4192 -22.4189  -6.7113  -6.3777  -6.2464  -4.9946
    -4.9675  -4.8487  -4.6892  -4.6353   2.7062   5.8206   5.8793   6.0587
     6.7556   7.4534   8.3971   8.5551   9.0886   9.3064

          k = 0.3333 0.3333 0.3171 (  2506 PWs)   bands (ev):

   -45.7930 -22.5033 -22.4182 -22.4181  -6.6348  -6.4157  -6.1485  -4.9630
    -4.9582  -4.8046  -4.6424  -4.5684   2.8867   5.3158   5.4072   5.8168
     6.5727   6.6767   8.1282   9.1142   9.1827   9.3436

          k = 0.3333 0.3333-0.4756 (  2502 PWs)   bands (ev):

   -45.7929 -22.5127 -22.4177 -22.4176  -6.6163  -6.4338  -6.0758  -4.9606
    -4.9405  -4.7792  -4.6196  -4.5356   2.9694   5.1573   5.1939   5.6724
     6.3583   6.5457   7.7552   9.2707   9.2859   9.4576

          k = 0.3333-0.5000 0.0000 (  2520 PWs)   bands (ev):

   -45.7931 -22.4738 -22.4365 -22.4186  -6.6406  -6.3244  -6.3107  -5.0053
    -4.9470  -4.7983  -4.7124  -4.6732   2.4309   5.5956   6.1265   6.7374
     7.2455   7.3877   7.4759   8.4785   9.1341   9.4939

          k = 0.3333-0.5000 0.1585 (  2514 PWs)   bands (ev):

   -45.7930 -22.4833 -22.4360 -22.4182  -6.5843  -6.3435  -6.3021  -4.9866
    -4.9433  -4.7703  -4.6768  -4.6340   2.5647   5.5804   5.9018   5.9363
     6.5598   7.5867   8.1867   8.6118   8.7452   9.4718

          k = 0.3333-0.5000 0.3171 (  2504 PWs)   bands (ev):

   -45.7927 -22.5023 -22.4351 -22.4173  -6.5519  -6.3802  -6.1936  -4.9533
    -4.9322  -4.7268  -4.6055  -4.5433   2.8790   5.1657   5.3694   5.5279
     6.3008   6.7669   7.5325   9.1936   9.2728   9.4797

          k = 0.3333-0.5000-0.4756 (  2496 PWs)   bands (ev):

   -45.7926 -22.5117 -22.4346 -22.4169  -6.5623  -6.3978  -6.1078  -4.9439
    -4.9197  -4.7054  -4.5697  -4.4963   3.0682   4.9211   5.1186   5.4451
     6.1476   6.5452   7.0328   9.3770   9.4403   9.6125

          k =-0.5000-0.5000 0.0000 (  2496 PWs)   bands (ev):

   -45.7928 -22.4729 -22.4356 -22.4356  -6.5565  -6.3081  -6.3081  -4.9956
    -4.9069  -4.7159  -4.7159  -4.6655   2.2370   5.4354   5.9969   6.9679
     6.9679   7.4862   7.4862   8.2503   8.6655   9.7460

          k =-0.5000-0.5000 0.1585 (  2516 PWs)   bands (ev):

   -45.7927 -22.4824 -22.4351 -22.4351  -6.4593  -6.3437  -6.3437  -4.9766
    -4.9060  -4.6554  -4.6554  -4.6531   2.4125   5.4179   6.0001   6.0570
     6.0570   7.6121   8.0036   8.4627   8.4627   9.7385

          k =-0.5000-0.5000 0.3171 (  2504 PWs)   bands (ev):

   -45.7924 -22.5013 -22.4342 -22.4342  -6.4088  -6.4088  -6.2602  -4.9387
    -4.9041  -4.6227  -4.5390  -4.5390   2.8670   5.2713   5.2713   5.3517
     6.0064   6.6201   6.7708   9.3330   9.3330   9.7237

          k =-0.5000-0.5000-0.4756 (  2504 PWs)   bands (ev):

   -45.7923 -22.5107 -22.4338 -22.4338  -6.4389  -6.4389  -6.1585  -4.9197
    -4.9032  -4.6037  -4.4826  -4.4826   3.1956   4.9876   4.9876   5.2794
     6.0096   6.1135   6.2338   9.6282   9.6282   9.7163

     highest occupied level (ev):    10.3700

!    total energy              =    -380.57228040 Ry
     estimated scf accuracy    <          9.8E-12 Ry

     The total energy is the sum of the following terms:
     one-electron contribution =     -85.69302297 Ry
     hartree contribution      =      71.99012228 Ry
     xc contribution           =    -102.58359636 Ry
     ewald contribution        =    -264.28578335 Ry

     convergence has been achieved in   8 iterations

     negative rho (up, down):  1.553E-02 0.000E+00

     Forces acting on atoms (cartesian axes, Ry/au):

     atom    1 type  1   force =     0.00000000    0.00000000    0.00009090
     atom    2 type  2   force =     0.00000000    0.00000000   -0.00071554
     atom    3 type  3   force =     0.00000000    0.00000000    0.00040855
     atom    4 type  3   force =     0.00000000    0.00000000    0.00010804
     atom    5 type  3   force =     0.00000000    0.00000000    0.00010804

     Total force =     0.000843     Total SCF correction =     0.000006


     Computing stress (Cartesian axis) and pressure


     negative rho (up, down):  1.553E-02 0.000E+00
          total   stress  (Ry/bohr**3)                   (kbar)     P=      -44.52
  -0.00035145   0.00000000   0.00000000          -51.70        0.00        0.00
   0.00000000  -0.00035145   0.00000000            0.00      -51.70        0.00
   0.00000000   0.00000000  -0.00020496            0.00        0.00      -30.15

     Energy error            =      2.6E-06 Ry
     Gradient error          =      7.2E-04 Ry/Bohr

     bfgs converged in   9 scf cycles and   8 bfgs steps
     (criteria: energy <  1.0E-04 Ry, force <  1.0E-03 Ry/Bohr)

     End of BFGS Geometry Optimization

     Final energy             =    -380.5722804007 Ry

     File ./pto_k6.bfgs deleted, as requested
Begin final coordinates

ATOMIC_POSITIONS (crystal)
Pb               0.0000000000        0.0000000000        0.9936195811
Ti               0.5000000000        0.5000000000        0.5381855909
O                0.5000000000        0.5000000000        0.1065677660
O                0.5000000000        0.0000000000        0.6144556750
O                0.0000000000        0.5000000000        0.6144556750
End final coordinates



     Writing all to output data dir ./pto_k6.save/ :
     XML data file, charge density, pseudopotentials, collected wavefunctions
 
     init_run     :      0.43s CPU      0.51s WALL (       1 calls)
     electrons    :    103.65s CPU    110.09s WALL (       9 calls)
     update_pot   :      0.03s CPU      0.03s WALL (       8 calls)
     forces       :      1.07s CPU      1.12s WALL (       9 calls)
     stress       :     10.95s CPU     11.06s WALL (       9 calls)

     Called by init_run:
     wfcinit      :      0.20s CPU      0.24s WALL (       1 calls)
     potinit      :      0.01s CPU      0.01s WALL (       1 calls)
     hinit0       :      0.11s CPU      0.14s WALL (       1 calls)

     Called by electrons:
     c_bands      :     90.21s CPU     95.63s WALL (      88 calls)
     sum_band     :      9.56s CPU     10.03s WALL (      88 calls)
     v_of_rho     :      0.13s CPU      0.14s WALL (      93 calls)
     newd         :      3.94s CPU      4.37s WALL (      93 calls)
     mix_rho      :      0.09s CPU      0.10s WALL (      88 calls)

     Called by c_bands:
     init_us_2    :      0.78s CPU      0.82s WALL (    7800 calls)
     init_us_2:cp :      0.77s CPU      0.81s WALL (    7800 calls)
     ccgdiagg     :     81.39s CPU     86.34s WALL (    3520 calls)
     wfcrot       :      8.42s CPU      8.86s WALL (    3040 calls)

     Called by *cgdiagg:
     h_psi        :     50.24s CPU     53.23s WALL (  301781 calls)
     s_psi        :      8.85s CPU      9.41s WALL (  600522 calls)

     Called by h_psi:
     h_psi:calbec :      7.86s CPU      8.34s WALL (  301781 calls)
     vloc_psi     :     35.22s CPU     37.32s WALL (  301781 calls)
     add_vuspsi   :      4.77s CPU      5.07s WALL (  301781 calls)
     hs_1psi      :     49.72s CPU     52.72s WALL (  298741 calls)
     s_1psi       :     12.28s CPU     13.01s WALL (  298741 calls)

     General routines
     calbec       :     14.28s CPU     15.15s WALL (  605842 calls)
     fft          :      0.16s CPU      0.18s WALL (     624 calls)
     ffts         :      0.01s CPU      0.01s WALL (     181 calls)
     fftw         :     29.93s CPU     31.62s WALL (  809402 calls)
     interpolate  :      0.03s CPU      0.03s WALL (      93 calls)
 
     Parallel routines
 
     PWSCF        :   1m56.73s CPU   2m 4.40s WALL

 
   This run was terminated on:   2:32:15  15Nov2025            

=------------------------------------------------------------------------------=
   JOB DONE.
=------------------------------------------------------------------------------=
TACC:  Shutdown complete. Exiting. 
