TACC:  Starting up job 2483030 
TACC:  Starting parallel tasks... 

     Program PWSCF v.7.3 starts on 20Oct2025 at 22:25: 7 

     This program is part of the open-source Quantum ESPRESSO suite
     for quantum simulation of materials; please cite
         "P. Giannozzi et al., J. Phys.:Condens. Matter 21 395502 (2009);
         "P. Giannozzi et al., J. Phys.:Condens. Matter 29 465901 (2017);
         "P. Giannozzi et al., J. Chem. Phys. 152 154105 (2020);
          URL http://www.quantum-espresso.org", 
     in publications or presentations arising from this work. More details at
     http://www.quantum-espresso.org/quote

     Parallel version (MPI & OpenMP), running on      10 processor cores
     Number of MPI processes:                10
     Threads/MPI process:                     1

     MPI processes distributed on     1 nodes
     185968 MiB available memory on the printing compute node when the environment starts
 
     Waiting for input...
     Reading input from standard input
Warning: card &CELL ignored
Warning: card  CELL_DYNAMICS = 'BFGS', ignored
Warning: card  PRESS=0.D0, ignored
Warning: card / ignored
     Message from routine read_cards :
     DEPRECATED: no units specified in ATOMIC_POSITIONS card
     Message from routine read_cards :
     ATOMIC_POSITIONS: units set to alat

     Current dimensions of program PWSCF are:
     Max number of different atomic species (ntypx) = 10
     Max number of k-points (npk) =  40000
     Max angular momentum in pseudopotentials (lmaxx) =  4
     Message from routine setup:
     using ibrav=0 with symmetry is DISCOURAGED, use correct ibrav instead
 
     R & G space division:  proc/nbgrp/npool/nimage =      10
     Subspace diagonalization in iterative solution of the eigenvalue problem:
     a serial algorithm will be used

 
     Parallelization info
     --------------------
     sticks:   dense  smooth     PW     G-vecs:    dense   smooth      PW
     Min         379     101     34                14817     2037     399
     Max         380     102     35                14819     2039     400
     Sum        3799    1019    341               148181    20377    3997
 
     Using Slab Decomposition
 


     bravais-lattice index     =            0
     lattice parameter (alat)  =       6.6800  a.u.
     unit-cell volume          =     150.8344 (a.u.)^3
     number of atoms/cell      =            2
     number of atomic types    =            1
     number of electrons       =         8.00
     number of Kohn-Sham states=            4
     kinetic-energy cutoff     =     100.0000  Ry
     charge density cutoff     =    1500.0000  Ry
     scf convergence threshold =      1.0E-08
     mixing beta               =       0.7000
     number of iterations used =            8  plain     mixing
     Exchange-correlation= SLA  PZ   NOGX NOGC
                           (   1   1   0   0   0   0   0)

     celldm(1)=   6.680000  celldm(2)=   0.000000  celldm(3)=   0.000000
     celldm(4)=   0.000000  celldm(5)=   0.000000  celldm(6)=   0.000000

     crystal axes: (cart. coord. in units of alat)
               a(1) = (  -0.502000   0.502000   0.502000 )  
               a(2) = (   0.502000  -0.502000   0.502000 )  
               a(3) = (   0.502000   0.502000  -0.502000 )  

     reciprocal axes: (cart. coord. in units 2 pi/alat)
               b(1) = (  0.000000  0.996016  0.996016 )  
               b(2) = (  0.996016  0.000000  0.996016 )  
               b(3) = (  0.996016  0.996016  0.000000 )  


     PseudoPot. # 1 for C  read from file:
     /scratch/11018/zhc/Assisgnment2/Q2/Diamond/Diamond/C_LDA.UPF
     MD5 check sum: 407c1fe918d93b14b177d5600f28733c
     Pseudo is Ultrasoft + core correction, Zval =  4.0
     Generated by new atomic code, or converted to UPF format
     Using radial grid of  721 points,  4 beta functions with: 
                l(1) =   0
                l(2) =   0
                l(3) =   1
                l(4) =   1
     Q(r) pseudized with  8 coefficients,  rinner =    1.100   1.100   1.100


     atomic species   valence    mass     pseudopotential
     C                 4.00    12.01100     C ( 1.00)

      6 Sym. Ops. (no inversion) found



   Cartesian axes

     site n.     atom                  positions (alat units)
         1        C      tau(   1) = (   0.0000000   0.0000000   0.0000000  )
         2        C      tau(   2) = (   0.2492943   0.2492943   0.2492943  )

     number of k points=    32
                       cart. coord. in units 2pi/alat
        k(    1) = (   0.0000000   0.0000000   0.0000000), wk =   0.0092593
        k(    2) = (   0.1660027   0.1660027   0.0000000), wk =   0.0555556
        k(    3) = (   0.3320053   0.3320053   0.0000000), wk =   0.0555556
        k(    4) = (  -0.4980080  -0.4980080   0.0000000), wk =   0.0277778
        k(    5) = (   0.3320053   0.1660027   0.1660027), wk =   0.0555556
        k(    6) = (   0.4980080   0.3320053   0.1660027), wk =   0.1111111
        k(    7) = (   0.6640106   0.3320053   0.3320053), wk =   0.0555556
        k(    8) = (   0.3320053   0.3320053   0.3320053), wk =   0.0185185
        k(    9) = (   0.4980080   0.4980080   0.3320053), wk =   0.0555556
        k(   10) = (   0.0000000   0.0000000   0.3320053), wk =   0.0555556
        k(   11) = (  -0.0000000  -0.1660027   0.4980080), wk =   0.1111111
        k(   12) = (  -0.9960159  -0.3320053  -0.3320053), wk =   0.0555556
        k(   13) = (  -0.8300133  -0.1660027  -0.3320053), wk =   0.1111111
        k(   14) = (  -0.0000000  -0.0000000   0.6640106), wk =   0.0555556
        k(   15) = (  -0.9960159  -0.1660027  -0.1660027), wk =   0.0555556
        k(   16) = (  -0.9960159  -0.9960159  -0.9960159), wk =   0.0092593
        k(   17) = (   0.1660027  -0.1660027   0.0000000), wk =   0.0555556
        k(   18) = (   0.3320053  -0.3320053   0.0000000), wk =   0.0555556
        k(   19) = (  -0.4980080   0.4980080   0.0000000), wk =   0.0277778
        k(   20) = (   0.1660027  -0.3320053   0.1660027), wk =   0.0555556
        k(   21) = (  -0.1660027   0.3320053   0.1660027), wk =   0.1111111
        k(   22) = (   0.3320053  -0.4980080   0.1660027), wk =   0.1111111
        k(   23) = (  -0.3320053   0.4980080   0.1660027), wk =   0.1111111
        k(   24) = (  -0.1660027   0.3320053   0.4980080), wk =   0.1111111
        k(   25) = (   0.3320053  -0.6640106   0.3320053), wk =   0.0185185
        k(   26) = (   0.3320053  -0.3320053   0.3320053), wk =   0.0555556
        k(   27) = (   0.4980080  -0.4980080   0.3320053), wk =   0.0555556
        k(   28) = (   0.1660027  -0.0000000   0.4980080), wk =   0.1111111
        k(   29) = (   0.3320053  -0.9960159  -0.3320053), wk =   0.0555556
        k(   30) = (  -0.1660027   0.8300133  -0.3320053), wk =   0.0555556
        k(   31) = (   0.1660027  -0.8300133  -0.3320053), wk =   0.0555556
        k(   32) = (   0.1660027  -0.9960159  -0.1660027), wk =   0.0555556

     Dense  grid:   148181 G-vectors     FFT dimensions: (  72,  72,  72)

     Smooth grid:    20377 G-vectors     FFT dimensions: (  40,  40,  40)

     Estimated max dynamical RAM per process >      21.68 MB

     Estimated total dynamical RAM >     216.79 MB

     Initial potential from superposition of free atoms

     starting charge       7.9999, renormalised to       8.0000
     Starting wfcs are    8 randomized atomic wfcs

     total cpu time spent up to now is        0.6 secs

     Self-consistent Calculation

     iteration #  1     ecut=   100.00 Ry     beta= 0.70
     CG style diagonalization
     ethr =  1.00E-02,  avg # of iterations =  2.8

     Threshold (ethr) on eigenvalues was too large:
     Diagonalizing with lowered threshold

     CG style diagonalization
     ethr =  5.20E-04,  avg # of iterations =  2.0

     total cpu time spent up to now is        0.8 secs

     total energy              =     -22.62381581 Ry
     estimated scf accuracy    <       0.04007208 Ry

     iteration #  2     ecut=   100.00 Ry     beta= 0.70
     CG style diagonalization
     ethr =  5.01E-04,  avg # of iterations =  3.7

     total cpu time spent up to now is        1.0 secs

     total energy              =     -22.62801349 Ry
     estimated scf accuracy    <       0.00098897 Ry

     iteration #  3     ecut=   100.00 Ry     beta= 0.70
     CG style diagonalization
     ethr =  1.24E-05,  avg # of iterations =  3.7

     total cpu time spent up to now is        1.2 secs

     total energy              =     -22.62816245 Ry
     estimated scf accuracy    <       0.00004413 Ry

     iteration #  4     ecut=   100.00 Ry     beta= 0.70
     CG style diagonalization
     ethr =  5.52E-07,  avg # of iterations =  4.5

     total cpu time spent up to now is        1.4 secs

     total energy              =     -22.62818393 Ry
     estimated scf accuracy    <       0.00000376 Ry

     iteration #  5     ecut=   100.00 Ry     beta= 0.70
     CG style diagonalization
     ethr =  4.70E-08,  avg # of iterations =  4.7

     total cpu time spent up to now is        1.6 secs

     total energy              =     -22.62818584 Ry
     estimated scf accuracy    <       0.00000320 Ry

     iteration #  6     ecut=   100.00 Ry     beta= 0.70
     CG style diagonalization
     ethr =  4.00E-08,  avg # of iterations =  3.3

     total cpu time spent up to now is        1.7 secs

     total energy              =     -22.62818596 Ry
     estimated scf accuracy    <       0.00000059 Ry

     iteration #  7     ecut=   100.00 Ry     beta= 0.70
     CG style diagonalization
     ethr =  7.39E-09,  avg # of iterations =  4.2

     total cpu time spent up to now is        1.9 secs

     total energy              =     -22.62818612 Ry
     estimated scf accuracy    <       0.00000016 Ry

     iteration #  8     ecut=   100.00 Ry     beta= 0.70
     CG style diagonalization
     ethr =  2.02E-09,  avg # of iterations =  3.2

     total cpu time spent up to now is        2.0 secs

     total energy              =     -22.62818612 Ry
     estimated scf accuracy    <       0.00000004 Ry

     iteration #  9     ecut=   100.00 Ry     beta= 0.70
     CG style diagonalization
     c_bands:  1 eigenvalues not converged
     ethr =  4.92E-10,  avg # of iterations =  4.9

     total cpu time spent up to now is        2.2 secs

     total energy              =     -22.62818613 Ry
     estimated scf accuracy    <       0.00000008 Ry

     iteration # 10     ecut=   100.00 Ry     beta= 0.70
     CG style diagonalization
     ethr =  4.92E-10,  avg # of iterations =  3.8

     total cpu time spent up to now is        2.4 secs

     End of self-consistent calculation

          k = 0.0000 0.0000 0.0000 (  2491 PWs)   bands (ev):

   -11.4208  -2.9269   3.1008   3.1008

          k = 0.1660 0.1660 0.0000 (  2545 PWs)   bands (ev):

   -10.9854  -3.7833   2.9244   3.3498

          k = 0.3320 0.3320 0.0000 (  2547 PWs)   bands (ev):

    -9.7338  -5.6920   2.7877   4.0704

          k =-0.4980-0.4980 0.0000 (  2556 PWs)   bands (ev):

    -7.8965  -7.8042   3.2803   3.3835

          k = 0.3320 0.1660 0.1660 (  2553 PWs)   bands (ev):

   -10.0685  -5.4161   3.9966   4.4208

          k = 0.4980 0.3320 0.1660 (  2550 PWs)   bands (ev):

    -8.3871  -7.2030   2.0305   4.3747

          k = 0.6640 0.3320 0.3320 (  2526 PWs)   bands (ev):

    -8.4240  -6.4094  -0.3295   2.9578

          k = 0.3320 0.3320 0.3320 (  2520 PWs)   bands (ev):

    -8.7001  -6.9707   2.7288   2.7288

          k = 0.4980 0.4980 0.3320 (  2538 PWs)   bands (ev):

    -8.3499  -6.6635   0.3410   1.6649

          k = 0.0000 0.0000 0.3320 (  2555 PWs)   bands (ev):

   -10.6334  -3.8247   1.6998   2.9789

          k =-0.0000-0.1660 0.4980 (  2539 PWs)   bands (ev):

    -9.7781  -3.9166  -0.4368   2.1813

          k =-0.9960-0.3320-0.3320 (  2578 PWs)   bands (ev):

    -9.2252  -3.9666  -1.5384   1.8306

          k =-0.8300-0.1660-0.3320 (  2552 PWs)   bands (ev):

    -8.6148  -5.8333  -0.1325   3.4193

          k =-0.0000-0.0000 0.6640 (  2551 PWs)   bands (ev):

    -8.7266  -5.4995   0.6221   2.6022

          k =-0.9960-0.1660-0.1660 (  2548 PWs)   bands (ev):

    -8.3029  -5.4479   0.1108   1.8262

          k =-0.9960-0.9960-0.9960 (  2550 PWs)   bands (ev):

    -7.0230  -6.9211   2.6854   2.6854

          k = 0.1660-0.1660 0.0000 (  2545 PWs)   bands (ev):

   -11.0542  -2.9997   1.6422   2.7968

          k = 0.3320-0.3320 0.0000 (  2547 PWs)   bands (ev):

   -10.1521  -3.1456  -0.8572   2.2513

          k =-0.4980 0.4980 0.0000 (  2556 PWs)   bands (ev):

    -9.5554  -3.2185  -2.0981   2.0036

          k = 0.1660-0.3320 0.1660 (  2553 PWs)   bands (ev):

   -10.4105  -3.1103   0.0324   1.9475

          k =-0.1660 0.3320 0.1660 (  2553 PWs)   bands (ev):

   -10.3129  -4.0297   0.7142   2.7927

          k = 0.3320-0.4980 0.1660 (  2550 PWs)   bands (ev):

    -9.5870  -3.2232  -1.4974   1.0151

          k =-0.3320 0.4980 0.1660 (  2550 PWs)   bands (ev):

    -9.4344  -4.2660  -1.3259   2.3029

          k =-0.1660 0.3320 0.4980 (  2550 PWs)   bands (ev):

    -8.9311  -6.1858   0.7152   3.2993

          k = 0.3320-0.6640 0.3320 (  2526 PWs)   bands (ev):

    -9.2779  -3.2653  -0.7920  -0.7920

          k = 0.3320-0.3320 0.3320 (  2520 PWs)   bands (ev):

    -9.5578  -4.4090  -0.5366   1.4517

          k = 0.4980-0.4980 0.3320 (  2538 PWs)   bands (ev):

    -9.0943  -4.5855  -1.0935   0.6592

          k = 0.1660-0.0000 0.4980 (  2539 PWs)   bands (ev):

    -9.4310  -5.6222   1.8253   3.8918

          k = 0.3320-0.9960-0.3320 (  2578 PWs)   bands (ev):

    -7.6911  -7.5966   2.5316   2.5798

          k =-0.1660 0.8300-0.3320 (  2552 PWs)   bands (ev):

    -9.1458  -3.8097  -0.8469   0.4966

          k = 0.1660-0.8300-0.3320 (  2552 PWs)   bands (ev):

    -7.8539  -7.1828   1.5012   3.3281

          k = 0.1660-0.9960-0.1660 (  2548 PWs)   bands (ev):

    -7.2546  -7.1551   2.0239   2.0448

     highest occupied level (ev):     4.4208

!    total energy              =     -22.62818614 Ry
     estimated scf accuracy    <          9.6E-10 Ry

     The total energy is the sum of the following terms:
     one-electron contribution =      -0.24134984 Ry
     hartree contribution      =       3.45018584 Ry
     xc contribution           =      -6.56092296 Ry
     ewald contribution        =     -19.27609917 Ry

     convergence has been achieved in  10 iterations

     Forces acting on atoms (cartesian axes, Ry/au):

     atom    1 type  1   force =     0.01596523    0.01596523    0.01596523
     atom    2 type  1   force =    -0.01596523   -0.01596523   -0.01596523

     Total force =     0.039107     Total SCF correction =     0.000009


     Computing stress (Cartesian axis) and pressure

          total   stress  (Ry/bohr**3)                   (kbar)     P=     -640.91
  -0.00435679  -0.00544768  -0.00544768         -640.91     -801.38     -801.38
  -0.00544768  -0.00435679  -0.00544768         -801.38     -640.91     -801.38
  -0.00544768  -0.00544768  -0.00435679         -801.38     -801.38     -640.91


     Writing all to output data dir ./diamond_isotropic_eta0p004.save/ :
     XML data file, charge density, pseudopotentials, collected wavefunctions
 
     init_run     :      0.43s CPU      0.50s WALL (       1 calls)
     electrons    :      1.67s CPU      1.82s WALL (       1 calls)
     forces       :      0.03s CPU      0.03s WALL (       1 calls)
     stress       :      0.11s CPU      0.11s WALL (       1 calls)

     Called by init_run:
     wfcinit      :      0.05s CPU      0.08s WALL (       1 calls)
     potinit      :      0.01s CPU      0.01s WALL (       1 calls)
     hinit0       :      0.03s CPU      0.05s WALL (       1 calls)

     Called by electrons:
     c_bands      :      1.25s CPU      1.33s WALL (      11 calls)
     sum_band     :      0.29s CPU      0.31s WALL (      11 calls)
     v_of_rho     :      0.03s CPU      0.03s WALL (      11 calls)
     newd         :      0.08s CPU      0.11s WALL (      11 calls)
     mix_rho      :      0.02s CPU      0.02s WALL (      11 calls)

     Called by c_bands:
     init_us_2    :      0.03s CPU      0.04s WALL (     800 calls)
     init_us_2:cp :      0.03s CPU      0.03s WALL (     800 calls)
     ccgdiagg     :      1.03s CPU      1.09s WALL (     352 calls)
     wfcrot       :      0.24s CPU      0.27s WALL (     320 calls)

     Called by *cgdiagg:
     h_psi        :      0.87s CPU      0.93s WALL (    4363 calls)
     s_psi        :      0.03s CPU      0.03s WALL (    8406 calls)

     Called by h_psi:
     h_psi:calbec :      0.08s CPU      0.09s WALL (    4363 calls)
     vloc_psi     :      0.73s CPU      0.78s WALL (    4363 calls)
     add_vuspsi   :      0.02s CPU      0.02s WALL (    4363 calls)
     hs_1psi      :      0.71s CPU      0.75s WALL (    4043 calls)
     s_1psi       :      0.09s CPU      0.10s WALL (    4043 calls)

     General routines
     calbec       :      0.14s CPU      0.15s WALL (    8918 calls)
     fft          :      0.04s CPU      0.05s WALL (      73 calls)
     ffts         :      0.00s CPU      0.00s WALL (      22 calls)
     fftw         :      0.58s CPU      0.62s WALL (   12310 calls)
     interpolate  :      0.01s CPU      0.01s WALL (      11 calls)
 
     Parallel routines
 
     PWSCF        :      2.29s CPU      2.78s WALL

 
   This run was terminated on:  22:25:10  20Oct2025            

=------------------------------------------------------------------------------=
   JOB DONE.
=------------------------------------------------------------------------------=
TACC:  Shutdown complete. Exiting. 
