TACC:  Starting up job 2476732 
TACC:  Starting parallel tasks... 

     Program PWSCF v.7.3 starts on 18Oct2025 at 16:51:27 

     This program is part of the open-source Quantum ESPRESSO suite
     for quantum simulation of materials; please cite
         "P. Giannozzi et al., J. Phys.:Condens. Matter 21 395502 (2009);
         "P. Giannozzi et al., J. Phys.:Condens. Matter 29 465901 (2017);
         "P. Giannozzi et al., J. Chem. Phys. 152 154105 (2020);
          URL http://www.quantum-espresso.org", 
     in publications or presentations arising from this work. More details at
     http://www.quantum-espresso.org/quote

     Parallel version (MPI & OpenMP), running on      10 processor cores
     Number of MPI processes:                10
     Threads/MPI process:                     1

     MPI processes distributed on     1 nodes
     185271 MiB available memory on the printing compute node when the environment starts
 
     Waiting for input...
     Reading input from standard input
Warning: card &CELL ignored
Warning: card  CELL_DYNAMICS = 'BFGS', ignored
Warning: card  PRESS=0.D0, ignored
Warning: card / ignored
     Message from routine read_cards :
     DEPRECATED: no units specified in ATOMIC_POSITIONS card
     Message from routine read_cards :
     ATOMIC_POSITIONS: units set to alat

     Current dimensions of program PWSCF are:
     Max number of different atomic species (ntypx) = 10
     Max number of k-points (npk) =  40000
     Max angular momentum in pseudopotentials (lmaxx) =  4
     Message from routine setup:
     using ibrav=0 with symmetry is DISCOURAGED, use correct ibrav instead
 
     R & G space division:  proc/nbgrp/npool/nimage =      10
     Subspace diagonalization in iterative solution of the eigenvalue problem:
     a serial algorithm will be used

 
     Parallelization info
     --------------------
     sticks:   dense  smooth     PW     G-vecs:    dense   smooth      PW
     Min         126      50     19                 2866      715     172
     Max         127      51     20                 2868      716     173
     Sum        1267     507    197                28675     7155    1721
 
     Using Slab Decomposition
 


     bravais-lattice index     =            0
     lattice parameter (alat)  =       6.7000  a.u.
     unit-cell volume          =     152.1933 (a.u.)^3
     number of atoms/cell      =            2
     number of atomic types    =            1
     number of electrons       =         8.00
     number of Kohn-Sham states=            4
     kinetic-energy cutoff     =      50.0000  Ry
     charge density cutoff     =     500.0000  Ry
     scf convergence threshold =      1.0E-08
     mixing beta               =       0.7000
     number of iterations used =            8  plain     mixing
     Exchange-correlation= SLA  PZ   NOGX NOGC
                           (   1   1   0   0   0   0   0)

     celldm(1)=   6.700000  celldm(2)=   0.000000  celldm(3)=   0.000000
     celldm(4)=   0.000000  celldm(5)=   0.000000  celldm(6)=   0.000000

     crystal axes: (cart. coord. in units of alat)
               a(1) = (  -0.502000   0.502000   0.502000 )  
               a(2) = (   0.502000  -0.502000   0.502000 )  
               a(3) = (   0.502000   0.502000  -0.502000 )  

     reciprocal axes: (cart. coord. in units 2 pi/alat)
               b(1) = (  0.000000  0.996016  0.996016 )  
               b(2) = (  0.996016  0.000000  0.996016 )  
               b(3) = (  0.996016  0.996016  0.000000 )  


     PseudoPot. # 1 for C  read from file:
     /scratch/11018/zhc/Assisgnment2/Q2/Diamond/Diamond/C_LDA.UPF
     MD5 check sum: 407c1fe918d93b14b177d5600f28733c
     Pseudo is Ultrasoft + core correction, Zval =  4.0
     Generated by new atomic code, or converted to UPF format
     Using radial grid of  721 points,  4 beta functions with: 
                l(1) =   0
                l(2) =   0
                l(3) =   1
                l(4) =   1
     Q(r) pseudized with  8 coefficients,  rinner =    1.100   1.100   1.100


     atomic species   valence    mass     pseudopotential
     C                 4.00    12.01100     C ( 1.00)

      6 Sym. Ops. (no inversion) found



   Cartesian axes

     site n.     atom                  positions (alat units)
         1        C      tau(   1) = (   0.0000000   0.0000000   0.0000000  )
         2        C      tau(   2) = (   0.2500000   0.2500000   0.2500000  )

     number of k points=    13
                       cart. coord. in units 2pi/alat
        k(    1) = (   0.0000000   0.0000000   0.0000000), wk =   0.0312500
        k(    2) = (   0.2490040   0.2490040   0.0000000), wk =   0.1875000
        k(    3) = (  -0.4980080  -0.4980080   0.0000000), wk =   0.0937500
        k(    4) = (   0.4980080   0.2490040   0.2490040), wk =   0.1875000
        k(    5) = (   0.4980080   0.4980080   0.4980080), wk =   0.0625000
        k(    6) = (   0.0000000   0.0000000   0.4980080), wk =   0.1875000
        k(    7) = (  -0.9960159  -0.2490040  -0.2490040), wk =   0.1875000
        k(    8) = (  -0.9960159  -0.9960159  -0.9960159), wk =   0.0312500
        k(    9) = (   0.2490040  -0.2490040   0.0000000), wk =   0.1875000
        k(   10) = (  -0.4980080   0.4980080   0.0000000), wk =   0.0937500
        k(   11) = (   0.2490040  -0.4980080   0.2490040), wk =   0.1875000
        k(   12) = (  -0.2490040   0.4980080   0.2490040), wk =   0.3750000
        k(   13) = (   0.2490040  -0.9960159  -0.2490040), wk =   0.1875000

     Dense  grid:    28675 G-vectors     FFT dimensions: (  45,  45,  45)

     Smooth grid:     7155 G-vectors     FFT dimensions: (  27,  27,  27)

     Estimated max dynamical RAM per process >       4.67 MB

     Estimated total dynamical RAM >      46.70 MB

     Initial potential from superposition of free atoms

     starting charge       7.9999, renormalised to       8.0000
     Starting wfcs are    8 randomized atomic wfcs

     total cpu time spent up to now is        0.2 secs

     Self-consistent Calculation

     iteration #  1     ecut=    50.00 Ry     beta= 0.70
     CG style diagonalization
     ethr =  1.00E-02,  avg # of iterations =  2.8

     Threshold (ethr) on eigenvalues was too large:
     Diagonalizing with lowered threshold

     CG style diagonalization
     ethr =  4.66E-04,  avg # of iterations =  2.0

     total cpu time spent up to now is        0.3 secs

     total energy              =     -22.62485585 Ry
     estimated scf accuracy    <       0.03617134 Ry

     iteration #  2     ecut=    50.00 Ry     beta= 0.70
     CG style diagonalization
     ethr =  4.52E-04,  avg # of iterations =  3.5

     total cpu time spent up to now is        0.3 secs

     total energy              =     -22.62832675 Ry
     estimated scf accuracy    <       0.00101403 Ry

     iteration #  3     ecut=    50.00 Ry     beta= 0.70
     CG style diagonalization
     ethr =  1.27E-05,  avg # of iterations =  3.4

     total cpu time spent up to now is        0.4 secs

     total energy              =     -22.62846334 Ry
     estimated scf accuracy    <       0.00003376 Ry

     iteration #  4     ecut=    50.00 Ry     beta= 0.70
     CG style diagonalization
     ethr =  4.22E-07,  avg # of iterations =  4.8

     total cpu time spent up to now is        0.4 secs

     total energy              =     -22.62848517 Ry
     estimated scf accuracy    <       0.00000990 Ry

     iteration #  5     ecut=    50.00 Ry     beta= 0.70
     CG style diagonalization
     ethr =  1.24E-07,  avg # of iterations =  3.8

     total cpu time spent up to now is        0.5 secs

     total energy              =     -22.62848760 Ry
     estimated scf accuracy    <       0.00000069 Ry

     iteration #  6     ecut=    50.00 Ry     beta= 0.70
     CG style diagonalization
     c_bands:  1 eigenvalues not converged
     ethr =  8.61E-09,  avg # of iterations =  4.4

     total cpu time spent up to now is        0.5 secs

     total energy              =     -22.62848774 Ry
     estimated scf accuracy    <       0.00000067 Ry

     iteration #  7     ecut=    50.00 Ry     beta= 0.70
     CG style diagonalization
     ethr =  8.36E-09,  avg # of iterations =  3.4

     total cpu time spent up to now is        0.5 secs

     End of self-consistent calculation

          k = 0.0000 0.0000 0.0000 (   935 PWs)   bands (ev):

   -11.4831  -3.0341   2.9734   2.9734

          k = 0.2490 0.2490 0.0000 (   921 PWs)   bands (ev):

   -10.5243  -4.7766   2.6894   3.5251

          k =-0.4980-0.4980 0.0000 (   886 PWs)   bands (ev):

    -7.9646  -7.9219   3.1929   3.2501

          k = 0.4980 0.2490 0.2490 (   900 PWs)   bands (ev):

    -8.5436  -7.1990   1.7374   4.1363

          k = 0.4980 0.4980 0.4980 (   928 PWs)   bands (ev):

    -8.7882  -5.7829   0.0296   0.0296

          k = 0.0000 0.0000 0.4980 (   920 PWs)   bands (ev):

    -9.8328  -4.7714   0.7838   2.6843

          k =-0.9960-0.2490-0.2490 (   914 PWs)   bands (ev):

    -8.9311  -4.7875  -0.9107   1.6541

          k =-0.9960-0.9960-0.9960 (   904 PWs)   bands (ev):

    -7.1066  -7.0595   2.6127   2.6127

          k = 0.2490-0.2490 0.0000 (   921 PWs)   bands (ev):

   -10.7130  -3.1773   0.2694   2.3966

          k =-0.4980 0.4980 0.0000 (   886 PWs)   bands (ev):

    -9.6532  -3.3207  -2.1528   1.8927

          k = 0.2490-0.4980 0.2490 (   900 PWs)   bands (ev):

    -9.6933  -3.3269  -1.2496   0.4956

          k =-0.2490 0.4980 0.2490 (   900 PWs)   bands (ev):

    -9.3383  -5.3159  -0.5022   2.5866

          k = 0.2490-0.9960-0.2490 (   914 PWs)   bands (ev):

    -7.5524  -7.5075   2.0655   2.0834

     highest occupied level (ev):     4.1363

!    total energy              =     -22.62848784 Ry
     estimated scf accuracy    <          3.8E-09 Ry

     The total energy is the sum of the following terms:
     one-electron contribution =      -0.30474151 Ry
     hartree contribution      =       3.43773043 Ry
     xc contribution           =      -6.54223075 Ry
     ewald contribution        =     -19.21924601 Ry

     convergence has been achieved in   7 iterations

     Forces acting on atoms (cartesian axes, Ry/au):

     atom    1 type  1   force =     0.01179754    0.01179754    0.01179754
     atom    2 type  1   force =    -0.01179754   -0.01179754   -0.01179754

     Total force =     0.028898     Total SCF correction =     0.000013


     Computing stress (Cartesian axis) and pressure

          total   stress  (Ry/bohr**3)                   (kbar)     P=     -663.43
  -0.00450989  -0.00517461  -0.00517461         -663.43     -761.21     -761.21
  -0.00517461  -0.00450989  -0.00517461         -761.21     -663.43     -761.21
  -0.00517461  -0.00517461  -0.00450989         -761.21     -761.21     -663.43


     Writing all to output data dir ./diamond_isotropic_eta0p004.save/ :
     XML data file, charge density, pseudopotentials, collected wavefunctions
 
     init_run     :      0.06s CPU      0.12s WALL (       1 calls)
     electrons    :      0.31s CPU      0.37s WALL (       1 calls)
     forces       :      0.01s CPU      0.01s WALL (       1 calls)
     stress       :      0.02s CPU      0.02s WALL (       1 calls)

     Called by init_run:
     wfcinit      :      0.01s CPU      0.04s WALL (       1 calls)
     potinit      :      0.00s CPU      0.01s WALL (       1 calls)
     hinit0       :      0.02s CPU      0.04s WALL (       1 calls)

     Called by electrons:
     c_bands      :      0.24s CPU      0.26s WALL (       8 calls)
     sum_band     :      0.04s CPU      0.04s WALL (       8 calls)
     v_of_rho     :      0.01s CPU      0.01s WALL (       8 calls)
     newd         :      0.01s CPU      0.02s WALL (       8 calls)
     mix_rho      :      0.00s CPU      0.01s WALL (       8 calls)

     Called by c_bands:
     init_us_2    :      0.00s CPU      0.01s WALL (     247 calls)
     init_us_2:cp :      0.00s CPU      0.01s WALL (     247 calls)
     ccgdiagg     :      0.21s CPU      0.22s WALL (     104 calls)
     wfcrot       :      0.04s CPU      0.07s WALL (      91 calls)

     Called by *cgdiagg:
     h_psi        :      0.15s CPU      0.16s WALL (    1239 calls)
     s_psi        :      0.01s CPU      0.01s WALL (    2387 calls)

     Called by h_psi:
     h_psi:calbec :      0.02s CPU      0.02s WALL (    1239 calls)
     vloc_psi     :      0.12s CPU      0.12s WALL (    1239 calls)
     add_vuspsi   :      0.00s CPU      0.00s WALL (    1239 calls)
     hs_1psi      :      0.12s CPU      0.13s WALL (    1148 calls)
     s_1psi       :      0.02s CPU      0.03s WALL (    1148 calls)

     General routines
     calbec       :      0.03s CPU      0.04s WALL (    2556 calls)
     fft          :      0.01s CPU      0.03s WALL (      55 calls)
     ffts         :      0.00s CPU      0.00s WALL (      16 calls)
     fftw         :      0.11s CPU      0.11s WALL (    3544 calls)
     interpolate  :      0.00s CPU      0.00s WALL (       8 calls)
 
     Parallel routines
 
     PWSCF        :      0.45s CPU      0.77s WALL

 
   This run was terminated on:  16:51:28  18Oct2025            

=------------------------------------------------------------------------------=
   JOB DONE.
=------------------------------------------------------------------------------=
TACC:  Shutdown complete. Exiting. 
