TACC:  Starting up job 2547131 
TACC:  Starting parallel tasks... 

     Program PWSCF v.7.3 starts on 13Nov2025 at  0:27:18 

     This program is part of the open-source Quantum ESPRESSO suite
     for quantum simulation of materials; please cite
         "P. Giannozzi et al., J. Phys.:Condens. Matter 21 395502 (2009);
         "P. Giannozzi et al., J. Phys.:Condens. Matter 29 465901 (2017);
         "P. Giannozzi et al., J. Chem. Phys. 152 154105 (2020);
          URL http://www.quantum-espresso.org", 
     in publications or presentations arising from this work. More details at
     http://www.quantum-espresso.org/quote

     Parallel version (MPI & OpenMP), running on      10 processor cores
     Number of MPI processes:                10
     Threads/MPI process:                     1

     MPI processes distributed on     1 nodes
     187291 MiB available memory on the printing compute node when the environment starts
 
     Waiting for input...
     Reading input from standard input
Warning: card &CELL ignored
Warning: card  CELL_DYNAMICS = 'BFGS', ignored
Warning: card  PRESS=0.D0, ignored
Warning: card / ignored

     Current dimensions of program PWSCF are:
     Max number of different atomic species (ntypx) = 10
     Max number of k-points (npk) =  40000
     Max angular momentum in pseudopotentials (lmaxx) =  4
     Message from routine setup:
     using ibrav=0 with symmetry is DISCOURAGED, use correct ibrav instead
 
     R & G space division:  proc/nbgrp/npool/nimage =      10
     Subspace diagonalization in iterative solution of the eigenvalue problem:
     a serial algorithm will be used

 
     Parallelization info
     --------------------
     sticks:   dense  smooth     PW     G-vecs:    dense   smooth      PW
     Min          86      34     11                 2004      510      99
     Max          87      35     13                 2007      513     100
     Sum         869     349    121                20063     5115     997
 
     Using Slab Decomposition
 


     bravais-lattice index     =            0
     lattice parameter (alat)  =       7.3699  a.u.
     unit-cell volume          =     420.8329 (a.u.)^3
     number of atoms/cell      =            5
     number of atomic types    =            3
     number of electrons       =        44.00
     number of Kohn-Sham states=           22
     kinetic-energy cutoff     =      20.0000  Ry
     charge density cutoff     =     200.0000  Ry
     scf convergence threshold =      1.0E-08
     mixing beta               =       0.7000
     number of iterations used =            8  plain     mixing
     energy convergence thresh.=      1.0E-04
     force convergence thresh. =      1.0E-03
     Exchange-correlation= SLA  PZ   NOGX NOGC
                           (   1   1   0   0   0   0   0)
     nstep                     =           50


     celldm(1)=   7.369932  celldm(2)=   0.000000  celldm(3)=   0.000000
     celldm(4)=   0.000000  celldm(5)=   0.000000  celldm(6)=   0.000000

     crystal axes: (cart. coord. in units of alat)
               a(1) = (   1.000000   0.000000   0.000000 )  
               a(2) = (   0.000000   1.000000   0.000000 )  
               a(3) = (   0.000000   0.000000   1.051282 )  

     reciprocal axes: (cart. coord. in units 2 pi/alat)
               b(1) = (  1.000000  0.000000  0.000000 )  
               b(2) = (  0.000000  1.000000  0.000000 )  
               b(3) = (  0.000000  0.000000  0.951220 )  


     PseudoPot. # 1 for Pb read from file:
     /scratch/11018/zhc/assisgnment3/input_files/Pb_LDA.UPF
     MD5 check sum: 062a37469794d955244864f8fe2e5624
     Pseudo is Ultrasoft + core correction, Zval = 14.0
     Generated by new atomic code, or converted to UPF format
     Using radial grid of  899 points,  6 beta functions with: 
                l(1) =   0
                l(2) =   0
                l(3) =   1
                l(4) =   1
                l(5) =   2
                l(6) =   2
     Q(r) pseudized with  6 coefficients,  rinner =    1.000   1.000   1.000
                                                       1.000   1.000

     PseudoPot. # 2 for Ti read from file:
     /scratch/11018/zhc/assisgnment3/input_files/Ti_LDA.UPF
     MD5 check sum: 0d9f225c038fe889ca2a701dcc8d72cb
     Pseudo is Ultrasoft + core correction, Zval = 12.0
     Generated by new atomic code, or converted to UPF format
     Using radial grid of  851 points,  6 beta functions with: 
                l(1) =   0
                l(2) =   0
                l(3) =   1
                l(4) =   1
                l(5) =   2
                l(6) =   2
     Q(r) pseudized with  6 coefficients,  rinner =    1.000   1.000   1.000
                                                       1.000   1.000

     PseudoPot. # 3 for O  read from file:
     /scratch/11018/zhc/assisgnment3/input_files/O_LDA.UPF
     MD5 check sum: 194b818514d2a7dbb603bb78519a4f40
     Pseudo is Ultrasoft + core correction, Zval =  6.0
     Generated by new atomic code, or converted to UPF format
     Using radial grid of  737 points,  5 beta functions with: 
                l(1) =   0
                l(2) =   0
                l(3) =   1
                l(4) =   1
                l(5) =   2
     Q(r) pseudized with  8 coefficients,  rinner =    0.900   0.900   0.900
                                                       0.900   0.900

     atomic species   valence    mass     pseudopotential
     Pb               14.00   207.20000     Pb( 1.00)
     Ti               12.00    47.88000     Ti( 1.00)
     O                 6.00    16.00000     O ( 1.00)

      8 Sym. Ops. (no inversion) found



   Cartesian axes

     site n.     atom                  positions (alat units)
         1        Pb     tau(   1) = (   0.0000000   0.0000000   1.0580339  )
         2        Ti     tau(   2) = (   0.5000000   0.5000000   0.5681377  )
         3        O      tau(   3) = (   0.5000000   0.5000000   0.1036357  )
         4        O      tau(   4) = (   0.5000000   0.0000000   0.6422586  )
         5        O      tau(   5) = (   0.0000000   0.5000000   0.6422586  )

     number of k points=    30
                       cart. coord. in units 2pi/alat
        k(    1) = (   0.0000000   0.0000000   0.0000000), wk =   0.0138889
        k(    2) = (   0.0000000   0.0000000   0.2378049), wk =   0.0277778
        k(    3) = (   0.0000000   0.0000000  -0.4756098), wk =   0.0138889
        k(    4) = (   0.0000000   0.1666667   0.0000000), wk =   0.0555556
        k(    5) = (   0.0000000   0.1666667   0.2378049), wk =   0.1111111
        k(    6) = (   0.0000000   0.1666667  -0.4756098), wk =   0.0555556
        k(    7) = (   0.0000000   0.3333333   0.0000000), wk =   0.0555556
        k(    8) = (   0.0000000   0.3333333   0.2378049), wk =   0.1111111
        k(    9) = (   0.0000000   0.3333333  -0.4756098), wk =   0.0555556
        k(   10) = (   0.0000000  -0.5000000   0.0000000), wk =   0.0277778
        k(   11) = (   0.0000000  -0.5000000   0.2378049), wk =   0.0555556
        k(   12) = (   0.0000000  -0.5000000  -0.4756098), wk =   0.0277778
        k(   13) = (   0.1666667   0.1666667   0.0000000), wk =   0.0555556
        k(   14) = (   0.1666667   0.1666667   0.2378049), wk =   0.1111111
        k(   15) = (   0.1666667   0.1666667  -0.4756098), wk =   0.0555556
        k(   16) = (   0.1666667   0.3333333   0.0000000), wk =   0.1111111
        k(   17) = (   0.1666667   0.3333333   0.2378049), wk =   0.2222222
        k(   18) = (   0.1666667   0.3333333  -0.4756098), wk =   0.1111111
        k(   19) = (   0.1666667  -0.5000000   0.0000000), wk =   0.0555556
        k(   20) = (   0.1666667  -0.5000000   0.2378049), wk =   0.1111111
        k(   21) = (   0.1666667  -0.5000000  -0.4756098), wk =   0.0555556
        k(   22) = (   0.3333333   0.3333333   0.0000000), wk =   0.0555556
        k(   23) = (   0.3333333   0.3333333   0.2378049), wk =   0.1111111
        k(   24) = (   0.3333333   0.3333333  -0.4756098), wk =   0.0555556
        k(   25) = (   0.3333333  -0.5000000   0.0000000), wk =   0.0555556
        k(   26) = (   0.3333333  -0.5000000   0.2378049), wk =   0.1111111
        k(   27) = (   0.3333333  -0.5000000  -0.4756098), wk =   0.0555556
        k(   28) = (  -0.5000000  -0.5000000   0.0000000), wk =   0.0138889
        k(   29) = (  -0.5000000  -0.5000000   0.2378049), wk =   0.0277778
        k(   30) = (  -0.5000000  -0.5000000  -0.4756098), wk =   0.0138889

     Dense  grid:    20063 G-vectors     FFT dimensions: (  36,  36,  36)

     Smooth grid:     5115 G-vectors     FFT dimensions: (  24,  24,  24)

     Estimated max dynamical RAM per process >      11.59 MB

     Estimated total dynamical RAM >     115.93 MB

     Check: negative core charge=   -0.000010

     Initial potential from superposition of free atoms

     starting charge      42.9982, renormalised to      44.0000

     negative rho (up, down):  1.725E-02 0.000E+00
     Starting wfcs are   31 randomized atomic wfcs

     total cpu time spent up to now is        0.5 secs

     Self-consistent Calculation

     iteration #  1     ecut=    20.00 Ry     beta= 0.70
     CG style diagonalization
     ethr =  1.00E-02,  avg # of iterations =  2.2

     negative rho (up, down):  1.429E-02 0.000E+00

     total cpu time spent up to now is        0.9 secs

     total energy              =    -379.50662250 Ry
     estimated scf accuracy    <       0.69348429 Ry

     iteration #  2     ecut=    20.00 Ry     beta= 0.70
     CG style diagonalization
     ethr =  1.58E-03,  avg # of iterations =  4.2

     negative rho (up, down):  1.494E-02 0.000E+00

     total cpu time spent up to now is        1.4 secs

     total energy              =    -379.50942292 Ry
     estimated scf accuracy    <       1.00119539 Ry

     iteration #  3     ecut=    20.00 Ry     beta= 0.70
     CG style diagonalization
     ethr =  1.58E-03,  avg # of iterations =  3.9

     negative rho (up, down):  1.529E-02 0.000E+00

     total cpu time spent up to now is        1.8 secs

     total energy              =    -379.75540112 Ry
     estimated scf accuracy    <       0.12133415 Ry

     iteration #  4     ecut=    20.00 Ry     beta= 0.70
     CG style diagonalization
     ethr =  2.76E-04,  avg # of iterations =  3.5

     negative rho (up, down):  1.507E-02 0.000E+00

     total cpu time spent up to now is        2.2 secs

     total energy              =    -379.77434473 Ry
     estimated scf accuracy    <       0.00291211 Ry

     iteration #  5     ecut=    20.00 Ry     beta= 0.70
     CG style diagonalization
     ethr =  6.62E-06,  avg # of iterations =  4.4

     negative rho (up, down):  1.499E-02 0.000E+00

     total cpu time spent up to now is        2.7 secs

     total energy              =    -379.77604512 Ry
     estimated scf accuracy    <       0.00205082 Ry

     iteration #  6     ecut=    20.00 Ry     beta= 0.70
     CG style diagonalization
     ethr =  4.66E-06,  avg # of iterations =  3.6

     negative rho (up, down):  1.488E-02 0.000E+00

     total cpu time spent up to now is        3.1 secs

     total energy              =    -379.77643620 Ry
     estimated scf accuracy    <       0.00024089 Ry

     iteration #  7     ecut=    20.00 Ry     beta= 0.70
     CG style diagonalization
     ethr =  5.47E-07,  avg # of iterations =  4.7

     negative rho (up, down):  1.484E-02 0.000E+00

     total cpu time spent up to now is        3.7 secs

     total energy              =    -379.77655705 Ry
     estimated scf accuracy    <       0.00007377 Ry

     iteration #  8     ecut=    20.00 Ry     beta= 0.70
     CG style diagonalization
     ethr =  1.68E-07,  avg # of iterations =  4.3

     negative rho (up, down):  1.482E-02 0.000E+00

     total cpu time spent up to now is        4.2 secs

     total energy              =    -379.77658595 Ry
     estimated scf accuracy    <       0.00000295 Ry

     iteration #  9     ecut=    20.00 Ry     beta= 0.70
     CG style diagonalization
     ethr =  6.72E-09,  avg # of iterations =  7.9

     negative rho (up, down):  1.480E-02 0.000E+00

     total cpu time spent up to now is        5.2 secs

     total energy              =    -379.77659650 Ry
     estimated scf accuracy    <       0.00000157 Ry

     iteration # 10     ecut=    20.00 Ry     beta= 0.70
     CG style diagonalization
     ethr =  3.57E-09,  avg # of iterations =  4.1

     negative rho (up, down):  1.480E-02 0.000E+00

     total cpu time spent up to now is        5.7 secs

     total energy              =    -379.77659699 Ry
     estimated scf accuracy    <       0.00000009 Ry

     iteration # 11     ecut=    20.00 Ry     beta= 0.70
     CG style diagonalization
     ethr =  2.15E-10,  avg # of iterations =  7.6

     negative rho (up, down):  1.480E-02 0.000E+00

     total cpu time spent up to now is        6.6 secs

     total energy              =    -379.77659722 Ry
     estimated scf accuracy    <       0.00000002 Ry

     iteration # 12     ecut=    20.00 Ry     beta= 0.70
     CG style diagonalization
     ethr =  4.08E-11,  avg # of iterations =  5.5

     negative rho (up, down):  1.479E-02 0.000E+00

     total cpu time spent up to now is        7.3 secs

     End of self-consistent calculation

          k = 0.0000 0.0000 0.0000 (   643 PWs)   bands (ev):

   -46.2703 -22.8113 -22.7379 -22.7379  -7.9531  -6.8564  -6.6632  -4.9905
    -4.9905  -4.9596  -4.8971  -4.8198   4.2051   6.3424   6.3424   6.6530
     8.3261   8.3261   8.6483   8.7290   8.9885   8.9885

          k = 0.0000 0.0000 0.2378 (   643 PWs)   bands (ev):

   -46.2698 -22.8356 -22.7376 -22.7376  -7.7702  -6.8122  -6.6112  -5.0080
    -5.0080  -4.9578  -4.8925  -4.8796   3.4732   6.4353   6.4353   6.7703
     8.0705   8.0705   8.4875   8.8721   9.0427   9.0427

          k = 0.0000 0.0000-0.4756 (   636 PWs)   bands (ev):

   -46.2692 -22.8304 -22.7356 -22.7356  -7.5660  -6.7624  -6.5675  -5.0187
    -5.0187  -4.9671  -4.9330  -4.8618   2.9871   6.1726   6.4762   6.4762
     7.8643   7.8643   8.4590   9.2047   9.2047  10.1212

          k = 0.0000 0.1667 0.0000 (   651 PWs)   bands (ev):

   -46.2701 -22.8265 -22.7522 -22.7449  -7.8240  -6.8333  -6.6434  -5.0223
    -4.9961  -4.9790  -4.9024  -4.7990   3.7859   6.3269   6.4490   6.6949
     8.2195   8.3342   8.5432   8.6066   8.7102   9.0458

          k = 0.0000 0.1667 0.2378 (   638 PWs)   bands (ev):

   -46.2692 -22.8319 -22.7476 -22.7322  -7.6527  -6.7966  -6.5849  -5.0129
    -5.0071  -4.9717  -4.8912  -4.8303   3.2752   6.2046   6.5503   6.9288
     7.7083   8.0672   8.3481   8.7617   8.7990   9.4201

          k = 0.0000 0.1667-0.4756 (   630 PWs)   bands (ev):

   -46.2686 -22.8337 -22.7434 -22.7260  -7.4710  -6.7563  -6.5268  -5.0160
    -5.0118  -4.9677  -4.8745  -4.8582   2.8656   5.8773   6.6308   6.6785
     7.5289   7.9196   8.4105   8.8716   8.9048  10.0361

          k = 0.0000 0.3333 0.0000 (   638 PWs)   bands (ev):

   -46.2685 -22.8187 -22.7890 -22.7271  -7.5431  -6.7773  -6.6144  -5.0455
    -4.9954  -4.9919  -4.8877  -4.8036   3.2422   6.0670   6.6800   6.7813
     7.8907   7.9091   8.4133   8.4980   8.8140   9.7256

          k = 0.0000 0.3333 0.2378 (   638 PWs)   bands (ev):

   -46.2684 -22.8297 -22.7920 -22.7261  -7.4215  -6.7463  -6.5393  -5.0164
    -5.0072  -4.9906  -4.8797  -4.7885   2.9322   5.9405   6.5877   6.8922
     7.3467   7.8230   7.8824   8.4503   9.0079   9.7860

          k = 0.0000 0.3333-0.4756 (   630 PWs)   bands (ev):

   -46.2679 -22.8300 -22.7819 -22.7301  -7.3213  -6.6971  -6.4447  -5.0147
    -4.9926  -4.9898  -4.8858  -4.7399   2.6657   5.6123   6.4224   6.9467
     7.2527   7.4496   7.7717   8.4080   9.4938   9.6567

          k = 0.0000-0.5000 0.0000 (   630 PWs)   bands (ev):

   -46.2677 -22.8124 -22.7948 -22.7309  -7.3868  -6.7427  -6.6165  -5.0596
    -4.9998  -4.9938  -4.8577  -4.8191   3.0423   5.7481   7.0309   7.0478
     7.3995   7.4831   8.3712   8.5594   8.8314  10.5524

          k = 0.0000-0.5000 0.2378 (   628 PWs)   bands (ev):

   -46.2674 -22.8183 -22.8067 -22.7180  -7.3126  -6.6842  -6.5396  -5.0225
    -4.9997  -4.9962  -4.8519  -4.7729   2.8005   5.6879   6.6351   6.8973
     7.2746   7.4252   8.0512   8.4903   9.0311  10.0217

          k = 0.0000-0.5000-0.4756 (   640 PWs)   bands (ev):

   -46.2680 -22.8285 -22.8213 -22.7392  -7.2771  -6.6234  -6.4107  -5.0151
    -5.0049  -4.9936  -4.8862  -4.7020   2.5680   5.4644   6.1165   6.9232
     7.2331   7.4448   7.4562   8.3651   9.2520   9.7381

          k = 0.1667 0.1667 0.0000 (   637 PWs)   bands (ev):

   -46.2689 -22.8203 -22.7438 -22.7413  -7.6950  -6.8043  -6.6354  -5.0220
    -4.9996  -4.9712  -4.8796  -4.7822   3.5072   6.3419   6.5210   6.7782
     7.8384   7.9552   8.5663   8.6778   9.0426   9.3354

          k = 0.1667 0.1667 0.2378 (   636 PWs)   bands (ev):

   -46.2687 -22.8252 -22.7490 -22.7480  -7.5322  -6.7839  -6.5765  -5.0184
    -4.9990  -4.9701  -4.8694  -4.8026   3.1687   6.1812   6.2411   6.8974
     7.6085   7.6255   8.4255   8.8540   9.0627   9.3968

          k = 0.1667 0.1667-0.4756 (   628 PWs)   bands (ev):

   -46.2682 -22.8311 -22.7526 -22.7344  -7.3651  -6.7633  -6.5101  -5.0292
    -4.9706  -4.9530  -4.8623  -4.8207   2.8565   5.9247   6.0301   6.6451
     7.5291   7.5526   8.3624   8.9660   9.1842   9.7668

          k = 0.1667 0.3333 0.0000 (   640 PWs)   bands (ev):

   -46.2683 -22.8130 -22.7903 -22.7522  -7.4222  -6.7518  -6.6347  -5.0395
    -4.9976  -4.9675  -4.8606  -4.7951   3.0666   6.0746   6.5608   6.8292
     7.2495   7.8962   8.1418   8.7813   8.9487   9.8061

          k = 0.1667 0.3333 0.2378 (   635 PWs)   bands (ev):

   -46.2679 -22.8260 -22.7867 -22.7463  -7.2958  -6.7436  -6.5683  -5.0139
    -4.9946  -4.9506  -4.8416  -4.7648   2.9461   5.9178   6.0691   6.5329
     6.9937   7.6173   8.4896   8.7820   9.1215   9.5310

          k = 0.1667 0.3333-0.4756 (   632 PWs)   bands (ev):

   -46.2676 -22.8327 -22.7896 -22.7480  -7.1970  -6.7248  -6.4735  -5.0154
    -4.9683  -4.9233  -4.8475  -4.7252   2.7940   5.5595   5.9789   6.2961
     6.5248   7.4729   8.5862   8.8153   9.0303   9.5825

          k = 0.1667-0.5000 0.0000 (   634 PWs)   bands (ev):

   -46.2677 -22.8068 -22.8055 -22.7468  -7.2711  -6.7171  -6.6501  -5.0414
    -4.9884  -4.9504  -4.8443  -4.8138   2.8838   5.7310   6.7721   6.9174
     7.2663   7.5385   8.0740   8.8697   8.8928  10.1093

          k = 0.1667-0.5000 0.2378 (   640 PWs)   bands (ev):

   -46.2680 -22.8294 -22.8098 -22.7518  -7.1873  -6.6893  -6.5862  -5.0191
    -4.9868  -4.9412  -4.8231  -4.7634   2.8478   5.6746   5.9620   6.3098
     6.8948   7.7437   8.2488   8.7818   9.0851   9.5006

          k = 0.1667-0.5000-0.4756 (   632 PWs)   bands (ev):

   -46.2673 -22.8266 -22.8181 -22.7425  -7.1484  -6.6578  -6.4597  -5.0093
    -4.9361  -4.9303  -4.8373  -4.6790   2.7606   5.4463   5.8523   5.9770
     6.3596   7.5889   8.3858   8.7219   8.7973   9.7684

          k = 0.3333 0.3333 0.0000 (   638 PWs)   bands (ev):

   -46.2676 -22.8106 -22.7943 -22.7791  -7.1781  -6.6967  -6.6650  -5.0242
    -4.9827  -4.9120  -4.8031  -4.8017   2.7295   6.0056   6.2004   7.0190
     7.1192   7.2957   7.9663   8.5358   9.4419   9.5589

          k = 0.3333 0.3333 0.2378 (   636 PWs)   bands (ev):

   -46.2674 -22.8188 -22.7905 -22.7873  -7.0448  -6.7294  -6.6249  -4.9833
    -4.9725  -4.8788  -4.7722  -4.7386   2.9093   5.6814   5.7672   5.9526
     6.6931   7.1064   8.4906   9.0892   9.0983   9.5046

          k = 0.3333 0.3333-0.4756 (   634 PWs)   bands (ev):

   -46.2673 -22.8308 -22.7930 -22.7843  -6.9600  -6.7612  -6.5236  -4.9688
    -4.9386  -4.8399  -4.7294  -4.6882   3.0786   5.2982   5.3116   5.7030
     6.4351   6.6007   7.7273   9.4434   9.4673   9.6917

          k = 0.3333-0.5000 0.0000 (   634 PWs)   bands (ev):

   -46.2672 -22.8111 -22.7984 -22.7775  -7.0614  -6.6727  -6.6673  -5.0161
    -4.9565  -4.8770  -4.8160  -4.7759   2.5801   5.6846   6.2430   6.8090
     7.3686   7.5020   7.6228   8.5117   9.2492   9.6344

          k = 0.3333-0.5000 0.2378 (   634 PWs)   bands (ev):

   -46.2670 -22.8187 -22.8075 -22.7816  -6.9254  -6.6966  -6.6661  -4.9758
    -4.9499  -4.8114  -4.7613  -4.7246   2.8756   5.5330   5.6378   5.7744
     6.4788   7.1656   8.0447   9.0803   9.1331   9.6240

          k = 0.3333-0.5000-0.4756 (   628 PWs)   bands (ev):

   -46.2667 -22.8299 -22.8005 -22.7798  -6.8884  -6.7249  -6.5436  -4.9499
    -4.9150  -4.7756  -4.7029  -4.6447   3.2334   5.0578   5.2365   5.4914
     6.2481   6.6062   6.9696   9.5925   9.6123   9.8487

          k =-0.5000-0.5000 0.0000 (   656 PWs)   bands (ev):

   -46.2679 -22.8216 -22.8216 -22.8174  -6.9941  -6.6442  -6.6442  -5.0218
    -4.9281  -4.8561  -4.8561  -4.7458   2.3916   5.4901   6.0580   7.0134
     7.0134   7.5461   7.5461   8.1941   8.6273   9.8090

          k =-0.5000-0.5000 0.2378 (   652 PWs)   bands (ev):

   -46.2677 -22.8353 -22.8172 -22.8172  -6.7966  -6.7051  -6.7051  -4.9807
    -4.9284  -4.7447  -4.7447  -4.7235   2.8068   5.3977   5.6118   5.6118
     6.0923   7.0584   7.3268   9.1104   9.1104   9.8509

          k =-0.5000-0.5000-0.4756 (   640 PWs)   bands (ev):

   -46.2670 -22.8369 -22.8136 -22.8136  -6.7582  -6.7582  -6.5894  -4.9219
    -4.9217  -4.7026  -4.6413  -4.6413   3.4689   5.0139   5.0139   5.2504
     5.9582   6.1034   6.2906   9.8322   9.8322   9.8770

     highest occupied level (ev):    10.5524

!    total energy              =    -379.77659724 Ry
     estimated scf accuracy    <          2.6E-10 Ry

     The total energy is the sum of the following terms:
     one-electron contribution =     -82.43303060 Ry
     hartree contribution      =      70.03500599 Ry
     xc contribution           =    -102.26441317 Ry
     ewald contribution        =    -265.11415946 Ry

     convergence has been achieved in  12 iterations

     negative rho (up, down):  1.479E-02 0.000E+00

     Forces acting on atoms (cartesian axes, Ry/au):

     atom    1 type  1   force =     0.00000000    0.00000000   -0.00476558
     atom    2 type  2   force =     0.00000000    0.00000000   -0.03740210
     atom    3 type  3   force =     0.00000000    0.00000000    0.05027326
     atom    4 type  3   force =     0.00000000    0.00000000   -0.00405279
     atom    5 type  3   force =     0.00000000    0.00000000   -0.00405279

     Total force =     0.063102     Total SCF correction =     0.000042


     Computing stress (Cartesian axis) and pressure


     negative rho (up, down):  1.479E-02 0.000E+00
          total   stress  (Ry/bohr**3)                   (kbar)     P=    -1195.82
  -0.00815081   0.00000000   0.00000000        -1199.03        0.00        0.00
   0.00000000  -0.00815081   0.00000000            0.00    -1199.03        0.00
   0.00000000   0.00000000  -0.00808541            0.00        0.00    -1189.41


     BFGS Geometry Optimization
     Energy error            =      0.0E+00 Ry
     Gradient error          =      5.0E-02 Ry/Bohr

     number of scf cycles    =   1
     number of bfgs steps    =   0

     energy             new  =    -379.7765972383 Ry

     new trust radius        =       0.0502732612 bohr
     new conv_thr            =       0.0000000100 Ry


ATOMIC_POSITIONS (crystal)
Pb               0.0000000000        0.0000000000        1.0058074258
Ti               0.5000000000        0.5000000000        0.5355962978
O                0.5000000000        0.5000000000        0.1050689508
O                0.5000000000        0.0000000000        0.6104058068
O                0.0000000000        0.5000000000        0.6104058068



     Writing config-only to output data dir ./pto_20.save/ :
     XML data file
     NEW-OLD atomic charge density approx. for the potential

     Check: negative core charge=   -0.000010

     negative rho (up, down):  1.481E-02 0.000E+00

     total cpu time spent up to now is        7.6 secs

     Self-consistent Calculation

     iteration #  1     ecut=    20.00 Ry     beta= 0.70
     CG style diagonalization
     c_bands:  1 eigenvalues not converged
     c_bands:  1 eigenvalues not converged
     c_bands:  1 eigenvalues not converged
     c_bands:  3 eigenvalues not converged
     c_bands:  2 eigenvalues not converged
     c_bands:  2 eigenvalues not converged
     c_bands:  2 eigenvalues not converged
     c_bands:  2 eigenvalues not converged
     ethr =  1.00E-06,  avg # of iterations =  8.3

     negative rho (up, down):  1.474E-02 0.000E+00

     total cpu time spent up to now is        8.8 secs

     total energy              =    -379.77815847 Ry
     estimated scf accuracy    <       0.00205427 Ry

     iteration #  2     ecut=    20.00 Ry     beta= 0.70
     CG style diagonalization
     ethr =  4.67E-06,  avg # of iterations =  4.5

     negative rho (up, down):  1.477E-02 0.000E+00

     total cpu time spent up to now is        9.3 secs

     total energy              =    -379.77791056 Ry
     estimated scf accuracy    <       0.00548499 Ry

     iteration #  3     ecut=    20.00 Ry     beta= 0.70
     CG style diagonalization
     ethr =  4.67E-06,  avg # of iterations =  4.1

     negative rho (up, down):  1.478E-02 0.000E+00

     total cpu time spent up to now is        9.8 secs

     total energy              =    -379.77893507 Ry
     estimated scf accuracy    <       0.00029003 Ry

     iteration #  4     ecut=    20.00 Ry     beta= 0.70
     CG style diagonalization
     ethr =  6.59E-07,  avg # of iterations =  3.8

     negative rho (up, down):  1.477E-02 0.000E+00

     total cpu time spent up to now is       10.2 secs

     total energy              =    -379.77902069 Ry
     estimated scf accuracy    <       0.00004680 Ry

     iteration #  5     ecut=    20.00 Ry     beta= 0.70
     CG style diagonalization
     ethr =  1.06E-07,  avg # of iterations =  3.9

     negative rho (up, down):  1.477E-02 0.000E+00

     total cpu time spent up to now is       10.7 secs

     total energy              =    -379.77903430 Ry
     estimated scf accuracy    <       0.00000754 Ry

     iteration #  6     ecut=    20.00 Ry     beta= 0.70
     CG style diagonalization
     ethr =  1.71E-08,  avg # of iterations =  3.9

     negative rho (up, down):  1.477E-02 0.000E+00

     total cpu time spent up to now is       11.1 secs

     total energy              =    -379.77903666 Ry
     estimated scf accuracy    <       0.00000119 Ry

     iteration #  7     ecut=    20.00 Ry     beta= 0.70
     CG style diagonalization
     ethr =  2.71E-09,  avg # of iterations =  4.2

     negative rho (up, down):  1.477E-02 0.000E+00

     total cpu time spent up to now is       11.6 secs

     total energy              =    -379.77903716 Ry
     estimated scf accuracy    <       0.00000009 Ry

     iteration #  8     ecut=    20.00 Ry     beta= 0.70
     CG style diagonalization
     ethr =  2.07E-10,  avg # of iterations =  5.4

     negative rho (up, down):  1.477E-02 0.000E+00

     total cpu time spent up to now is       12.3 secs

     End of self-consistent calculation

          k = 0.0000 0.0000 0.0000 (   643 PWs)   bands (ev):

   -46.1550 -22.7697 -22.6196 -22.6196  -7.9335  -6.8142  -6.7028  -5.0061
    -5.0061  -4.9826  -4.9173  -4.8335   4.1783   6.3632   6.3632   6.7170
     8.1311   8.1311   8.5754   8.6627   9.0308   9.0308

          k = 0.0000 0.0000 0.2378 (   643 PWs)   bands (ev):

   -46.1545 -22.7922 -22.6197 -22.6197  -7.7387  -6.7685  -6.6600  -5.0235
    -5.0235  -4.9808  -4.9144  -4.8948   3.4263   6.4257   6.4257   6.7840
     7.9509   7.9509   8.5000   8.8248   9.0810   9.0810

          k = 0.0000 0.0000-0.4756 (   636 PWs)   bands (ev):

   -46.1540 -22.7872 -22.6177 -22.6177  -7.5170  -6.7165  -6.6321  -5.0340
    -5.0340  -4.9902  -4.9500  -4.8840   2.9183   6.1695   6.4297   6.4297
     7.8132   7.8132   8.4694   9.2442   9.2442  10.1408

          k = 0.0000 0.1667 0.0000 (   651 PWs)   bands (ev):

   -46.1548 -22.7823 -22.6345 -22.6269  -7.8064  -6.7928  -6.6816  -5.0392
    -5.0117  -5.0019  -4.9209  -4.8125   3.7693   6.3413   6.4718   6.7266
     8.1166   8.1318   8.5854   8.5897   8.6376   9.0191

          k = 0.0000 0.1667 0.2378 (   638 PWs)   bands (ev):

   -46.1538 -22.7888 -22.6296 -22.6143  -7.6227  -6.7558  -6.6337  -5.0299
    -5.0226  -4.9946  -4.9110  -4.8439   3.2409   6.1811   6.5457   6.9581
     7.6378   7.9514   8.3580   8.7619   8.7915   9.4232

          k = 0.0000 0.1667-0.4756 (   630 PWs)   bands (ev):

   -46.1533 -22.7907 -22.6256 -22.6081  -7.4237  -6.7146  -6.5916  -5.0313
    -5.0293  -4.9907  -4.8946  -4.8721   2.8129   5.8229   6.5842   6.6980
     7.5003   7.8719   8.4516   8.8662   8.9117  10.0593

          k = 0.0000 0.3333 0.0000 (   638 PWs)   bands (ev):

   -46.1532 -22.7745 -22.6713 -22.6093  -7.5290  -6.7425  -6.6510  -5.0620
    -5.0152  -5.0104  -4.9029  -4.8179   3.2321   6.1031   6.6764   6.8155
     7.8871   7.9353   8.3058   8.4282   8.7174   9.6799

          k = 0.0000 0.3333 0.2378 (   638 PWs)   bands (ev):

   -46.1531 -22.7862 -22.6744 -22.6081  -7.3922  -6.7166  -6.5867  -5.0334
    -5.0228  -5.0132  -4.8970  -4.7997   2.9141   5.9377   6.5919   6.8957
     7.3393   7.7931   7.8835   8.3834   8.9739   9.7627

          k = 0.0000 0.3333-0.4756 (   630 PWs)   bands (ev):

   -46.1526 -22.7873 -22.6641 -22.6119  -7.2770  -6.6643  -6.5099  -5.0300
    -5.0126  -5.0104  -4.9038  -4.7493   2.6400   5.5515   6.4565   6.8962
     7.2448   7.4983   7.7614   8.4047   9.3901   9.6929

          k = 0.0000-0.5000 0.0000 (   630 PWs)   bands (ev):

   -46.1523 -22.7684 -22.6769 -22.6130  -7.3732  -6.7099  -6.6545  -5.0751
    -5.0224  -5.0092  -4.8699  -4.8359   3.0312   5.8059   6.9907   7.0954
     7.4460   7.5055   8.3525   8.3766   8.7309  10.5047

          k = 0.0000-0.5000 0.2378 (   628 PWs)   bands (ev):

   -46.1521 -22.7748 -22.6887 -22.6001  -7.2814  -6.6509  -6.5973  -5.0382
    -5.0225  -5.0115  -4.8691  -4.7829   2.7869   5.7263   6.6151   6.8847
     7.3264   7.3853   8.0615   8.3854   9.0187   9.9640

          k = 0.0000-0.5000-0.4756 (   640 PWs)   bands (ev):

   -46.1527 -22.7865 -22.7034 -22.6211  -7.2344  -6.5894  -6.4821  -5.0303
    -5.0276  -5.0102  -4.9033  -4.7102   2.5518   5.4329   6.1218   6.9347
     7.1418   7.4986   7.5071   8.3203   9.1945   9.6978

          k = 0.1667 0.1667 0.0000 (   637 PWs)   bands (ev):

   -46.1536 -22.7761 -22.6262 -22.6233  -7.6808  -6.7644  -6.6723  -5.0381
    -5.0166  -4.9924  -4.8991  -4.7955   3.4978   6.3727   6.5320   6.7855
     7.7118   7.9617   8.4602   8.6910   9.0710   9.2130

          k = 0.1667 0.1667 0.2378 (   636 PWs)   bands (ev):

   -46.1534 -22.7819 -22.6310 -22.6301  -7.5047  -6.7432  -6.6262  -5.0364
    -5.0163  -4.9901  -4.8892  -4.8155   3.1420   6.1696   6.2215   6.9110
     7.5901   7.6088   8.3227   8.8536   9.0757   9.3889

          k = 0.1667 0.1667-0.4756 (   628 PWs)   bands (ev):

   -46.1529 -22.7885 -22.6347 -22.6164  -7.3198  -6.7222  -6.5766  -5.0480
    -4.9926  -4.9672  -4.8831  -4.8330   2.8123   5.8779   5.9845   6.6835
     7.5405   7.5478   8.2846   8.9770   9.1797   9.7855

          k = 0.1667 0.3333 0.0000 (   640 PWs)   bands (ev):

   -46.1530 -22.7689 -22.6728 -22.6343  -7.4155  -6.7172  -6.6642  -5.0551
    -5.0145  -4.9897  -4.8786  -4.8087   3.0629   6.1167   6.5575   6.8468
     7.2540   7.7468   8.1639   8.7476   8.9475   9.7360

          k = 0.1667 0.3333 0.2378 (   635 PWs)   bands (ev):

   -46.1526 -22.7820 -22.6693 -22.6286  -7.2717  -6.7123  -6.6131  -5.0320
    -5.0107  -4.9734  -4.8590  -4.7761   2.9329   5.9114   6.0652   6.5529
     6.9774   7.6187   8.4539   8.7486   9.1005   9.5053

          k = 0.1667 0.3333-0.4756 (   632 PWs)   bands (ev):

   -46.1523 -22.7899 -22.6718 -22.6300  -7.1554  -6.6907  -6.5393  -5.0345
    -4.9891  -4.9415  -4.8651  -4.7348   2.7708   5.5033   5.9763   6.3017
     6.5605   7.5057   8.4894   8.8449   9.0267   9.5417

          k = 0.1667-0.5000 0.0000 (   634 PWs)   bands (ev):

   -46.1524 -22.7626 -22.6888 -22.6288  -7.2691  -6.6843  -6.6763  -5.0567
    -5.0049  -4.9747  -4.8587  -4.8295   2.8803   5.7894   6.7237   6.9630
     7.3076   7.5717   7.8860   8.8458   8.8789  10.0803

          k = 0.1667-0.5000 0.2378 (   640 PWs)   bands (ev):

   -46.1527 -22.7860 -22.6919 -22.6339  -7.1623  -6.6566  -6.6371  -5.0363
    -5.0020  -4.9676  -4.8383  -4.7742   2.8398   5.7108   5.9636   6.2935
     6.8798   7.7344   8.2672   8.7027   9.0947   9.4416

          k = 0.1667-0.5000-0.4756 (   632 PWs)   bands (ev):

   -46.1520 -22.7842 -22.7002 -22.6246  -7.1085  -6.6253  -6.5271  -5.0281
    -4.9585  -4.9503  -4.8518  -4.6877   2.7477   5.4047   5.8773   5.9876
     6.3490   7.6327   8.3545   8.7209   8.7559   9.7155

          k = 0.3333 0.3333 0.0000 (   638 PWs)   bands (ev):

   -46.1522 -22.7665 -22.6765 -22.6616  -7.1950  -6.6739  -6.6615  -5.0384
    -5.0016  -4.9313  -4.8263  -4.8163   2.7343   6.0308   6.2712   6.9577
     7.1356   7.1505   8.0438   8.5072   9.4700   9.5178

          k = 0.3333 0.3333 0.2378 (   636 PWs)   bands (ev):

   -46.1521 -22.7749 -22.6734 -22.6694  -7.0369  -6.6955  -6.6593  -4.9979
    -4.9927  -4.9027  -4.7923  -4.7492   2.9085   5.6633   5.7494   5.9818
     6.7411   7.0963   8.4674   9.0273   9.0760   9.5241

          k = 0.3333 0.3333-0.4756 (   634 PWs)   bands (ev):

   -46.1520 -22.7884 -22.6752 -22.6665  -6.9244  -6.7284  -6.5864  -4.9897
    -4.9546  -4.8690  -4.7442  -4.6969   3.0653   5.2775   5.3028   5.7070
     6.4245   6.6790   7.6983   9.3955   9.4837   9.6348

          k = 0.3333-0.5000 0.0000 (   634 PWs)   bands (ev):

   -46.1518 -22.7547 -22.6931 -22.6600  -7.0982  -6.6608  -6.6344  -5.0302
    -4.9761  -4.8941  -4.8296  -4.8036   2.5871   5.7296   6.3227   6.7207
     7.2259   7.5452   7.6595   8.5034   9.2407   9.6713

          k = 0.3333-0.5000 0.2378 (   634 PWs)   bands (ev):

   -46.1517 -22.7753 -22.6897 -22.6639  -6.9300  -6.6875  -6.6652  -4.9907
    -4.9699  -4.8403  -4.7725  -4.7406   2.8817   5.5105   5.6850   5.7466
     6.5285   7.1486   8.0468   9.0385   9.0772   9.6555

          k = 0.3333-0.5000-0.4756 (   628 PWs)   bands (ev):

   -46.1514 -22.7875 -22.6826 -22.6621  -6.8551  -6.6949  -6.6038  -4.9704
    -4.9302  -4.8118  -4.7123  -4.6549   3.2336   5.0634   5.1838   5.5283
     6.2640   6.6477   6.9489   9.5244   9.6523   9.7895

          k =-0.5000-0.5000 0.0000 (   656 PWs)   bands (ev):

   -46.1526 -22.7740 -22.7037 -22.7037  -7.0533  -6.6116  -6.6116  -5.0359
    -4.9499  -4.8672  -4.8672  -4.7818   2.4031   5.5247   6.1593   6.8892
     6.8892   7.5910   7.5910   8.1800   8.6586   9.8496

          k =-0.5000-0.5000 0.2378 (   652 PWs)   bands (ev):

   -46.1523 -22.7912 -22.6994 -22.6994  -6.8542  -6.6746  -6.6746  -4.9950
    -4.9502  -4.7627  -4.7539  -4.7539   2.8205   5.4404   5.5710   5.5710
     6.1895   7.0374   7.3386   9.0662   9.0662   9.8915

          k =-0.5000-0.5000-0.4756 (   640 PWs)   bands (ev):

   -46.1517 -22.7946 -22.6957 -22.6957  -6.7292  -6.7292  -6.6460  -4.9435
    -4.9365  -4.7460  -4.6491  -4.6491   3.4905   4.9811   4.9811   5.2932
     5.9567   6.2028   6.2385   9.7737   9.7737   9.9176

     highest occupied level (ev):    10.5047

!    total energy              =    -379.77903726 Ry
     estimated scf accuracy    <          5.1E-09 Ry

     The total energy is the sum of the following terms:
     one-electron contribution =     -82.87215546 Ry
     hartree contribution      =      70.28487786 Ry
     xc contribution           =    -102.29075489 Ry
     ewald contribution        =    -264.90100477 Ry

     convergence has been achieved in   8 iterations

     negative rho (up, down):  1.477E-02 0.000E+00

     Forces acting on atoms (cartesian axes, Ry/au):

     atom    1 type  1   force =     0.00000000    0.00000000   -0.00907264
     atom    2 type  2   force =     0.00000000    0.00000000   -0.00015440
     atom    3 type  3   force =     0.00000000    0.00000000    0.01171853
     atom    4 type  3   force =     0.00000000    0.00000000   -0.00124574
     atom    5 type  3   force =     0.00000000    0.00000000   -0.00124574

     Total force =     0.014925     Total SCF correction =     0.000305


     Computing stress (Cartesian axis) and pressure


     negative rho (up, down):  1.477E-02 0.000E+00
          total   stress  (Ry/bohr**3)                   (kbar)     P=    -1178.61
  -0.00813381   0.00000000   0.00000000        -1196.52        0.00        0.00
   0.00000000  -0.00813381   0.00000000            0.00    -1196.52        0.00
   0.00000000   0.00000000  -0.00776842            0.00        0.00    -1142.77

     Energy error            =      2.4E-03 Ry
     Gradient error          =      1.2E-02 Ry/Bohr

     number of scf cycles    =   2
     number of bfgs steps    =   1

     energy             old  =    -379.7765972383 Ry
     energy             new  =    -379.7790372573 Ry

     CASE: energy            _new < energy            _old

     new trust radius        =       0.0161089677 bohr
     new conv_thr            =       0.0000000012 Ry


ATOMIC_POSITIONS (crystal)
Pb               0.0000000000        0.0000000000        1.0043829036
Ti               0.5000000000        0.5000000000        0.5353697191
O                0.5000000000        0.5000000000        0.1071480968
O                0.5000000000        0.0000000000        0.6101917843
O                0.0000000000        0.5000000000        0.6101917843



     Writing config-only to output data dir ./pto_20.save/ :
     XML data file
     NEW-OLD atomic charge density approx. for the potential

     Check: negative core charge=   -0.000010

     negative rho (up, down):  1.445E-02 0.000E+00

     total cpu time spent up to now is       12.6 secs

     Self-consistent Calculation

     iteration #  1     ecut=    20.00 Ry     beta= 0.70
     CG style diagonalization
     c_bands:  1 eigenvalues not converged
     ethr =  1.00E-06,  avg # of iterations =  5.1

     negative rho (up, down):  1.442E-02 0.000E+00

     total cpu time spent up to now is       13.3 secs

     total energy              =    -379.77917920 Ry
     estimated scf accuracy    <       0.00011435 Ry

     iteration #  2     ecut=    20.00 Ry     beta= 0.70
     CG style diagonalization
     ethr =  2.60E-07,  avg # of iterations =  4.6

     negative rho (up, down):  1.443E-02 0.000E+00

     total cpu time spent up to now is       13.9 secs

     total energy              =    -379.77916829 Ry
     estimated scf accuracy    <       0.00035003 Ry

     iteration #  3     ecut=    20.00 Ry     beta= 0.70
     CG style diagonalization
     ethr =  2.60E-07,  avg # of iterations =  4.1

     negative rho (up, down):  1.443E-02 0.000E+00

     total cpu time spent up to now is       14.4 secs

     total energy              =    -379.77923261 Ry
     estimated scf accuracy    <       0.00001592 Ry

     iteration #  4     ecut=    20.00 Ry     beta= 0.70
     CG style diagonalization
     ethr =  3.62E-08,  avg # of iterations =  3.8

     negative rho (up, down):  1.442E-02 0.000E+00

     total cpu time spent up to now is       14.8 secs

     total energy              =    -379.77923736 Ry
     estimated scf accuracy    <       0.00000297 Ry

     iteration #  5     ecut=    20.00 Ry     beta= 0.70
     CG style diagonalization
     ethr =  6.76E-09,  avg # of iterations =  3.9

     negative rho (up, down):  1.442E-02 0.000E+00

     total cpu time spent up to now is       15.2 secs

     total energy              =    -379.77923823 Ry
     estimated scf accuracy    <       0.00000059 Ry

     iteration #  6     ecut=    20.00 Ry     beta= 0.70
     CG style diagonalization
     ethr =  1.34E-09,  avg # of iterations =  4.1

     negative rho (up, down):  1.442E-02 0.000E+00

     total cpu time spent up to now is       15.7 secs

     total energy              =    -379.77923843 Ry
     estimated scf accuracy    <       0.00000009 Ry

     iteration #  7     ecut=    20.00 Ry     beta= 0.70
     CG style diagonalization
     ethr =  2.12E-10,  avg # of iterations =  4.5

     negative rho (up, down):  1.443E-02 0.000E+00

     total cpu time spent up to now is       16.3 secs

     total energy              =    -379.77923849 Ry
     estimated scf accuracy    <          6.5E-09 Ry

     iteration #  8     ecut=    20.00 Ry     beta= 0.70
     CG style diagonalization
     ethr =  1.48E-11,  avg # of iterations =  5.9

     negative rho (up, down):  1.443E-02 0.000E+00

     total cpu time spent up to now is       17.0 secs

     End of self-consistent calculation

          k = 0.0000 0.0000 0.0000 (   643 PWs)   bands (ev):

   -46.1315 -22.7630 -22.5961 -22.5961  -7.9353  -6.8174  -6.7090  -5.0071
    -5.0071  -4.9844  -4.9207  -4.8314   4.1699   6.3633   6.3633   6.7434
     8.0972   8.0972   8.5456   8.6645   9.0313   9.0313

          k = 0.0000 0.0000 0.2378 (   643 PWs)   bands (ev):

   -46.1310 -22.7852 -22.5962 -22.5962  -7.7401  -6.7720  -6.6666  -5.0244
    -5.0244  -4.9825  -4.9176  -4.8924   3.4176   6.4217   6.4217   6.7952
     7.9272   7.9272   8.5017   8.8157   9.0797   9.0797

          k = 0.0000 0.0000-0.4756 (   636 PWs)   bands (ev):

   -46.1305 -22.7803 -22.5942 -22.5942  -7.5179  -6.7202  -6.6390  -5.0350
    -5.0350  -4.9919  -4.9474  -4.8870   2.9061   6.1763   6.4207   6.4207
     7.7995   7.7995   8.4710   9.2419   9.2419  10.1417

          k = 0.0000 0.1667 0.0000 (   651 PWs)   bands (ev):

   -46.1313 -22.7751 -22.6111 -22.6035  -7.8083  -6.7961  -6.6882  -5.0405
    -5.0127  -5.0036  -4.9228  -4.8103   3.7647   6.3392   6.4717   6.7385
     8.0964   8.0976   8.5769   8.5916   8.6213   9.0125

          k = 0.0000 0.1667 0.2378 (   638 PWs)   bands (ev):

   -46.1303 -22.7817 -22.6062 -22.5908  -7.6243  -6.7594  -6.6407  -5.0309
    -5.0236  -4.9963  -4.9132  -4.8414   3.2351   6.1741   6.5421   6.9671
     7.6215   7.9274   8.3531   8.7553   8.7899   9.4208

          k = 0.0000 0.1667-0.4756 (   630 PWs)   bands (ev):

   -46.1298 -22.7838 -22.6022 -22.5847  -7.4247  -6.7184  -6.5991  -5.0323
    -5.0299  -4.9924  -4.8964  -4.8701   2.8043   5.8153   6.5749   6.7022
     7.4886   7.8583   8.4488   8.8596   8.9101  10.0615

          k = 0.0000 0.3333 0.0000 (   638 PWs)   bands (ev):

   -46.1297 -22.7673 -22.6480 -22.5859  -7.5313  -6.7463  -6.6587  -5.0629
    -5.0167  -5.0114  -4.9022  -4.8158   3.2308   6.1013   6.6717   6.8156
     7.8774   7.9325   8.2737   8.4281   8.6971   9.6766

          k = 0.0000 0.3333 0.2378 (   638 PWs)   bands (ev):

   -46.1296 -22.7792 -22.6511 -22.5846  -7.3941  -6.7208  -6.5944  -5.0341
    -5.0238  -5.0148  -4.8974  -4.7969   2.9122   5.9296   6.5892   6.8921
     7.3265   7.7809   7.8843   8.3686   8.9635   9.7612

          k = 0.0000 0.3333-0.4756 (   630 PWs)   bands (ev):

   -46.1291 -22.7805 -22.6408 -22.5884  -7.2787  -6.6681  -6.5182  -5.0310
    -5.0142  -5.0105  -4.9043  -4.7468   2.6372   5.5384   6.4551   6.8854
     7.2343   7.5026   7.7516   8.3979   9.3727   9.6978

          k = 0.0000-0.5000 0.0000 (   630 PWs)   bands (ev):

   -46.1288 -22.7612 -22.6537 -22.5896  -7.3759  -6.7125  -6.6642  -5.0755
    -5.0239  -5.0102  -4.8662  -4.8359   3.0304   5.8052   6.9723   7.0940
     7.4502   7.5079   8.3150   8.3743   8.7097  10.4985

          k = 0.0000-0.5000 0.2378 (   628 PWs)   bands (ev):

   -46.1286 -22.7678 -22.6655 -22.5767  -7.2837  -6.6539  -6.6066  -5.0383
    -5.0240  -5.0125  -4.8689  -4.7800   2.7863   5.7230   6.6062   6.8700
     7.3246   7.3777   8.0643   8.3634   9.0104   9.9588

          k = 0.0000-0.5000-0.4756 (   640 PWs)   bands (ev):

   -46.1292 -22.7797 -22.6801 -22.5976  -7.2366  -6.5928  -6.4911  -5.0313
    -5.0292  -5.0100  -4.9031  -4.7077   2.5510   5.4218   6.1151   6.9225
     7.1273   7.4962   7.5174   8.3051   9.1841   9.6906

          k = 0.1667 0.1667 0.0000 (   637 PWs)   bands (ev):

   -46.1300 -22.7689 -22.6028 -22.5999  -7.6829  -6.7678  -6.6793  -5.0393
    -5.0177  -4.9938  -4.9006  -4.7931   3.4944   6.3745   6.5283   6.7894
     7.6883   7.9551   8.4415   8.6897   9.0667   9.1923

          k = 0.1667 0.1667 0.2378 (   636 PWs)   bands (ev):

   -46.1299 -22.7749 -22.6075 -22.6067  -7.5064  -6.7467  -6.6337  -5.0375
    -5.0173  -4.9915  -4.8909  -4.8129   3.1372   6.1656   6.2139   6.9150
     7.5786   7.6009   8.3028   8.8499   9.0708   9.3865

          k = 0.1667 0.1667-0.4756 (   628 PWs)   bands (ev):

   -46.1294 -22.7817 -22.6112 -22.5930  -7.3210  -6.7257  -6.5844  -5.0492
    -4.9941  -4.9676  -4.8850  -4.8304   2.8051   5.8714   5.9761   6.6849
     7.5294   7.5433   8.2692   8.9744   9.1726   9.7877

          k = 0.1667 0.3333 0.0000 (   640 PWs)   bands (ev):

   -46.1295 -22.7618 -22.6495 -22.6109  -7.4182  -6.7212  -6.6712  -5.0557
    -5.0155  -4.9914  -4.8785  -4.8063   3.0604   6.1160   6.5537   6.8446
     7.2505   7.7175   8.1618   8.7389   8.9401   9.7261

          k = 0.1667 0.3333 0.2378 (   635 PWs)   bands (ev):

   -46.1291 -22.7749 -22.6460 -22.6052  -7.2738  -6.7162  -6.6203  -5.0330
    -5.0114  -4.9755  -4.8593  -4.7734   2.9298   5.9036   6.0580   6.5549
     6.9696   7.6134   8.4374   8.7406   9.0921   9.5035

          k = 0.1667 0.3333-0.4756 (   632 PWs)   bands (ev):

   -46.1288 -22.7830 -22.6485 -22.6066  -7.1572  -6.6940  -6.5472  -5.0359
    -4.9906  -4.9427  -4.8653  -4.7323   2.7669   5.4909   5.9701   6.3000
     6.5571   7.5050   8.4695   8.8411   9.0270   9.5333

          k = 0.1667-0.5000 0.0000 (   634 PWs)   bands (ev):

   -46.1289 -22.7556 -22.6655 -22.6054  -7.2723  -6.6872  -6.6845  -5.0572
    -5.0059  -4.9768  -4.8557  -4.8287   2.8778   5.7893   6.7076   6.9689
     7.3068   7.5719   7.8529   8.8333   8.8745  10.0776

          k = 0.1667-0.5000 0.2378 (   640 PWs)   bands (ev):

   -46.1291 -22.7789 -22.6687 -22.6105  -7.1649  -6.6597  -6.6453  -5.0371
    -5.0025  -4.9704  -4.8374  -4.7715   2.8376   5.7074   5.9542   6.2874
     6.8763   7.7266   8.2596   8.6877   9.0889   9.4385

          k = 0.1667-0.5000-0.4756 (   632 PWs)   bands (ev):

   -46.1285 -22.7774 -22.6769 -22.6011  -7.1108  -6.6285  -6.5349  -5.0294
    -4.9617  -4.9505  -4.8507  -4.6854   2.7455   5.3918   5.8684   5.9859
     6.3456   7.6325   8.3493   8.7066   8.7554   9.7038

          k = 0.3333 0.3333 0.0000 (   638 PWs)   bands (ev):

   -46.1287 -22.7594 -22.6532 -22.6384  -7.1988  -6.6799  -6.6653  -5.0386
    -5.0026  -4.9320  -4.8277  -4.8135   2.7294   6.0279   6.2767   6.9410
     7.1271   7.1359   8.0465   8.4996   9.4657   9.5132

          k = 0.3333 0.3333 0.2378 (   636 PWs)   bands (ev):

   -46.1286 -22.7679 -22.6502 -22.6461  -7.0397  -6.6989  -6.6656  -4.9982
    -4.9942  -4.9054  -4.7927  -4.7464   2.9028   5.6538   5.7436   5.9819
     6.7416   7.0928   8.4609   9.0183   9.0668   9.5193

          k = 0.3333 0.3333-0.4756 (   634 PWs)   bands (ev):

   -46.1285 -22.7817 -22.6519 -22.6432  -6.9265  -6.7316  -6.5930  -4.9913
    -4.9552  -4.8732  -4.7437  -4.6943   3.0582   5.2701   5.2934   5.7089
     6.4166   6.6829   7.6988   9.3807   9.4810   9.6223

          k = 0.3333-0.5000 0.0000 (   634 PWs)   bands (ev):

   -46.1283 -22.7477 -22.6699 -22.6367  -7.1029  -6.6660  -6.6380  -5.0304
    -4.9772  -4.8935  -4.8273  -4.8055   2.5811   5.7281   6.3288   6.7050
     7.2023   7.5436   7.6594   8.4991   9.2426   9.6682

          k = 0.3333-0.5000 0.2378 (   634 PWs)   bands (ev):

   -46.1282 -22.7683 -22.6664 -22.6406  -6.9336  -6.6929  -6.6685  -4.9910
    -4.9712  -4.8444  -4.7703  -4.7392   2.8746   5.5026   5.6868   5.7377
     6.5292   7.1437   8.0505   9.0290   9.0638   9.6519

          k = 0.3333-0.5000-0.4756 (   628 PWs)   bands (ev):

   -46.1279 -22.7808 -22.6594 -22.6388  -6.8577  -6.6979  -6.6094  -4.9719
    -4.9306  -4.8178  -4.7102  -4.6530   3.2246   5.0563   5.1720   5.5345
     6.2576   6.6468   6.9574   9.5105   9.6488   9.7768

          k =-0.5000-0.5000 0.0000 (   656 PWs)   bands (ev):

   -46.1290 -22.7669 -22.6804 -22.6804  -7.0589  -6.6156  -6.6156  -5.0360
    -4.9515  -4.8636  -4.8636  -4.7876   2.3953   5.5214   6.1656   6.8711
     6.8711   7.5895   7.5895   8.1787   8.6653   9.8468

          k =-0.5000-0.5000 0.2378 (   652 PWs)   bands (ev):

   -46.1288 -22.7840 -22.6762 -22.6762  -6.8592  -6.6779  -6.6779  -4.9952
    -4.9518  -4.7695  -4.7510  -4.7510   2.8104   5.4416   5.5624   5.5624
     6.1958   7.0313   7.3487   9.0549   9.0549   9.8886

          k =-0.5000-0.5000-0.4756 (   640 PWs)   bands (ev):

   -46.1282 -22.7879 -22.6725 -22.6725  -6.7322  -6.7322  -6.6504  -4.9450
    -4.9367  -4.7541  -4.6467  -4.6467   3.4729   4.9739   4.9739   5.3000
     5.9748   6.2092   6.2221   9.7612   9.7612   9.9147

     highest occupied level (ev):    10.4985

!    total energy              =    -379.77923739 Ry
     estimated scf accuracy    <          5.8E-10 Ry

     The total energy is the sum of the following terms:
     one-electron contribution =     -83.11968859 Ry
     hartree contribution      =      70.41407932 Ry
     xc contribution           =    -102.29911545 Ry
     ewald contribution        =    -264.77451267 Ry

     convergence has been achieved in   8 iterations

     negative rho (up, down):  1.443E-02 0.000E+00

     Forces acting on atoms (cartesian axes, Ry/au):

     atom    1 type  1   force =     0.00000000    0.00000000   -0.00884220
     atom    2 type  2   force =     0.00000000    0.00000000    0.00752602
     atom    3 type  3   force =     0.00000000    0.00000000    0.00129436
     atom    4 type  3   force =     0.00000000    0.00000000    0.00001091
     atom    5 type  3   force =     0.00000000    0.00000000    0.00001091

     Total force =     0.011683     Total SCF correction =     0.000107


     Computing stress (Cartesian axis) and pressure


     negative rho (up, down):  1.443E-02 0.000E+00
          total   stress  (Ry/bohr**3)                   (kbar)     P=    -1173.60
  -0.00812080   0.00000000   0.00000000        -1194.61        0.00        0.00
   0.00000000  -0.00812080   0.00000000            0.00    -1194.61        0.00
   0.00000000   0.00000000  -0.00769240            0.00        0.00    -1131.59

     Energy error            =      2.0E-04 Ry
     Gradient error          =      8.8E-03 Ry/Bohr

     number of scf cycles    =   3
     number of bfgs steps    =   2

     energy             old  =    -379.7790372573 Ry
     energy             new  =    -379.7792373920 Ry

     CASE: energy            _new < energy            _old

     new trust radius        =       0.0213342549 bohr
     new conv_thr            =       0.0000000002 Ry


ATOMIC_POSITIONS (crystal)
Pb               0.0000000000        0.0000000000        1.0016293422
Ti               0.5000000000        0.5000000000        0.5364581522
O                0.5000000000        0.5000000000        0.1091509323
O                0.5000000000        0.0000000000        0.6100229306
O                0.0000000000        0.5000000000        0.6100229306



     Writing config-only to output data dir ./pto_20.save/ :
     XML data file
     NEW-OLD atomic charge density approx. for the potential

     Check: negative core charge=   -0.000010

     negative rho (up, down):  1.357E-02 0.000E+00

     total cpu time spent up to now is       17.4 secs

     Self-consistent Calculation

     iteration #  1     ecut=    20.00 Ry     beta= 0.70
     CG style diagonalization
     ethr =  1.00E-06,  avg # of iterations =  5.9

     negative rho (up, down):  1.353E-02 0.000E+00

     total cpu time spent up to now is       18.2 secs

     total energy              =    -379.77941759 Ry
     estimated scf accuracy    <       0.00005433 Ry

     iteration #  2     ecut=    20.00 Ry     beta= 0.70
     CG style diagonalization
     ethr =  1.23E-07,  avg # of iterations =  4.5

     negative rho (up, down):  1.353E-02 0.000E+00

     total cpu time spent up to now is       18.7 secs

     total energy              =    -379.77941411 Ry
     estimated scf accuracy    <       0.00011143 Ry

     iteration #  3     ecut=    20.00 Ry     beta= 0.70
     CG style diagonalization
     ethr =  1.23E-07,  avg # of iterations =  4.0

     negative rho (up, down):  1.351E-02 0.000E+00

     total cpu time spent up to now is       19.2 secs

     total energy              =    -379.77943839 Ry
     estimated scf accuracy    <       0.00001370 Ry

     iteration #  4     ecut=    20.00 Ry     beta= 0.70
     CG style diagonalization
     ethr =  3.11E-08,  avg # of iterations =  3.6

     negative rho (up, down):  1.351E-02 0.000E+00

     total cpu time spent up to now is       19.6 secs

     total energy              =    -379.77944075 Ry
     estimated scf accuracy    <       0.00000195 Ry

     iteration #  5     ecut=    20.00 Ry     beta= 0.70
     CG style diagonalization
     ethr =  4.42E-09,  avg # of iterations =  4.1

     negative rho (up, down):  1.351E-02 0.000E+00

     total cpu time spent up to now is       20.1 secs

     total energy              =    -379.77944146 Ry
     estimated scf accuracy    <       0.00000031 Ry

     iteration #  6     ecut=    20.00 Ry     beta= 0.70
     CG style diagonalization
     ethr =  7.00E-10,  avg # of iterations =  4.9

     negative rho (up, down):  1.351E-02 0.000E+00

     total cpu time spent up to now is       20.7 secs

     total energy              =    -379.77944165 Ry
     estimated scf accuracy    <       0.00000008 Ry

     iteration #  7     ecut=    20.00 Ry     beta= 0.70
     CG style diagonalization
     ethr =  1.75E-10,  avg # of iterations =  4.3

     negative rho (up, down):  1.351E-02 0.000E+00

     total cpu time spent up to now is       21.2 secs

     total energy              =    -379.77944168 Ry
     estimated scf accuracy    <          8.1E-09 Ry

     iteration #  8     ecut=    20.00 Ry     beta= 0.70
     CG style diagonalization
     ethr =  1.84E-11,  avg # of iterations =  5.9

     negative rho (up, down):  1.351E-02 0.000E+00

     total cpu time spent up to now is       21.9 secs

     total energy              =    -379.77944169 Ry
     estimated scf accuracy    <          1.9E-09 Ry

     iteration #  9     ecut=    20.00 Ry     beta= 0.70
     CG style diagonalization
     ethr =  4.30E-12,  avg # of iterations =  4.7

     negative rho (up, down):  1.351E-02 0.000E+00

     total cpu time spent up to now is       22.4 secs

     End of self-consistent calculation

          k = 0.0000 0.0000 0.0000 (   643 PWs)   bands (ev):

   -46.1244 -22.7615 -22.5906 -22.5906  -7.9462  -6.8391  -6.7092  -5.0031
    -5.0031  -4.9791  -4.9200  -4.8213   4.1626   6.3559   6.3559   6.7760
     8.0957   8.0957   8.5359   8.6620   9.0168   9.0168

          k = 0.0000 0.0000 0.2378 (   643 PWs)   bands (ev):

   -46.1240 -22.7835 -22.5906 -22.5906  -7.7545  -6.7947  -6.6640  -5.0204
    -5.0204  -4.9773  -4.9162  -4.8813   3.4169   6.4178   6.4178   6.8126
     7.9203   7.9203   8.4996   8.8125   9.0626   9.0626

          k = 0.0000 0.0000-0.4756 (   636 PWs)   bands (ev):

   -46.1235 -22.7788 -22.5886 -22.5886  -7.5377  -6.7443  -6.6315  -5.0311
    -5.0311  -4.9867  -4.9350  -4.8848   2.9057   6.1885   6.4195   6.4195
     7.7893   7.7893   8.4698   9.2227   9.2227  10.1364

          k = 0.0000 0.1667 0.0000 (   651 PWs)   bands (ev):

   -46.1242 -22.7734 -22.6056 -22.5979  -7.8188  -6.8175  -6.6899  -5.0368
    -5.0087  -4.9982  -4.9197  -4.8000   3.7617   6.3295   6.4634   6.7528
     8.0936   8.0985   8.5700   8.5787   8.6130   9.0005

          k = 0.0000 0.1667 0.2378 (   638 PWs)   bands (ev):

   -46.1233 -22.7801 -22.6007 -22.5852  -7.6384  -6.7812  -6.6395  -5.0262
    -5.0195  -4.9909  -4.9102  -4.8307   3.2362   6.1679   6.5370   6.9753
     7.6141   7.9195   8.3400   8.7523   8.7740   9.4146

          k = 0.0000 0.1667-0.4756 (   630 PWs)   bands (ev):

   -46.1228 -22.7823 -22.5967 -22.5791  -7.4443  -6.7407  -6.5931  -5.0284
    -5.0243  -4.9871  -4.8926  -4.8597   2.8060   5.8159   6.5733   6.7041
     7.4764   7.8471   8.4279   8.8585   8.8918  10.0588

          k = 0.0000 0.3333 0.0000 (   638 PWs)   bands (ev):

   -46.1226 -22.7657 -22.6428 -22.5802  -7.5413  -6.7662  -6.6640  -5.0582
    -5.0113  -5.0073  -4.8948  -4.8055   3.2320   6.0850   6.6656   6.8034
     7.8608   7.9234   8.2677   8.4209   8.6890   9.6856

          k = 0.0000 0.3333 0.2378 (   638 PWs)   bands (ev):

   -46.1226 -22.7776 -22.6458 -22.5790  -7.4086  -6.7391  -6.5965  -5.0286
    -5.0197  -5.0093  -4.8916  -4.7861   2.9154   5.9151   6.5819   6.8848
     7.3037   7.7709   7.8844   8.3552   8.9549   9.7658

          k = 0.0000 0.3333-0.4756 (   630 PWs)   bands (ev):

   -46.1220 -22.7789 -22.6356 -22.5828  -7.2984  -6.6873  -6.5142  -5.0270
    -5.0087  -5.0037  -4.8984  -4.7374   2.6418   5.5314   6.4390   6.8834
     7.2154   7.4951   7.7349   8.3828   9.3740   9.6961

          k = 0.0000-0.5000 0.0000 (   630 PWs)   bands (ev):

   -46.1218 -22.7595 -22.6485 -22.5840  -7.3861  -6.7302  -6.6727  -5.0701
    -5.0183  -5.0062  -4.8531  -4.8291   3.0331   5.7847   6.9527   7.0739
     7.4415   7.5065   8.3076   8.3666   8.7004  10.5035

          k = 0.0000-0.5000 0.2378 (   628 PWs)   bands (ev):

   -46.1216 -22.7662 -22.6603 -22.5710  -7.2994  -6.6726  -6.6072  -5.0324
    -5.0185  -5.0085  -4.8616  -4.7694   2.7907   5.7049   6.5927   6.8462
     7.3024   7.3799   8.0647   8.3513   9.0001   9.9679

          k = 0.0000-0.5000-0.4756 (   640 PWs)   bands (ev):

   -46.1221 -22.7782 -22.6750 -22.5921  -7.2566  -6.6127  -6.4858  -5.0272
    -5.0236  -5.0028  -4.8959  -4.6988   2.5562   5.4121   6.0942   6.8937
     7.1322   7.4719   7.5203   8.2877   9.1922   9.6835

          k = 0.1667 0.1667 0.0000 (   637 PWs)   bands (ev):

   -46.1230 -22.7672 -22.5973 -22.5945  -7.6926  -6.7891  -6.6822  -5.0353
    -5.0134  -4.9885  -4.8964  -4.7824   3.4912   6.3678   6.5164   6.7965
     7.6862   7.9421   8.4372   8.6824   9.0461   9.1925

          k = 0.1667 0.1667 0.2378 (   636 PWs)   bands (ev):

   -46.1228 -22.7733 -22.6020 -22.6012  -7.5199  -6.7685  -6.6330  -5.0328
    -5.0124  -4.9867  -4.8869  -4.8023   3.1374   6.1628   6.2042   6.9190
     7.5687   7.5858   8.2965   8.8433   9.0529   9.3849

          k = 0.1667 0.1667-0.4756 (   628 PWs)   bands (ev):

   -46.1223 -22.7801 -22.6057 -22.5876  -7.3401  -6.7478  -6.5779  -5.0445
    -4.9887  -4.9628  -4.8813  -4.8195   2.8066   5.8710   5.9762   6.6739
     7.5138   7.5285   8.2630   8.9670   9.1562   9.7866

          k = 0.1667 0.3333 0.0000 (   640 PWs)   bands (ev):

   -46.1225 -22.7602 -22.6442 -22.6054  -7.4261  -6.7412  -6.6780  -5.0507
    -5.0110  -4.9862  -4.8714  -4.7955   3.0567   6.1004   6.5493   6.8352
     7.2398   7.7138   8.1485   8.7321   8.9250   9.7301

          k = 0.1667 0.3333 0.2378 (   635 PWs)   bands (ev):

   -46.1220 -22.7733 -22.6407 -22.5997  -7.2868  -6.7348  -6.6224  -5.0281
    -5.0063  -4.9711  -4.8530  -4.7628   2.9287   5.8911   6.0458   6.5529
     6.9581   7.6032   8.4227   8.7295   9.0825   9.5073

          k = 0.1667 0.3333-0.4756 (   632 PWs)   bands (ev):

   -46.1218 -22.7815 -22.6432 -22.6011  -7.1763  -6.7134  -6.5417  -5.0312
    -4.9856  -4.9381  -4.8587  -4.7229   2.7681   5.4846   5.9584   6.2943
     6.5370   7.4926   8.4651   8.8218   9.0314   9.5282

          k = 0.1667-0.5000 0.0000 (   634 PWs)   bands (ev):

   -46.1218 -22.7540 -22.6604 -22.5999  -7.2791  -6.7055  -6.6945  -5.0519
    -5.0013  -4.9720  -4.8437  -4.8208   2.8741   5.7695   6.6951   6.9645
     7.2903   7.5617   7.8500   8.8247   8.8616  10.0827

          k = 0.1667-0.5000 0.2378 (   640 PWs)   bands (ev):

   -46.1221 -22.7773 -22.6635 -22.6050  -7.1788  -6.6784  -6.6459  -5.0319
    -4.9976  -4.9662  -4.8294  -4.7612   2.8363   5.6901   5.9356   6.2804
     6.8730   7.7155   8.2394   8.6820   9.0761   9.4503

          k = 0.1667-0.5000-0.4756 (   632 PWs)   bands (ev):

   -46.1215 -22.7758 -22.6717 -22.5957  -7.1301  -6.6475  -6.5285  -5.0249
    -4.9578  -4.9453  -4.8424  -4.6766   2.7463   5.3824   5.8415   5.9745
     6.3422   7.6173   8.3533   8.7035   8.7428   9.6971

          k = 0.3333 0.3333 0.0000 (   638 PWs)   bands (ev):

   -46.1216 -22.7577 -22.6479 -22.6331  -7.2004  -6.6913  -6.6862  -5.0335
    -4.9973  -4.9257  -4.8214  -4.8021   2.7174   6.0135   6.2643   6.9384
     7.1228   7.1309   8.0261   8.4946   9.4463   9.5193

          k = 0.3333 0.3333 0.2378 (   636 PWs)   bands (ev):

   -46.1215 -22.7663 -22.6449 -22.6408  -7.0479  -6.7185  -6.6689  -4.9928
    -4.9894  -4.9016  -4.7861  -4.7360   2.8912   5.6424   5.7408   5.9713
     6.7264   7.0888   8.4608   9.0180   9.0565   9.5009

          k = 0.3333 0.3333-0.4756 (   634 PWs)   bands (ev):

   -46.1215 -22.7802 -22.6465 -22.6379  -6.9442  -6.7502  -6.5853  -4.9868
    -4.9500  -4.8709  -4.7371  -4.6850   3.0483   5.2692   5.2727   5.7106
     6.4010   6.6647   7.7139   9.3752   9.4604   9.6174

          k = 0.3333-0.5000 0.0000 (   634 PWs)   bands (ev):

   -46.1213 -22.7460 -22.6647 -22.6314  -7.0996  -6.6830  -6.6578  -5.0252
    -4.9719  -4.8857  -4.8169  -4.7991   2.5657   5.7102   6.3138   6.7085
     7.2092   7.5239   7.6431   8.4940   9.2501   9.6484

          k = 0.3333-0.5000 0.2378 (   634 PWs)   bands (ev):

   -46.1211 -22.7667 -22.6612 -22.6353  -6.9379  -6.6998  -6.6871  -4.9857
    -4.9662  -4.8418  -4.7610  -4.7303   2.8574   5.4964   5.6739   5.7333
     6.5124   7.1392   8.0599   9.0238   9.0556   9.6324

          k = 0.3333-0.5000-0.4756 (   628 PWs)   bands (ev):

   -46.1209 -22.7793 -22.6542 -22.6334  -6.8755  -6.7156  -6.6007  -4.9671
    -4.9254  -4.8169  -4.7020  -4.6450   3.2058   5.0408   5.1678   5.5344
     6.2397   6.6277   6.9844   9.5065   9.6274   9.7720

          k =-0.5000-0.5000 0.0000 (   656 PWs)   bands (ev):

   -46.1220 -22.7653 -22.6752 -22.6752  -7.0507  -6.6363  -6.6363  -5.0307
    -4.9464  -4.8512  -4.8512  -4.7866   2.3746   5.5030   6.1444   6.8830
     6.8830   7.5676   7.5676   8.1810   8.6696   9.8261

          k =-0.5000-0.5000 0.2378 (   652 PWs)   bands (ev):

   -46.1218 -22.7823 -22.6710 -22.6710  -6.8502  -6.6965  -6.6965  -4.9899
    -4.9467  -4.7695  -4.7410  -4.7410   2.7840   5.4293   5.5616   5.5616
     6.1759   7.0257   7.3665   9.0474   9.0474   9.8678

          k =-0.5000-0.5000-0.4756 (   640 PWs)   bands (ev):

   -46.1212 -22.7863 -22.6673 -22.6673  -6.7493  -6.7493  -6.6405  -4.9399
    -4.9315  -4.7554  -4.6385  -4.6385   3.4282   4.9730   4.9730   5.2986
     6.0142   6.1886   6.2033   9.7571   9.7571   9.8940

     highest occupied level (ev):    10.5035

!    total energy              =    -379.77944169 Ry
     estimated scf accuracy    <          1.3E-10 Ry

     The total energy is the sum of the following terms:
     one-electron contribution =     -83.45273255 Ry
     hartree contribution      =      70.58097177 Ry
     xc contribution           =    -102.30640586 Ry
     ewald contribution        =    -264.60127505 Ry

     convergence has been achieved in   9 iterations

     negative rho (up, down):  1.351E-02 0.000E+00

     Forces acting on atoms (cartesian axes, Ry/au):

     atom    1 type  1   force =     0.00000000    0.00000000   -0.00682954
     atom    2 type  2   force =     0.00000000    0.00000000    0.00739385
     atom    3 type  3   force =     0.00000000    0.00000000   -0.00368921
     atom    4 type  3   force =     0.00000000    0.00000000    0.00156245
     atom    5 type  3   force =     0.00000000    0.00000000    0.00156245

     Total force =     0.010946     Total SCF correction =     0.000054


     Computing stress (Cartesian axis) and pressure


     negative rho (up, down):  1.351E-02 0.000E+00
          total   stress  (Ry/bohr**3)                   (kbar)     P=    -1169.56
  -0.00809933   0.00000000   0.00000000        -1191.45        0.00        0.00
   0.00000000  -0.00809933   0.00000000            0.00    -1191.45        0.00
   0.00000000   0.00000000  -0.00765285            0.00        0.00    -1125.77

     Energy error            =      2.0E-04 Ry
     Gradient error          =      7.4E-03 Ry/Bohr

     number of scf cycles    =   4
     number of bfgs steps    =   3

     energy             old  =    -379.7792373920 Ry
     energy             new  =    -379.7794416889 Ry

     CASE: energy            _new < energy            _old

     new trust radius        =       0.0234676804 bohr
     new conv_thr            =       0.0000000002 Ry


ATOMIC_POSITIONS (crystal)
Pb               0.0000000000        0.0000000000        0.9986004248
Ti               0.5000000000        0.5000000000        0.5378932350
O                0.5000000000        0.5000000000        0.1105454406
O                0.5000000000        0.0000000000        0.6101225938
O                0.0000000000        0.5000000000        0.6101225938



     Writing config-only to output data dir ./pto_20.save/ :
     XML data file
     NEW-OLD atomic charge density approx. for the potential

     Check: negative core charge=   -0.000010

     negative rho (up, down):  1.377E-02 0.000E+00

     total cpu time spent up to now is       22.8 secs

     Self-consistent Calculation

     iteration #  1     ecut=    20.00 Ry     beta= 0.70
     CG style diagonalization
     c_bands:  1 eigenvalues not converged
     ethr =  1.00E-06,  avg # of iterations =  6.3

     Threshold (ethr) on eigenvalues was too large:
     Diagonalizing with lowered threshold

     CG style diagonalization
     c_bands:  1 eigenvalues not converged
     c_bands:  1 eigenvalues not converged
     c_bands:  1 eigenvalues not converged
     c_bands:  1 eigenvalues not converged
     c_bands:  1 eigenvalues not converged
     c_bands:  1 eigenvalues not converged
     ethr =  6.80E-08,  avg # of iterations =  4.5

     negative rho (up, down):  1.370E-02 0.000E+00

     total cpu time spent up to now is       24.3 secs

     total energy              =    -379.77958813 Ry
     estimated scf accuracy    <       0.00003244 Ry

     iteration #  2     ecut=    20.00 Ry     beta= 0.70
     CG style diagonalization
     ethr =  7.37E-08,  avg # of iterations =  3.9

     negative rho (up, down):  1.368E-02 0.000E+00

     total cpu time spent up to now is       24.7 secs

     total energy              =    -379.77958710 Ry
     estimated scf accuracy    <       0.00001947 Ry

     iteration #  3     ecut=    20.00 Ry     beta= 0.70
     CG style diagonalization
     ethr =  4.43E-08,  avg # of iterations =  3.9

     negative rho (up, down):  1.366E-02 0.000E+00

     total cpu time spent up to now is       25.2 secs

     total energy              =    -379.77959168 Ry
     estimated scf accuracy    <       0.00001458 Ry

     iteration #  4     ecut=    20.00 Ry     beta= 0.70
     CG style diagonalization
     ethr =  3.31E-08,  avg # of iterations =  3.5

     negative rho (up, down):  1.366E-02 0.000E+00

     total cpu time spent up to now is       25.6 secs

     total energy              =    -379.77959425 Ry
     estimated scf accuracy    <       0.00000027 Ry

     iteration #  5     ecut=    20.00 Ry     beta= 0.70
     CG style diagonalization
     ethr =  6.16E-10,  avg # of iterations =  5.6

     negative rho (up, down):  1.366E-02 0.000E+00

     total cpu time spent up to now is       26.3 secs

     total energy              =    -379.77959456 Ry
     estimated scf accuracy    <       0.00000047 Ry

     iteration #  6     ecut=    20.00 Ry     beta= 0.70
     CG style diagonalization
     ethr =  6.16E-10,  avg # of iterations =  3.8

     negative rho (up, down):  1.366E-02 0.000E+00

     total cpu time spent up to now is       26.7 secs

     total energy              =    -379.77959462 Ry
     estimated scf accuracy    <       0.00000003 Ry

     iteration #  7     ecut=    20.00 Ry     beta= 0.70
     CG style diagonalization
     ethr =  7.93E-11,  avg # of iterations =  5.0

     negative rho (up, down):  1.366E-02 0.000E+00

     total cpu time spent up to now is       27.3 secs

     total energy              =    -379.77959464 Ry
     estimated scf accuracy    <          8.8E-09 Ry

     iteration #  8     ecut=    20.00 Ry     beta= 0.70
     CG style diagonalization
     ethr =  1.99E-11,  avg # of iterations =  4.6

     negative rho (up, down):  1.366E-02 0.000E+00

     total cpu time spent up to now is       27.9 secs

     total energy              =    -379.77959464 Ry
     estimated scf accuracy    <          3.1E-10 Ry

     iteration #  9     ecut=    20.00 Ry     beta= 0.70
     CG style diagonalization
     ethr =  7.10E-13,  avg # of iterations =  7.3

     negative rho (up, down):  1.366E-02 0.000E+00

     total cpu time spent up to now is       28.8 secs

     End of self-consistent calculation

          k = 0.0000 0.0000 0.0000 (   643 PWs)   bands (ev):

   -46.1291 -22.7637 -22.5973 -22.5973  -7.9619  -6.8677  -6.7055  -4.9959
    -4.9959  -4.9696  -4.9162  -4.8065   4.1585   6.3438   6.3438   6.8063
     8.1107   8.1107   8.5384   8.6558   8.9952   8.9952

          k = 0.0000 0.0000 0.2378 (   643 PWs)   bands (ev):

   -46.1286 -22.7858 -22.5972 -22.5972  -7.7751  -6.8247  -6.6564  -5.0132
    -5.0132  -4.9677  -4.9113  -4.8651   3.4220   6.4116   6.4116   6.8299
     7.9242   7.9242   8.4940   8.8134   9.0387   9.0387

          k = 0.0000 0.0000-0.4756 (   636 PWs)   bands (ev):

   -46.1281 -22.7812 -22.5952 -22.5952  -7.5656  -6.7759  -6.6173  -5.0240
    -5.0240  -4.9771  -4.9173  -4.8788   2.9135   6.2005   6.4185   6.4185
     7.7852   7.7852   8.4652   9.1962   9.1962  10.1288

          k = 0.0000 0.1667 0.0000 (   651 PWs)   bands (ev):

   -46.1289 -22.7757 -22.6123 -22.6046  -7.8339  -6.8458  -6.6879  -5.0298
    -5.0015  -4.9886  -4.9133  -4.7851   3.7607   6.3170   6.4503   6.7654
     8.1077   8.1097   8.5584   8.5650   8.6073   8.9889

          k = 0.0000 0.1667 0.2378 (   638 PWs)   bands (ev):

   -46.1280 -22.7823 -22.6075 -22.5918  -7.6585  -6.8102  -6.6335  -5.0181
    -5.0123  -4.9813  -4.9037  -4.8153   3.2418   6.1613   6.5291   6.9810
     7.6133   7.9223   8.3242   8.7500   8.7523   9.4084

          k = 0.0000 0.1667-0.4756 (   630 PWs)   bands (ev):

   -46.1274 -22.7846 -22.6033 -22.5857  -7.4717  -6.7705  -6.5803  -5.0213
    -5.0150  -4.9775  -4.8853  -4.8446   2.8142   5.8190   6.5721   6.7024
     7.4683   7.8412   8.3997   8.8587   8.8669  10.0553

          k = 0.0000 0.3333 0.0000 (   638 PWs)   bands (ev):

   -46.1273 -22.7680 -22.6497 -22.5868  -7.5555  -6.7928  -6.6666  -5.0501
    -5.0020  -4.9997  -4.8838  -4.7905   3.2345   6.0642   6.6618   6.7853
     7.8442   7.9122   8.2750   8.4092   8.6878   9.7006

          k = 0.0000 0.3333 0.2378 (   638 PWs)   bands (ev):

   -46.1273 -22.7799 -22.6527 -22.5857  -7.4291  -6.7640  -6.5943  -5.0195
    -5.0125  -4.9997  -4.8819  -4.7710   2.9215   5.8992   6.5743   6.8739
     7.2807   7.7635   7.8830   8.3450   8.9481   9.7740

          k = 0.0000 0.3333-0.4756 (   630 PWs)   bands (ev):

   -46.1267 -22.7811 -22.6425 -22.5895  -7.3254  -6.7138  -6.5038  -5.0199
    -4.9989  -4.9930  -4.8886  -4.7241   2.6503   5.5274   6.4200   6.8828
     7.1938   7.4829   7.7183   8.3664   9.3843   9.6933

          k = 0.0000-0.5000 0.0000 (   630 PWs)   bands (ev):

   -46.1265 -22.7618 -22.6555 -22.5906  -7.4006  -6.7547  -6.6781  -5.0613
    -5.0086  -4.9990  -4.8354  -4.8184   3.0371   5.7588   6.9395   7.0467
     7.4269   7.5018   8.3161   8.3550   8.6982  10.5146

          k = 0.0000-0.5000 0.2378 (   628 PWs)   bands (ev):

   -46.1263 -22.7684 -22.6673 -22.5776  -7.3212  -6.6985  -6.6025  -5.0228
    -5.0088  -5.0014  -4.8501  -4.7547   2.7973   5.6827   6.5806   6.8227
     7.2724   7.3845   8.0621   8.3469   8.9903   9.9840

          k = 0.0000-0.5000-0.4756 (   640 PWs)   bands (ev):

   -46.1268 -22.7804 -22.6819 -22.5987  -7.2834  -6.6402  -6.4741  -5.0200
    -5.0138  -4.9917  -4.8846  -4.6862   2.5646   5.4038   6.0723   6.8603
     7.1434   7.4391   7.5176   8.2737   9.2117   9.6775

          k = 0.1667 0.1667 0.0000 (   637 PWs)   bands (ev):

   -46.1277 -22.7695 -22.6040 -22.6012  -7.7065  -6.8175  -6.6818  -5.0279
    -5.0056  -4.9791  -4.8886  -4.7671   3.4888   6.3561   6.5023   6.8034
     7.6953   7.9271   8.4414   8.6724   9.0202   9.2041

          k = 0.1667 0.1667 0.2378 (   636 PWs)   bands (ev):

   -46.1275 -22.7755 -22.6087 -22.6080  -7.5392  -6.7975  -6.6276  -5.0247
    -5.0038  -4.9780  -4.8793  -4.7870   3.1409   6.1593   6.1940   6.9214
     7.5628   7.5691   8.2985   8.8336   9.0318   9.3854

          k = 0.1667 0.1667-0.4756 (   628 PWs)   bands (ev):

   -46.1270 -22.7824 -22.6123 -22.5943  -7.3671  -6.7772  -6.5649  -5.0363
    -4.9792  -4.9547  -4.8739  -4.8041   2.8136   5.8719   5.9788   6.6581
     7.4968   7.5128   8.2639   8.9544   9.1387   9.7858

          k = 0.1667 0.3333 0.0000 (   640 PWs)   bands (ev):

   -46.1271 -22.7624 -22.6512 -22.6121  -7.4376  -6.7680  -6.6826  -5.0423
    -5.0032  -4.9769  -4.8604  -4.7801   3.0526   6.0799   6.5444   6.8249
     7.2258   7.7250   8.1325   8.7268   8.9072   9.7418

          k = 0.1667 0.3333 0.2378 (   635 PWs)   bands (ev):

   -46.1267 -22.7755 -22.6476 -22.6064  -7.3054  -6.7602  -6.6202  -5.0196
    -4.9978  -4.9625  -4.8429  -4.7479   2.9289   5.8779   6.0327   6.5476
     6.9479   7.5933   8.4114   8.7185   9.0730   9.5148

          k = 0.1667 0.3333-0.4756 (   632 PWs)   bands (ev):

   -46.1265 -22.7837 -22.6501 -22.6078  -7.2026  -6.7399  -6.5296  -5.0230
    -4.9765  -4.9299  -4.8483  -4.7096   2.7723   5.4815   5.9433   6.2889
     6.5128   7.4767   8.4701   8.7966   9.0391   9.5252

          k = 0.1667-0.5000 0.0000 (   634 PWs)   bands (ev):

   -46.1265 -22.7563 -22.6673 -22.6066  -7.2891  -6.7308  -6.7026  -5.0432
    -4.9934  -4.9628  -4.8270  -4.8089   2.8698   5.7442   6.6878   6.9530
     7.2697   7.5481   7.8643   8.8190   8.8447  10.0926

          k = 0.1667-0.5000 0.2378 (   640 PWs)   bands (ev):

   -46.1268 -22.7796 -22.6705 -22.6117  -7.1984  -6.7042  -6.6417  -5.0233
    -4.9893  -4.9576  -4.8175  -4.7469   2.8355   5.6692   5.9159   6.2740
     6.8698   7.7060   8.2169   8.6810   9.0611   9.4688

          k = 0.1667-0.5000-0.4756 (   632 PWs)   bands (ev):

   -46.1261 -22.7780 -22.6787 -22.6024  -7.1562  -6.6737  -6.5157  -5.0167
    -4.9494  -4.9367  -4.8300  -4.6642   2.7491   5.3758   5.8093   5.9600
     6.3404   7.5980   8.3612   8.7060   8.7280   9.6938

          k = 0.3333 0.3333 0.0000 (   638 PWs)   bands (ev):

   -46.1263 -22.7600 -22.6548 -22.6400  -7.2029  -6.7144  -6.7031  -5.0250
    -4.9883  -4.9155  -4.8106  -4.7860   2.7027   5.9953   6.2447   6.9446
     7.1055   7.1496   7.9981   8.4926   9.4211   9.5313

          k = 0.3333 0.3333 0.2378 (   636 PWs)   bands (ev):

   -46.1262 -22.7685 -22.6518 -22.6476  -7.0605  -6.7451  -6.6689  -4.9840
    -4.9808  -4.8936  -4.7753  -4.7215   2.8775   5.6327   5.7399   5.9561
     6.7080   7.0862   8.4663   9.0223   9.0470   9.4777

          k = 0.3333 0.3333-0.4756 (   634 PWs)   bands (ev):

   -46.1262 -22.7824 -22.6534 -22.6448  -6.9690  -6.7755  -6.5713  -4.9783
    -4.9413  -4.8642  -4.7270  -4.6719   3.0379   5.2497   5.2722   5.7098
     6.3861   6.6403   7.7373   9.3749   9.4323   9.6170

          k = 0.3333-0.5000 0.0000 (   634 PWs)   bands (ev):

   -46.1260 -22.7483 -22.6717 -22.6383  -7.0944  -6.7035  -6.6848  -5.0166
    -4.9627  -4.8740  -4.8022  -4.7875   2.5468   5.6877   6.2910   6.7220
     7.2321   7.4991   7.6213   8.4901   9.2609   9.6219

          k = 0.3333-0.5000 0.2378 (   634 PWs)   bands (ev):

   -46.1258 -22.7689 -22.6682 -22.6422  -6.9458  -6.7127  -6.7042  -4.9770
    -4.9574  -4.8348  -4.7478  -4.7173   2.8363   5.4934   5.6551   5.7325
     6.4916   7.1370   8.0729   9.0221   9.0515   9.6068

          k = 0.3333-0.5000-0.4756 (   628 PWs)   bands (ev):

   -46.1255 -22.7815 -22.6612 -22.6403  -6.8999  -6.7398  -6.5859  -4.9584
    -4.9167  -4.8112  -4.6902  -4.6336   3.1832   5.0249   5.1690   5.5286
     6.2219   6.6050   7.0194   9.5077   9.5990   9.7716

          k =-0.5000-0.5000 0.0000 (   656 PWs)   bands (ev):

   -46.1267 -22.7675 -22.6821 -22.6821  -7.0368  -6.6643  -6.6643  -5.0220
    -4.9373  -4.8344  -4.8344  -4.7808   2.3491   5.4808   6.1151   6.9093
     6.9093   7.5394   7.5394   8.1852   8.6744   9.7983

          k =-0.5000-0.5000 0.2378 (   652 PWs)   bands (ev):

   -46.1265 -22.7845 -22.6779 -22.6779  -6.8355  -6.7218  -6.7218  -4.9812
    -4.9375  -4.7645  -4.7272  -4.7272   2.7516   5.4117   5.5660   5.5660
     6.1480   7.0229   7.3881   9.0434   9.0434   9.8397

          k =-0.5000-0.5000-0.4756 (   640 PWs)   bands (ev):

   -46.1259 -22.7886 -22.6742 -22.6742  -6.7728  -6.7728  -6.6247  -4.9308
    -4.9228  -4.7514  -4.6271  -4.6271   3.3745   4.9769   4.9769   5.2911
     6.0613   6.1600   6.1898   9.7578   9.7578   9.8661

     highest occupied level (ev):    10.5146

!    total energy              =    -379.77959464 Ry
     estimated scf accuracy    <          1.1E-10 Ry

     The total energy is the sum of the following terms:
     one-electron contribution =     -83.77378747 Ry
     hartree contribution      =      70.73869314 Ry
     xc contribution           =    -102.31160772 Ry
     ewald contribution        =    -264.43289259 Ry

     convergence has been achieved in   9 iterations

     negative rho (up, down):  1.366E-02 0.000E+00

     Forces acting on atoms (cartesian axes, Ry/au):

     atom    1 type  1   force =     0.00000000    0.00000000   -0.00426420
     atom    2 type  2   force =     0.00000000    0.00000000    0.00295064
     atom    3 type  3   force =     0.00000000    0.00000000   -0.00400612
     atom    4 type  3   force =     0.00000000    0.00000000    0.00265984
     atom    5 type  3   force =     0.00000000    0.00000000    0.00265984

     Total force =     0.007556     Total SCF correction =     0.000028


     Computing stress (Cartesian axis) and pressure


     negative rho (up, down):  1.366E-02 0.000E+00
          total   stress  (Ry/bohr**3)                   (kbar)     P=    -1167.01
  -0.00807811   0.00000000   0.00000000        -1188.33        0.00        0.00
   0.00000000  -0.00807811   0.00000000            0.00    -1188.33        0.00
   0.00000000   0.00000000  -0.00764325            0.00        0.00    -1124.36

     Energy error            =      1.5E-04 Ry
     Gradient error          =      4.3E-03 Ry/Bohr

     number of scf cycles    =   5
     number of bfgs steps    =   4

     energy             old  =    -379.7794416889 Ry
     energy             new  =    -379.7795946439 Ry

     CASE: energy            _new < energy            _old

     new trust radius        =       0.0236733506 bohr
     new conv_thr            =       0.0000000002 Ry


ATOMIC_POSITIONS (crystal)
Pb               0.0000000000        0.0000000000        0.9955449619
Ti               0.5000000000        0.5000000000        0.5390523201
O                0.5000000000        0.5000000000        0.1113844961
O                0.5000000000        0.0000000000        0.6106512549
O                0.0000000000        0.5000000000        0.6106512549



     Writing config-only to output data dir ./pto_20.save/ :
     XML data file
     NEW-OLD atomic charge density approx. for the potential

     Check: negative core charge=   -0.000010

     negative rho (up, down):  1.459E-02 0.000E+00

     total cpu time spent up to now is       29.1 secs

     Self-consistent Calculation

     iteration #  1     ecut=    20.00 Ry     beta= 0.70
     CG style diagonalization
     ethr =  1.00E-06,  avg # of iterations =  6.2

     Threshold (ethr) on eigenvalues was too large:
     Diagonalizing with lowered threshold

     CG style diagonalization
     c_bands:  1 eigenvalues not converged
     ethr =  6.54E-08,  avg # of iterations =  4.6

     negative rho (up, down):  1.455E-02 0.000E+00

     total cpu time spent up to now is       30.6 secs

     total energy              =    -379.77965920 Ry
     estimated scf accuracy    <       0.00003015 Ry

     iteration #  2     ecut=    20.00 Ry     beta= 0.70
     CG style diagonalization
     ethr =  6.85E-08,  avg # of iterations =  3.8

     negative rho (up, down):  1.453E-02 0.000E+00

     total cpu time spent up to now is       31.1 secs

     total energy              =    -379.77966338 Ry
     estimated scf accuracy    <       0.00000586 Ry

     iteration #  3     ecut=    20.00 Ry     beta= 0.70
     CG style diagonalization
     ethr =  1.33E-08,  avg # of iterations =  4.0

     negative rho (up, down):  1.452E-02 0.000E+00

     total cpu time spent up to now is       31.5 secs

     total energy              =    -379.77966699 Ry
     estimated scf accuracy    <       0.00000120 Ry

     iteration #  4     ecut=    20.00 Ry     beta= 0.70
     CG style diagonalization
     ethr =  2.72E-09,  avg # of iterations =  4.0

     negative rho (up, down):  1.452E-02 0.000E+00

     total cpu time spent up to now is       32.0 secs

     total energy              =    -379.77966677 Ry
     estimated scf accuracy    <       0.00000043 Ry

     iteration #  5     ecut=    20.00 Ry     beta= 0.70
     CG style diagonalization
     ethr =  9.79E-10,  avg # of iterations =  4.1

     negative rho (up, down):  1.452E-02 0.000E+00

     total cpu time spent up to now is       32.5 secs

     total energy              =    -379.77966746 Ry
     estimated scf accuracy    <       0.00000008 Ry

     iteration #  6     ecut=    20.00 Ry     beta= 0.70
     CG style diagonalization
     ethr =  1.92E-10,  avg # of iterations =  4.9

     negative rho (up, down):  1.452E-02 0.000E+00

     total cpu time spent up to now is       33.1 secs

     total energy              =    -379.77966751 Ry
     estimated scf accuracy    <          3.9E-09 Ry

     iteration #  7     ecut=    20.00 Ry     beta= 0.70
     CG style diagonalization
     ethr =  8.83E-12,  avg # of iterations =  6.5

     negative rho (up, down):  1.452E-02 0.000E+00

     total cpu time spent up to now is       33.9 secs

     total energy              =    -379.77966752 Ry
     estimated scf accuracy    <          1.7E-09 Ry

     iteration #  8     ecut=    20.00 Ry     beta= 0.70
     CG style diagonalization
     ethr =  3.87E-12,  avg # of iterations =  4.2

     negative rho (up, down):  1.452E-02 0.000E+00

     total cpu time spent up to now is       34.4 secs

     total energy              =    -379.77966752 Ry
     estimated scf accuracy    <          2.6E-10 Ry

     iteration #  9     ecut=    20.00 Ry     beta= 0.70
     CG style diagonalization
     ethr =  5.93E-13,  avg # of iterations =  5.0

     negative rho (up, down):  1.452E-02 0.000E+00

     total cpu time spent up to now is       35.0 secs

     End of self-consistent calculation

          k = 0.0000 0.0000 0.0000 (   643 PWs)   bands (ev):

   -46.1388 -22.7684 -22.6089 -22.6089  -7.9806  -6.8980  -6.7001  -4.9863
    -4.9863  -4.9569  -4.9098  -4.7876   4.1582   6.3277   6.3277   6.8348
     8.1257   8.1257   8.5430   8.6458   8.9705   8.9705

          k = 0.0000 0.0000 0.2378 (   643 PWs)   bands (ev):

   -46.1384 -22.7905 -22.6088 -22.6088  -7.7987  -6.8564  -6.6473  -5.0036
    -5.0036  -4.9550  -4.9036  -4.8447   3.4309   6.3996   6.3996   6.8458
     7.9310   7.9310   8.4846   8.8156   9.0122   9.0122

          k = 0.0000 0.0000-0.4756 (   636 PWs)   bands (ev):

   -46.1378 -22.7859 -22.6067 -22.6067  -7.5963  -6.8092  -6.6020  -5.0145
    -5.0145  -4.9644  -4.8953  -4.8700   2.9257   6.2114   6.4096   6.4096
     7.7867   7.7867   8.4566   9.1670   9.1670  10.1210

          k = 0.0000 0.1667 0.0000 (   651 PWs)   bands (ev):

   -46.1386 -22.7805 -22.6239 -22.6161  -7.8522  -6.8760  -6.6844  -5.0202
    -4.9919  -4.9759  -4.9042  -4.7660   3.7616   6.3037   6.4335   6.7756
     8.1224   8.1225   8.5347   8.5576   8.6000   8.9796

          k = 0.0000 0.1667 0.2378 (   638 PWs)   bands (ev):

   -46.1377 -22.7870 -22.6191 -22.6034  -7.6819  -6.8413  -6.6259  -5.0073
    -5.0027  -4.9686  -4.8944  -4.7957   3.2500   6.1520   6.5154   6.9845
     7.6143   7.9277   8.3081   8.7287   8.7452   9.4036

          k = 0.0000 0.1667-0.4756 (   630 PWs)   bands (ev):

   -46.1372 -22.7892 -22.6150 -22.5972  -7.5020  -6.8026  -6.5663  -5.0118
    -5.0031  -4.9648  -4.8753  -4.8252   2.8260   5.8194   6.5633   6.6972
     7.4652   7.8402   8.3688   8.8400   8.8562  10.0543

          k = 0.0000 0.3333 0.0000 (   638 PWs)   bands (ev):

   -46.1370 -22.7727 -22.6614 -22.5983  -7.5731  -6.8221  -6.6677  -5.0392
    -4.9913  -4.9881  -4.8702  -4.7715   3.2374   6.0439   6.6611   6.7639
     7.8297   7.8992   8.2820   8.3940   8.6860   9.7178

          k = 0.0000 0.3333 0.2378 (   638 PWs)   bands (ev):

   -46.1370 -22.7846 -22.6644 -22.5972  -7.4526  -6.7924  -6.5902  -5.0076
    -5.0028  -4.9869  -4.8693  -4.7522   2.9290   5.8832   6.5678   6.8578
     7.2603   7.7548   7.8797   8.3368   8.9408   9.7842

          k = 0.0000 0.3333-0.4756 (   630 PWs)   bands (ev):

   -46.1364 -22.7858 -22.6543 -22.6011  -7.3548  -6.7442  -6.4922  -5.0104
    -4.9861  -4.9793  -4.8758  -4.7072   2.6612   5.5215   6.4054   6.8752
     7.1707   7.4698   7.7030   8.3516   9.3946   9.6942

          k = 0.0000-0.5000 0.0000 (   630 PWs)   bands (ev):

   -46.1362 -22.7665 -22.6673 -22.6021  -7.4184  -6.7831  -6.6816  -5.0497
    -4.9958  -4.9894  -4.8142  -4.8045   3.0411   5.7357   6.9334   7.0177
     7.4110   7.4936   8.3248   8.3397   8.6954  10.5283

          k = 0.0000-0.5000 0.2378 (   628 PWs)   bands (ev):

   -46.1360 -22.7731 -22.6791 -22.5892  -7.3456  -6.7283  -6.5966  -5.0104
    -4.9960  -4.9918  -4.8354  -4.7365   2.8051   5.6619   6.5712   6.8017
     7.2406   7.3840   8.0564   8.3451   8.9806  10.0029

          k = 0.0000-0.5000-0.4756 (   640 PWs)   bands (ev):

   -46.1365 -22.7850 -22.6937 -22.6102  -7.3120  -6.6718  -6.4619  -5.0103
    -5.0009  -4.9776  -4.8700  -4.6703   2.5751   5.3942   6.0561   6.8258
     7.1484   7.4041   7.5122   8.2645   9.2369   9.6716

          k = 0.1667 0.1667 0.0000 (   637 PWs)   bands (ev):

   -46.1374 -22.7743 -22.6156 -22.6128  -7.7238  -6.8482  -6.6799  -5.0180
    -4.9953  -4.9667  -4.8781  -4.7477   3.4874   6.3410   6.4891   6.8080
     7.7049   7.9109   8.4475   8.6609   8.9938   9.2175

          k = 0.1667 0.1667 0.2378 (   636 PWs)   bands (ev):

   -46.1372 -22.7802 -22.6203 -22.6196  -7.5620  -6.8288  -6.6207  -5.0139
    -4.9926  -4.9663  -4.8690  -4.7677   3.1463   6.1516   6.1822   6.9213
     7.5519   7.5604   8.3018   8.8192   9.0113   9.3889

          k = 0.1667 0.1667-0.4756 (   628 PWs)   bands (ev):

   -46.1367 -22.7870 -22.6239 -22.6059  -7.3971  -6.8088  -6.5509  -5.0254
    -4.9666  -4.9440  -4.8637  -4.7846   2.8234   5.8696   5.9774   6.6423
     7.4763   7.5016   8.2681   8.9360   9.1223   9.7884

          k = 0.1667 0.3333 0.0000 (   640 PWs)   bands (ev):

   -46.1369 -22.7672 -22.6629 -22.6238  -7.4527  -6.7979  -6.6858  -5.0312
    -4.9927  -4.9645  -4.8465  -4.7607   3.0482   6.0596   6.5372   6.8172
     7.2095   7.7389   8.1183   8.7205   8.8878   9.7563

          k = 0.1667 0.3333 0.2378 (   635 PWs)   bands (ev):

   -46.1364 -22.7802 -22.6593 -22.6180  -7.3276  -6.7891  -6.6161  -5.0085
    -4.9865  -4.9509  -4.8299  -4.7292   2.9297   5.8644   6.0190   6.5398
     6.9401   7.5860   8.4008   8.7069   9.0621   9.5249

          k = 0.1667 0.3333-0.4756 (   632 PWs)   bands (ev):

   -46.1362 -22.7883 -22.6618 -22.6194  -7.2316  -6.7697  -6.5167  -5.0121
    -4.9645  -4.9188  -4.8349  -4.6927   2.7781   5.4768   5.9251   6.2846
     6.4907   7.4620   8.4767   8.7694   9.0503   9.5217

          k = 0.1667-0.5000 0.0000 (   634 PWs)   bands (ev):

   -46.1362 -22.7610 -22.6791 -22.6182  -7.3028  -6.7600  -6.7090  -5.0317
    -4.9829  -4.9506  -4.8068  -4.7937   2.8647   5.7215   6.6826   6.9367
     7.2518   7.5356   7.8819   8.8125   8.8247  10.1050

          k = 0.1667-0.5000 0.2378 (   640 PWs)   bands (ev):

   -46.1365 -22.7843 -22.6823 -22.6233  -7.2213  -6.7338  -6.6361  -5.0119
    -4.9784  -4.9459  -4.8023  -4.7291   2.8349   5.6495   5.8973   6.2677
     6.8657   7.6996   8.1958   8.6787   9.0454   9.4892

          k = 0.1667-0.5000-0.4756 (   632 PWs)   bands (ev):

   -46.1359 -22.7826 -22.6905 -22.6140  -7.1845  -6.7039  -6.5024  -5.0059
    -4.9380  -4.9254  -4.8144  -4.6486   2.7530   5.3687   5.7766   5.9469
     6.3390   7.5807   8.3693   8.7081   8.7166   9.6905

          k = 0.3333 0.3333 0.0000 (   638 PWs)   bands (ev):

   -46.1360 -22.7647 -22.6665 -22.6517  -7.2092  -6.7460  -6.7143  -5.0138
    -4.9764  -4.9021  -4.7963  -4.7660   2.6867   5.9769   6.2251   6.9521
     7.0902   7.1717   7.9718   8.4925   9.3936   9.5459

          k = 0.3333 0.3333 0.2378 (   636 PWs)   bands (ev):

   -46.1359 -22.7732 -22.6635 -22.6593  -7.0777  -6.7748  -6.6672  -4.9725
    -4.9693  -4.8825  -4.7614  -4.7034   2.8625   5.6245   5.7388   5.9395
     6.6942   7.0858   8.4760   9.0272   9.0370   9.4528

          k = 0.3333 0.3333-0.4756 (   634 PWs)   bands (ev):

   -46.1359 -22.7870 -22.6651 -22.6565  -6.9971  -6.8038  -6.5567  -4.9671
    -4.9298  -4.8544  -4.7139  -4.6554   3.0268   5.2271   5.2760   5.7047
     6.3764   6.6203   7.7666   9.3743   9.4014   9.6161

          k = 0.3333-0.5000 0.0000 (   634 PWs)   bands (ev):

   -46.1357 -22.7530 -22.6834 -22.6500  -7.0917  -6.7244  -6.7157  -5.0052
    -4.9506  -4.8594  -4.7839  -4.7718   2.5259   5.6669   6.2692   6.7371
     7.2577   7.4767   7.6010   8.4877   9.2746   9.5930

          k = 0.3333-0.5000 0.2378 (   634 PWs)   bands (ev):

   -46.1355 -22.7736 -22.6800 -22.6539  -6.9593  -6.7420  -6.7058  -4.9655
    -4.9458  -4.8245  -4.7314  -4.7007   2.8130   5.4926   5.6362   5.7324
     6.4748   7.1374   8.0901   9.0209   9.0478   9.5788

          k = 0.3333-0.5000-0.4756 (   628 PWs)   bands (ev):

   -46.1353 -22.7861 -22.6730 -22.6520  -6.9273  -6.7677  -6.5707  -4.9469
    -4.9053  -4.8021  -4.6755  -4.6189   3.1584   5.0109   5.1723   5.5186
     6.2093   6.5874   7.0593   9.5083   9.5682   9.7710

          k =-0.5000-0.5000 0.0000 (   656 PWs)   bands (ev):

   -46.1364 -22.7722 -22.6939 -22.6939  -7.0226  -6.6962  -6.6962  -5.0105
    -4.9252  -4.8138  -4.8138  -4.7718   2.3211   5.4604   6.0903   6.9372
     6.9372   7.5130   7.5130   8.1899   8.6832   9.7679

          k =-0.5000-0.5000 0.2378 (   652 PWs)   bands (ev):

   -46.1362 -22.7892 -22.6897 -22.6897  -6.8204  -6.7509  -6.7509  -4.9698
    -4.9253  -4.7562  -4.7101  -4.7101   2.7161   5.3937   5.5728   5.5728
     6.1239   7.0229   7.4138   9.0404   9.0404   9.8091

          k =-0.5000-0.5000-0.4756 (   640 PWs)   bands (ev):

   -46.1356 -22.7932 -22.6860 -22.6860  -6.7997  -6.7997  -6.6086  -4.9186
    -4.9114  -4.7440  -4.6127  -4.6127   3.3166   4.9837   4.9837   5.2796
     6.1136   6.1356   6.1830   9.7584   9.7584   9.8356

     highest occupied level (ev):    10.5283

!    total energy              =    -379.77966752 Ry
     estimated scf accuracy    <          1.0E-11 Ry

     The total energy is the sum of the following terms:
     one-electron contribution =     -84.08364877 Ry
     hartree contribution      =      70.89001605 Ry
     xc contribution           =    -102.31596018 Ry
     ewald contribution        =    -264.27007462 Ry

     convergence has been achieved in   9 iterations

     negative rho (up, down):  1.452E-02 0.000E+00

     Forces acting on atoms (cartesian axes, Ry/au):

     atom    1 type  1   force =     0.00000000    0.00000000   -0.00166963
     atom    2 type  2   force =     0.00000000    0.00000000   -0.00208288
     atom    3 type  3   force =     0.00000000    0.00000000   -0.00228560
     atom    4 type  3   force =     0.00000000    0.00000000    0.00301906
     atom    5 type  3   force =     0.00000000    0.00000000    0.00301906

     Total force =     0.005530     Total SCF correction =     0.000015


     Computing stress (Cartesian axis) and pressure


     negative rho (up, down):  1.452E-02 0.000E+00
          total   stress  (Ry/bohr**3)                   (kbar)     P=    -1165.06
  -0.00805859   0.00000000   0.00000000        -1185.46        0.00        0.00
   0.00000000  -0.00805859   0.00000000            0.00    -1185.46        0.00
   0.00000000   0.00000000  -0.00764267            0.00        0.00    -1124.28

     Energy error            =      7.3E-05 Ry
     Gradient error          =      3.0E-03 Ry/Bohr

     number of scf cycles    =   6
     number of bfgs steps    =   5

     energy             old  =    -379.7795946439 Ry
     energy             new  =    -379.7796675220 Ry

     CASE: energy            _new < energy            _old

     new trust radius        =       0.0115290696 bohr
     new conv_thr            =            1.0E-10 Ry


ATOMIC_POSITIONS (crystal)
Pb               0.0000000000        0.0000000000        0.9940569324
Ti               0.5000000000        0.5000000000        0.5391805616
O                0.5000000000        0.5000000000        0.1114258157
O                0.5000000000        0.0000000000        0.6113104891
O                0.0000000000        0.5000000000        0.6113104891



     Writing config-only to output data dir ./pto_20.save/ :
     XML data file
     NEW-OLD atomic charge density approx. for the potential

     Check: negative core charge=   -0.000010

     negative rho (up, down):  1.487E-02 0.000E+00

     total cpu time spent up to now is       35.3 secs

     Self-consistent Calculation

     iteration #  1     ecut=    20.00 Ry     beta= 0.70
     CG style diagonalization
     ethr =  1.00E-06,  avg # of iterations =  4.2

     Threshold (ethr) on eigenvalues was too large:
     Diagonalizing with lowered threshold

     CG style diagonalization
     c_bands:  1 eigenvalues not converged
     ethr =  3.21E-08,  avg # of iterations =  5.3

     negative rho (up, down):  1.485E-02 0.000E+00

     total cpu time spent up to now is       36.6 secs

     total energy              =    -379.77970185 Ry
     estimated scf accuracy    <       0.00001256 Ry

     iteration #  2     ecut=    20.00 Ry     beta= 0.70
     CG style diagonalization
     ethr =  2.85E-08,  avg # of iterations =  4.1

     negative rho (up, down):  1.484E-02 0.000E+00

     total cpu time spent up to now is       37.1 secs

     total energy              =    -379.77970189 Ry
     estimated scf accuracy    <       0.00001060 Ry

     iteration #  3     ecut=    20.00 Ry     beta= 0.70
     CG style diagonalization
     ethr =  2.41E-08,  avg # of iterations =  3.9

     negative rho (up, down):  1.483E-02 0.000E+00

     total cpu time spent up to now is       37.6 secs

     total energy              =    -379.77970444 Ry
     estimated scf accuracy    <       0.00000489 Ry

     iteration #  4     ecut=    20.00 Ry     beta= 0.70
     CG style diagonalization
     ethr =  1.11E-08,  avg # of iterations =  3.5

     negative rho (up, down):  1.483E-02 0.000E+00

     total cpu time spent up to now is       38.0 secs

     total energy              =    -379.77970536 Ry
     estimated scf accuracy    <       0.00000031 Ry

     iteration #  5     ecut=    20.00 Ry     beta= 0.70
     CG style diagonalization
     ethr =  7.15E-10,  avg # of iterations =  4.3

     negative rho (up, down):  1.483E-02 0.000E+00

     total cpu time spent up to now is       38.5 secs

     total energy              =    -379.77970550 Ry
     estimated scf accuracy    <       0.00000013 Ry

     iteration #  6     ecut=    20.00 Ry     beta= 0.70
     CG style diagonalization
     ethr =  2.86E-10,  avg # of iterations =  3.9

     negative rho (up, down):  1.483E-02 0.000E+00

     total cpu time spent up to now is       38.9 secs

     total energy              =    -379.77970553 Ry
     estimated scf accuracy    <       0.00000002 Ry

     iteration #  7     ecut=    20.00 Ry     beta= 0.70
     CG style diagonalization
     ethr =  4.87E-11,  avg # of iterations =  4.7

     negative rho (up, down):  1.483E-02 0.000E+00

     total cpu time spent up to now is       39.5 secs

     total energy              =    -379.77970555 Ry
     estimated scf accuracy    <          7.2E-10 Ry

     iteration #  8     ecut=    20.00 Ry     beta= 0.70
     CG style diagonalization
     ethr =  1.65E-12,  avg # of iterations =  7.1

     negative rho (up, down):  1.483E-02 0.000E+00

     total cpu time spent up to now is       40.4 secs

     total energy              =    -379.77970555 Ry
     estimated scf accuracy    <          2.9E-10 Ry

     iteration #  9     ecut=    20.00 Ry     beta= 0.70
     CG style diagonalization
     ethr =  6.48E-13,  avg # of iterations =  4.0

     negative rho (up, down):  1.483E-02 0.000E+00

     total cpu time spent up to now is       40.8 secs

     End of self-consistent calculation

          k = 0.0000 0.0000 0.0000 (   643 PWs)   bands (ev):

   -46.1445 -22.7719 -22.6151 -22.6151  -7.9912  -6.9123  -6.6974  -4.9796
    -4.9796  -4.9483  -4.9046  -4.7749   4.1613   6.3171   6.3171   6.8482
     8.1264   8.1264   8.5427   8.6378   8.9574   8.9574

          k = 0.0000 0.0000 0.2378 (   643 PWs)   bands (ev):

   -46.1440 -22.7939 -22.6150 -22.6150  -7.8113  -6.8714  -6.6433  -4.9969
    -4.9969  -4.9464  -4.8977  -4.8312   3.4375   6.3881   6.3881   6.8523
     7.9330   7.9330   8.4768   8.8164   8.9984   8.9984

          k = 0.0000 0.0000-0.4756 (   636 PWs)   bands (ev):

   -46.1435 -22.7893 -22.6130 -22.6130  -7.6117  -6.8250  -6.5958  -5.0079
    -5.0079  -4.9558  -4.8810  -4.8635   2.9337   6.2157   6.3963   6.3963
     7.7914   7.7914   8.4491   9.1519   9.1519  10.1178

          k = 0.0000 0.1667 0.0000 (   651 PWs)   bands (ev):

   -46.1443 -22.7840 -22.6302 -22.6224  -7.8627  -6.8906  -6.6827  -5.0134
    -4.9852  -4.9672  -4.8978  -4.7533   3.7638   6.2974   6.4228   6.7782
     8.1232   8.1274   8.5219   8.5506   8.5936   8.9760

          k = 0.0000 0.1667 0.2378 (   638 PWs)   bands (ev):

   -46.1434 -22.7905 -22.6254 -22.6096  -7.6945  -6.8564  -6.6227  -4.9998
    -4.9960  -4.9600  -4.8878  -4.7827   3.2557   6.1444   6.5034   6.9848
     7.6144   7.9287   8.3007   8.7168   8.7395   9.4025

          k = 0.0000 0.1667-0.4756 (   630 PWs)   bands (ev):

   -46.1428 -22.7926 -22.6212 -22.6035  -7.5173  -6.8183  -6.5607  -5.0052
    -4.9950  -4.9561  -4.8683  -4.8123   2.8333   5.8154   6.5505   6.6923
     7.4673   7.8429   8.3531   8.8270   8.8511  10.0569

          k = 0.0000 0.3333 0.0000 (   638 PWs)   bands (ev):

   -46.1427 -22.7762 -22.6676 -22.6046  -7.5833  -6.8372  -6.6684  -5.0317
    -4.9845  -4.9796  -4.8613  -4.7590   3.2393   6.0361   6.6631   6.7522
     7.8249   7.8920   8.2789   8.3844   8.6815   9.7261

          k = 0.0000 0.3333 0.2378 (   638 PWs)   bands (ev):

   -46.1427 -22.7880 -22.6707 -22.6035  -7.4651  -6.8075  -6.5889  -4.9995
    -4.9961  -4.9783  -4.8608  -4.7398   2.9337   5.8758   6.5659   6.8458
     7.2530   7.7476   7.8766   8.3333   8.9359   9.7901

          k = 0.0000 0.3333-0.4756 (   630 PWs)   bands (ev):

   -46.1421 -22.7892 -22.6605 -22.6073  -7.3692  -6.7605  -6.4879  -5.0038
    -4.9775  -4.9701  -4.8672  -4.6959   2.6679   5.5154   6.4042   6.8637
     7.1591   7.4633   7.6963   8.3467   9.3958   9.6993

          k = 0.0000-0.5000 0.0000 (   630 PWs)   bands (ev):

   -46.1418 -22.7700 -22.6736 -22.6084  -7.4286  -6.7988  -6.6833  -5.0419
    -4.9871  -4.9827  -4.8008  -4.7952   3.0430   5.7295   6.9355   7.0040
     7.4039   7.4870   8.3225   8.3295   8.6904  10.5356

          k = 0.0000-0.5000 0.2378 (   628 PWs)   bands (ev):

   -46.1417 -22.7766 -22.6853 -22.5955  -7.3581  -6.7450  -6.5947  -5.0021
    -4.9874  -4.9851  -4.8256  -4.7247   2.8096   5.6549   6.5691   6.7935
     7.2259   7.3771   8.0513   8.3437   8.9756  10.0126

          k = 0.0000-0.5000-0.4756 (   640 PWs)   bands (ev):

   -46.1422 -22.7884 -22.7000 -22.6165  -7.3257  -6.6894  -6.4577  -5.0035
    -4.9922  -4.9682  -4.8603  -4.6597   2.5818   5.3876   6.0545   6.8086
     7.1413   7.3877   7.5087   8.2639   9.2519   9.6683

          k = 0.1667 0.1667 0.0000 (   637 PWs)   bands (ev):

   -46.1431 -22.7778 -22.6218 -22.6191  -7.7341  -6.8632  -6.6790  -5.0110
    -4.9882  -4.9582  -4.8708  -4.7348   3.4877   6.3317   6.4846   6.8073
     7.7060   7.9022   8.4493   8.6545   8.9819   9.2213

          k = 0.1667 0.1667 0.2378 (   636 PWs)   bands (ev):

   -46.1429 -22.7836 -22.6266 -22.6258  -7.5745  -6.8441  -6.6179  -5.0066
    -4.9849  -4.9582  -4.8618  -4.7549   3.1502   6.1438   6.1750   6.9190
     7.5435   7.5616   8.3018   8.8092   9.0013   9.3929

          k = 0.1667 0.1667-0.4756 (   628 PWs)   bands (ev):

   -46.1424 -22.7904 -22.6302 -22.6122  -7.4125  -6.8243  -6.5454  -5.0180
    -4.9581  -4.9365  -4.8565  -4.7717   2.8296   5.8645   5.9712   6.6362
     7.4627   7.5016   8.2707   8.9238   9.1135   9.7934

          k = 0.1667 0.3333 0.0000 (   640 PWs)   bands (ev):

   -46.1425 -22.7706 -22.6691 -22.6300  -7.4621  -6.8135  -6.6875  -5.0235
    -4.9855  -4.9560  -4.8374  -4.7480   3.0463   6.0519   6.5313   6.8164
     7.2001   7.7435   8.1144   8.7153   8.8773   9.7632

          k = 0.1667 0.3333 0.2378 (   635 PWs)   bands (ev):

   -46.1421 -22.7837 -22.6656 -22.6242  -7.3398  -6.8044  -6.6147  -5.0009
    -4.9788  -4.9429  -4.8212  -4.7169   2.9307   5.8579   6.0118   6.5342
     6.9381   7.5851   8.3960   8.6997   9.0551   9.5309

          k = 0.1667 0.3333-0.4756 (   632 PWs)   bands (ev):

   -46.1418 -22.7917 -22.6681 -22.6257  -7.2464  -6.7856  -6.5118  -5.0047
    -4.9563  -4.9111  -4.8259  -4.6813   2.7819   5.4717   5.9146   6.2824
     6.4837   7.4577   8.4788   8.7559   9.0581   9.5182

          k = 0.1667-0.5000 0.0000 (   634 PWs)   bands (ev):

   -46.1419 -22.7644 -22.6854 -22.6245  -7.3115  -6.7761  -6.7120  -5.0240
    -4.9756  -4.9421  -4.7939  -4.7837   2.8620   5.7152   6.6800   6.9257
     7.2475   7.5322   7.8872   8.8069   8.8130  10.1122

          k = 0.1667-0.5000 0.2378 (   640 PWs)   bands (ev):

   -46.1422 -22.7877 -22.6885 -22.6296  -7.2336  -6.7503  -6.6342  -5.0042
    -4.9709  -4.9378  -4.7921  -4.7175   2.8349   5.6429   5.8894   6.2641
     6.8623   7.6994   8.1878   8.6740   9.0376   9.4988

          k = 0.1667-0.5000-0.4756 (   632 PWs)   bands (ev):

   -46.1415 -22.7860 -22.6967 -22.6202  -7.1985  -6.7208  -6.4976  -4.9985
    -4.9301  -4.9176  -4.8041  -4.6381   2.7561   5.3636   5.7613   5.9437
     6.3375   7.5763   8.3740   8.7063   8.7137   9.6871

          k = 0.3333 0.3333 0.0000 (   638 PWs)   bands (ev):

   -46.1417 -22.7682 -22.6728 -22.6580  -7.2151  -6.7629  -6.7199  -5.0062
    -4.9684  -4.8932  -4.7868  -4.7530   2.6784   5.9690   6.2184   6.9537
     7.0865   7.1804   7.9636   8.4933   9.3793   9.5538

          k = 0.3333 0.3333 0.2378 (   636 PWs)   bands (ev):

   -46.1416 -22.7767 -22.6697 -22.6656  -7.0886  -6.7907  -6.6668  -4.9647
    -4.9615  -4.8748  -4.7521  -4.6914   2.8548   5.6213   5.7376   5.9316
     6.6937   7.0873   8.4841   9.0279   9.0314   9.4399

          k = 0.3333 0.3333-0.4756 (   634 PWs)   bands (ev):

   -46.1416 -22.7904 -22.6714 -22.6627  -7.0123  -6.8189  -6.5512  -4.9595
    -4.9220  -4.8473  -4.7051  -4.6444   3.0212   5.2166   5.2774   5.6985
     6.3768   6.6178   7.7850   9.3715   9.3857   9.6131

          k = 0.3333-0.5000 0.0000 (   634 PWs)   bands (ev):

   -46.1414 -22.7565 -22.6897 -22.6563  -7.0933  -6.7350  -6.7329  -4.9975
    -4.9425  -4.8498  -4.7720  -4.7612   2.5151   5.6604   6.2625   6.7422
     7.2672   7.4702   7.5951   8.4872   9.2834   9.5784

          k = 0.3333-0.5000 0.2378 (   634 PWs)   bands (ev):

   -46.1412 -22.7771 -22.6862 -22.6602  -6.9689  -6.7582  -6.7066  -4.9577
    -4.9379  -4.8172  -4.7206  -4.6898   2.8008   5.4935   5.6292   5.7320
     6.4725   7.1396   8.1024   9.0194   9.0446   9.5644

          k = 0.3333-0.5000-0.4756 (   628 PWs)   bands (ev):

   -46.1409 -22.7895 -22.6792 -22.6583  -6.9419  -6.7831  -6.5650  -4.9391
    -4.8975  -4.7955  -4.6657  -4.6091   3.1453   5.0058   5.1742   5.5116
     6.2087   6.5857   7.0824   9.5057   9.5528   9.7685

          k =-0.5000-0.5000 0.0000 (   656 PWs)   bands (ev):

   -46.1421 -22.7757 -22.7001 -22.7001  -7.0173  -6.7140  -6.7140  -5.0027
    -4.9170  -4.8006  -4.8006  -4.7650   2.3066   5.4536   6.0864   6.9472
     6.9472   7.5042   7.5042   8.1921   8.6920   9.7525

          k =-0.5000-0.5000 0.2378 (   652 PWs)   bands (ev):

   -46.1418 -22.7927 -22.6959 -22.6959  -6.8148  -6.7669  -6.7669  -4.9620
    -4.9171  -4.7499  -4.6990  -4.6990   2.6975   5.3865   5.5771   5.5771
     6.1194   7.0250   7.4300   9.0381   9.0381   9.7937

          k =-0.5000-0.5000-0.4756 (   640 PWs)   bands (ev):

   -46.1413 -22.7966 -22.6923 -22.6923  -6.8145  -6.8145  -6.6024  -4.9103
    -4.9037  -4.7381  -4.6031  -4.6031   3.2864   4.9887   4.9887   5.2725
     6.1314   6.1432   6.1847   9.7565   9.7565   9.8202

     highest occupied level (ev):    10.5356

!    total energy              =    -379.77970555 Ry
     estimated scf accuracy    <          1.1E-11 Ry

     The total energy is the sum of the following terms:
     one-electron contribution =     -84.22986730 Ry
     hartree contribution      =      70.96172995 Ry
     xc contribution           =    -102.31805364 Ry
     ewald contribution        =    -264.19351456 Ry

     convergence has been achieved in   9 iterations

     negative rho (up, down):  1.483E-02 0.000E+00

     Forces acting on atoms (cartesian axes, Ry/au):

     atom    1 type  1   force =     0.00000000    0.00000000   -0.00063104
     atom    2 type  2   force =     0.00000000    0.00000000   -0.00351356
     atom    3 type  3   force =     0.00000000    0.00000000   -0.00099222
     atom    4 type  3   force =     0.00000000    0.00000000    0.00256841
     atom    5 type  3   force =     0.00000000    0.00000000    0.00256841

     Total force =     0.005189     Total SCF correction =     0.000012


     Computing stress (Cartesian axis) and pressure


     negative rho (up, down):  1.483E-02 0.000E+00
          total   stress  (Ry/bohr**3)                   (kbar)     P=    -1164.30
  -0.00805168   0.00000000   0.00000000        -1184.44        0.00        0.00
   0.00000000  -0.00805168   0.00000000            0.00    -1184.44        0.00
   0.00000000   0.00000000  -0.00764081            0.00        0.00    -1124.00

     Energy error            =      3.8E-05 Ry
     Gradient error          =      3.5E-03 Ry/Bohr

     number of scf cycles    =   7
     number of bfgs steps    =   6

     energy             old  =    -379.7796675220 Ry
     energy             new  =    -379.7797055491 Ry

     CASE: energy            _new < energy            _old

     new trust radius        =       0.0126819765 bohr
     new conv_thr            =            1.0E-10 Ry


ATOMIC_POSITIONS (crystal)
Pb               0.0000000000        0.0000000000        0.9924201000
Ti               0.5000000000        0.5000000000        0.5388325817
O                0.5000000000        0.5000000000        0.1111858513
O                0.5000000000        0.0000000000        0.6124228775
O                0.0000000000        0.5000000000        0.6124228775



     Writing config-only to output data dir ./pto_20.save/ :
     XML data file
     NEW-OLD atomic charge density approx. for the potential

     Check: negative core charge=   -0.000010

     negative rho (up, down):  1.508E-02 0.000E+00

     total cpu time spent up to now is       41.2 secs

     Self-consistent Calculation

     iteration #  1     ecut=    20.00 Ry     beta= 0.70
     CG style diagonalization
     ethr =  1.00E-06,  avg # of iterations =  4.8

     Threshold (ethr) on eigenvalues was too large:
     Diagonalizing with lowered threshold

     CG style diagonalization
     ethr =  6.95E-08,  avg # of iterations =  4.4

     negative rho (up, down):  1.506E-02 0.000E+00

     total cpu time spent up to now is       42.5 secs

     total energy              =    -379.77974375 Ry
     estimated scf accuracy    <       0.00002718 Ry

     iteration #  2     ecut=    20.00 Ry     beta= 0.70
     CG style diagonalization
     ethr =  6.18E-08,  avg # of iterations =  4.1

     negative rho (up, down):  1.505E-02 0.000E+00

     total cpu time spent up to now is       43.0 secs

     total energy              =    -379.77974177 Ry
     estimated scf accuracy    <       0.00003107 Ry

     iteration #  3     ecut=    20.00 Ry     beta= 0.70
     CG style diagonalization
     ethr =  6.18E-08,  avg # of iterations =  3.8

     negative rho (up, down):  1.504E-02 0.000E+00

     total cpu time spent up to now is       43.4 secs

     total energy              =    -379.77974935 Ry
     estimated scf accuracy    <       0.00001037 Ry

     iteration #  4     ecut=    20.00 Ry     beta= 0.70
     CG style diagonalization
     ethr =  2.36E-08,  avg # of iterations =  3.5

     negative rho (up, down):  1.504E-02 0.000E+00

     total cpu time spent up to now is       43.8 secs

     total energy              =    -379.77975116 Ry
     estimated scf accuracy    <       0.00000061 Ry

     iteration #  5     ecut=    20.00 Ry     beta= 0.70
     CG style diagonalization
     ethr =  1.38E-09,  avg # of iterations =  4.5

     negative rho (up, down):  1.504E-02 0.000E+00

     total cpu time spent up to now is       44.3 secs

     total energy              =    -379.77975148 Ry
     estimated scf accuracy    <       0.00000024 Ry

     iteration #  6     ecut=    20.00 Ry     beta= 0.70
     CG style diagonalization
     ethr =  5.39E-10,  avg # of iterations =  3.9

     negative rho (up, down):  1.504E-02 0.000E+00

     total cpu time spent up to now is       44.8 secs

     total energy              =    -379.77975153 Ry
     estimated scf accuracy    <       0.00000004 Ry

     iteration #  7     ecut=    20.00 Ry     beta= 0.70
     CG style diagonalization
     ethr =  9.09E-11,  avg # of iterations =  4.4

     negative rho (up, down):  1.504E-02 0.000E+00

     total cpu time spent up to now is       45.3 secs

     total energy              =    -379.77975155 Ry
     estimated scf accuracy    <          1.8E-09 Ry

     iteration #  8     ecut=    20.00 Ry     beta= 0.70
     CG style diagonalization
     ethr =  4.08E-12,  avg # of iterations =  6.5

     negative rho (up, down):  1.504E-02 0.000E+00

     total cpu time spent up to now is       46.1 secs

     total energy              =    -379.77975155 Ry
     estimated scf accuracy    <          3.9E-10 Ry

     iteration #  9     ecut=    20.00 Ry     beta= 0.70
     CG style diagonalization
     ethr =  8.97E-13,  avg # of iterations =  4.7

     negative rho (up, down):  1.504E-02 0.000E+00

     total cpu time spent up to now is       46.7 secs

     End of self-consistent calculation

          k = 0.0000 0.0000 0.0000 (   643 PWs)   bands (ev):

   -46.1502 -22.7764 -22.6211 -22.6211  -8.0039  -6.9268  -6.6949  -4.9704
    -4.9704  -4.9366  -4.8970  -4.7574   4.1679   6.3028   6.3028   6.8631
     8.1182   8.1182   8.5379   8.6263   8.9424   8.9424

          k = 0.0000 0.0000 0.2378 (   643 PWs)   bands (ev):

   -46.1498 -22.7985 -22.6211 -22.6211  -7.8257  -6.8869  -6.6400  -4.9877
    -4.9877  -4.9346  -4.8894  -4.8129   3.4466   6.3699   6.3699   6.8586
     7.9324   7.9324   8.4654   8.8166   8.9832   8.9832

          k = 0.0000 0.0000-0.4756 (   636 PWs)   bands (ev):

   -46.1493 -22.7938 -22.6191 -22.6191  -7.6284  -6.8414  -6.5908  -4.9988
    -4.9988  -4.9440  -4.8618  -4.8542   2.9438   6.2196   6.3725   6.3725
     7.7994   7.7994   8.4377   9.1352   9.1352  10.1151

          k = 0.0000 0.1667 0.0000 (   651 PWs)   bands (ev):

   -46.1500 -22.7885 -22.6362 -22.6284  -7.8754  -6.9060  -6.6814  -5.0040
    -4.9760  -4.9554  -4.8888  -4.7359   3.7680   6.2909   6.4089   6.7792
     8.1153   8.1304   8.5074   8.5394   8.5831   8.9722

          k = 0.0000 0.1667 0.2378 (   638 PWs)   bands (ev):

   -46.1491 -22.7950 -22.6313 -22.6157  -7.7089  -6.8723  -6.6203  -4.9896
    -4.9867  -4.9482  -4.8787  -4.7651   3.2631   6.1328   6.4851   6.9842
     7.6134   7.9267   8.2933   8.7041   8.7295   9.4025

          k = 0.0000 0.1667-0.4756 (   630 PWs)   bands (ev):

   -46.1486 -22.7971 -22.6273 -22.6095  -7.5340  -6.8349  -6.5565  -4.9960
    -4.9842  -4.9444  -4.8585  -4.7948   2.8425   5.8064   6.5274   6.6855
     7.4726   7.8482   8.3358   8.8133   8.8412  10.0631

          k = 0.0000 0.3333 0.0000 (   638 PWs)   bands (ev):

   -46.1484 -22.7808 -22.6735 -22.6107  -7.5958  -6.8542  -6.6699  -5.0213
    -4.9752  -4.9680  -4.8495  -4.7420   3.2419   6.0302   6.6672   6.7383
     7.8219   7.8832   8.2669   8.3722   8.6718   9.7347

          k = 0.0000 0.3333 0.2378 (   638 PWs)   bands (ev):

   -46.1484 -22.7926 -22.6766 -22.6095  -7.4792  -6.8249  -6.5887  -4.9884
    -4.9868  -4.9667  -4.8494  -4.7231   2.9397   5.8679   6.5649   6.8286
     7.2477   7.7361   7.8718   8.3292   8.9289   9.7972

          k = 0.0000 0.3333-0.4756 (   630 PWs)   bands (ev):

   -46.1479 -22.7937 -22.6664 -22.6133  -7.3845  -6.7794  -6.4854  -4.9947
    -4.9658  -4.9577  -4.8555  -4.6804   2.6764   5.5049   6.4091   6.8428
     7.1460   7.4565   7.6891   8.3435   9.3919   9.7102

          k = 0.0000-0.5000 0.0000 (   630 PWs)   bands (ev):

   -46.1476 -22.7745 -22.6794 -22.6144  -7.4406  -6.8175  -6.6859  -5.0311
    -4.9754  -4.9735  -4.7833  -4.7825   3.0452   5.7285   6.9421   6.9903
     7.3975   7.4772   8.3113   8.3160   8.6801  10.5436

          k = 0.0000-0.5000 0.2378 (   628 PWs)   bands (ev):

   -46.1474 -22.7811 -22.6911 -22.6015  -7.3716  -6.7648  -6.5943  -4.9908
    -4.9759  -4.9757  -4.8124  -4.7088   2.8154   5.6507   6.5689   6.7863
     7.2112   7.3624   8.0436   8.3406   8.9698  10.0231

          k = 0.0000-0.5000-0.4756 (   640 PWs)   bands (ev):

   -46.1479 -22.7929 -22.7058 -22.6225  -7.3398  -6.7106  -6.4558  -4.9942
    -4.9806  -4.9556  -4.8472  -4.6452   2.5907   5.3783   6.0592   6.7896
     7.1227   7.3708   7.5048   8.2668   9.2699   9.6641

          k = 0.1667 0.1667 0.0000 (   637 PWs)   bands (ev):

   -46.1488 -22.7823 -22.6278 -22.6250  -7.7468  -6.8794  -6.6787  -5.0013
    -4.9785  -4.9468  -4.8609  -4.7173   3.4891   6.3199   6.4814   6.8038
     7.7022   7.8920   8.4489   8.6467   8.9700   9.2214

          k = 0.1667 0.1667 0.2378 (   636 PWs)   bands (ev):

   -46.1487 -22.7882 -22.6325 -22.6318  -7.5892  -6.8606  -6.6160  -4.9966
    -4.9743  -4.9472  -4.8520  -4.7375   3.1554   6.1309   6.1654   6.9141
     7.5343   7.5649   8.2991   8.7958   8.9899   9.3994

          k = 0.1667 0.1667-0.4756 (   628 PWs)   bands (ev):

   -46.1482 -22.7949 -22.6363 -22.6181  -7.4295  -6.8411  -6.5415  -5.0079
    -4.9465  -4.9262  -4.8466  -4.7542   2.8372   5.8546   5.9586   6.6317
     7.4442   7.5073   8.2730   8.9083   9.1022   9.8030

          k = 0.1667 0.3333 0.0000 (   640 PWs)   bands (ev):

   -46.1483 -22.7752 -22.6750 -22.6360  -7.4743  -6.8311  -6.6900  -5.0131
    -4.9756  -4.9445  -4.8252  -4.7309   3.0444   6.0460   6.5224   6.8187
     7.1884   7.7444   8.1133   8.7070   8.8647   9.7698

          k = 0.1667 0.3333 0.2378 (   635 PWs)   bands (ev):

   -46.1479 -22.7882 -22.6714 -22.6302  -7.3543  -6.8220  -6.6145  -4.9906
    -4.9683  -4.9319  -4.8094  -4.7003   2.9323   5.8509   6.0034   6.5266
     6.9375   7.5867   8.3909   8.6897   9.0456   9.5382

          k = 0.1667 0.3333-0.4756 (   632 PWs)   bands (ev):

   -46.1476 -22.7962 -22.6740 -22.6316  -7.2626  -6.8039  -6.5088  -4.9946
    -4.9452  -4.9005  -4.8137  -4.6659   2.7870   5.4628   5.9019   6.2792
     6.4806   7.4564   8.4786   8.7410   9.0689   9.5123

          k = 0.1667-0.5000 0.0000 (   634 PWs)   bands (ev):

   -46.1476 -22.7690 -22.6912 -22.6304  -7.3228  -6.7953  -6.7158  -5.0133
    -4.9657  -4.9307  -4.7769  -4.7701   2.8589   5.7140   6.6762   6.9111
     7.2480   7.5316   7.8876   8.7979   8.7985  10.1208

          k = 0.1667-0.5000 0.2378 (   640 PWs)   bands (ev):

   -46.1479 -22.7922 -22.6943 -22.6355  -7.2476  -6.7700  -6.6337  -4.9937
    -4.9606  -4.9268  -4.7785  -4.7019   2.8353   5.6391   5.8819   6.2597
     6.8575   7.7017   8.1813   8.6642   9.0288   9.5086

          k = 0.1667-0.5000-0.4756 (   632 PWs)   bands (ev):

   -46.1473 -22.7905 -22.7026 -22.6262  -7.2135  -6.7409  -6.4949  -4.9885
    -4.9193  -4.9070  -4.7902  -4.6238   2.7604   5.3560   5.7453   5.9433
     6.3349   7.5759   8.3796   8.7003   8.7136   9.6810

          k = 0.3333 0.3333 0.0000 (   638 PWs)   bands (ev):

   -46.1475 -22.7727 -22.6786 -22.6638  -7.2243  -6.7824  -6.7267  -4.9956
    -4.9576  -4.8811  -4.7740  -4.7356   2.6692   5.9617   6.2148   6.9522
     7.0868   7.1860   7.9602   8.4946   9.3632   9.5629

          k = 0.3333 0.3333 0.2378 (   636 PWs)   bands (ev):

   -46.1473 -22.7812 -22.6756 -22.6715  -7.1026  -6.8089  -6.6677  -4.9540
    -4.9510  -4.8641  -4.7396  -4.6753   2.8462   5.6182   5.7356   5.9238
     6.7001   7.0904   8.4960   9.0243   9.0261   9.4249

          k = 0.3333 0.3333-0.4756 (   634 PWs)   bands (ev):

   -46.1473 -22.7949 -22.6773 -22.6686  -7.0298  -6.8362  -6.5475  -4.9491
    -4.9114  -4.8376  -4.6931  -4.6294   3.0149   5.2057   5.2782   5.6882
     6.3826   6.6232   7.8086   9.3648   9.3685   9.6064

          k = 0.3333-0.5000 0.0000 (   634 PWs)   bands (ev):

   -46.1471 -22.7610 -22.6955 -22.6621  -7.0979  -6.7533  -6.7470  -4.9869
    -4.9315  -4.8370  -4.7560  -4.7467   2.5027   5.6575   6.2602   6.7443
     7.2724   7.4681   7.5933   8.4871   9.2950   9.5624

          k = 0.3333-0.5000 0.2378 (   634 PWs)   bands (ev):

   -46.1470 -22.7816 -22.6921 -22.6660  -6.9816  -6.7775  -6.7085  -4.9470
    -4.9271  -4.8072  -4.7060  -4.6749   2.7869   5.4956   5.6242   5.7313
     6.4767   7.1437   8.1197   9.0160   9.0388   9.5483

          k = 0.3333-0.5000-0.4756 (   628 PWs)   bands (ev):

   -46.1467 -22.7940 -22.6850 -22.6642  -6.9587  -6.8014  -6.5610  -4.9285
    -4.8868  -4.7862  -4.6525  -4.5956   3.1302   5.0018   5.1759   5.5025
     6.2137   6.5913   7.1109   9.4991   9.5360   9.7625

          k =-0.5000-0.5000 0.0000 (   656 PWs)   bands (ev):

   -46.1478 -22.7802 -22.7060 -22.7060  -7.0138  -6.7351  -6.7351  -4.9920
    -4.9059  -4.7830  -4.7830  -4.7557   2.2901   5.4500   6.0915   6.9526
     6.9526   7.4995   7.4995   8.1944   8.7066   9.7357

          k =-0.5000-0.5000 0.2378 (   652 PWs)   bands (ev):

   -46.1476 -22.7972 -22.7018 -22.7018  -6.8108  -6.7860  -6.7860  -4.9514
    -4.9059  -4.7410  -4.6840  -4.6840   2.6759   5.3809   5.5824   5.5824
     6.1231   7.0291   7.4516   9.0341   9.0341   9.7766

          k =-0.5000-0.5000-0.4756 (   640 PWs)   bands (ev):

   -46.1470 -22.8011 -22.6981 -22.6981  -6.8321  -6.8321  -6.5979  -4.8991
    -4.8930  -4.7298  -4.5902  -4.5902   3.2515   4.9956   4.9956   5.2637
     6.1357   6.1798   6.1910   9.7512   9.7512   9.8033

     highest occupied level (ev):    10.5436

!    total energy              =    -379.77975155 Ry
     estimated scf accuracy    <          1.2E-11 Ry

     The total energy is the sum of the following terms:
     one-electron contribution =     -84.39135758 Ry
     hartree contribution      =      71.04182005 Ry
     xc contribution           =    -102.32068034 Ry
     ewald contribution        =    -264.10953368 Ry

     convergence has been achieved in   9 iterations

     negative rho (up, down):  1.504E-02 0.000E+00

     Forces acting on atoms (cartesian axes, Ry/au):

     atom    1 type  1   force =     0.00000000    0.00000000    0.00023964
     atom    2 type  2   force =     0.00000000    0.00000000   -0.00349199
     atom    3 type  3   force =     0.00000000    0.00000000    0.00028067
     atom    4 type  3   force =     0.00000000    0.00000000    0.00148584
     atom    5 type  3   force =     0.00000000    0.00000000    0.00148584

     Total force =     0.004092     Total SCF correction =     0.000016


     Computing stress (Cartesian axis) and pressure


     negative rho (up, down):  1.504E-02 0.000E+00
          total   stress  (Ry/bohr**3)                   (kbar)     P=    -1163.38
  -0.00804643   0.00000000   0.00000000        -1183.67        0.00        0.00
   0.00000000  -0.00804643   0.00000000            0.00    -1183.67        0.00
   0.00000000   0.00000000  -0.00763261            0.00        0.00    -1122.80

     Energy error            =      4.6E-05 Ry
     Gradient error          =      3.5E-03 Ry/Bohr

     number of scf cycles    =   8
     number of bfgs steps    =   7

     energy             old  =    -379.7797055491 Ry
     energy             new  =    -379.7797515544 Ry

     CASE: energy            _new < energy            _old

     new trust radius        =       0.0090500242 bohr
     new conv_thr            =            1.0E-10 Ry


ATOMIC_POSITIONS (crystal)
Pb               0.0000000000        0.0000000000        0.9913421468
Ti               0.5000000000        0.5000000000        0.5380271174
O                0.5000000000        0.5000000000        0.1107331389
O                0.5000000000        0.0000000000        0.6135909425
O                0.0000000000        0.5000000000        0.6135909425



     Writing config-only to output data dir ./pto_20.save/ :
     XML data file
     NEW-OLD atomic charge density approx. for the potential

     Check: negative core charge=   -0.000010

     negative rho (up, down):  1.515E-02 0.000E+00

     total cpu time spent up to now is       47.0 secs

     Self-consistent Calculation

     iteration #  1     ecut=    20.00 Ry     beta= 0.70
     CG style diagonalization
     ethr =  1.00E-06,  avg # of iterations =  5.0

     Threshold (ethr) on eigenvalues was too large:
     Diagonalizing with lowered threshold

     CG style diagonalization
     c_bands:  1 eigenvalues not converged
     ethr =  6.39E-08,  avg # of iterations =  4.4

     negative rho (up, down):  1.514E-02 0.000E+00

     total cpu time spent up to now is       48.3 secs

     total energy              =    -379.77977176 Ry
     estimated scf accuracy    <       0.00002759 Ry

     iteration #  2     ecut=    20.00 Ry     beta= 0.70
     CG style diagonalization
     ethr =  6.27E-08,  avg # of iterations =  4.0

     negative rho (up, down):  1.513E-02 0.000E+00

     total cpu time spent up to now is       48.8 secs

     total energy              =    -379.77976884 Ry
     estimated scf accuracy    <       0.00003359 Ry

     iteration #  3     ecut=    20.00 Ry     beta= 0.70
     CG style diagonalization
     ethr =  6.27E-08,  avg # of iterations =  3.8

     negative rho (up, down):  1.512E-02 0.000E+00

     total cpu time spent up to now is       49.2 secs

     total energy              =    -379.77977654 Ry
     estimated scf accuracy    <       0.00000953 Ry

     iteration #  4     ecut=    20.00 Ry     beta= 0.70
     CG style diagonalization
     ethr =  2.16E-08,  avg # of iterations =  3.5

     negative rho (up, down):  1.512E-02 0.000E+00

     total cpu time spent up to now is       49.6 secs

     total energy              =    -379.77977815 Ry
     estimated scf accuracy    <       0.00000046 Ry

     iteration #  5     ecut=    20.00 Ry     beta= 0.70
     CG style diagonalization
     ethr =  1.05E-09,  avg # of iterations =  4.6

     negative rho (up, down):  1.512E-02 0.000E+00

     total cpu time spent up to now is       50.2 secs

     total energy              =    -379.77977844 Ry
     estimated scf accuracy    <       0.00000019 Ry

     iteration #  6     ecut=    20.00 Ry     beta= 0.70
     CG style diagonalization
     ethr =  4.22E-10,  avg # of iterations =  3.9

     negative rho (up, down):  1.512E-02 0.000E+00

     total cpu time spent up to now is       50.6 secs

     total energy              =    -379.77977848 Ry
     estimated scf accuracy    <       0.00000004 Ry

     iteration #  7     ecut=    20.00 Ry     beta= 0.70
     CG style diagonalization
     ethr =  8.55E-11,  avg # of iterations =  4.2

     negative rho (up, down):  1.513E-02 0.000E+00

     total cpu time spent up to now is       51.1 secs

     total energy              =    -379.77977850 Ry
     estimated scf accuracy    <          3.5E-09 Ry

     iteration #  8     ecut=    20.00 Ry     beta= 0.70
     CG style diagonalization
     ethr =  8.07E-12,  avg # of iterations =  5.3

     negative rho (up, down):  1.513E-02 0.000E+00

     total cpu time spent up to now is       51.8 secs

     total energy              =    -379.77977850 Ry
     estimated scf accuracy    <          2.8E-10 Ry

     iteration #  9     ecut=    20.00 Ry     beta= 0.70
     CG style diagonalization
     ethr =  6.47E-13,  avg # of iterations =  5.8

     negative rho (up, down):  1.513E-02 0.000E+00

     total cpu time spent up to now is       52.5 secs

     End of self-consistent calculation

          k = 0.0000 0.0000 0.0000 (   643 PWs)   bands (ev):

   -46.1529 -22.7802 -22.6233 -22.6233  -8.0131  -6.9348  -6.6939  -4.9623
    -4.9623  -4.9263  -4.8899  -4.7421   4.1758   6.2909   6.2909   6.8734
     8.1019   8.1019   8.5291   8.6157   8.9324   8.9324

          k = 0.0000 0.0000 0.2378 (   643 PWs)   bands (ev):

   -46.1524 -22.8022 -22.6234 -22.6234  -7.8354  -6.8954  -6.6391  -4.9796
    -4.9796  -4.9244  -4.8817  -4.7970   3.4543   6.3517   6.3517   6.8616
     7.9282   7.9282   8.4546   8.8157   8.9733   8.9733

          k = 0.0000 0.0000-0.4756 (   636 PWs)   bands (ev):

   -46.1520 -22.7974 -22.6214 -22.6214  -7.6387  -6.8505  -6.5900  -4.9907
    -4.9907  -4.9337  -4.8459  -4.8452   2.9516   6.2211   6.3466   6.3466
     7.8076   7.8076   8.4268   9.1242   9.1242  10.1146

          k = 0.0000 0.1667 0.0000 (   651 PWs)   bands (ev):

   -46.1527 -22.7922 -22.6385 -22.6307  -7.8848  -6.9148  -6.6813  -4.9956
    -4.9679  -4.9452  -4.8808  -4.7207   3.7726   6.2872   6.3976   6.7777
     8.0991   8.1294   8.4978   8.5282   8.5722   8.9694

          k = 0.0000 0.1667 0.2378 (   638 PWs)   bands (ev):

   -46.1518 -22.7987 -22.6336 -22.6180  -7.7189  -6.8816  -6.6202  -4.9807
    -4.9786  -4.9380  -4.8705  -4.7498   3.2694   6.1215   6.4672   6.9828
     7.6111   7.9214   8.2893   8.6962   8.7185   9.4039

          k = 0.0000 0.1667-0.4756 (   630 PWs)   bands (ev):

   -46.1513 -22.8008 -22.6296 -22.6119  -7.5445  -6.8448  -6.5563  -4.9879
    -4.9747  -4.9341  -4.8499  -4.7794   2.8496   5.7950   6.5024   6.6795
     7.4793   7.8539   8.3249   8.8055   8.8295  10.0713

          k = 0.0000 0.3333 0.0000 (   638 PWs)   bands (ev):

   -46.1511 -22.7845 -22.6756 -22.6131  -7.6051  -6.8655  -6.6720  -5.0122
    -4.9670  -4.9579  -4.8393  -4.7272   3.2442   6.0298   6.6723   6.7286
     7.8224   7.8770   8.2483   8.3627   8.6596   9.7393

          k = 0.0000 0.3333 0.2378 (   638 PWs)   bands (ev):

   -46.1510 -22.7962 -22.6787 -22.6119  -7.4886  -6.8366  -6.5905  -4.9787
    -4.9787  -4.9565  -4.8394  -4.7086   2.9447   5.8634   6.5657   6.8130
     7.2472   7.7246   7.8671   8.3260   8.9223   9.8025

          k = 0.0000 0.3333-0.4756 (   630 PWs)   bands (ev):

   -46.1505 -22.7974 -22.6685 -22.6156  -7.3937  -6.7925  -6.4866  -4.9866
    -4.9556  -4.9469  -4.8453  -4.6669   2.6833   5.4936   6.4200   6.8200
     7.1375   7.4525   7.6846   8.3441   9.3827   9.7235

          k = 0.0000-0.5000 0.0000 (   630 PWs)   bands (ev):

   -46.1502 -22.7782 -22.6814 -22.6169  -7.4493  -6.8310  -6.6886  -5.0217
    -4.9654  -4.9653  -4.7714  -4.7685   3.0467   5.7351   6.9509   6.9830
     7.3950   7.4681   8.2932   8.3046   8.6675  10.5487

          k = 0.0000-0.5000 0.2378 (   628 PWs)   bands (ev):

   -46.1501 -22.7847 -22.6932 -22.6039  -7.3801  -6.7793  -6.5963  -4.9810
    -4.9677  -4.9656  -4.8009  -4.6951   2.8201   5.6524   6.5717   6.7836
     7.2037   7.3444   8.0361   8.3364   8.9656  10.0295

          k = 0.0000-0.5000-0.4756 (   640 PWs)   bands (ev):

   -46.1506 -22.7966 -22.7079 -22.6249  -7.3477  -6.7262  -6.4577  -4.9860
    -4.9705  -4.9447  -4.8358  -4.6324   2.5982   5.3696   6.0702   6.7770
     7.0981   7.3616   7.5023   8.2723   9.2825   9.6612

          k = 0.1667 0.1667 0.0000 (   637 PWs)   bands (ev):

   -46.1515 -22.7860 -22.6302 -22.6273  -7.7565  -6.8892  -6.6793  -4.9926
    -4.9700  -4.9368  -4.8521  -4.7019   3.4913   6.3109   6.4815   6.7984
     7.6936   7.8847   8.4456   8.6407   8.9639   9.2161

          k = 0.1667 0.1667 0.2378 (   636 PWs)   bands (ev):

   -46.1513 -22.7919 -22.6348 -22.6341  -7.5995  -6.8705  -6.6164  -4.9879
    -4.9650  -4.9375  -4.8433  -4.7224   3.1599   6.1180   6.1572   6.9084
     7.5285   7.5691   8.2937   8.7846   8.9819   9.4059

          k = 0.1667 0.1667-0.4756 (   628 PWs)   bands (ev):

   -46.1508 -22.7986 -22.6386 -22.6204  -7.4405  -6.8512  -6.5415  -4.9992
    -4.9365  -4.9171  -4.8379  -4.7390   2.8431   5.8430   5.9436   6.6316
     7.4282   7.5177   8.2735   8.8961   9.0925   9.8139

          k = 0.1667 0.3333 0.0000 (   640 PWs)   bands (ev):

   -46.1509 -22.7789 -22.6771 -22.6382  -7.4839  -6.8429  -6.6927  -5.0039
    -4.9669  -4.9344  -4.8147  -4.7160   3.0437   6.0458   6.5139   6.8238
     7.1793   7.7396   8.1165   8.6984   8.8554   9.7726

          k = 0.1667 0.3333 0.2378 (   635 PWs)   bands (ev):

   -46.1505 -22.7919 -22.6736 -22.6325  -7.3645  -6.8338  -6.6163  -4.9816
    -4.9590  -4.9222  -4.7991  -4.6859   2.9341   5.8466   5.9974   6.5200
     6.9392   7.5908   8.3876   8.6806   9.0370   9.5438

          k = 0.1667 0.3333-0.4756 (   632 PWs)   bands (ev):

   -46.1503 -22.7999 -22.6761 -22.6339  -7.2730  -6.8164  -6.5097  -4.9858
    -4.9355  -4.8911  -4.8031  -4.6523   2.7913   5.4532   5.8923   6.2757
     6.4846   7.4599   8.4755   8.7315   9.0779   9.5062

          k = 0.1667-0.5000 0.0000 (   634 PWs)   bands (ev):

   -46.1503 -22.7727 -22.6933 -22.6327  -7.3316  -6.8093  -6.7193  -5.0040
    -4.9570  -4.9207  -4.7625  -4.7582   2.8569   5.7202   6.6723   6.8994
     7.2545   7.5351   7.8806   8.7872   8.7883  10.1271

          k = 0.1667-0.5000 0.2378 (   640 PWs)   bands (ev):

   -46.1506 -22.7959 -22.6964 -22.6378  -7.2570  -6.7843  -6.6356  -4.9846
    -4.9515  -4.9172  -4.7666  -4.6884   2.8361   5.6409   5.8784   6.2561
     6.8532   7.7063   8.1800   8.6522   9.0230   9.5138

          k = 0.1667-0.5000-0.4756 (   632 PWs)   bands (ev):

   -46.1499 -22.7942 -22.7047 -22.6285  -7.2225  -6.7557  -6.4962  -4.9798
    -4.9100  -4.8976  -4.7782  -4.6113   2.7645   5.3487   5.7360   5.9468
     6.3327   7.5812   8.3847   8.6917   8.7163   9.6741

          k = 0.3333 0.3333 0.0000 (   638 PWs)   bands (ev):

   -46.1501 -22.7764 -22.6808 -22.6660  -7.2330  -6.7959  -6.7321  -4.9864
    -4.9481  -4.8706  -4.7629  -4.7205   2.6632   5.9589   6.2174   6.9476
     7.0918   7.1844   7.9649   8.4957   9.3523   9.5691

          k = 0.3333 0.3333 0.2378 (   636 PWs)   bands (ev):

   -46.1500 -22.7849 -22.6777 -22.6736  -7.1135  -6.8216  -6.6702  -4.9447
    -4.9417  -4.8548  -4.7286  -4.6612   2.8405   5.6166   5.7337   5.9198
     6.7125   7.0941   8.5071   9.0185   9.0219   9.4144

          k = 0.3333 0.3333-0.4756 (   634 PWs)   bands (ev):

   -46.1499 -22.7986 -22.6795 -22.6708  -7.0420  -6.8481  -6.5479  -4.9400
    -4.9021  -4.8290  -4.6825  -4.6163   3.0107   5.1991   5.2778   5.6775
     6.3926   6.6367   7.8279   9.3561   9.3575   9.5978

          k = 0.3333-0.5000 0.0000 (   634 PWs)   bands (ev):

   -46.1497 -22.7647 -22.6976 -22.6643  -7.1040  -6.7681  -6.7556  -4.9776
    -4.9219  -4.8260  -4.7422  -4.7340   2.4944   5.6607   6.2651   6.7412
     7.2691   7.4729   7.5979   8.4877   9.3049   9.5525

          k = 0.3333-0.5000 0.2378 (   634 PWs)   bands (ev):

   -46.1496 -22.7853 -22.6941 -22.6682  -6.9917  -6.7916  -6.7115  -4.9376
    -4.9177  -4.7983  -4.6934  -4.6621   2.7774   5.4980   5.6243   5.7304
     6.4875   7.1484   8.1355   9.0118   9.0321   9.5376

          k = 0.3333-0.5000-0.4756 (   628 PWs)   bands (ev):

   -46.1493 -22.7977 -22.6871 -22.6664  -6.9703  -6.8146  -6.5614  -4.9192
    -4.8775  -4.7781  -4.6409  -4.5838   3.1198   5.0010   5.1766   5.4952
     6.2239   6.6040   7.1332   9.4900   9.5254   9.7547

          k =-0.5000-0.5000 0.0000 (   656 PWs)   bands (ev):

   -46.1505 -22.7839 -22.7080 -22.7080  -7.0145  -6.7506  -6.7506  -4.9826
    -4.8962  -4.7680  -4.7680  -4.7473   2.2789   5.4524   6.1065   6.9493
     6.9493   7.5025   7.5025   8.1955   8.7219   9.7251

          k =-0.5000-0.5000 0.2378 (   652 PWs)   bands (ev):

   -46.1502 -22.8008 -22.7039 -22.7039  -6.8112  -6.7999  -6.7999  -4.9420
    -4.8962  -4.7330  -4.6710  -4.6710   2.6609   5.3800   5.5864   5.5864
     6.1361   7.0338   7.4699   9.0296   9.0296   9.7659

          k =-0.5000-0.5000-0.4756 (   640 PWs)   bands (ev):

   -46.1497 -22.8048 -22.7002 -22.7002  -6.8448  -6.8448  -6.5979  -4.8894
    -4.8837  -4.7224  -4.5788  -4.5788   3.2271   5.0016   5.0016   5.2572
     6.1498   6.2003   6.2083   9.7439   9.7439   9.7926

     highest occupied level (ev):    10.5487

!    total energy              =    -379.77977850 Ry
     estimated scf accuracy    <          1.6E-11 Ry

     The total energy is the sum of the following terms:
     one-electron contribution =     -84.49763959 Ry
     hartree contribution      =      71.09573224 Ry
     xc contribution           =    -102.32286754 Ry
     ewald contribution        =    -264.05500360 Ry

     convergence has been achieved in   9 iterations

     negative rho (up, down):  1.513E-02 0.000E+00

     Forces acting on atoms (cartesian axes, Ry/au):

     atom    1 type  1   force =     0.00000000    0.00000000    0.00046751
     atom    2 type  2   force =     0.00000000    0.00000000   -0.00142432
     atom    3 type  3   force =     0.00000000    0.00000000    0.00071424
     atom    4 type  3   force =     0.00000000    0.00000000    0.00012129
     atom    5 type  3   force =     0.00000000    0.00000000    0.00012129

     Total force =     0.001669     Total SCF correction =     0.000020


     Computing stress (Cartesian axis) and pressure


     negative rho (up, down):  1.513E-02 0.000E+00
          total   stress  (Ry/bohr**3)                   (kbar)     P=    -1162.65
  -0.00804588   0.00000000   0.00000000        -1183.59        0.00        0.00
   0.00000000  -0.00804588   0.00000000            0.00    -1183.59        0.00
   0.00000000   0.00000000  -0.00761885            0.00        0.00    -1120.77

     Energy error            =      2.7E-05 Ry
     Gradient error          =      1.4E-03 Ry/Bohr

     number of scf cycles    =   9
     number of bfgs steps    =   8

     energy             old  =    -379.7797515544 Ry
     energy             new  =    -379.7797784998 Ry

     CASE: energy            _new < energy            _old

     new trust radius        =       0.0018502572 bohr
     new conv_thr            =            1.0E-10 Ry


ATOMIC_POSITIONS (crystal)
Pb               0.0000000000        0.0000000000        0.9915809551
Ti               0.5000000000        0.5000000000        0.5377928748
O                0.5000000000        0.5000000000        0.1106332568
O                0.5000000000        0.0000000000        0.6136386006
O                0.0000000000        0.5000000000        0.6136386006



     Writing config-only to output data dir ./pto_20.save/ :
     XML data file
     NEW-OLD atomic charge density approx. for the potential

     Check: negative core charge=   -0.000010

     negative rho (up, down):  1.513E-02 0.000E+00

     total cpu time spent up to now is       52.8 secs

     Self-consistent Calculation

     iteration #  1     ecut=    20.00 Ry     beta= 0.70
     CG style diagonalization
     ethr =  1.00E-06,  avg # of iterations =  2.8

     Threshold (ethr) on eigenvalues was too large:
     Diagonalizing with lowered threshold

     CG style diagonalization
     c_bands:  1 eigenvalues not converged
     ethr =  5.08E-09,  avg # of iterations =  6.0

     negative rho (up, down):  1.513E-02 0.000E+00

     total cpu time spent up to now is       54.0 secs

     total energy              =    -379.77978019 Ry
     estimated scf accuracy    <       0.00000047 Ry

     iteration #  2     ecut=    20.00 Ry     beta= 0.70
     CG style diagonalization
     ethr =  1.06E-09,  avg # of iterations =  4.1

     negative rho (up, down):  1.513E-02 0.000E+00

     total cpu time spent up to now is       54.5 secs

     total energy              =    -379.77978023 Ry
     estimated scf accuracy    <       0.00000026 Ry

     iteration #  3     ecut=    20.00 Ry     beta= 0.70
     CG style diagonalization
     ethr =  5.81E-10,  avg # of iterations =  4.0

     negative rho (up, down):  1.513E-02 0.000E+00

     total cpu time spent up to now is       55.0 secs

     total energy              =    -379.77978030 Ry
     estimated scf accuracy    <       0.00000014 Ry

     iteration #  4     ecut=    20.00 Ry     beta= 0.70
     CG style diagonalization
     ethr =  3.23E-10,  avg # of iterations =  3.6

     negative rho (up, down):  1.513E-02 0.000E+00

     total cpu time spent up to now is       55.4 secs

     total energy              =    -379.77978033 Ry
     estimated scf accuracy    <       0.00000001 Ry

     iteration #  5     ecut=    20.00 Ry     beta= 0.70
     CG style diagonalization
     ethr =  2.45E-11,  avg # of iterations =  4.2

     negative rho (up, down):  1.513E-02 0.000E+00

     total cpu time spent up to now is       55.9 secs

     total energy              =    -379.77978033 Ry
     estimated scf accuracy    <          1.9E-09 Ry

     iteration #  6     ecut=    20.00 Ry     beta= 0.70
     CG style diagonalization
     ethr =  4.22E-12,  avg # of iterations =  4.6

     negative rho (up, down):  1.513E-02 0.000E+00

     total cpu time spent up to now is       56.4 secs

     total energy              =    -379.77978033 Ry
     estimated scf accuracy    <          7.0E-10 Ry

     iteration #  7     ecut=    20.00 Ry     beta= 0.70
     CG style diagonalization
     ethr =  1.59E-12,  avg # of iterations =  4.1

     negative rho (up, down):  1.513E-02 0.000E+00

     total cpu time spent up to now is       56.9 secs

     End of self-consistent calculation

          k = 0.0000 0.0000 0.0000 (   643 PWs)   bands (ev):

   -46.1513 -22.7798 -22.6215 -22.6215  -8.0115  -6.9316  -6.6947  -4.9627
    -4.9627  -4.9269  -4.8901  -4.7430   4.1764   6.2919   6.2919   6.8714
     8.0975   8.0975   8.5269   8.6159   8.9345   8.9345

          k = 0.0000 0.0000 0.2378 (   643 PWs)   bands (ev):

   -46.1509 -22.8018 -22.6216 -22.6216  -7.8333  -6.8922  -6.6404  -4.9800
    -4.9800  -4.9249  -4.8820  -4.7980   3.4536   6.3514   6.3514   6.8602
     7.9263   7.9263   8.4548   8.8150   8.9757   8.9757

          k = 0.0000 0.0000-0.4756 (   636 PWs)   bands (ev):

   -46.1504 -22.7970 -22.6196 -22.6196  -7.6358  -6.8471  -6.5920  -4.9910
    -4.9910  -4.9343  -4.8463  -4.8462   2.9505   6.2201   6.3450   6.3450
     7.8078   7.8078   8.4268   9.1269   9.1269  10.1156

          k = 0.0000 0.1667 0.0000 (   651 PWs)   bands (ev):

   -46.1511 -22.7918 -22.6366 -22.6289  -7.8833  -6.9118  -6.6819  -4.9960
    -4.9682  -4.9458  -4.8811  -4.7215   3.7729   6.2887   6.3988   6.7764
     8.0947   8.1273   8.4999   8.5280   8.5716   8.9698

          k = 0.0000 0.1667 0.2378 (   638 PWs)   bands (ev):

   -46.1502 -22.7984 -22.6317 -22.6162  -7.7168  -6.8786  -6.6214  -4.9811
    -4.9790  -4.9386  -4.8709  -4.7507   3.2688   6.1215   6.4672   6.9823
     7.6104   7.9196   8.2910   8.6984   8.7178   9.4044

          k = 0.0000 0.1667-0.4756 (   630 PWs)   bands (ev):

   -46.1497 -22.8004 -22.6278 -22.6101  -7.5416  -6.8416  -6.5583  -4.9883
    -4.9752  -4.9347  -4.8503  -4.7803   2.8486   5.7937   6.5009   6.6797
     7.4801   7.8542   8.3277   8.8081   8.8284  10.0723

          k = 0.0000 0.3333 0.0000 (   638 PWs)   bands (ev):

   -46.1495 -22.7841 -22.6737 -22.6113  -7.6036  -6.8628  -6.6724  -5.0127
    -4.9674  -4.9585  -4.8400  -4.7281   3.2441   6.0324   6.6727   6.7305
     7.8242   7.8784   8.2444   8.3637   8.6581   9.7374

          k = 0.0000 0.3333 0.2378 (   638 PWs)   bands (ev):

   -46.1495 -22.7959 -22.6768 -22.6101  -7.4864  -6.8340  -6.5916  -4.9792
    -4.9790  -4.9571  -4.8400  -4.7095   2.9443   5.8649   6.5666   6.8135
     7.2495   7.7245   7.8671   8.3261   8.9222   9.8016

          k = 0.0000 0.3333-0.4756 (   630 PWs)   bands (ev):

   -46.1490 -22.7970 -22.6666 -22.6138  -7.3908  -6.7898  -6.4885  -4.9869
    -4.9562  -4.9475  -4.8458  -4.6676   2.6826   5.4930   6.4229   6.8186
     7.1397   7.4537   7.6861   8.3457   9.3802   9.7246

          k = 0.0000-0.5000 0.0000 (   630 PWs)   bands (ev):

   -46.1487 -22.7778 -22.6796 -22.6150  -7.4476  -6.8288  -6.6889  -5.0223
    -4.9659  -4.9658  -4.7721  -4.7696   3.0464   5.7388   6.9519   6.9860
     7.3970   7.4685   8.2891   8.3055   8.6660  10.5472

          k = 0.0000-0.5000 0.2378 (   628 PWs)   bands (ev):

   -46.1485 -22.7843 -22.6913 -22.6021  -7.3777  -6.7770  -6.5976  -4.9815
    -4.9681  -4.9662  -4.8015  -4.6960   2.8197   5.6552   6.5730   6.7856
     7.2070   7.3426   8.0361   8.3355   8.9662  10.0276

          k = 0.0000-0.5000-0.4756 (   640 PWs)   bands (ev):

   -46.1490 -22.7963 -22.7060 -22.6231  -7.3448  -6.7237  -6.4597  -4.9864
    -4.9711  -4.9453  -4.8365  -4.6331   2.5977   5.3697   6.0733   6.7798
     7.0948   7.3653   7.5030   8.2735   9.2802   9.6616

          k = 0.1667 0.1667 0.0000 (   637 PWs)   bands (ev):

   -46.1499 -22.7856 -22.6283 -22.6254  -7.7552  -6.8862  -6.6799  -4.9930
    -4.9705  -4.9374  -4.8526  -4.7028   3.4917   6.3121   6.4833   6.7972
     7.6910   7.8859   8.4440   8.6414   8.9666   9.2132

          k = 0.1667 0.1667 0.2378 (   636 PWs)   bands (ev):

   -46.1498 -22.7915 -22.6330 -22.6322  -7.5975  -6.8675  -6.6176  -4.9883
    -4.9655  -4.9381  -4.8438  -4.7232   3.1596   6.1177   6.1579   6.9078
     7.5300   7.5695   8.2923   8.7855   8.9833   9.4060

          k = 0.1667 0.1667-0.4756 (   628 PWs)   bands (ev):

   -46.1493 -22.7982 -22.6368 -22.6185  -7.4377  -6.8482  -6.5435  -4.9996
    -4.9371  -4.9175  -4.8383  -4.7399   2.8423   5.8422   5.9422   6.6335
     7.4291   7.5200   8.2726   8.8974   9.0932   9.8147

          k = 0.1667 0.3333 0.0000 (   640 PWs)   bands (ev):

   -46.1494 -22.7785 -22.6752 -22.6364  -7.4827  -6.8402  -6.6930  -5.0044
    -4.9674  -4.9350  -4.8154  -4.7169   3.0443   6.0484   6.5141   6.8253
     7.1803   7.7366   8.1187   8.6981   8.8567   9.7707

          k = 0.1667 0.3333 0.2378 (   635 PWs)   bands (ev):

   -46.1490 -22.7916 -22.6717 -22.6307  -7.3626  -6.8313  -6.6174  -4.9821
    -4.9595  -4.9228  -4.7997  -4.6868   2.9342   5.8477   5.9984   6.5204
     6.9402   7.5919   8.3883   8.6810   9.0373   9.5429

          k = 0.1667 0.3333-0.4756 (   632 PWs)   bands (ev):

   -46.1487 -22.7996 -22.6742 -22.6321  -7.2702  -6.8138  -6.5116  -4.9863
    -4.9361  -4.8916  -4.8037  -4.6530   2.7910   5.4526   5.8936   6.2759
     6.4877   7.4621   8.4741   8.7340   9.0771   9.5058

          k = 0.1667-0.5000 0.0000 (   634 PWs)   bands (ev):

   -46.1487 -22.7724 -22.6914 -22.6308  -7.3304  -6.8070  -6.7193  -5.0045
    -4.9574  -4.9213  -4.7635  -4.7589   2.8575   5.7239   6.6722   6.9005
     7.2573   7.5372   7.8767   8.7878   8.7887  10.1260

          k = 0.1667-0.5000 0.2378 (   640 PWs)   bands (ev):

   -46.1490 -22.7955 -22.6945 -22.6360  -7.2549  -6.7820  -6.6369  -4.9851
    -4.9519  -4.9177  -4.7673  -4.6892   2.8363   5.6436   5.8802   6.2564
     6.8534   7.7073   8.1825   8.6509   9.0242   9.5116

          k = 0.1667-0.5000-0.4756 (   632 PWs)   bands (ev):

   -46.1484 -22.7939 -22.7028 -22.6267  -7.2198  -6.7533  -6.4982  -4.9802
    -4.9105  -4.8981  -4.7789  -4.6120   2.7645   5.3486   5.7389   5.9487
     6.3328   7.5839   8.3854   8.6901   8.7168   9.6735

          k = 0.3333 0.3333 0.0000 (   638 PWs)   bands (ev):

   -46.1485 -22.7761 -22.6789 -22.6641  -7.2327  -6.7933  -6.7318  -4.9869
    -4.9487  -4.8712  -4.7636  -4.7215   2.6648   5.9610   6.2204   6.9463
     7.0937   7.1808   7.9689   8.4956   9.3547   9.5677

          k = 0.3333 0.3333 0.2378 (   636 PWs)   bands (ev):

   -46.1484 -22.7845 -22.6759 -22.6718  -7.1121  -6.8190  -6.6711  -4.9452
    -4.9423  -4.8553  -4.7293  -4.6621   2.8419   5.6172   5.7336   5.9216
     6.7155   7.0945   8.5069   9.0191   9.0204   9.4163

          k = 0.3333 0.3333-0.4756 (   634 PWs)   bands (ev):

   -46.1484 -22.7983 -22.6777 -22.6689  -7.0396  -6.8456  -6.5499  -4.9405
    -4.9026  -4.8295  -4.6831  -4.6170   3.0117   5.2009   5.2772   5.6772
     6.3946   6.6408   7.8261   9.3549   9.3604   9.5967

          k = 0.3333-0.5000 0.0000 (   634 PWs)   bands (ev):

   -46.1482 -22.7643 -22.6957 -22.6624  -7.1045  -6.7657  -6.7544  -4.9781
    -4.9224  -4.8266  -4.7431  -4.7349   2.4962   5.6637   6.2687   6.7386
     7.2650   7.4762   7.6008   8.4879   9.3041   9.5551

          k = 0.3333-0.5000 0.2378 (   634 PWs)   bands (ev):

   -46.1480 -22.7849 -22.6922 -22.6663  -6.9904  -6.7893  -6.7123  -4.9382
    -4.9182  -4.7988  -4.6941  -4.6629   2.7795   5.4981   5.6268   5.7303
     6.4908   7.1487   8.1350   9.0112   9.0315   9.5400

          k = 0.3333-0.5000-0.4756 (   628 PWs)   bands (ev):

   -46.1478 -22.7974 -22.6852 -22.6645  -6.9679  -6.8124  -6.5635  -4.9197
    -4.8780  -4.7785  -4.6416  -4.5845   3.1220   5.0022   5.1761   5.4959
     6.2266   6.6075   7.1306   9.4887   9.5282   9.7537

          k =-0.5000-0.5000 0.0000 (   656 PWs)   bands (ev):

   -46.1489 -22.7836 -22.7062 -22.7062  -7.0165  -6.7481  -6.7481  -4.9831
    -4.8968  -4.7690  -4.7690  -4.7478   2.2814   5.4552   6.1115   6.9451
     6.9451   7.5061   7.5061   8.1950   8.7223   9.7279

          k =-0.5000-0.5000 0.2378 (   652 PWs)   bands (ev):

   -46.1487 -22.8005 -22.7020 -22.7020  -6.8133  -6.7976  -6.7976  -4.9425
    -4.8967  -4.7334  -4.6718  -4.6718   2.6639   5.3823   5.5857   5.5857
     6.1408   7.0342   7.4686   9.0292   9.0292   9.7687

          k =-0.5000-0.5000-0.4756 (   640 PWs)   bands (ev):

   -46.1481 -22.8044 -22.6983 -22.6983  -6.8426  -6.8426  -6.6001  -4.8900
    -4.8842  -4.7227  -4.5795  -4.5795   3.2316   5.0012   5.0012   5.2582
     6.1546   6.2017   6.2050   9.7428   9.7428   9.7955

     highest occupied level (ev):    10.5472

!    total energy              =    -379.77978033 Ry
     estimated scf accuracy    <          1.8E-11 Ry

     The total energy is the sum of the following terms:
     one-electron contribution =     -84.47265135 Ry
     hartree contribution      =      71.08396859 Ry
     xc contribution           =    -102.32272318 Ry
     ewald contribution        =    -264.06837440 Ry

     convergence has been achieved in   7 iterations

     negative rho (up, down):  1.513E-02 0.000E+00

     Forces acting on atoms (cartesian axes, Ry/au):

     atom    1 type  1   force =     0.00000000    0.00000000    0.00012714
     atom    2 type  2   force =     0.00000000    0.00000000   -0.00036004
     atom    3 type  3   force =     0.00000000    0.00000000    0.00026196
     atom    4 type  3   force =     0.00000000    0.00000000   -0.00001453
     atom    5 type  3   force =     0.00000000    0.00000000   -0.00001453

     Total force =     0.000464     Total SCF correction =     0.000001


     Computing stress (Cartesian axis) and pressure


     negative rho (up, down):  1.513E-02 0.000E+00
          total   stress  (Ry/bohr**3)                   (kbar)     P=    -1162.71
  -0.00804815   0.00000000   0.00000000        -1183.92        0.00        0.00
   0.00000000  -0.00804815   0.00000000            0.00    -1183.92        0.00
   0.00000000   0.00000000  -0.00761561            0.00        0.00    -1120.29

     Energy error            =      1.8E-06 Ry
     Gradient error          =      3.6E-04 Ry/Bohr

     bfgs converged in  10 scf cycles and   9 bfgs steps
     (criteria: energy <  1.0E-04 Ry, force <  1.0E-03 Ry/Bohr)

     End of BFGS Geometry Optimization

     Final energy             =    -379.7797803340 Ry

     File ./pto_20.bfgs deleted, as requested
Begin final coordinates

ATOMIC_POSITIONS (crystal)
Pb               0.0000000000        0.0000000000        0.9915809551
Ti               0.5000000000        0.5000000000        0.5377928748
O                0.5000000000        0.5000000000        0.1106332568
O                0.5000000000        0.0000000000        0.6136386006
O                0.0000000000        0.5000000000        0.6136386006
End final coordinates



     Writing all to output data dir ./pto_20.save/ :
     XML data file, charge density, pseudopotentials, collected wavefunctions
 
     init_run     :      0.17s CPU      0.25s WALL (       1 calls)
     electrons    :     48.89s CPU     53.26s WALL (      10 calls)
     update_pot   :      0.01s CPU      0.02s WALL (       9 calls)
     forces       :      0.36s CPU      0.37s WALL (      10 calls)
     stress       :      2.74s CPU      2.75s WALL (      10 calls)

     Called by init_run:
     wfcinit      :      0.08s CPU      0.11s WALL (       1 calls)
     potinit      :      0.01s CPU      0.01s WALL (       1 calls)
     hinit0       :      0.07s CPU      0.10s WALL (       1 calls)

     Called by electrons:
     c_bands      :     44.36s CPU     48.48s WALL (      95 calls)
     sum_band     :      3.48s CPU      3.63s WALL (      95 calls)
     v_of_rho     :      0.05s CPU      0.05s WALL (      99 calls)
     newd         :      1.02s CPU      1.04s WALL (      99 calls)
     mix_rho      :      0.04s CPU      0.04s WALL (      95 calls)

     Called by c_bands:
     init_us_2    :      0.20s CPU      0.21s WALL (    6330 calls)
     init_us_2:cp :      0.19s CPU      0.20s WALL (    6330 calls)
     ccgdiagg     :     40.78s CPU     44.55s WALL (    2850 calls)
     wfcrot       :      3.42s CPU      3.77s WALL (    2400 calls)

     Called by *cgdiagg:
     h_psi        :     21.13s CPU     23.12s WALL (  237333 calls)
     s_psi        :      2.95s CPU      3.26s WALL (  472266 calls)

     Called by h_psi:
     h_psi:calbec :      4.19s CPU      4.58s WALL (  237333 calls)
     vloc_psi     :     13.62s CPU     14.92s WALL (  237333 calls)
     add_vuspsi   :      1.59s CPU      1.76s WALL (  237333 calls)
     hs_1psi      :     21.53s CPU     23.52s WALL (  234933 calls)
     s_1psi       :      6.18s CPU      6.73s WALL (  234933 calls)

     General routines
     calbec       :      7.52s CPU      8.22s WALL (  476616 calls)
     fft          :      0.05s CPU      0.06s WALL (     669 calls)
     ffts         :      0.01s CPU      0.01s WALL (     194 calls)
     fftw         :     12.15s CPU     13.25s WALL (  638706 calls)
     interpolate  :      0.01s CPU      0.01s WALL (      99 calls)
 
     Parallel routines
 
     PWSCF        :     52.52s CPU     57.51s WALL

 
   This run was terminated on:   0:28:16  13Nov2025            

=------------------------------------------------------------------------------=
   JOB DONE.
=------------------------------------------------------------------------------=
TACC:  Shutdown complete. Exiting. 
