TACC:  Starting up job 2406366 
TACC:  Starting parallel tasks... 

     Program PWSCF v.7.3 starts on 24Sep2025 at  0:39:58 

     This program is part of the open-source Quantum ESPRESSO suite
     for quantum simulation of materials; please cite
         "P. Giannozzi et al., J. Phys.:Condens. Matter 21 395502 (2009);
         "P. Giannozzi et al., J. Phys.:Condens. Matter 29 465901 (2017);
         "P. Giannozzi et al., J. Chem. Phys. 152 154105 (2020);
          URL http://www.quantum-espresso.org", 
     in publications or presentations arising from this work. More details at
     http://www.quantum-espresso.org/quote

     Parallel version (MPI & OpenMP), running on      10 processor cores
     Number of MPI processes:                10
     Threads/MPI process:                     1

     MPI processes distributed on     1 nodes
     183198 MiB available memory on the printing compute node when the environment starts
 
     Waiting for input...
     Reading input from standard input
Warning: card &CELL ignored
Warning: card  CELL_DYNAMICS = 'BFGS', ignored
Warning: card  PRESS=0.D0, ignored
Warning: card / ignored
     Message from routine read_cards :
     DEPRECATED: no units specified in ATOMIC_POSITIONS card
     Message from routine read_cards :
     ATOMIC_POSITIONS: units set to alat

     Current dimensions of program PWSCF are:
     Max number of different atomic species (ntypx) = 10
     Max number of k-points (npk) =  40000
     Max angular momentum in pseudopotentials (lmaxx) =  4
 
     R & G space division:  proc/nbgrp/npool/nimage =      10
     Subspace diagonalization in iterative solution of the eigenvalue problem:
     a serial algorithm will be used

 
     Parallelization info
     --------------------
     sticks:   dense  smooth     PW     G-vecs:    dense   smooth      PW
     Min         442     176     50                22114     5600     870
     Max         443     177     51                22117     5603     871
     Sum        4421    1765    509               221143    56019    8709
 
     Using Slab Decomposition
 


     bravais-lattice index     =            1
     lattice parameter (alat)  =       7.4576  a.u.
     unit-cell volume          =     414.7648 (a.u.)^3
     number of atoms/cell      =            5
     number of atomic types    =            3
     number of electrons       =        40.00
     number of Kohn-Sham states=           20
     kinetic-energy cutoff     =     100.0000  Ry
     charge density cutoff     =    1000.0000  Ry
     scf convergence threshold =      1.0E-08
     mixing beta               =       0.7000
     number of iterations used =            8  plain     mixing
     Exchange-correlation= SLA  PZ   NOGX NOGC
                           (   1   1   0   0   0   0   0)

     celldm(1)=   7.457627  celldm(2)=   0.000000  celldm(3)=   0.000000
     celldm(4)=   0.000000  celldm(5)=   0.000000  celldm(6)=   0.000000

     crystal axes: (cart. coord. in units of alat)
               a(1) = (   1.000000   0.000000   0.000000 )  
               a(2) = (   0.000000   1.000000   0.000000 )  
               a(3) = (   0.000000   0.000000   1.000000 )  

     reciprocal axes: (cart. coord. in units 2 pi/alat)
               b(1) = (  1.000000  0.000000  0.000000 )  
               b(2) = (  0.000000  1.000000  0.000000 )  
               b(3) = (  0.000000  0.000000  1.000000 )  


     PseudoPot. # 1 for Ca read from file:
     /scratch/11018/zhc/assisgnment1/CaTiO3/Ca_LDA.UPF
     MD5 check sum: d2d4e7693e10d071152e9eeb7dd009f3
     Pseudo is Ultrasoft + core correction, Zval = 10.0
     Generated by new atomic code, or converted to UPF format
     Using radial grid of  845 points,  6 beta functions with: 
                l(1) =   0
                l(2) =   0
                l(3) =   1
                l(4) =   1
                l(5) =   2
                l(6) =   2
     Q(r) pseudized with  8 coefficients,  rinner =    1.500   1.500   1.500
                                                       1.500   1.500

     PseudoPot. # 2 for Ti read from file:
     /scratch/11018/zhc/assisgnment1/CaTiO3/Ti_LDA.UPF
     MD5 check sum: 0d9f225c038fe889ca2a701dcc8d72cb
     Pseudo is Ultrasoft + core correction, Zval = 12.0
     Generated by new atomic code, or converted to UPF format
     Using radial grid of  851 points,  6 beta functions with: 
                l(1) =   0
                l(2) =   0
                l(3) =   1
                l(4) =   1
                l(5) =   2
                l(6) =   2
     Q(r) pseudized with  6 coefficients,  rinner =    1.000   1.000   1.000
                                                       1.000   1.000

     PseudoPot. # 3 for O  read from file:
     /scratch/11018/zhc/assisgnment1/CaTiO3/O_LDA.UPF
     MD5 check sum: 194b818514d2a7dbb603bb78519a4f40
     Pseudo is Ultrasoft + core correction, Zval =  6.0
     Generated by new atomic code, or converted to UPF format
     Using radial grid of  737 points,  5 beta functions with: 
                l(1) =   0
                l(2) =   0
                l(3) =   1
                l(4) =   1
                l(5) =   2
     Q(r) pseudized with  8 coefficients,  rinner =    0.900   0.900   0.900
                                                       0.900   0.900

     atomic species   valence    mass     pseudopotential
     Ca               10.00    40.07800     Ca( 1.00)
     Ti               12.00    47.88000     Ti( 1.00)
     O                 6.00    16.00000     O ( 1.00)

     48 Sym. Ops., with inversion, found



   Cartesian axes

     site n.     atom                  positions (alat units)
         1        Ca     tau(   1) = (   0.0000000   0.0000000   0.0000000  )
         2        Ti     tau(   2) = (   0.5000000   0.5000000   0.5000000  )
         3        O      tau(   3) = (   0.5000000   0.5000000   0.0000000  )
         4        O      tau(   4) = (   0.5000000   0.0000000   0.5000000  )
         5        O      tau(   5) = (   0.0000000   0.5000000   0.5000000  )

     number of k points=    20
                       cart. coord. in units 2pi/alat
        k(    1) = (   0.0000000   0.0000000   0.0000000), wk =   0.0092593
        k(    2) = (   0.0000000   0.0000000   0.1666667), wk =   0.0555556
        k(    3) = (   0.0000000   0.0000000   0.3333333), wk =   0.0555556
        k(    4) = (   0.0000000   0.0000000  -0.5000000), wk =   0.0277778
        k(    5) = (   0.0000000   0.1666667   0.1666667), wk =   0.1111111
        k(    6) = (   0.0000000   0.1666667   0.3333333), wk =   0.2222222
        k(    7) = (   0.0000000   0.1666667  -0.5000000), wk =   0.1111111
        k(    8) = (   0.0000000   0.3333333   0.3333333), wk =   0.1111111
        k(    9) = (   0.0000000   0.3333333  -0.5000000), wk =   0.1111111
        k(   10) = (   0.0000000  -0.5000000  -0.5000000), wk =   0.0277778
        k(   11) = (   0.1666667   0.1666667   0.1666667), wk =   0.0740741
        k(   12) = (   0.1666667   0.1666667   0.3333333), wk =   0.2222222
        k(   13) = (   0.1666667   0.1666667  -0.5000000), wk =   0.1111111
        k(   14) = (   0.1666667   0.3333333   0.3333333), wk =   0.2222222
        k(   15) = (   0.1666667   0.3333333  -0.5000000), wk =   0.2222222
        k(   16) = (   0.1666667  -0.5000000  -0.5000000), wk =   0.0555556
        k(   17) = (   0.3333333   0.3333333   0.3333333), wk =   0.0740741
        k(   18) = (   0.3333333   0.3333333  -0.5000000), wk =   0.1111111
        k(   19) = (   0.3333333  -0.5000000  -0.5000000), wk =   0.0555556
        k(   20) = (  -0.5000000  -0.5000000  -0.5000000), wk =   0.0092593

     Dense  grid:   221143 G-vectors     FFT dimensions: (  75,  75,  75)

     Smooth grid:    56019 G-vectors     FFT dimensions: (  48,  48,  48)

     Estimated max dynamical RAM per process >      94.24 MB

     Estimated total dynamical RAM >     942.39 MB

     Initial potential from superposition of free atoms

     starting charge      38.9952, renormalised to      40.0000

     negative rho (up, down):  8.739E-04 0.000E+00
     Starting wfcs are   32 randomized atomic wfcs

     total cpu time spent up to now is        0.9 secs

     Self-consistent Calculation

     iteration #  1     ecut=   100.00 Ry     beta= 0.70
     CG style diagonalization
     ethr =  1.00E-02,  avg # of iterations =  2.2

     negative rho (up, down):  1.154E-03 0.000E+00

     total cpu time spent up to now is        1.7 secs

     total energy              =    -291.27874095 Ry
     estimated scf accuracy    <       0.83342986 Ry

     iteration #  2     ecut=   100.00 Ry     beta= 0.70
     CG style diagonalization
     ethr =  2.08E-03,  avg # of iterations =  5.3

     negative rho (up, down):  6.334E-04 0.000E+00

     total cpu time spent up to now is        3.1 secs

     total energy              =    -290.32483924 Ry
     estimated scf accuracy    <       8.70929006 Ry

     iteration #  3     ecut=   100.00 Ry     beta= 0.70
     CG style diagonalization
     ethr =  2.08E-03,  avg # of iterations =  4.6

     negative rho (up, down):  7.407E-04 0.000E+00

     total cpu time spent up to now is        4.3 secs

     total energy              =    -291.70812391 Ry
     estimated scf accuracy    <       0.20134750 Ry

     iteration #  4     ecut=   100.00 Ry     beta= 0.70
     CG style diagonalization
     ethr =  5.03E-04,  avg # of iterations =  3.6

     negative rho (up, down):  8.067E-04 0.000E+00

     total cpu time spent up to now is        5.2 secs

     total energy              =    -291.72643624 Ry
     estimated scf accuracy    <       0.07283251 Ry

     iteration #  5     ecut=   100.00 Ry     beta= 0.70
     CG style diagonalization
     ethr =  1.82E-04,  avg # of iterations =  3.5

     negative rho (up, down):  8.557E-04 0.000E+00

     total cpu time spent up to now is        6.2 secs

     total energy              =    -291.73370233 Ry
     estimated scf accuracy    <       0.00643244 Ry

     iteration #  6     ecut=   100.00 Ry     beta= 0.70
     CG style diagonalization
     ethr =  1.61E-05,  avg # of iterations =  3.8

     negative rho (up, down):  8.695E-04 0.000E+00

     total cpu time spent up to now is        7.2 secs

     total energy              =    -291.73619486 Ry
     estimated scf accuracy    <       0.00007126 Ry

     iteration #  7     ecut=   100.00 Ry     beta= 0.70
     CG style diagonalization
     ethr =  1.78E-07,  avg # of iterations =  4.8

     negative rho (up, down):  8.675E-04 0.000E+00

     total cpu time spent up to now is        8.5 secs

     total energy              =    -291.73638316 Ry
     estimated scf accuracy    <       0.00035229 Ry

     iteration #  8     ecut=   100.00 Ry     beta= 0.70
     CG style diagonalization
     ethr =  1.78E-07,  avg # of iterations =  3.9

     negative rho (up, down):  8.653E-04 0.000E+00

     total cpu time spent up to now is        9.5 secs

     total energy              =    -291.73639271 Ry
     estimated scf accuracy    <       0.00005163 Ry

     iteration #  9     ecut=   100.00 Ry     beta= 0.70
     CG style diagonalization
     ethr =  1.29E-07,  avg # of iterations =  3.4

     negative rho (up, down):  8.644E-04 0.000E+00

     total cpu time spent up to now is       10.4 secs

     total energy              =    -291.73639802 Ry
     estimated scf accuracy    <       0.00000388 Ry

     iteration # 10     ecut=   100.00 Ry     beta= 0.70
     CG style diagonalization
     ethr =  9.70E-09,  avg # of iterations =  3.8

     negative rho (up, down):  8.642E-04 0.000E+00

     total cpu time spent up to now is       11.5 secs

     total energy              =    -291.73639960 Ry
     estimated scf accuracy    <       0.00000015 Ry

     iteration # 11     ecut=   100.00 Ry     beta= 0.70
     CG style diagonalization
     ethr =  3.76E-10,  avg # of iterations =  4.4

     negative rho (up, down):  8.643E-04 0.000E+00

     total cpu time spent up to now is       12.6 secs

     total energy              =    -291.73640014 Ry
     estimated scf accuracy    <       0.00000015 Ry

     iteration # 12     ecut=   100.00 Ry     beta= 0.70
     CG style diagonalization
     ethr =  3.76E-10,  avg # of iterations =  3.4

     negative rho (up, down):  8.644E-04 0.000E+00

     total cpu time spent up to now is       13.5 secs

     total energy              =    -291.73640016 Ry
     estimated scf accuracy    <       0.00000001 Ry

     iteration # 13     ecut=   100.00 Ry     beta= 0.70
     CG style diagonalization
     ethr =  2.67E-11,  avg # of iterations =  4.2

     negative rho (up, down):  8.644E-04 0.000E+00

     total cpu time spent up to now is       14.7 secs

     total energy              =    -291.73640016 Ry
     estimated scf accuracy    <       0.00000001 Ry

     iteration # 14     ecut=   100.00 Ry     beta= 0.70
     CG style diagonalization
     ethr =  2.67E-11,  avg # of iterations =  3.4

     negative rho (up, down):  8.643E-04 0.000E+00

     total cpu time spent up to now is       15.6 secs

     End of self-consistent calculation

          k = 0.0000 0.0000 0.0000 (  6979 PWs)   bands (ev):

   -47.8461 -30.8797 -24.4084 -24.4084 -24.4084 -12.0666 -12.0666 -12.0666
    -8.9265  -7.8607  -7.8607   5.1059   5.1059   5.1059   7.0376   7.0376
     7.0376   7.6577   7.6577   7.6577

          k = 0.0000 0.0000 0.1667 (  7008 PWs)   bands (ev):

   -47.8458 -30.8785 -24.4233 -24.4077 -24.4077 -12.1144 -12.0643 -12.0643
    -8.7865  -7.8518  -7.7993   4.8122   5.1276   5.1276   6.6896   6.6896
     6.8278   6.8894   7.5355   7.5355

          k = 0.0000 0.0000 0.3333 (  6996 PWs)   bands (ev):

   -47.8454 -30.8761 -24.4528 -24.4064 -24.4064 -12.2051 -12.0597 -12.0597
    -8.5008  -7.8337  -7.6717   4.1848   5.2229   5.2229   5.8512   6.0533
     6.0533   6.4606   7.4270   7.4270

          k = 0.0000 0.0000-0.5000 (  6984 PWs)   bands (ev):

   -47.8451 -30.8749 -24.4675 -24.4057 -24.4057 -12.2483 -12.0573 -12.0573
    -8.3557  -7.8247  -7.6034   3.8416   5.3754   5.3754   5.4765   5.6751
     5.6751   6.2965   7.3886   7.3886

          k = 0.0000 0.1667 0.1667 (  6989 PWs)   bands (ev):

   -47.8456 -30.8773 -24.4228 -24.4225 -24.4071 -12.1202 -12.0944 -12.0619
    -8.6582  -7.8194  -7.7641   4.6536   4.9806   5.1460   5.9819   6.4716
     6.8059   6.9373   7.2283   7.3075

          k = 0.0000 0.1667 0.3333 (  7009 PWs)   bands (ev):

   -47.8451 -30.8748 -24.4523 -24.4214 -24.4057 -12.1912 -12.0919 -12.0570
    -8.4037  -7.7913  -7.6422   4.1448   4.7710   5.2320   5.2359   5.9590
     6.1824   6.8827   7.1078   7.1489

          k = 0.0000 0.1667-0.5000 (  6994 PWs)   bands (ev):

   -47.8449 -30.8736 -24.4670 -24.4208 -24.4050 -12.2293 -12.0867 -12.0546
    -8.2814  -7.7777  -7.5681   3.8352   4.5489   5.0844   5.3836   5.6077
     5.9709   6.8730   7.0514   7.0542

          k = 0.0000 0.3333 0.3333 (  7015 PWs)   bands (ev):

   -47.8447 -30.8723 -24.4515 -24.4512 -24.4044 -12.1713 -12.1472 -12.0517
    -8.2527  -7.6645  -7.5656   3.8882   4.3150   4.3832   5.2831   5.7111
     6.2474   6.4080   6.6988   7.6878

          k = 0.0000 0.3333-0.5000 (  7000 PWs)   bands (ev):

   -47.8444 -30.8710 -24.4662 -24.4509 -24.4037 -12.1914 -12.1442 -12.0490
    -8.2042  -7.5939  -7.4979   3.7599   3.7910   4.3180   5.4032   5.4781
     6.1740   6.3882   6.5616   7.8198

          k = 0.0000-0.5000-0.5000 (  7000 PWs)   bands (ev):

   -47.8442 -30.8697 -24.4658 -24.4658 -24.4031 -12.1724 -12.1724 -12.0462
    -8.1940  -7.4630  -7.4630   3.4747   3.6521   4.0093   5.4156   5.4156
     6.2721   6.2721   6.3628   8.0557

          k = 0.1667 0.1667 0.1667 (  7013 PWs)   bands (ev):

   -47.8454 -30.8760 -24.4221 -24.4221 -24.4219 -12.1229 -12.0898 -12.0898
    -8.5345  -7.7621  -7.7621   4.5103   4.9764   4.9764   5.9022   5.9022
     6.2748   7.1569   7.1569   7.2922

          k = 0.1667 0.1667 0.3333 (  7007 PWs)   bands (ev):

   -47.8449 -30.8736 -24.4518 -24.4209 -24.4207 -12.1788 -12.0931 -12.0806
    -8.2921  -7.7580  -7.6282   4.1053   4.6855   4.9269   5.1333   5.3793
     6.1481   6.9256   7.1105   7.2916

          k = 0.1667 0.1667-0.5000 (  6968 PWs)   bands (ev):

   -47.8447 -30.8724 -24.4665 -24.4203 -24.4199 -12.2125 -12.0880 -12.0760
    -8.1779  -7.7560  -7.5458   3.8316   4.4405   4.8486   4.9226   5.2513
     6.2060   6.7828   7.0901   7.2110

          k = 0.1667 0.3333 0.3333 (  6996 PWs)   bands (ev):

   -47.8444 -30.8711 -24.4507 -24.4506 -24.4194 -12.1610 -12.1388 -12.0764
    -8.1124  -7.6549  -7.5766   3.9040   4.3599   4.3829   4.8164   5.0750
     5.6815   7.0145   7.0511   7.7144

          k = 0.1667 0.3333-0.5000 (  7028 PWs)   bands (ev):

   -47.8442 -30.8698 -24.4655 -24.4501 -24.4187 -12.1791 -12.1365 -12.0720
    -8.0561  -7.6089  -7.5019   3.7945   3.8457   4.3157   4.7658   4.9361
     5.6778   6.9728   7.0402   7.8410

          k = 0.1667-0.5000-0.5000 (  7052 PWs)   bands (ev):

   -47.8440 -30.8686 -24.4650 -24.4650 -24.4181 -12.1624 -12.1624 -12.0679
    -8.0393  -7.4802  -7.4802   3.5894   3.6598   4.0134   4.7858   4.7858
     5.6185   7.0076   7.0076   8.0775

          k = 0.3333 0.3333 0.3333 (  7007 PWs)   bands (ev):

   -47.8440 -30.8686 -24.4495 -24.4491 -24.4491 -12.1439 -12.1219 -12.1219
    -7.8504  -7.5989  -7.5989   3.8688   4.3216   4.3216   4.4358   4.5293
     4.5293   7.5345   7.5345   7.8437

          k = 0.3333 0.3333-0.5000 (  7014 PWs)   bands (ev):

   -47.8437 -30.8674 -24.4640 -24.4487 -24.4483 -12.1546 -12.1250 -12.1133
    -7.7689  -7.6102  -7.5104   3.7685   3.9626   4.1732   4.2157   4.4614
     4.5442   7.6213   7.7059   7.9432

          k = 0.3333-0.5000-0.5000 (  6980 PWs)   bands (ev):

   -47.8435 -30.8662 -24.4633 -24.4633 -24.4477 -12.1422 -12.1422 -12.1107
    -7.7095  -7.5150  -7.5150   3.6378   3.8260   4.0217   4.1689   4.1689
     4.4368   7.8280   7.8280   8.1221

          k =-0.5000-0.5000-0.5000 (  7088 PWs)   bands (ev):

   -47.8433 -30.8651 -24.4625 -24.4625 -24.4625 -12.1320 -12.1320 -12.1320
    -7.5326  -7.5326  -7.5326   3.5192   3.9483   3.9483   3.9483   4.0258
     4.0258   8.1448   8.1448   8.1448

     highest occupied level (ev):     8.1448

!    total energy              =    -291.73640016 Ry
     estimated scf accuracy    <          2.5E-09 Ry

     The total energy is the sum of the following terms:
     one-electron contribution =     -97.45818094 Ry
     hartree contribution      =      67.07564754 Ry
     xc contribution           =     -51.07671754 Ry
     ewald contribution        =    -210.27714922 Ry

     convergence has been achieved in  14 iterations

     negative rho (up, down):  8.643E-04 0.000E+00

     Forces acting on atoms (cartesian axes, Ry/au):

     atom    1 type  1   force =     0.00000000    0.00000000    0.00000000
     atom    2 type  2   force =     0.00000000    0.00000000    0.00000000
     atom    3 type  3   force =     0.00000000    0.00000000    0.00000000
     atom    4 type  3   force =     0.00000000    0.00000000    0.00000000
     atom    5 type  3   force =     0.00000000    0.00000000    0.00000000

     Total force =     0.000000     Total SCF correction =     0.000000


     Computing stress (Cartesian axis) and pressure


     negative rho (up, down):  8.643E-04 0.000E+00
          total   stress  (Ry/bohr**3)                   (kbar)     P=     -175.53
  -0.00119320   0.00000000   0.00000000         -175.53        0.00        0.00
   0.00000000  -0.00119320   0.00000000            0.00     -175.53        0.00
   0.00000000   0.00000000  -0.00119320            0.00        0.00     -175.53


     Writing all to output data dir ./CTO_CELLDM_8.save/ :
     XML data file, charge density, pseudopotentials, collected wavefunctions
 
     init_run     :      0.52s CPU      0.63s WALL (       1 calls)
     electrons    :     13.79s CPU     14.72s WALL (       1 calls)
     forces       :      0.23s CPU      0.24s WALL (       1 calls)
     stress       :      1.83s CPU      1.90s WALL (       1 calls)

     Called by init_run:
     wfcinit      :      0.20s CPU      0.23s WALL (       1 calls)
     potinit      :      0.02s CPU      0.02s WALL (       1 calls)
     hinit0       :      0.15s CPU      0.18s WALL (       1 calls)

     Called by electrons:
     c_bands      :      9.56s CPU      9.90s WALL (      14 calls)
     sum_band     :      2.66s CPU      2.82s WALL (      14 calls)
     v_of_rho     :      0.05s CPU      0.05s WALL (      15 calls)
     newd         :      1.57s CPU      1.99s WALL (      15 calls)
     mix_rho      :      0.04s CPU      0.04s WALL (      14 calls)

     Called by c_bands:
     init_us_2    :      0.16s CPU      0.17s WALL (     620 calls)
     init_us_2:cp :      0.16s CPU      0.17s WALL (     620 calls)
     ccgdiagg     :      8.22s CPU      8.52s WALL (     280 calls)
     wfcrot       :      1.40s CPU      1.46s WALL (     280 calls)

     Called by *cgdiagg:
     h_psi        :      6.00s CPU      6.21s WALL (   16783 calls)
     s_psi        :      0.92s CPU      0.96s WALL (   33286 calls)

     Called by h_psi:
     h_psi:calbec :      1.14s CPU      1.18s WALL (   16783 calls)
     vloc_psi     :      4.16s CPU      4.30s WALL (   16783 calls)
     add_vuspsi   :      0.55s CPU      0.57s WALL (   16783 calls)
     hs_1psi      :      5.37s CPU      5.56s WALL (   16503 calls)
     s_1psi       :      1.25s CPU      1.29s WALL (   16503 calls)

     General routines
     calbec       :      1.91s CPU      1.99s WALL (   33666 calls)
     fft          :      0.07s CPU      0.09s WALL (      96 calls)
     ffts         :      0.00s CPU      0.01s WALL (      29 calls)
     fftw         :      3.28s CPU      3.38s WALL (   50286 calls)
     interpolate  :      0.02s CPU      0.02s WALL (      15 calls)
 
     Parallel routines
 
     PWSCF        :     16.60s CPU     18.12s WALL

 
   This run was terminated on:   0:40:16  24Sep2025            

=------------------------------------------------------------------------------=
   JOB DONE.
=------------------------------------------------------------------------------=
TACC:  Shutdown complete. Exiting. 
