TACC:  Starting up job 2482464 
TACC:  Starting parallel tasks... 

     Program PWSCF v.7.3 starts on 20Oct2025 at 18:37: 5 

     This program is part of the open-source Quantum ESPRESSO suite
     for quantum simulation of materials; please cite
         "P. Giannozzi et al., J. Phys.:Condens. Matter 21 395502 (2009);
         "P. Giannozzi et al., J. Phys.:Condens. Matter 29 465901 (2017);
         "P. Giannozzi et al., J. Chem. Phys. 152 154105 (2020);
          URL http://www.quantum-espresso.org", 
     in publications or presentations arising from this work. More details at
     http://www.quantum-espresso.org/quote

     Parallel version (MPI & OpenMP), running on      10 processor cores
     Number of MPI processes:                10
     Threads/MPI process:                     1

     MPI processes distributed on     1 nodes
     185667 MiB available memory on the printing compute node when the environment starts
 
     Waiting for input...
     Reading input from standard input
Warning: card &CELL ignored
Warning: card  CELL_DYNAMICS = 'BFGS', ignored
Warning: card  PRESS=0.D0, ignored
Warning: card / ignored
     Message from routine read_cards :
     DEPRECATED: no units specified in ATOMIC_POSITIONS card
     Message from routine read_cards :
     ATOMIC_POSITIONS: units set to alat

     Current dimensions of program PWSCF are:
     Max number of different atomic species (ntypx) = 10
     Max number of k-points (npk) =  40000
     Max angular momentum in pseudopotentials (lmaxx) =  4
     Message from routine setup:
     using ibrav=0 with symmetry is DISCOURAGED, use correct ibrav instead
 
     R & G space division:  proc/nbgrp/npool/nimage =      10
     Subspace diagonalization in iterative solution of the eigenvalue problem:
     a serial algorithm will be used

 
     Parallelization info
     --------------------
     sticks:   dense  smooth     PW     G-vecs:    dense   smooth      PW
     Min         125      49     18                 2814      705     161
     Max         126      50     19                 2815      708     163
     Sum        1259     495    185                28147     7067    1617
 
     Using Slab Decomposition
 


     bravais-lattice index     =            0
     lattice parameter (alat)  =       6.6800  a.u.
     unit-cell volume          =     149.0370 (a.u.)^3
     number of atoms/cell      =            2
     number of atomic types    =            1
     number of electrons       =         8.00
     number of Kohn-Sham states=            4
     kinetic-energy cutoff     =      50.0000  Ry
     charge density cutoff     =     500.0000  Ry
     scf convergence threshold =      1.0E-08
     mixing beta               =       0.7000
     number of iterations used =            8  plain     mixing
     Exchange-correlation= SLA  PZ   NOGX NOGC
                           (   1   1   0   0   0   0   0)

     celldm(1)=   6.680000  celldm(2)=   0.000000  celldm(3)=   0.000000
     celldm(4)=   0.000000  celldm(5)=   0.000000  celldm(6)=   0.000000

     crystal axes: (cart. coord. in units of alat)
               a(1) = (  -0.499000   0.499000   0.502000 )  
               a(2) = (   0.499000  -0.499000   0.502000 )  
               a(3) = (   0.499000   0.499000  -0.502000 )  

     reciprocal axes: (cart. coord. in units 2 pi/alat)
               b(1) = (  0.000000  1.002004  0.996016 )  
               b(2) = (  1.002004  0.000000  0.996016 )  
               b(3) = (  1.002004  1.002004  0.000000 )  


     PseudoPot. # 1 for C  read from file:
     /scratch/11018/zhc/Assisgnment2/Q2/Diamond/Diamond/C_LDA.UPF
     MD5 check sum: 407c1fe918d93b14b177d5600f28733c
     Pseudo is Ultrasoft + core correction, Zval =  4.0
     Generated by new atomic code, or converted to UPF format
     Using radial grid of  721 points,  4 beta functions with: 
                l(1) =   0
                l(2) =   0
                l(3) =   1
                l(4) =   1
     Q(r) pseudized with  8 coefficients,  rinner =    1.100   1.100   1.100


     atomic species   valence    mass     pseudopotential
     C                 4.00    12.01100     C ( 1.00)

      2 Sym. Ops. (no inversion) found



   Cartesian axes

     site n.     atom                  positions (alat units)
         1        C      tau(   1) = (   0.0000000   0.0000000   0.0000000  )
         2        C      tau(   2) = (   0.2492943   0.2492943   0.2492943  )

     number of k points=    24
                       cart. coord. in units 2pi/alat
        k(    1) = (   0.0000000   0.0000000   0.0000000), wk =   0.0312500
        k(    2) = (   0.2505010   0.2505010   0.0000000), wk =   0.0625000
        k(    3) = (  -0.5010020  -0.5010020   0.0000000), wk =   0.0312500
        k(    4) = (   0.2505010   0.0000000   0.2490040), wk =   0.1250000
        k(    5) = (   0.5010020   0.2505010   0.2490040), wk =   0.1250000
        k(    6) = (  -0.5010020   0.0000000  -0.4980080), wk =   0.0625000
        k(    7) = (  -0.2505010   0.2505010  -0.4980080), wk =   0.1250000
        k(    8) = (   0.5010020   0.5010020   0.4980080), wk =   0.0625000
        k(    9) = (   0.0000000   0.0000000   0.4980080), wk =   0.0625000
        k(   10) = (  -1.0020040  -0.2505010  -0.2490040), wk =   0.1250000
        k(   11) = (   0.0000000   0.5010020   0.0000000), wk =   0.1250000
        k(   12) = (  -0.7515030  -0.2505010   0.0000000), wk =   0.0625000
        k(   13) = (  -1.0020040  -1.0020040  -0.9960159), wk =   0.0312500
        k(   14) = (  -0.2505010   0.2505010   0.0000000), wk =   0.0625000
        k(   15) = (   0.5010020  -0.5010020   0.0000000), wk =   0.0312500
        k(   16) = (   0.2505010   0.0000000  -0.2490040), wk =   0.1250000
        k(   17) = (  -0.5010020   0.2505010  -0.2490040), wk =   0.1250000
        k(   18) = (   0.5010020  -0.2505010  -0.2490040), wk =   0.1250000
        k(   19) = (   0.2505010   0.5010020  -0.2490040), wk =   0.1250000
        k(   20) = (  -0.5010020   0.0000000   0.4980080), wk =   0.0625000
        k(   21) = (   0.2505010   0.2505010   0.4980080), wk =   0.0625000
        k(   22) = (  -0.2505010  -0.2505010   0.4980080), wk =   0.0625000
        k(   23) = (   1.0020040  -0.2505010   0.2490040), wk =   0.1250000
        k(   24) = (   0.7515030  -0.2505010   0.0000000), wk =   0.0625000

     Dense  grid:    28147 G-vectors     FFT dimensions: (  45,  45,  45)

     Smooth grid:     7067 G-vectors     FFT dimensions: (  27,  27,  27)

     Estimated max dynamical RAM per process >       4.67 MB

     Estimated total dynamical RAM >      46.68 MB

     Initial potential from superposition of free atoms

     starting charge       7.9999, renormalised to       8.0000
     Starting wfcs are    8 randomized atomic wfcs

     total cpu time spent up to now is        0.2 secs

     Self-consistent Calculation

     iteration #  1     ecut=    50.00 Ry     beta= 0.70
     CG style diagonalization
     ethr =  1.00E-02,  avg # of iterations =  2.8

     Threshold (ethr) on eigenvalues was too large:
     Diagonalizing with lowered threshold

     CG style diagonalization
     ethr =  5.10E-04,  avg # of iterations =  2.0

     total cpu time spent up to now is        0.3 secs

     total energy              =     -22.63837826 Ry
     estimated scf accuracy    <       0.03957877 Ry

     iteration #  2     ecut=    50.00 Ry     beta= 0.70
     CG style diagonalization
     ethr =  4.95E-04,  avg # of iterations =  3.7

     total cpu time spent up to now is        0.4 secs

     total energy              =     -22.64239575 Ry
     estimated scf accuracy    <       0.00102860 Ry

     iteration #  3     ecut=    50.00 Ry     beta= 0.70
     CG style diagonalization
     ethr =  1.29E-05,  avg # of iterations =  3.5

     total cpu time spent up to now is        0.5 secs

     total energy              =     -22.64252062 Ry
     estimated scf accuracy    <       0.00004271 Ry

     iteration #  4     ecut=    50.00 Ry     beta= 0.70
     CG style diagonalization
     ethr =  5.34E-07,  avg # of iterations =  4.4

     total cpu time spent up to now is        0.6 secs

     total energy              =     -22.64254324 Ry
     estimated scf accuracy    <       0.00000276 Ry

     iteration #  5     ecut=    50.00 Ry     beta= 0.70
     CG style diagonalization
     ethr =  3.46E-08,  avg # of iterations =  4.8

     total cpu time spent up to now is        0.7 secs

     total energy              =     -22.64254446 Ry
     estimated scf accuracy    <       0.00001122 Ry

     iteration #  6     ecut=    50.00 Ry     beta= 0.70
     CG style diagonalization
     ethr =  3.46E-08,  avg # of iterations =  3.4

     total cpu time spent up to now is        0.7 secs

     total energy              =     -22.64254501 Ry
     estimated scf accuracy    <       0.00000071 Ry

     iteration #  7     ecut=    50.00 Ry     beta= 0.70
     CG style diagonalization
     ethr =  8.81E-09,  avg # of iterations =  3.6

     total cpu time spent up to now is        0.8 secs

     total energy              =     -22.64254522 Ry
     estimated scf accuracy    <       0.00000011 Ry

     iteration #  8     ecut=    50.00 Ry     beta= 0.70
     CG style diagonalization
     ethr =  1.41E-09,  avg # of iterations =  3.3

     total cpu time spent up to now is        0.9 secs

     total energy              =     -22.64254522 Ry
     estimated scf accuracy    <       0.00000021 Ry

     iteration #  9     ecut=    50.00 Ry     beta= 0.70
     CG style diagonalization
     ethr =  1.41E-09,  avg # of iterations =  4.5

     total cpu time spent up to now is        1.0 secs

     total energy              =     -22.64254527 Ry
     estimated scf accuracy    <       0.00000043 Ry

     iteration # 10     ecut=    50.00 Ry     beta= 0.70
     CG style diagonalization
     ethr =  1.41E-09,  avg # of iterations =  3.2

     total cpu time spent up to now is        1.0 secs

     total energy              =     -22.64254526 Ry
     estimated scf accuracy    <       0.00000018 Ry

     iteration # 11     ecut=    50.00 Ry     beta= 0.70
     CG style diagonalization
     ethr =  1.41E-09,  avg # of iterations =  3.1

     total cpu time spent up to now is        1.1 secs

     total energy              =     -22.64254527 Ry
     estimated scf accuracy    <       0.00000010 Ry

     iteration # 12     ecut=    50.00 Ry     beta= 0.70
     CG style diagonalization
     ethr =  1.23E-09,  avg # of iterations =  3.0

     total cpu time spent up to now is        1.1 secs

     total energy              =     -22.64254526 Ry
     estimated scf accuracy    <       0.00000008 Ry

     iteration # 13     ecut=    50.00 Ry     beta= 0.70
     CG style diagonalization
     ethr =  1.01E-09,  avg # of iterations =  3.1

     total cpu time spent up to now is        1.2 secs

     End of self-consistent calculation

          k = 0.0000 0.0000 0.0000 (   935 PWs)   bands (ev):

   -11.4191  -2.9029   3.1702   3.1944

          k = 0.2505 0.2505 0.0000 (   893 PWs)   bands (ev):

   -10.4413  -4.6266   2.8672   3.7427

          k =-0.5010-0.5010 0.0000 (   878 PWs)   bands (ev):

    -7.8240  -7.8073   3.3570   3.4247

          k = 0.2505 0.0000 0.2490 (   893 PWs)   bands (ev):

   -10.4452  -4.6319   2.8955   3.7390

          k = 0.5010 0.2505 0.2490 (   887 PWs)   bands (ev):

    -8.4374  -7.0522   1.8841   4.3356

          k =-0.5010 0.0000-0.4980 (   880 PWs)   bands (ev):

    -7.8360  -7.8152   3.4045   3.4277

          k =-0.2505 0.2505-0.4980 (   888 PWs)   bands (ev):

    -9.2220  -5.1825  -0.3856   2.7871

          k = 0.5010 0.5010 0.4980 (   880 PWs)   bands (ev):

    -8.6407  -5.6654   0.1343   0.1596

          k = 0.0000 0.0000 0.4980 (   900 PWs)   bands (ev):

    -9.7413  -4.6175   0.9564   2.8806

          k =-1.0020-0.2505-0.2490 (   888 PWs)   bands (ev):

    -8.7952  -4.6366  -0.8176   1.8299

          k = 0.0000 0.5010 0.0000 (   900 PWs)   bands (ev):

    -9.7233  -4.6287   0.9217   2.8698

          k =-0.7515-0.2505 0.0000 (   882 PWs)   bands (ev):

    -7.3988  -7.3799   2.1886   2.2179

          k =-1.0020-1.0020-0.9960 (   856 PWs)   bands (ev):

    -6.9399  -6.9183   2.7633   2.8101

          k =-0.2505 0.2505 0.0000 (   893 PWs)   bands (ev):

   -10.6198  -3.0558   0.4229   2.5679

          k = 0.5010-0.5010 0.0000 (   878 PWs)   bands (ev):

    -9.5079  -3.2088  -2.0773   2.0436

          k = 0.2505 0.0000-0.2490 (   893 PWs)   bands (ev):

   -10.6270  -3.0479   0.4094   2.5990

          k =-0.5010 0.2505-0.2490 (   887 PWs)   bands (ev):

    -9.2077  -5.1972  -0.3883   2.7616

          k = 0.5010-0.2505-0.2490 (   887 PWs)   bands (ev):

    -9.5607  -3.2073  -1.1564   0.6342

          k = 0.2505 0.5010-0.2490 (   887 PWs)   bands (ev):

    -9.2161  -5.1776  -0.3961   2.7740

          k =-0.5010 0.0000 0.4980 (   880 PWs)   bands (ev):

    -9.5274  -3.1934  -2.0800   2.0849

          k = 0.2505 0.2505 0.4980 (   888 PWs)   bands (ev):

    -8.4506  -7.0447   1.8687   4.3548

          k =-0.2505-0.2505 0.4980 (   888 PWs)   bands (ev):

    -9.5715  -3.1997  -1.1358   0.6261

          k = 1.0020-0.2505 0.2490 (   888 PWs)   bands (ev):

    -7.4122  -7.3799   2.2331   2.2482

          k = 0.7515-0.2505 0.0000 (   882 PWs)   bands (ev):

    -8.7793  -4.6537  -0.8090   1.7844

     highest occupied level (ev):     4.3548

!    total energy              =     -22.64254525 Ry
     estimated scf accuracy    <          1.1E-09 Ry

     The total energy is the sum of the following terms:
     one-electron contribution =      -0.12890975 Ry
     hartree contribution      =       3.40706927 Ry
     xc contribution           =      -6.56643991 Ry
     ewald contribution        =     -19.35426486 Ry

     convergence has been achieved in  13 iterations

     Forces acting on atoms (cartesian axes, Ry/au):

     atom    1 type  1   force =     0.01097174    0.01097174    0.01038049
     atom    2 type  1   force =    -0.01097174   -0.01097174   -0.01038049

     Total force =     0.026401     Total SCF correction =     0.000023


     Computing stress (Cartesian axis) and pressure

          total   stress  (Ry/bohr**3)                   (kbar)     P=     -656.80
  -0.00443405  -0.00519868  -0.00522366         -652.27     -764.75     -768.43
  -0.00519868  -0.00443405  -0.00522366         -764.75     -652.27     -768.43
  -0.00522366  -0.00522366  -0.00452638         -768.43     -768.43     -665.85


     Writing all to output data dir ./diamond_tetragonal_etam0p002.save/ :
     XML data file, charge density, pseudopotentials, collected wavefunctions
 
     init_run     :      0.05s CPU      0.13s WALL (       1 calls)
     electrons    :      0.90s CPU      0.99s WALL (       1 calls)
     forces       :      0.01s CPU      0.01s WALL (       1 calls)
     stress       :      0.03s CPU      0.03s WALL (       1 calls)

     Called by init_run:
     wfcinit      :      0.02s CPU      0.05s WALL (       1 calls)
     potinit      :      0.00s CPU      0.01s WALL (       1 calls)
     hinit0       :      0.02s CPU      0.05s WALL (       1 calls)

     Called by electrons:
     c_bands      :      0.74s CPU      0.81s WALL (      14 calls)
     sum_band     :      0.11s CPU      0.12s WALL (      14 calls)
     v_of_rho     :      0.01s CPU      0.01s WALL (      14 calls)
     newd         :      0.02s CPU      0.03s WALL (      14 calls)
     mix_rho      :      0.01s CPU      0.01s WALL (      14 calls)

     Called by c_bands:
     init_us_2    :      0.01s CPU      0.02s WALL (     744 calls)
     init_us_2:cp :      0.01s CPU      0.01s WALL (     744 calls)
     ccgdiagg     :      0.61s CPU      0.66s WALL (     336 calls)
     wfcrot       :      0.13s CPU      0.17s WALL (     312 calls)

     Called by *cgdiagg:
     h_psi        :      0.45s CPU      0.49s WALL (    3807 calls)
     s_psi        :      0.02s CPU      0.02s WALL (    7302 calls)

     Called by h_psi:
     h_psi:calbec :      0.06s CPU      0.07s WALL (    3807 calls)
     vloc_psi     :      0.35s CPU      0.38s WALL (    3807 calls)
     add_vuspsi   :      0.01s CPU      0.01s WALL (    3807 calls)
     hs_1psi      :      0.37s CPU      0.41s WALL (    3495 calls)
     s_1psi       :      0.07s CPU      0.08s WALL (    3495 calls)

     General routines
     calbec       :      0.10s CPU      0.11s WALL (    7758 calls)
     fft          :      0.02s CPU      0.04s WALL (      91 calls)
     ffts         :      0.00s CPU      0.00s WALL (      28 calls)
     fftw         :      0.32s CPU      0.35s WALL (   11022 calls)
     interpolate  :      0.00s CPU      0.01s WALL (      14 calls)
 
     Parallel routines
 
     PWSCF        :      1.04s CPU      1.39s WALL

 
   This run was terminated on:  18:37: 7  20Oct2025            

=------------------------------------------------------------------------------=
   JOB DONE.
=------------------------------------------------------------------------------=
TACC:  Shutdown complete. Exiting. 
