TACC:  Starting up job 2553083 
TACC:  Starting parallel tasks... 

     Program PWSCF v.7.3 starts on 15Nov2025 at  2:26:51 

     This program is part of the open-source Quantum ESPRESSO suite
     for quantum simulation of materials; please cite
         "P. Giannozzi et al., J. Phys.:Condens. Matter 21 395502 (2009);
         "P. Giannozzi et al., J. Phys.:Condens. Matter 29 465901 (2017);
         "P. Giannozzi et al., J. Chem. Phys. 152 154105 (2020);
          URL http://www.quantum-espresso.org", 
     in publications or presentations arising from this work. More details at
     http://www.quantum-espresso.org/quote

     Parallel version (MPI & OpenMP), running on      10 processor cores
     Number of MPI processes:                10
     Threads/MPI process:                     1

     MPI processes distributed on     1 nodes
     180037 MiB available memory on the printing compute node when the environment starts
 
     Waiting for input...
     Reading input from standard input
Warning: card &CELL ignored
Warning: card  CELL_DYNAMICS = 'BFGS', ignored
Warning: card  PRESS=0.D0, ignored
Warning: card / ignored

     Current dimensions of program PWSCF are:
     Max number of different atomic species (ntypx) = 10
     Max number of k-points (npk) =  40000
     Max angular momentum in pseudopotentials (lmaxx) =  4
     Message from routine setup:
     using ibrav=0 with symmetry is DISCOURAGED, use correct ibrav instead
 
     R & G space division:  proc/nbgrp/npool/nimage =      10
     Subspace diagonalization in iterative solution of the eigenvalue problem:
     a serial algorithm will be used

 
     Parallelization info
     --------------------
     sticks:   dense  smooth     PW     G-vecs:    dense   smooth      PW
     Min         216      86     26                 7944     2004     338
     Max         217      87     27                 7947     2007     341
     Sum        2161     869    261                79447    20063    3391
 
     Using Slab Decomposition
 


     bravais-lattice index     =            0
     lattice parameter (alat)  =       7.3699  a.u.
     unit-cell volume          =     420.8329 (a.u.)^3
     number of atoms/cell      =            5
     number of atomic types    =            3
     number of electrons       =        44.00
     number of Kohn-Sham states=           22
     kinetic-energy cutoff     =      50.0000  Ry
     charge density cutoff     =     500.0000  Ry
     scf convergence threshold =      1.0E-08
     mixing beta               =       0.7000
     number of iterations used =            8  plain     mixing
     energy convergence thresh.=      1.0E-04
     force convergence thresh. =      1.0E-03
     Exchange-correlation= SLA  PZ   NOGX NOGC
                           (   1   1   0   0   0   0   0)
     nstep                     =           50


     celldm(1)=   7.369932  celldm(2)=   0.000000  celldm(3)=   0.000000
     celldm(4)=   0.000000  celldm(5)=   0.000000  celldm(6)=   0.000000

     crystal axes: (cart. coord. in units of alat)
               a(1) = (   1.000000   0.000000   0.000000 )  
               a(2) = (   0.000000   1.000000   0.000000 )  
               a(3) = (   0.000000   0.000000   1.051282 )  

     reciprocal axes: (cart. coord. in units 2 pi/alat)
               b(1) = (  1.000000  0.000000  0.000000 )  
               b(2) = (  0.000000  1.000000  0.000000 )  
               b(3) = (  0.000000  0.000000  0.951220 )  


     PseudoPot. # 1 for Pb read from file:
     /scratch/11018/zhc/assisgnment3/input_files/Pb_LDA.UPF
     MD5 check sum: 062a37469794d955244864f8fe2e5624
     Pseudo is Ultrasoft + core correction, Zval = 14.0
     Generated by new atomic code, or converted to UPF format
     Using radial grid of  899 points,  6 beta functions with: 
                l(1) =   0
                l(2) =   0
                l(3) =   1
                l(4) =   1
                l(5) =   2
                l(6) =   2
     Q(r) pseudized with  6 coefficients,  rinner =    1.000   1.000   1.000
                                                       1.000   1.000

     PseudoPot. # 2 for Ti read from file:
     /scratch/11018/zhc/assisgnment3/input_files/Ti_LDA.UPF
     MD5 check sum: 0d9f225c038fe889ca2a701dcc8d72cb
     Pseudo is Ultrasoft + core correction, Zval = 12.0
     Generated by new atomic code, or converted to UPF format
     Using radial grid of  851 points,  6 beta functions with: 
                l(1) =   0
                l(2) =   0
                l(3) =   1
                l(4) =   1
                l(5) =   2
                l(6) =   2
     Q(r) pseudized with  6 coefficients,  rinner =    1.000   1.000   1.000
                                                       1.000   1.000

     PseudoPot. # 3 for O  read from file:
     /scratch/11018/zhc/assisgnment3/input_files/O_LDA.UPF
     MD5 check sum: 194b818514d2a7dbb603bb78519a4f40
     Pseudo is Ultrasoft + core correction, Zval =  6.0
     Generated by new atomic code, or converted to UPF format
     Using radial grid of  737 points,  5 beta functions with: 
                l(1) =   0
                l(2) =   0
                l(3) =   1
                l(4) =   1
                l(5) =   2
     Q(r) pseudized with  8 coefficients,  rinner =    0.900   0.900   0.900
                                                       0.900   0.900

     atomic species   valence    mass     pseudopotential
     Pb               14.00   207.20000     Pb( 1.00)
     Ti               12.00    47.88000     Ti( 1.00)
     O                 6.00    16.00000     O ( 1.00)

      8 Sym. Ops. (no inversion) found



   Cartesian axes

     site n.     atom                  positions (alat units)
         1        Pb     tau(   1) = (   0.0000000   0.0000000   1.0580339  )
         2        Ti     tau(   2) = (   0.5000000   0.5000000   0.5681377  )
         3        O      tau(   3) = (   0.5000000   0.5000000   0.1036357  )
         4        O      tau(   4) = (   0.5000000   0.0000000   0.6422586  )
         5        O      tau(   5) = (   0.0000000   0.5000000   0.6422586  )

     number of k points=     6
                       cart. coord. in units 2pi/alat
        k(    1) = (   0.0000000   0.0000000   0.0000000), wk =   0.2500000
        k(    2) = (   0.0000000   0.0000000  -0.4756098), wk =   0.2500000
        k(    3) = (   0.0000000  -0.5000000   0.0000000), wk =   0.5000000
        k(    4) = (   0.0000000  -0.5000000  -0.4756098), wk =   0.5000000
        k(    5) = (  -0.5000000  -0.5000000   0.0000000), wk =   0.2500000
        k(    6) = (  -0.5000000  -0.5000000  -0.4756098), wk =   0.2500000

     Dense  grid:    79447 G-vectors     FFT dimensions: (  54,  54,  60)

     Smooth grid:    20063 G-vectors     FFT dimensions: (  36,  36,  36)

     Estimated max dynamical RAM per process >      35.58 MB

     Estimated total dynamical RAM >     355.76 MB

     Check: negative core charge=   -0.000004

     Initial potential from superposition of free atoms

     starting charge      42.9982, renormalised to      44.0000

     negative rho (up, down):  1.690E-02 0.000E+00
     Starting wfcs are   31 randomized atomic wfcs

     total cpu time spent up to now is        0.6 secs

     Self-consistent Calculation

     iteration #  1     ecut=    50.00 Ry     beta= 0.70
     CG style diagonalization
     ethr =  1.00E-02,  avg # of iterations =  2.2

     negative rho (up, down):  1.408E-02 0.000E+00

     total cpu time spent up to now is        0.8 secs

     total energy              =    -380.02109802 Ry
     estimated scf accuracy    <       1.04298652 Ry

     iteration #  2     ecut=    50.00 Ry     beta= 0.70
     CG style diagonalization
     ethr =  2.37E-03,  avg # of iterations =  4.7

     negative rho (up, down):  1.442E-02 0.000E+00

     total cpu time spent up to now is        1.0 secs

     total energy              =    -379.59567212 Ry
     estimated scf accuracy    <       4.72605272 Ry

     iteration #  3     ecut=    50.00 Ry     beta= 0.70
     CG style diagonalization
     ethr =  2.37E-03,  avg # of iterations =  4.2

     negative rho (up, down):  1.512E-02 0.000E+00

     total cpu time spent up to now is        1.3 secs

     total energy              =    -380.50693401 Ry
     estimated scf accuracy    <       0.33753205 Ry

     iteration #  4     ecut=    50.00 Ry     beta= 0.70
     CG style diagonalization
     ethr =  7.67E-04,  avg # of iterations =  3.4

     negative rho (up, down):  1.513E-02 0.000E+00

     total cpu time spent up to now is        1.5 secs

     total energy              =    -380.53195930 Ry
     estimated scf accuracy    <       0.05547511 Ry

     iteration #  5     ecut=    50.00 Ry     beta= 0.70
     CG style diagonalization
     ethr =  1.26E-04,  avg # of iterations =  3.6

     negative rho (up, down):  1.515E-02 0.000E+00

     total cpu time spent up to now is        1.7 secs

     total energy              =    -380.53855390 Ry
     estimated scf accuracy    <       0.01419423 Ry

     iteration #  6     ecut=    50.00 Ry     beta= 0.70
     CG style diagonalization
     ethr =  3.23E-05,  avg # of iterations =  3.8

     negative rho (up, down):  1.514E-02 0.000E+00

     total cpu time spent up to now is        2.0 secs

     total energy              =    -380.54375061 Ry
     estimated scf accuracy    <       0.00430638 Ry

     iteration #  7     ecut=    50.00 Ry     beta= 0.70
     CG style diagonalization
     ethr =  9.79E-06,  avg # of iterations =  3.3

     negative rho (up, down):  1.515E-02 0.000E+00

     total cpu time spent up to now is        2.2 secs

     total energy              =    -380.54388642 Ry
     estimated scf accuracy    <       0.00111337 Ry

     iteration #  8     ecut=    50.00 Ry     beta= 0.70
     CG style diagonalization
     ethr =  2.53E-06,  avg # of iterations =  3.5

     negative rho (up, down):  1.517E-02 0.000E+00

     total cpu time spent up to now is        2.4 secs

     total energy              =    -380.54413934 Ry
     estimated scf accuracy    <       0.00001110 Ry

     iteration #  9     ecut=    50.00 Ry     beta= 0.70
     CG style diagonalization
     ethr =  2.52E-08,  avg # of iterations =  7.0

     negative rho (up, down):  1.520E-02 0.000E+00

     total cpu time spent up to now is        2.8 secs

     total energy              =    -380.54420437 Ry
     estimated scf accuracy    <       0.00002331 Ry

     iteration # 10     ecut=    50.00 Ry     beta= 0.70
     CG style diagonalization
     ethr =  2.52E-08,  avg # of iterations =  3.4

     negative rho (up, down):  1.531E-02 0.000E+00

     total cpu time spent up to now is        3.0 secs

     total energy              =    -380.54420010 Ry
     estimated scf accuracy    <       0.00001679 Ry

     iteration # 11     ecut=    50.00 Ry     beta= 0.70
     CG style diagonalization
     ethr =  2.52E-08,  avg # of iterations =  3.6

     negative rho (up, down):  1.536E-02 0.000E+00

     total cpu time spent up to now is        3.2 secs

     total energy              =    -380.54420191 Ry
     estimated scf accuracy    <       0.00000067 Ry

     iteration # 12     ecut=    50.00 Ry     beta= 0.70
     CG style diagonalization
     ethr =  1.53E-09,  avg # of iterations =  6.5

     negative rho (up, down):  1.536E-02 0.000E+00

     total cpu time spent up to now is        3.6 secs

     total energy              =    -380.54420311 Ry
     estimated scf accuracy    <       0.00000025 Ry

     iteration # 13     ecut=    50.00 Ry     beta= 0.70
     CG style diagonalization
     ethr =  5.65E-10,  avg # of iterations =  5.5

     negative rho (up, down):  1.536E-02 0.000E+00

     total cpu time spent up to now is        3.9 secs

     total energy              =    -380.54420337 Ry
     estimated scf accuracy    <       0.00000003 Ry

     iteration # 14     ecut=    50.00 Ry     beta= 0.70
     CG style diagonalization
     ethr =  7.04E-11,  avg # of iterations =  7.0

     negative rho (up, down):  1.536E-02 0.000E+00

     total cpu time spent up to now is        4.2 secs

     End of self-consistent calculation

          k = 0.0000 0.0000 0.0000 (  2525 PWs)   bands (ev):

   -45.9023 -22.4925 -22.4925 -22.4905  -7.4721  -6.4173  -6.1071  -5.0258
    -5.0258  -4.9888  -4.8510  -4.7623   4.2281   6.3430   6.3430   6.6607
     8.3652   8.3652   8.5038   8.8936   8.9706   8.9706

          k = 0.0000 0.0000-0.4756 (  2530 PWs)   bands (ev):

   -45.9017 -22.5286 -22.4910 -22.4910  -7.0891  -6.2921  -5.9794  -5.0561
    -5.0561  -4.9863  -4.9122  -4.8377   2.9733   6.2526   6.4841   6.4841
     7.8861   7.8861   8.3389   9.1464   9.1464  10.0188

          k = 0.0000-0.5000 0.0000 (  2488 PWs)   bands (ev):

   -45.9010 -22.5603 -22.4896 -22.4874  -6.8770  -6.2767  -6.0235  -5.0948
    -5.0392  -5.0203  -4.8416  -4.7951   3.0210   5.6235   6.9725   6.9826
     7.4064   7.5099   8.3234   8.5414   8.9052  10.4256

          k = 0.0000-0.5000-0.4756 (  2516 PWs)   bands (ev):

   -45.9005 -22.5581 -22.5245 -22.4880  -6.8393  -6.1271  -5.7477  -5.0543
    -5.0403  -5.0221  -4.8906  -4.6279   2.5218   5.4701   6.0834   6.9446
     7.2292   7.3883   7.4061   8.4177   9.1628   9.7347

          k =-0.5000-0.5000 0.0000 (  2496 PWs)   bands (ev):

   -45.8997 -22.5566 -22.5566 -22.4841  -6.4457  -6.1776  -6.1776  -5.0402
    -4.9465  -4.8077  -4.8077  -4.6397   2.3388   5.4727   5.9572   7.0854
     7.0854   7.5224   7.5224   8.3875   8.5841   9.8662

          k =-0.5000-0.5000-0.4756 (  2504 PWs)   bands (ev):

   -45.8992 -22.5548 -22.5548 -22.5211  -6.3391  -6.3391  -6.0732  -4.9636
    -4.9428  -4.5478  -4.5367  -4.5367   3.4201   5.0170   5.0170   5.3246
     5.8803   5.9695   6.3319   9.7694   9.7694   9.8351

     highest occupied level (ev):    10.4256

!    total energy              =    -380.54420344 Ry
     estimated scf accuracy    <          2.8E-09 Ry

     The total energy is the sum of the following terms:
     one-electron contribution =     -84.10637140 Ry
     hartree contribution      =      71.23660233 Ry
     xc contribution           =    -102.56027492 Ry
     ewald contribution        =    -265.11415945 Ry

     convergence has been achieved in  14 iterations

     negative rho (up, down):  1.536E-02 0.000E+00

     Forces acting on atoms (cartesian axes, Ry/au):

     atom    1 type  1   force =     0.00000000    0.00000000   -0.01326074
     atom    2 type  2   force =     0.00000000    0.00000000   -0.07016256
     atom    3 type  3   force =     0.00000000    0.00000000    0.03767155
     atom    4 type  3   force =     0.00000000    0.00000000    0.02287587
     atom    5 type  3   force =     0.00000000    0.00000000    0.02287587

     Total force =     0.086973     Total SCF correction =     0.000056


     Computing stress (Cartesian axis) and pressure


     negative rho (up, down):  1.536E-02 0.000E+00
          total   stress  (Ry/bohr**3)                   (kbar)     P=      -52.17
  -0.00040366   0.00000000   0.00000000          -59.38        0.00        0.00
   0.00000000  -0.00040366   0.00000000            0.00      -59.38        0.00
   0.00000000   0.00000000  -0.00025671            0.00        0.00      -37.76


     BFGS Geometry Optimization
     Energy error            =      0.0E+00 Ry
     Gradient error          =      7.0E-02 Ry/Bohr

     number of scf cycles    =   1
     number of bfgs steps    =   0

     energy             new  =    -380.5442034406 Ry

     new trust radius        =       0.0701625580 bohr
     new conv_thr            =       0.0000000100 Ry


ATOMIC_POSITIONS (crystal)
Pb               0.0000000000        0.0000000000        1.0047109758
Ti               0.5000000000        0.5000000000        0.5313679832
O                0.5000000000        0.5000000000        0.1034424783
O                0.5000000000        0.0000000000        0.6138814253
O                0.0000000000        0.5000000000        0.6138814253



     Writing config-only to output data dir ./pto_k2.save/ :
     XML data file
     NEW-OLD atomic charge density approx. for the potential

     Check: negative core charge=   -0.000004

     negative rho (up, down):  1.516E-02 0.000E+00

     total cpu time spent up to now is        4.8 secs

     Self-consistent Calculation

     iteration #  1     ecut=    50.00 Ry     beta= 0.70
     CG style diagonalization
     c_bands:  2 eigenvalues not converged
     ethr =  1.00E-06,  avg # of iterations =  8.7

     negative rho (up, down):  1.509E-02 0.000E+00

     total cpu time spent up to now is        5.2 secs

     total energy              =    -380.54802361 Ry
     estimated scf accuracy    <       0.00277912 Ry

     iteration #  2     ecut=    50.00 Ry     beta= 0.70
     CG style diagonalization
     ethr =  6.32E-06,  avg # of iterations =  4.4

     negative rho (up, down):  1.513E-02 0.000E+00

     total cpu time spent up to now is        5.5 secs

     total energy              =    -380.54749738 Ry
     estimated scf accuracy    <       0.00922875 Ry

     iteration #  3     ecut=    50.00 Ry     beta= 0.70
     CG style diagonalization
     ethr =  6.32E-06,  avg # of iterations =  4.1

     negative rho (up, down):  1.514E-02 0.000E+00

     total cpu time spent up to now is        5.7 secs

     total energy              =    -380.54919482 Ry
     estimated scf accuracy    <       0.00036221 Ry

     iteration #  4     ecut=    50.00 Ry     beta= 0.70
     CG style diagonalization
     ethr =  8.23E-07,  avg # of iterations =  3.7

     negative rho (up, down):  1.513E-02 0.000E+00

     total cpu time spent up to now is        6.0 secs

     total energy              =    -380.54928823 Ry
     estimated scf accuracy    <       0.00004981 Ry

     iteration #  5     ecut=    50.00 Ry     beta= 0.70
     CG style diagonalization
     ethr =  1.13E-07,  avg # of iterations =  3.7

     negative rho (up, down):  1.513E-02 0.000E+00

     total cpu time spent up to now is        6.2 secs

     total energy              =    -380.54930534 Ry
     estimated scf accuracy    <       0.00000272 Ry

     iteration #  6     ecut=    50.00 Ry     beta= 0.70
     CG style diagonalization
     ethr =  6.19E-09,  avg # of iterations =  4.4

     negative rho (up, down):  1.513E-02 0.000E+00

     total cpu time spent up to now is        6.4 secs

     total energy              =    -380.54930708 Ry
     estimated scf accuracy    <       0.00000164 Ry

     iteration #  7     ecut=    50.00 Ry     beta= 0.70
     CG style diagonalization
     ethr =  3.73E-09,  avg # of iterations =  3.8

     negative rho (up, down):  1.513E-02 0.000E+00

     total cpu time spent up to now is        6.7 secs

     total energy              =    -380.54930743 Ry
     estimated scf accuracy    <       0.00000026 Ry

     iteration #  8     ecut=    50.00 Ry     beta= 0.70
     CG style diagonalization
     ethr =  5.93E-10,  avg # of iterations =  4.2

     negative rho (up, down):  1.513E-02 0.000E+00

     total cpu time spent up to now is        6.9 secs

     total energy              =    -380.54930759 Ry
     estimated scf accuracy    <       0.00000002 Ry

     iteration #  9     ecut=    50.00 Ry     beta= 0.70
     CG style diagonalization
     ethr =  4.22E-11,  avg # of iterations =  5.2

     negative rho (up, down):  1.512E-02 0.000E+00

     total cpu time spent up to now is        7.2 secs

     End of self-consistent calculation

          k = 0.0000 0.0000 0.0000 (  2525 PWs)   bands (ev):

   -45.7557 -22.4295 -22.3410 -22.3410  -7.4639  -6.3815  -6.1426  -5.0279
    -5.0279  -4.9949  -4.8674  -4.7401   4.2184   6.3391   6.3391   6.7281
     8.0865   8.0865   8.4807   8.6877   8.9981   8.9981

          k = 0.0000 0.0000-0.4756 (  2530 PWs)   bands (ev):

   -45.7552 -22.4683 -22.3394 -22.3394  -7.0488  -6.2544  -6.0433  -5.0579
    -5.0579  -4.9923  -4.8918  -4.8551   2.9063   6.2854   6.3513   6.3513
     7.8556   7.8556   8.3122   9.1694   9.1694  10.0389

          k = 0.0000-0.5000 0.0000 (  2488 PWs)   bands (ev):

   -45.7544 -22.4263 -22.4085 -22.3382  -6.8679  -6.2694  -6.0815  -5.0945
    -5.0453  -5.0221  -4.8243  -4.7917   3.0077   5.7305   6.9697   7.0376
     7.4585   7.5091   8.2428   8.3001   8.7560  10.3699

          k = 0.0000-0.5000-0.4756 (  2516 PWs)   bands (ev):

   -45.7539 -22.4641 -22.4062 -22.3365  -6.8022  -6.1248  -5.8366  -5.0559
    -5.0466  -5.0195  -4.8859  -4.6090   2.5217   5.4451   6.1433   6.9436
     7.0638   7.4518   7.4616   8.3890   9.1696   9.6308

          k =-0.5000-0.5000 0.0000 (  2496 PWs)   bands (ev):

   -45.7531 -22.4229 -22.4048 -22.4048  -6.5107  -6.1777  -6.1777  -5.0389
    -4.9522  -4.7868  -4.7868  -4.6721   2.3381   5.5452   6.1322   6.9219
     6.9219   7.6047   7.6047   8.3745   8.6554   9.8962

          k =-0.5000-0.5000-0.4756 (  2504 PWs)   bands (ev):

   -45.7526 -22.4605 -22.4030 -22.4030  -6.3353  -6.3353  -6.1284  -4.9628
    -4.9486  -4.5954  -4.5226  -4.5226   3.4092   5.0006   5.0006   5.3710
     5.9290   6.1455   6.3614   9.6751   9.6751   9.8653

     highest occupied level (ev):    10.3699

!    total energy              =    -380.54930762 Ry
     estimated scf accuracy    <          3.2E-09 Ry

     The total energy is the sum of the following terms:
     one-electron contribution =     -84.63527004 Ry
     hartree contribution      =      71.54110428 Ry
     xc contribution           =    -102.59077199 Ry
     ewald contribution        =    -264.86436987 Ry

     convergence has been achieved in   9 iterations

     negative rho (up, down):  1.512E-02 0.000E+00

     Forces acting on atoms (cartesian axes, Ry/au):

     atom    1 type  1   force =     0.00000000    0.00000000   -0.01912506
     atom    2 type  2   force =     0.00000000    0.00000000   -0.01689935
     atom    3 type  3   force =     0.00000000    0.00000000    0.00482998
     atom    4 type  3   force =     0.00000000    0.00000000    0.01559722
     atom    5 type  3   force =     0.00000000    0.00000000    0.01559722

     Total force =     0.034077     Total SCF correction =     0.000200


     Computing stress (Cartesian axis) and pressure


     negative rho (up, down):  1.512E-02 0.000E+00
          total   stress  (Ry/bohr**3)                   (kbar)     P=      -37.93
  -0.00041535   0.00000000   0.00000000          -61.10        0.00        0.00
   0.00000000  -0.00041535   0.00000000            0.00      -61.10        0.00
   0.00000000   0.00000000   0.00005713            0.00        0.00        8.40

     Energy error            =      5.1E-03 Ry
     Gradient error          =      1.9E-02 Ry/Bohr

     number of scf cycles    =   2
     number of bfgs steps    =   1

     energy             old  =    -380.5442034406 Ry
     energy             new  =    -380.5493076152 Ry

     CASE: energy            _new < energy            _old

     new trust radius        =       0.0329940003 bohr
     new conv_thr            =       0.0000000019 Ry


ATOMIC_POSITIONS (crystal)
Pb               0.0000000000        0.0000000000        1.0009318982
Ti               0.5000000000        0.5000000000        0.5271095263
O                0.5000000000        0.5000000000        0.1049366705
O                0.5000000000        0.0000000000        0.6171530965
O                0.0000000000        0.5000000000        0.6171530965



     Writing config-only to output data dir ./pto_k2.save/ :
     XML data file
     NEW-OLD atomic charge density approx. for the potential

     Check: negative core charge=   -0.000004

     negative rho (up, down):  1.498E-02 0.000E+00

     total cpu time spent up to now is        7.8 secs

     Self-consistent Calculation

     iteration #  1     ecut=    50.00 Ry     beta= 0.70
     CG style diagonalization
     ethr =  1.00E-06,  avg # of iterations =  7.9

     negative rho (up, down):  1.493E-02 0.000E+00

     total cpu time spent up to now is        8.2 secs

     total energy              =    -380.55036760 Ry
     estimated scf accuracy    <       0.00047732 Ry

     iteration #  2     ecut=    50.00 Ry     beta= 0.70
     CG style diagonalization
     ethr =  1.08E-06,  avg # of iterations =  4.5

     negative rho (up, down):  1.493E-02 0.000E+00

     total cpu time spent up to now is        8.5 secs

     total energy              =    -380.55028259 Ry
     estimated scf accuracy    <       0.00125259 Ry

     iteration #  3     ecut=    50.00 Ry     beta= 0.70
     CG style diagonalization
     ethr =  1.08E-06,  avg # of iterations =  4.1

     negative rho (up, down):  1.492E-02 0.000E+00

     total cpu time spent up to now is        8.7 secs

     total energy              =    -380.55053785 Ry
     estimated scf accuracy    <       0.00008226 Ry

     iteration #  4     ecut=    50.00 Ry     beta= 0.70
     CG style diagonalization
     ethr =  1.87E-07,  avg # of iterations =  3.7

     negative rho (up, down):  1.492E-02 0.000E+00

     total cpu time spent up to now is        8.9 secs

     total energy              =    -380.55055622 Ry
     estimated scf accuracy    <       0.00001091 Ry

     iteration #  5     ecut=    50.00 Ry     beta= 0.70
     CG style diagonalization
     ethr =  2.48E-08,  avg # of iterations =  3.8

     negative rho (up, down):  1.492E-02 0.000E+00

     total cpu time spent up to now is        9.2 secs

     total energy              =    -380.55056047 Ry
     estimated scf accuracy    <       0.00000017 Ry

     iteration #  6     ecut=    50.00 Ry     beta= 0.70
     CG style diagonalization
     ethr =  3.79E-10,  avg # of iterations =  5.8

     negative rho (up, down):  1.492E-02 0.000E+00

     total cpu time spent up to now is        9.5 secs

     total energy              =    -380.55056095 Ry
     estimated scf accuracy    <       0.00000012 Ry

     iteration #  7     ecut=    50.00 Ry     beta= 0.70
     CG style diagonalization
     ethr =  2.62E-10,  avg # of iterations =  3.9

     negative rho (up, down):  1.492E-02 0.000E+00

     total cpu time spent up to now is        9.7 secs

     total energy              =    -380.55056097 Ry
     estimated scf accuracy    <       0.00000003 Ry

     iteration #  8     ecut=    50.00 Ry     beta= 0.70
     CG style diagonalization
     ethr =  7.07E-11,  avg # of iterations =  4.2

     negative rho (up, down):  1.492E-02 0.000E+00

     total cpu time spent up to now is       10.0 secs

     total energy              =    -380.55056098 Ry
     estimated scf accuracy    <          4.2E-09 Ry

     iteration #  9     ecut=    50.00 Ry     beta= 0.70
     CG style diagonalization
     ethr =  9.51E-12,  avg # of iterations =  5.0

     negative rho (up, down):  1.492E-02 0.000E+00

     total cpu time spent up to now is       10.2 secs

     End of self-consistent calculation

          k = 0.0000 0.0000 0.0000 (  2525 PWs)   bands (ev):

   -45.7062 -22.4214 -22.2880 -22.2880  -7.4841  -6.3909  -6.1454  -5.0083
    -5.0083  -4.9723  -4.8594  -4.6952   4.2291   6.3111   6.3111   6.7817
     7.9574   7.9574   8.4488   8.5946   8.9832   8.9832

          k = 0.0000 0.0000-0.4756 (  2530 PWs)   bands (ev):

   -45.7057 -22.4605 -22.2864 -22.2864  -7.0620  -6.2691  -6.0565  -5.0381
    -5.0381  -4.9698  -4.8426  -4.8415   2.8968   6.2494   6.2494   6.3055
     7.8552   7.8552   8.2787   9.1515   9.1515  10.0474

          k = 0.0000-0.5000 0.0000 (  2488 PWs)   bands (ev):

   -45.7049 -22.4182 -22.3550 -22.2852  -6.8877  -6.2985  -6.1059  -5.0708
    -5.0229  -5.0021  -4.7795  -4.7655   3.0077   5.7745   6.9753   7.0380
     7.4701   7.4866   8.1020   8.2652   8.6785  10.3603

          k = 0.0000-0.5000-0.4756 (  2516 PWs)   bands (ev):

   -45.7043 -22.4562 -22.3526 -22.2835  -6.8097  -6.1632  -5.8676  -5.0359
    -5.0244  -4.9936  -4.8541  -4.5717   2.5401   5.4062   6.1931   6.9080
     6.9573   7.4517   7.4777   8.3827   9.1810   9.5969

          k =-0.5000-0.5000 0.0000 (  2496 PWs)   bands (ev):

   -45.7036 -22.4148 -22.3513 -22.3513  -6.5274  -6.2162  -6.2162  -5.0153
    -4.9305  -4.7425  -4.7425  -4.6663   2.3119   5.5696   6.2195   6.8514
     6.8514   7.6394   7.6394   8.3752   8.7122   9.8787

          k =-0.5000-0.5000-0.4756 (  2504 PWs)   bands (ev):

   -45.7030 -22.4525 -22.3494 -22.3494  -6.3618  -6.3618  -6.1383  -4.9394
    -4.9269  -4.5985  -4.4936  -4.4936   3.3429   5.0038   5.0038   5.3706
     6.0178   6.2333   6.3911   9.6195   9.6195   9.8483

     highest occupied level (ev):    10.3603

!    total energy              =    -380.55056098 Ry
     estimated scf accuracy    <          2.4E-10 Ry

     The total energy is the sum of the following terms:
     one-electron contribution =     -85.14726115 Ry
     hartree contribution      =      71.81368780 Ry
     xc contribution           =    -102.60909459 Ry
     ewald contribution        =    -264.60789304 Ry

     convergence has been achieved in   9 iterations

     negative rho (up, down):  1.492E-02 0.000E+00

     Forces acting on atoms (cartesian axes, Ry/au):

     atom    1 type  1   force =     0.00000000    0.00000000   -0.01944468
     atom    2 type  2   force =     0.00000000    0.00000000    0.01209976
     atom    3 type  3   force =     0.00000000    0.00000000   -0.01080500
     atom    4 type  3   force =     0.00000000    0.00000000    0.00907496
     atom    5 type  3   force =     0.00000000    0.00000000    0.00907496

     Total force =     0.028389     Total SCF correction =     0.000017


     Computing stress (Cartesian axis) and pressure


     negative rho (up, down):  1.492E-02 0.000E+00
          total   stress  (Ry/bohr**3)                   (kbar)     P=      -29.20
  -0.00041083   0.00000000   0.00000000          -60.43        0.00        0.00
   0.00000000  -0.00041083   0.00000000            0.00      -60.43        0.00
   0.00000000   0.00000000   0.00022607            0.00        0.00       33.26

     Energy error            =      1.3E-03 Ry
     Gradient error          =      1.9E-02 Ry/Bohr

     number of scf cycles    =   3
     number of bfgs steps    =   2

     energy             old  =    -380.5493076152 Ry
     energy             new  =    -380.5505609805 Ry

     CASE: energy            _new < energy            _old

     new trust radius        =       0.0405825689 bohr
     new conv_thr            =       0.0000000013 Ry


ATOMIC_POSITIONS (crystal)
Pb               0.0000000000        0.0000000000        0.9956940029
Ti               0.5000000000        0.5000000000        0.5260556696
O                0.5000000000        0.5000000000        0.1044175235
O                0.5000000000        0.0000000000        0.6205585460
O                0.0000000000        0.5000000000        0.6205585460



     Writing config-only to output data dir ./pto_k2.save/ :
     XML data file
     NEW-OLD atomic charge density approx. for the potential

     Check: negative core charge=   -0.000004

     negative rho (up, down):  1.542E-02 0.000E+00

     total cpu time spent up to now is       10.8 secs

     Self-consistent Calculation

     iteration #  1     ecut=    50.00 Ry     beta= 0.70
     CG style diagonalization
     ethr =  1.00E-06,  avg # of iterations =  7.1

     negative rho (up, down):  1.536E-02 0.000E+00

     total cpu time spent up to now is       11.2 secs

     total energy              =    -380.55141563 Ry
     estimated scf accuracy    <       0.00021402 Ry

     iteration #  2     ecut=    50.00 Ry     beta= 0.70
     CG style diagonalization
     ethr =  4.86E-07,  avg # of iterations =  4.3

     negative rho (up, down):  1.533E-02 0.000E+00

     total cpu time spent up to now is       11.4 secs

     total energy              =    -380.55142219 Ry
     estimated scf accuracy    <       0.00027449 Ry

     iteration #  3     ecut=    50.00 Ry     beta= 0.70
     CG style diagonalization
     ethr =  4.86E-07,  avg # of iterations =  3.8

     negative rho (up, down):  1.532E-02 0.000E+00

     total cpu time spent up to now is       11.7 secs

     total energy              =    -380.55148809 Ry
     estimated scf accuracy    <       0.00006980 Ry

     iteration #  4     ecut=    50.00 Ry     beta= 0.70
     CG style diagonalization
     ethr =  1.59E-07,  avg # of iterations =  3.5

     negative rho (up, down):  1.531E-02 0.000E+00

     total cpu time spent up to now is       11.9 secs

     total energy              =    -380.55150130 Ry
     estimated scf accuracy    <       0.00000204 Ry

     iteration #  5     ecut=    50.00 Ry     beta= 0.70
     CG style diagonalization
     ethr =  4.63E-09,  avg # of iterations =  4.6

     negative rho (up, down):  1.531E-02 0.000E+00

     total cpu time spent up to now is       12.2 secs

     total energy              =    -380.55150319 Ry
     estimated scf accuracy    <       0.00000018 Ry

     iteration #  6     ecut=    50.00 Ry     beta= 0.70
     CG style diagonalization
     ethr =  4.18E-10,  avg # of iterations =  4.9

     negative rho (up, down):  1.531E-02 0.000E+00

     total cpu time spent up to now is       12.4 secs

     total energy              =    -380.55150336 Ry
     estimated scf accuracy    <       0.00000007 Ry

     iteration #  7     ecut=    50.00 Ry     beta= 0.70
     CG style diagonalization
     ethr =  1.53E-10,  avg # of iterations =  4.3

     negative rho (up, down):  1.531E-02 0.000E+00

     total cpu time spent up to now is       12.7 secs

     total energy              =    -380.55150339 Ry
     estimated scf accuracy    <       0.00000001 Ry

     iteration #  8     ecut=    50.00 Ry     beta= 0.70
     CG style diagonalization
     ethr =  3.31E-11,  avg # of iterations =  4.4

     negative rho (up, down):  1.531E-02 0.000E+00

     total cpu time spent up to now is       12.9 secs

     total energy              =    -380.55150340 Ry
     estimated scf accuracy    <          1.7E-09 Ry

     iteration #  9     ecut=    50.00 Ry     beta= 0.70
     CG style diagonalization
     ethr =  3.92E-12,  avg # of iterations =  5.2

     negative rho (up, down):  1.531E-02 0.000E+00

     total cpu time spent up to now is       13.2 secs

     End of self-consistent calculation

          k = 0.0000 0.0000 0.0000 (  2525 PWs)   bands (ev):

   -45.7208 -22.4345 -22.3027 -22.3027  -7.5258  -6.4367  -6.1301  -4.9737
    -4.9737  -4.9296  -4.8356  -4.6352   4.2530   6.2628   6.2628   6.8272
     7.9383   7.9383   8.4083   8.5798   8.9330   8.9330

          k = 0.0000 0.0000-0.4756 (  2530 PWs)   bands (ev):

   -45.7202 -22.4735 -22.3011 -22.3011  -7.1178  -6.3244  -6.0351  -5.0035
    -5.0035  -4.9271  -4.8108  -4.7717   2.9277   6.1761   6.1761   6.3203
     7.8766   7.8766   8.2383   9.1001   9.1001  10.0444

          k = 0.0000-0.5000 0.0000 (  2488 PWs)   bands (ev):

   -45.7194 -22.4313 -22.3692 -22.3000  -6.9287  -6.3581  -6.1126  -5.0309
    -4.9806  -4.9674  -4.7232  -4.7166   3.0183   5.7703   6.9963   6.9965
     7.4422   7.4463   8.0785   8.2192   8.6541  10.3840

          k = 0.0000-0.5000-0.4756 (  2516 PWs)   bands (ev):

   -45.7189 -22.4691 -22.3668 -22.2983  -6.8531  -6.2340  -5.8604  -5.0012
    -4.9822  -4.9517  -4.8039  -4.5219   2.5729   5.3745   6.2107   6.8487
     6.9002   7.4022   7.4682   8.3917   9.2312   9.5840

          k =-0.5000-0.5000 0.0000 (  2496 PWs)   bands (ev):

   -45.7181 -22.4278 -22.3655 -22.3655  -6.5116  -6.2844  -6.2844  -4.9762
    -4.8898  -4.6830  -4.6830  -4.6351   2.2641   5.5569   6.2373   6.8628
     6.8628   7.6327   7.6327   8.3901   8.7589   9.8232

          k =-0.5000-0.5000-0.4756 (  2504 PWs)   bands (ev):

   -45.7176 -22.4655 -22.3636 -22.3636  -6.4139  -6.4139  -6.1171  -4.9002
    -4.8862  -4.5724  -4.4540  -4.4540   3.2367   5.0273   5.0273   5.3411
     6.1335   6.2513   6.4154   9.5981   9.5981   9.7934

     highest occupied level (ev):    10.3840

!    total energy              =    -380.55150340 Ry
     estimated scf accuracy    <          1.1E-10 Ry

     The total energy is the sum of the following terms:
     one-electron contribution =     -85.62690485 Ry
     hartree contribution      =      72.05362413 Ry
     xc contribution           =    -102.61724925 Ry
     ewald contribution        =    -264.36097342 Ry

     convergence has been achieved in   9 iterations

     negative rho (up, down):  1.531E-02 0.000E+00

     Forces acting on atoms (cartesian axes, Ry/au):

     atom    1 type  1   force =     0.00000000    0.00000000   -0.01475106
     atom    2 type  2   force =     0.00000000    0.00000000    0.01654201
     atom    3 type  3   force =     0.00000000    0.00000000   -0.00811946
     atom    4 type  3   force =     0.00000000    0.00000000    0.00316426
     atom    5 type  3   force =     0.00000000    0.00000000    0.00316426

     Total force =     0.024025     Total SCF correction =     0.000030


     Computing stress (Cartesian axis) and pressure


     negative rho (up, down):  1.531E-02 0.000E+00
          total   stress  (Ry/bohr**3)                   (kbar)     P=      -25.97
  -0.00039553   0.00000000   0.00000000          -58.18        0.00        0.00
   0.00000000  -0.00039553   0.00000000            0.00      -58.18        0.00
   0.00000000   0.00000000   0.00026142            0.00        0.00       38.46

     Energy error            =      9.4E-04 Ry
     Gradient error          =      1.7E-02 Ry/Bohr

     number of scf cycles    =   4
     number of bfgs steps    =   3

     energy             old  =    -380.5505609805 Ry
     energy             new  =    -380.5515034015 Ry

     CASE: energy            _new < energy            _old

     new trust radius        =       0.0446408258 bohr
     new conv_thr            =       0.0000000009 Ry


ATOMIC_POSITIONS (crystal)
Pb               0.0000000000        0.0000000000        0.9899323181
Ti               0.5000000000        0.5000000000        0.5266300629
O                0.5000000000        0.5000000000        0.1037318177
O                0.5000000000        0.0000000000        0.6234950446
O                0.0000000000        0.5000000000        0.6234950446



     Writing config-only to output data dir ./pto_k2.save/ :
     XML data file
     NEW-OLD atomic charge density approx. for the potential

     Check: negative core charge=   -0.000004

     negative rho (up, down):  1.562E-02 0.000E+00

     total cpu time spent up to now is       13.8 secs

     Self-consistent Calculation

     iteration #  1     ecut=    50.00 Ry     beta= 0.70
     CG style diagonalization
     ethr =  1.00E-06,  avg # of iterations =  7.1

     negative rho (up, down):  1.557E-02 0.000E+00

     total cpu time spent up to now is       14.2 secs

     total energy              =    -380.55197696 Ry
     estimated scf accuracy    <       0.00028895 Ry

     iteration #  2     ecut=    50.00 Ry     beta= 0.70
     CG style diagonalization
     ethr =  6.57E-07,  avg # of iterations =  4.4

     negative rho (up, down):  1.554E-02 0.000E+00

     total cpu time spent up to now is       14.4 secs

     total energy              =    -380.55196499 Ry
     estimated scf accuracy    <       0.00059124 Ry

     iteration #  3     ecut=    50.00 Ry     beta= 0.70
     CG style diagonalization
     ethr =  6.57E-07,  avg # of iterations =  4.1

     negative rho (up, down):  1.552E-02 0.000E+00

     total cpu time spent up to now is       14.7 secs

     total energy              =    -380.55209636 Ry
     estimated scf accuracy    <       0.00008348 Ry

     iteration #  4     ecut=    50.00 Ry     beta= 0.70
     CG style diagonalization
     ethr =  1.90E-07,  avg # of iterations =  3.5

     negative rho (up, down):  1.551E-02 0.000E+00

     total cpu time spent up to now is       14.9 secs

     total energy              =    -380.55211031 Ry
     estimated scf accuracy    <       0.00000323 Ry

     iteration #  5     ecut=    50.00 Ry     beta= 0.70
     CG style diagonalization
     ethr =  7.33E-09,  avg # of iterations =  4.8

     negative rho (up, down):  1.551E-02 0.000E+00

     total cpu time spent up to now is       15.2 secs

     total energy              =    -380.55211341 Ry
     estimated scf accuracy    <       0.00000239 Ry

     iteration #  6     ecut=    50.00 Ry     beta= 0.70
     CG style diagonalization
     ethr =  5.43E-09,  avg # of iterations =  3.7

     negative rho (up, down):  1.551E-02 0.000E+00

     total cpu time spent up to now is       15.4 secs

     total energy              =    -380.55211381 Ry
     estimated scf accuracy    <       0.00000038 Ry

     iteration #  7     ecut=    50.00 Ry     beta= 0.70
     CG style diagonalization
     ethr =  8.69E-10,  avg # of iterations =  3.9

     negative rho (up, down):  1.551E-02 0.000E+00

     total cpu time spent up to now is       15.6 secs

     total energy              =    -380.55211392 Ry
     estimated scf accuracy    <       0.00000004 Ry

     iteration #  8     ecut=    50.00 Ry     beta= 0.70
     CG style diagonalization
     ethr =  9.88E-11,  avg # of iterations =  4.9

     negative rho (up, down):  1.551E-02 0.000E+00

     total cpu time spent up to now is       15.9 secs

     total energy              =    -380.55211398 Ry
     estimated scf accuracy    <          2.4E-09 Ry

     iteration #  9     ecut=    50.00 Ry     beta= 0.70
     CG style diagonalization
     ethr =  5.44E-12,  avg # of iterations =  6.0

     negative rho (up, down):  1.551E-02 0.000E+00

     total cpu time spent up to now is       16.2 secs

     End of self-consistent calculation

          k = 0.0000 0.0000 0.0000 (  2525 PWs)   bands (ev):

   -45.7564 -22.4531 -22.3405 -22.3405  -7.5768  -6.4998  -6.1098  -4.9372
    -4.9372  -4.8834  -4.8091  -4.5730   4.2772   6.2073   6.2073   6.8742
     7.9647   7.9647   8.3693   8.5934   8.8703   8.8703

          k = 0.0000 0.0000-0.4756 (  2530 PWs)   bands (ev):

   -45.7558 -22.4919 -22.3390 -22.3390  -7.1904  -6.3973  -6.0017  -4.9670
    -4.9670  -4.8808  -4.7755  -4.6994   2.9715   6.1198   6.1198   6.3343
     7.9007   7.9007   8.2000   9.0368   9.0368  10.0354

          k = 0.0000-0.5000 0.0000 (  2488 PWs)   bands (ev):

   -45.7550 -22.4498 -22.4067 -22.3378  -6.9804  -6.4294  -6.1112  -4.9882
    -4.9347  -4.9307  -4.6775  -4.6516   3.0306   5.7410   6.9362   7.0181
     7.3898   7.4066   8.1045   8.1708   8.6512  10.4205

          k = 0.0000-0.5000-0.4756 (  2516 PWs)   bands (ev):

   -45.7545 -22.4875 -22.4043 -22.3361  -6.9125  -6.3158  -5.8388  -4.9645
    -4.9363  -4.9074  -4.7506  -4.4710   2.6074   5.3475   6.2048   6.7811
     6.8675   7.3311   7.4502   8.4030   9.2964   9.5754

          k =-0.5000-0.5000 0.0000 (  2496 PWs)   bands (ev):

   -45.7537 -22.4463 -22.4030 -22.4030  -6.4835  -6.3621  -6.3621  -4.9346
    -4.8462  -4.6223  -4.6223  -4.5986   2.2045   5.5256   6.2180   6.9029
     6.9029   7.6096   7.6096   8.4080   8.7996   9.7528

          k =-0.5000-0.5000-0.4756 (  2504 PWs)   bands (ev):

   -45.7531 -22.4838 -22.4012 -22.4012  -6.4763  -6.4763  -6.0843  -4.8585
    -4.8426  -4.5396  -4.4121  -4.4121   3.1162   5.0547   5.0547   5.3040
     6.2321   6.2553   6.4280   9.5919   9.5919   9.7238

     highest occupied level (ev):    10.4205

!    total energy              =    -380.55211398 Ry
     estimated scf accuracy    <          3.2E-10 Ry

     The total energy is the sum of the following terms:
     one-electron contribution =     -86.17079524 Ry
     hartree contribution      =      72.31878782 Ry
     xc contribution           =    -102.62292029 Ry
     ewald contribution        =    -264.07718628 Ry

     convergence has been achieved in   9 iterations

     negative rho (up, down):  1.551E-02 0.000E+00

     Forces acting on atoms (cartesian axes, Ry/au):

     atom    1 type  1   force =     0.00000000    0.00000000   -0.00726366
     atom    2 type  2   force =     0.00000000    0.00000000    0.00995590
     atom    3 type  3   force =     0.00000000    0.00000000    0.00057582
     atom    4 type  3   force =     0.00000000    0.00000000   -0.00163403
     atom    5 type  3   force =     0.00000000    0.00000000   -0.00163403

     Total force =     0.012552     Total SCF correction =     0.000063


     Computing stress (Cartesian axis) and pressure


     negative rho (up, down):  1.551E-02 0.000E+00
          total   stress  (Ry/bohr**3)                   (kbar)     P=      -23.90
  -0.00036860   0.00000000   0.00000000          -54.22        0.00        0.00
   0.00000000  -0.00036860   0.00000000            0.00      -54.22        0.00
   0.00000000   0.00000000   0.00024977            0.00        0.00       36.74

     Energy error            =      6.1E-04 Ry
     Gradient error          =      1.0E-02 Ry/Bohr

     number of scf cycles    =   5
     number of bfgs steps    =   4

     energy             old  =    -380.5515034015 Ry
     energy             new  =    -380.5521139815 Ry

     CASE: energy            _new < energy            _old

     new trust radius        =       0.0246154270 bohr
     new conv_thr            =       0.0000000006 Ry


ATOMIC_POSITIONS (crystal)
Pb               0.0000000000        0.0000000000        0.9867552637
Ti               0.5000000000        0.5000000000        0.5277763304
O                0.5000000000        0.5000000000        0.1039914707
O                0.5000000000        0.0000000000        0.6243806116
O                0.0000000000        0.5000000000        0.6243806116



     Writing config-only to output data dir ./pto_k2.save/ :
     XML data file
     NEW-OLD atomic charge density approx. for the potential

     Check: negative core charge=   -0.000004

     negative rho (up, down):  1.530E-02 0.000E+00

     total cpu time spent up to now is       16.8 secs

     Self-consistent Calculation

     iteration #  1     ecut=    50.00 Ry     beta= 0.70
     CG style diagonalization
     ethr =  1.00E-06,  avg # of iterations =  5.7

     negative rho (up, down):  1.527E-02 0.000E+00

     total cpu time spent up to now is       17.1 secs

     total energy              =    -380.55222480 Ry
     estimated scf accuracy    <       0.00005942 Ry

     iteration #  2     ecut=    50.00 Ry     beta= 0.70
     CG style diagonalization
     ethr =  1.35E-07,  avg # of iterations =  4.7

     negative rho (up, down):  1.526E-02 0.000E+00

     total cpu time spent up to now is       17.4 secs

     total energy              =    -380.55223181 Ry
     estimated scf accuracy    <       0.00013451 Ry

     iteration #  3     ecut=    50.00 Ry     beta= 0.70
     CG style diagonalization
     ethr =  1.35E-07,  avg # of iterations =  4.1

     negative rho (up, down):  1.525E-02 0.000E+00

     total cpu time spent up to now is       17.6 secs

     total energy              =    -380.55226115 Ry
     estimated scf accuracy    <       0.00001802 Ry

     iteration #  4     ecut=    50.00 Ry     beta= 0.70
     CG style diagonalization
     ethr =  4.09E-08,  avg # of iterations =  3.6

     negative rho (up, down):  1.524E-02 0.000E+00

     total cpu time spent up to now is       17.8 secs

     total energy              =    -380.55226456 Ry
     estimated scf accuracy    <       0.00000091 Ry

     iteration #  5     ecut=    50.00 Ry     beta= 0.70
     CG style diagonalization
     ethr =  2.07E-09,  avg # of iterations =  5.0

     negative rho (up, down):  1.524E-02 0.000E+00

     total cpu time spent up to now is       18.1 secs

     total energy              =    -380.55226550 Ry
     estimated scf accuracy    <       0.00000059 Ry

     iteration #  6     ecut=    50.00 Ry     beta= 0.70
     CG style diagonalization
     ethr =  1.33E-09,  avg # of iterations =  3.8

     negative rho (up, down):  1.524E-02 0.000E+00

     total cpu time spent up to now is       18.3 secs

     total energy              =    -380.55226562 Ry
     estimated scf accuracy    <       0.00000012 Ry

     iteration #  7     ecut=    50.00 Ry     beta= 0.70
     CG style diagonalization
     ethr =  2.82E-10,  avg # of iterations =  3.8

     negative rho (up, down):  1.524E-02 0.000E+00

     total cpu time spent up to now is       18.6 secs

     total energy              =    -380.55226565 Ry
     estimated scf accuracy    <       0.00000002 Ry

     iteration #  8     ecut=    50.00 Ry     beta= 0.70
     CG style diagonalization
     ethr =  5.30E-11,  avg # of iterations =  4.4

     negative rho (up, down):  1.524E-02 0.000E+00

     total cpu time spent up to now is       18.8 secs

     total energy              =    -380.55226566 Ry
     estimated scf accuracy    <          1.3E-09 Ry

     iteration #  9     ecut=    50.00 Ry     beta= 0.70
     CG style diagonalization
     ethr =  2.86E-12,  avg # of iterations =  6.1

     negative rho (up, down):  1.524E-02 0.000E+00

     total cpu time spent up to now is       19.2 secs

     End of self-consistent calculation

          k = 0.0000 0.0000 0.0000 (  2525 PWs)   bands (ev):

   -45.7764 -22.4627 -22.3626 -22.3626  -7.6043  -6.5379  -6.0998  -4.9213
    -4.9213  -4.8626  -4.7983  -4.5452   4.2846   6.1806   6.1806   6.9029
     7.9900   7.9900   8.3541   8.6050   8.8365   8.8365

          k = 0.0000 0.0000-0.4756 (  2530 PWs)   bands (ev):

   -45.7759 -22.5014 -22.3611 -22.3611  -7.2312  -6.4401  -5.9826  -4.9510
    -4.9510  -4.8600  -4.7602  -4.6667   2.9935   6.1028   6.1028   6.3426
     7.9069   7.9069   8.1854   9.0019   9.0019  10.0275

          k = 0.0000-0.5000 0.0000 (  2488 PWs)   bands (ev):

   -45.7751 -22.4594 -22.4289 -22.3599  -7.0097  -6.4671  -6.1090  -4.9691
    -4.9147  -4.9140  -4.6568  -4.6221   3.0363   5.7135   6.8995   7.0197
     7.3666   7.3815   8.1288   8.1485   8.6545  10.4411

          k = 0.0000-0.5000-0.4756 (  2516 PWs)   bands (ev):

   -45.7745 -22.4970 -22.4265 -22.3582  -6.9479  -6.3580  -5.8242  -4.9486
    -4.9157  -4.8876  -4.7264  -4.4485   2.6224   5.3351   6.1867   6.7433
     6.8640   7.2877   7.4402   8.4025   9.3302   9.5699

          k =-0.5000-0.5000 0.0000 (  2496 PWs)   bands (ev):

   -45.7737 -22.4559 -22.4252 -22.4252  -6.4659  -6.4021  -6.4021  -4.9159
    -4.8268  -4.5948  -4.5948  -4.5828   2.1703   5.5010   6.1889   6.9317
     6.9317   7.5869   7.5869   8.4144   8.8148   9.7135

          k =-0.5000-0.5000-0.4756 (  2504 PWs)   bands (ev):

   -45.7732 -22.4933 -22.4234 -22.4234  -6.5095  -6.5095  -6.0644  -4.8398
    -4.8232  -4.5254  -4.3929  -4.3929   3.0518   5.0654   5.0654   5.2858
     6.2029   6.3154   6.4225   9.5932   9.5932   9.6849

     highest occupied level (ev):    10.4411

!    total energy              =    -380.55226566 Ry
     estimated scf accuracy    <          2.2E-10 Ry

     The total energy is the sum of the following terms:
     one-electron contribution =     -86.51847545 Ry
     hartree contribution      =      72.48685155 Ry
     xc contribution           =    -102.62656392 Ry
     ewald contribution        =    -263.89407785 Ry

     convergence has been achieved in   9 iterations

     negative rho (up, down):  1.524E-02 0.000E+00

     Forces acting on atoms (cartesian axes, Ry/au):

     atom    1 type  1   force =     0.00000000    0.00000000   -0.00246926
     atom    2 type  2   force =     0.00000000    0.00000000    0.00288613
     atom    3 type  3   force =     0.00000000    0.00000000    0.00481406
     atom    4 type  3   force =     0.00000000    0.00000000   -0.00261546
     atom    5 type  3   force =     0.00000000    0.00000000   -0.00261546

     Total force =     0.007161     Total SCF correction =     0.000044


     Computing stress (Cartesian axis) and pressure


     negative rho (up, down):  1.524E-02 0.000E+00
          total   stress  (Ry/bohr**3)                   (kbar)     P=      -22.20
  -0.00034663   0.00000000   0.00000000          -50.99        0.00        0.00
   0.00000000  -0.00034663   0.00000000            0.00      -50.99        0.00
   0.00000000   0.00000000   0.00024057            0.00        0.00       35.39

     Energy error            =      1.5E-04 Ry
     Gradient error          =      4.8E-03 Ry/Bohr

     number of scf cycles    =   6
     number of bfgs steps    =   5

     energy             old  =    -380.5521139815 Ry
     energy             new  =    -380.5522656640 Ry

     CASE: energy            _new < energy            _old

     new trust radius        =       0.0094288979 bohr
     new conv_thr            =       0.0000000002 Ry


ATOMIC_POSITIONS (crystal)
Pb               0.0000000000        0.0000000000        0.9855382984
Ti               0.5000000000        0.5000000000        0.5285896964
O                0.5000000000        0.5000000000        0.1047980572
O                0.5000000000        0.0000000000        0.6241791180
O                0.0000000000        0.5000000000        0.6241791180



     Writing config-only to output data dir ./pto_k2.save/ :
     XML data file
     NEW-OLD atomic charge density approx. for the potential

     Check: negative core charge=   -0.000004

     negative rho (up, down):  1.516E-02 0.000E+00

     total cpu time spent up to now is       19.7 secs

     Self-consistent Calculation

     iteration #  1     ecut=    50.00 Ry     beta= 0.70
     CG style diagonalization
     ethr =  1.00E-06,  avg # of iterations =  4.7

     Threshold (ethr) on eigenvalues was too large:
     Diagonalizing with lowered threshold

     CG style diagonalization
     ethr =  1.19E-08,  avg # of iterations =  5.6

     negative rho (up, down):  1.514E-02 0.000E+00

     total cpu time spent up to now is       20.3 secs

     total energy              =    -380.55232158 Ry
     estimated scf accuracy    <       0.00000798 Ry

     iteration #  2     ecut=    50.00 Ry     beta= 0.70
     CG style diagonalization
     ethr =  1.81E-08,  avg # of iterations =  4.2

     negative rho (up, down):  1.514E-02 0.000E+00

     total cpu time spent up to now is       20.5 secs

     total energy              =    -380.55232031 Ry
     estimated scf accuracy    <       0.00001917 Ry

     iteration #  3     ecut=    50.00 Ry     beta= 0.70
     CG style diagonalization
     ethr =  1.81E-08,  avg # of iterations =  3.9

     negative rho (up, down):  1.513E-02 0.000E+00

     total cpu time spent up to now is       20.8 secs

     total energy              =    -380.55232417 Ry
     estimated scf accuracy    <       0.00000136 Ry

     iteration #  4     ecut=    50.00 Ry     beta= 0.70
     CG style diagonalization
     ethr =  3.09E-09,  avg # of iterations =  3.6

     negative rho (up, down):  1.513E-02 0.000E+00

     total cpu time spent up to now is       21.0 secs

     total energy              =    -380.55232445 Ry
     estimated scf accuracy    <       0.00000005 Ry

     iteration #  5     ecut=    50.00 Ry     beta= 0.70
     CG style diagonalization
     ethr =  1.18E-10,  avg # of iterations =  5.0

     negative rho (up, down):  1.513E-02 0.000E+00

     total cpu time spent up to now is       21.3 secs

     total energy              =    -380.55232450 Ry
     estimated scf accuracy    <       0.00000001 Ry

     iteration #  6     ecut=    50.00 Ry     beta= 0.70
     CG style diagonalization
     ethr =  3.31E-11,  avg # of iterations =  4.2

     negative rho (up, down):  1.513E-02 0.000E+00

     total cpu time spent up to now is       21.5 secs

     total energy              =    -380.55232451 Ry
     estimated scf accuracy    <          4.8E-09 Ry

     iteration #  7     ecut=    50.00 Ry     beta= 0.70
     CG style diagonalization
     ethr =  1.10E-11,  avg # of iterations =  4.5

     negative rho (up, down):  1.513E-02 0.000E+00

     total cpu time spent up to now is       21.8 secs

     total energy              =    -380.55232451 Ry
     estimated scf accuracy    <          9.8E-10 Ry

     iteration #  8     ecut=    50.00 Ry     beta= 0.70
     CG style diagonalization
     ethr =  2.23E-12,  avg # of iterations =  4.6

     negative rho (up, down):  1.513E-02 0.000E+00

     total cpu time spent up to now is       22.0 secs

     End of self-consistent calculation

          k = 0.0000 0.0000 0.0000 (  2525 PWs)   bands (ev):

   -45.7791 -22.4645 -22.3664 -22.3664  -7.6122  -6.5518  -6.0987  -4.9188
    -4.9188  -4.8592  -4.7980  -4.5401   4.2821   6.1757   6.1757   6.9176
     7.9977   7.9977   8.3535   8.6051   8.8269   8.8269

          k = 0.0000 0.0000-0.4756 (  2530 PWs)   bands (ev):

   -45.7786 -22.5032 -22.3648 -22.3648  -7.2440  -6.4554  -5.9776  -4.9485
    -4.9485  -4.8566  -4.7586  -4.6601   2.9969   6.1053   6.1053   6.3471
     7.9010   7.9010   8.1851   8.9906   8.9906  10.0230

          k = 0.0000-0.5000 0.0000 (  2488 PWs)   bands (ev):

   -45.7778 -22.4612 -22.4329 -22.3637  -7.0190  -6.4777  -6.1101  -4.9657
    -4.9122  -4.9105  -4.6529  -4.6158   3.0377   5.6984   6.8861   7.0096
     7.3651   7.3727   8.1339   8.1443   8.6542  10.4463

          k = 0.0000-0.5000-0.4756 (  2516 PWs)   bands (ev):

   -45.7772 -22.4988 -22.4305 -22.3620  -6.9603  -6.3696  -5.8200  -4.9461
    -4.9122  -4.8840  -4.7217  -4.4445   2.6248   5.3312   6.1716   6.7290
     6.8709   7.2718   7.4386   8.3940   9.3371   9.5663

          k =-0.5000-0.5000 0.0000 (  2496 PWs)   bands (ev):

   -45.7764 -22.4577 -22.4292 -22.4292  -6.4600  -6.4133  -6.4133  -4.9126
    -4.8236  -4.5890  -4.5890  -4.5817   2.1584   5.4891   6.1702   6.9437
     6.9437   7.5707   7.5707   8.4126   8.8155   9.7009

          k =-0.5000-0.5000-0.4756 (  2504 PWs)   bands (ev):

   -45.7759 -22.4951 -22.4274 -22.4274  -6.5190  -6.5190  -6.0578  -4.8365
    -4.8200  -4.5250  -4.3891  -4.3891   3.0306   5.0648   5.0648   5.2823
     6.1841   6.3324   6.4117   9.5934   9.5934   9.6724

     highest occupied level (ev):    10.4463

!    total energy              =    -380.55232451 Ry
     estimated scf accuracy    <          1.4E-10 Ry

     The total energy is the sum of the following terms:
     one-electron contribution =     -86.68621565 Ry
     hartree contribution      =      72.56849865 Ry
     xc contribution           =    -102.62928501 Ry
     ewald contribution        =    -263.80532250 Ry

     convergence has been achieved in   8 iterations

     negative rho (up, down):  1.513E-02 0.000E+00

     Forces acting on atoms (cartesian axes, Ry/au):

     atom    1 type  1   force =     0.00000000    0.00000000   -0.00065189
     atom    2 type  2   force =     0.00000000    0.00000000   -0.00029797
     atom    3 type  3   force =     0.00000000    0.00000000    0.00436364
     atom    4 type  3   force =     0.00000000    0.00000000   -0.00170689
     atom    5 type  3   force =     0.00000000    0.00000000   -0.00170689

     Total force =     0.005038     Total SCF correction =     0.000026


     Computing stress (Cartesian axis) and pressure


     negative rho (up, down):  1.513E-02 0.000E+00
          total   stress  (Ry/bohr**3)                   (kbar)     P=      -20.66
  -0.00033437   0.00000000   0.00000000          -49.19        0.00        0.00
   0.00000000  -0.00033437   0.00000000            0.00      -49.19        0.00
   0.00000000   0.00000000   0.00024735            0.00        0.00       36.39

     Energy error            =      5.9E-05 Ry
     Gradient error          =      4.4E-03 Ry/Bohr

     number of scf cycles    =   7
     number of bfgs steps    =   6

     energy             old  =    -380.5522656640 Ry
     energy             new  =    -380.5523245095 Ry

     CASE: energy            _new < energy            _old

     new trust radius        =       0.0090576115 bohr
     new conv_thr            =            1.0E-10 Ry


ATOMIC_POSITIONS (crystal)
Pb               0.0000000000        0.0000000000        0.9847723196
Ti               0.5000000000        0.5000000000        0.5291941028
O                0.5000000000        0.5000000000        0.1059671015
O                0.5000000000        0.0000000000        0.6236753821
O                0.0000000000        0.5000000000        0.6236753821



     Writing config-only to output data dir ./pto_k2.save/ :
     XML data file
     NEW-OLD atomic charge density approx. for the potential

     Check: negative core charge=   -0.000004

     negative rho (up, down):  1.507E-02 0.000E+00

     total cpu time spent up to now is       22.6 secs

     Self-consistent Calculation

     iteration #  1     ecut=    50.00 Ry     beta= 0.70
     CG style diagonalization
     ethr =  1.00E-06,  avg # of iterations =  4.5

     Threshold (ethr) on eigenvalues was too large:
     Diagonalizing with lowered threshold

     CG style diagonalization
     ethr =  3.51E-08,  avg # of iterations =  3.9

     negative rho (up, down):  1.505E-02 0.000E+00

     total cpu time spent up to now is       23.1 secs

     total energy              =    -380.55234410 Ry
     estimated scf accuracy    <       0.00002389 Ry

     iteration #  2     ecut=    50.00 Ry     beta= 0.70
     CG style diagonalization
     ethr =  5.43E-08,  avg # of iterations =  4.4

     negative rho (up, down):  1.505E-02 0.000E+00

     total cpu time spent up to now is       23.4 secs

     total energy              =    -380.55233823 Ry
     estimated scf accuracy    <       0.00009590 Ry

     iteration #  3     ecut=    50.00 Ry     beta= 0.70
     CG style diagonalization
     ethr =  5.43E-08,  avg # of iterations =  4.2

     negative rho (up, down):  1.505E-02 0.000E+00

     total cpu time spent up to now is       23.6 secs

     total energy              =    -380.55235557 Ry
     estimated scf accuracy    <       0.00000231 Ry

     iteration #  4     ecut=    50.00 Ry     beta= 0.70
     CG style diagonalization
     ethr =  5.24E-09,  avg # of iterations =  3.7

     negative rho (up, down):  1.505E-02 0.000E+00

     total cpu time spent up to now is       23.8 secs

     total energy              =    -380.55235609 Ry
     estimated scf accuracy    <       0.00000015 Ry

     iteration #  5     ecut=    50.00 Ry     beta= 0.70
     CG style diagonalization
     ethr =  3.42E-10,  avg # of iterations =  4.5

     negative rho (up, down):  1.505E-02 0.000E+00

     total cpu time spent up to now is       24.1 secs

     total energy              =    -380.55235622 Ry
     estimated scf accuracy    <       0.00000004 Ry

     iteration #  6     ecut=    50.00 Ry     beta= 0.70
     CG style diagonalization
     ethr =  8.04E-11,  avg # of iterations =  4.2

     negative rho (up, down):  1.505E-02 0.000E+00

     total cpu time spent up to now is       24.4 secs

     total energy              =    -380.55235623 Ry
     estimated scf accuracy    <          6.5E-09 Ry

     iteration #  7     ecut=    50.00 Ry     beta= 0.70
     CG style diagonalization
     ethr =  1.49E-11,  avg # of iterations =  4.5

     negative rho (up, down):  1.505E-02 0.000E+00

     total cpu time spent up to now is       24.6 secs

     total energy              =    -380.55235623 Ry
     estimated scf accuracy    <          1.4E-09 Ry

     iteration #  8     ecut=    50.00 Ry     beta= 0.70
     CG style diagonalization
     ethr =  3.09E-12,  avg # of iterations =  4.5

     negative rho (up, down):  1.505E-02 0.000E+00

     total cpu time spent up to now is       24.9 secs

     total energy              =    -380.55235624 Ry
     estimated scf accuracy    <          7.9E-10 Ry

     iteration #  9     ecut=    50.00 Ry     beta= 0.70
     CG style diagonalization
     ethr =  1.80E-12,  avg # of iterations =  4.1

     negative rho (up, down):  1.505E-02 0.000E+00

     total cpu time spent up to now is       25.1 secs

     End of self-consistent calculation

          k = 0.0000 0.0000 0.0000 (  2525 PWs)   bands (ev):

   -45.7737 -22.4634 -22.3616 -22.3616  -7.6143  -6.5582  -6.1010  -4.9201
    -4.9201  -4.8607  -4.8012  -4.5409   4.2762   6.1774   6.1774   6.9308
     7.9941   7.9941   8.3572   8.5969   8.8248   8.8248

          k = 0.0000 0.0000-0.4756 (  2530 PWs)   bands (ev):

   -45.7731 -22.5021 -22.3600 -22.3600  -7.2481  -6.4623  -5.9779  -4.9498
    -4.9498  -4.8582  -4.7613  -4.6604   2.9936   6.1120   6.1120   6.3513
     7.8893   7.8893   8.1889   8.9864   8.9864  10.0200

          k = 0.0000-0.5000 0.0000 (  2488 PWs)   bands (ev):

   -45.7723 -22.4601 -22.4283 -22.3588  -7.0222  -6.4803  -6.1138  -4.9666
    -4.9136  -4.9119  -4.6538  -4.6156   3.0379   5.6884   6.8801   6.9937
     7.3695   7.3708   8.1267   8.1455   8.6494  10.4459

          k = 0.0000-0.5000-0.4756 (  2516 PWs)   bands (ev):

   -45.7718 -22.4977 -22.4259 -22.3571  -6.9656  -6.3724  -5.8206  -4.9474
    -4.9136  -4.8849  -4.7223  -4.4454   2.6238   5.3288   6.1582   6.7205
     6.8787   7.2644   7.4405   8.3808   9.3335   9.5633

          k =-0.5000-0.5000 0.0000 (  2496 PWs)   bands (ev):

   -45.7710 -22.4566 -22.4246 -22.4246  -6.4588  -6.4162  -6.4162  -4.9136
    -4.8251  -4.5888  -4.5888  -4.5856   2.1527   5.4819   6.1572   6.9481
     6.9481   7.5563   7.5563   8.4073   8.8135   9.6963

          k =-0.5000-0.5000-0.4756 (  2504 PWs)   bands (ev):

   -45.7704 -22.4940 -22.4228 -22.4228  -6.5216  -6.5216  -6.0559  -4.8375
    -4.8214  -4.5298  -4.3892  -4.3892   3.0210   5.0603   5.0603   5.2840
     6.1710   6.3388   6.3989   9.5906   9.5906   9.6679

     highest occupied level (ev):    10.4459

!    total energy              =    -380.55235624 Ry
     estimated scf accuracy    <          4.9E-11 Ry

     The total energy is the sum of the following terms:
     one-electron contribution =     -86.82478371 Ry
     hartree contribution      =      72.63747290 Ry
     xc contribution           =    -102.63273298 Ry
     ewald contribution        =    -263.73231245 Ry

     convergence has been achieved in   9 iterations

     negative rho (up, down):  1.505E-02 0.000E+00

     Forces acting on atoms (cartesian axes, Ry/au):

     atom    1 type  1   force =     0.00000000    0.00000000    0.00025082
     atom    2 type  2   force =     0.00000000    0.00000000   -0.00117365
     atom    3 type  3   force =     0.00000000    0.00000000    0.00144213
     atom    4 type  3   force =     0.00000000    0.00000000   -0.00025965
     atom    5 type  3   force =     0.00000000    0.00000000   -0.00025965

     Total force =     0.001912     Total SCF correction =     0.000013


     Computing stress (Cartesian axis) and pressure


     negative rho (up, down):  1.505E-02 0.000E+00
          total   stress  (Ry/bohr**3)                   (kbar)     P=      -18.62
  -0.00032383   0.00000000   0.00000000          -47.64        0.00        0.00
   0.00000000  -0.00032383   0.00000000            0.00      -47.64        0.00
   0.00000000   0.00000000   0.00026799            0.00        0.00       39.42

     Energy error            =      3.2E-05 Ry
     Gradient error          =      1.4E-03 Ry/Bohr

     number of scf cycles    =   8
     number of bfgs steps    =   7

     energy             old  =    -380.5523245095 Ry
     energy             new  =    -380.5523562359 Ry

     CASE: energy            _new < energy            _old

     new trust radius        =       0.0019690326 bohr
     new conv_thr            =            1.0E-10 Ry


ATOMIC_POSITIONS (crystal)
Pb               0.0000000000        0.0000000000        0.9847882324
Ti               0.5000000000        0.5000000000        0.5291627206
O                0.5000000000        0.5000000000        0.1062212398
O                0.5000000000        0.0000000000        0.6235560476
O                0.0000000000        0.5000000000        0.6235560476



     Writing config-only to output data dir ./pto_k2.save/ :
     XML data file
     NEW-OLD atomic charge density approx. for the potential

     Check: negative core charge=   -0.000004

     negative rho (up, down):  1.505E-02 0.000E+00

     total cpu time spent up to now is       25.7 secs

     Self-consistent Calculation

     iteration #  1     ecut=    50.00 Ry     beta= 0.70
     CG style diagonalization
     ethr =  1.00E-06,  avg # of iterations =  2.5

     Threshold (ethr) on eigenvalues was too large:
     Diagonalizing with lowered threshold

     CG style diagonalization
     c_bands:  2 eigenvalues not converged
     ethr =  2.80E-09,  avg # of iterations =  5.1

     negative rho (up, down):  1.505E-02 0.000E+00

     total cpu time spent up to now is       26.1 secs

     total energy              =    -380.55235658 Ry
     estimated scf accuracy    <       0.00000244 Ry

     iteration #  2     ecut=    50.00 Ry     beta= 0.70
     CG style diagonalization
     ethr =  5.55E-09,  avg # of iterations =  4.5

     negative rho (up, down):  1.505E-02 0.000E+00

     total cpu time spent up to now is       26.4 secs

     total energy              =    -380.55235605 Ry
     estimated scf accuracy    <       0.00000952 Ry

     iteration #  3     ecut=    50.00 Ry     beta= 0.70
     CG style diagonalization
     ethr =  5.55E-09,  avg # of iterations =  4.2

     negative rho (up, down):  1.505E-02 0.000E+00

     total cpu time spent up to now is       26.7 secs

     total energy              =    -380.55235780 Ry
     estimated scf accuracy    <       0.00000032 Ry

     iteration #  4     ecut=    50.00 Ry     beta= 0.70
     CG style diagonalization
     ethr =  7.20E-10,  avg # of iterations =  3.6

     negative rho (up, down):  1.505E-02 0.000E+00

     total cpu time spent up to now is       26.9 secs

     total energy              =    -380.55235786 Ry
     estimated scf accuracy    <       0.00000002 Ry

     iteration #  5     ecut=    50.00 Ry     beta= 0.70
     CG style diagonalization
     ethr =  3.83E-11,  avg # of iterations =  4.6

     negative rho (up, down):  1.505E-02 0.000E+00

     total cpu time spent up to now is       27.1 secs

     total energy              =    -380.55235787 Ry
     estimated scf accuracy    <       0.00000001 Ry

     iteration #  6     ecut=    50.00 Ry     beta= 0.70
     CG style diagonalization
     ethr =  2.97E-11,  avg # of iterations =  3.6

     negative rho (up, down):  1.505E-02 0.000E+00

     total cpu time spent up to now is       27.4 secs

     total energy              =    -380.55235787 Ry
     estimated scf accuracy    <          1.9E-09 Ry

     iteration #  7     ecut=    50.00 Ry     beta= 0.70
     CG style diagonalization
     ethr =  4.30E-12,  avg # of iterations =  3.7

     negative rho (up, down):  1.505E-02 0.000E+00

     total cpu time spent up to now is       27.6 secs

     total energy              =    -380.55235787 Ry
     estimated scf accuracy    <          2.8E-10 Ry

     iteration #  8     ecut=    50.00 Ry     beta= 0.70
     CG style diagonalization
     ethr =  6.38E-13,  avg # of iterations =  4.9

     negative rho (up, down):  1.505E-02 0.000E+00

     total cpu time spent up to now is       27.9 secs

     total energy              =    -380.55235787 Ry
     estimated scf accuracy    <          1.5E-10 Ry

     iteration #  9     ecut=    50.00 Ry     beta= 0.70
     CG style diagonalization
     ethr =  3.38E-13,  avg # of iterations =  3.9

     negative rho (up, down):  1.505E-02 0.000E+00

     total cpu time spent up to now is       28.1 secs

     End of self-consistent calculation

          k = 0.0000 0.0000 0.0000 (  2525 PWs)   bands (ev):

   -45.7702 -22.4625 -22.3580 -22.3580  -7.6129  -6.5568  -6.1023  -4.9212
    -4.9212  -4.8622  -4.8025  -4.5423   4.2747   6.1793   6.1793   6.9324
     7.9892   7.9892   8.3587   8.5927   8.8267   8.8267

          k = 0.0000 0.0000-0.4756 (  2530 PWs)   bands (ev):

   -45.7696 -22.5011 -22.3564 -22.3564  -7.2461  -6.4608  -5.9797  -4.9509
    -4.9509  -4.8596  -4.7627  -4.6619   2.9911   6.1131   6.1131   6.3519
     7.8862   7.8862   8.1904   8.9879   8.9879  10.0201

          k = 0.0000-0.5000 0.0000 (  2488 PWs)   bands (ev):

   -45.7688 -22.4591 -22.4248 -22.3552  -7.0209  -6.4785  -6.1152  -4.9678
    -4.9147  -4.9133  -4.6550  -4.6169   3.0376   5.6892   6.8817   6.9902
     7.3709   7.3733   8.1210   8.1470   8.6468  10.4441

          k = 0.0000-0.5000-0.4756 (  2516 PWs)   bands (ev):

   -45.7683 -22.4967 -22.4224 -22.3535  -6.9641  -6.3704  -5.8224  -4.9484
    -4.9150  -4.8861  -4.7236  -4.4465   2.6228   5.3286   6.1575   6.7209
     6.8789   7.2662   7.4419   8.3779   9.3297   9.5631

          k =-0.5000-0.5000 0.0000 (  2496 PWs)   bands (ev):

   -45.7675 -22.4556 -22.4211 -22.4211  -6.4602  -6.4144  -6.4144  -4.9147
    -4.8264  -4.5900  -4.5900  -4.5874   2.1536   5.4827   6.1582   6.9456
     6.9456   7.5555   7.5555   8.4056   8.8130   9.6981

          k =-0.5000-0.5000-0.4756 (  2504 PWs)   bands (ev):

   -45.7670 -22.4930 -22.4192 -22.4192  -6.5201  -6.5201  -6.0572  -4.8387
    -4.8228  -4.5319  -4.3900  -4.3900   3.0228   5.0586   5.0586   5.2858
     6.1720   6.3371   6.3971   9.5888   9.5888   9.6696

     highest occupied level (ev):    10.4441

!    total energy              =    -380.55235787 Ry
     estimated scf accuracy    <          3.1E-12 Ry

     The total energy is the sum of the following terms:
     one-electron contribution =     -86.83671829 Ry
     hartree contribution      =      72.64415258 Ry
     xc contribution           =    -102.63352246 Ry
     ewald contribution        =    -263.72626971 Ry

     convergence has been achieved in   9 iterations

     negative rho (up, down):  1.505E-02 0.000E+00

     Forces acting on atoms (cartesian axes, Ry/au):

     atom    1 type  1   force =     0.00000000    0.00000000    0.00009290
     atom    2 type  2   force =     0.00000000    0.00000000   -0.00031591
     atom    3 type  3   force =     0.00000000    0.00000000    0.00021828
     atom    4 type  3   force =     0.00000000    0.00000000    0.00000237
     atom    5 type  3   force =     0.00000000    0.00000000    0.00000237

     Total force =     0.000395     Total SCF correction =     0.000007


     Computing stress (Cartesian axis) and pressure


     negative rho (up, down):  1.505E-02 0.000E+00
          total   stress  (Ry/bohr**3)                   (kbar)     P=      -18.14
  -0.00032303   0.00000000   0.00000000          -47.52        0.00        0.00
   0.00000000  -0.00032303   0.00000000            0.00      -47.52        0.00
   0.00000000   0.00000000   0.00027619            0.00        0.00       40.63

     Energy error            =      1.6E-06 Ry
     Gradient error          =      3.2E-04 Ry/Bohr

     bfgs converged in   9 scf cycles and   8 bfgs steps
     (criteria: energy <  1.0E-04 Ry, force <  1.0E-03 Ry/Bohr)

     End of BFGS Geometry Optimization

     Final energy             =    -380.5523578712 Ry

     File ./pto_k2.bfgs deleted, as requested
Begin final coordinates

ATOMIC_POSITIONS (crystal)
Pb               0.0000000000        0.0000000000        0.9847882324
Ti               0.5000000000        0.5000000000        0.5291627206
O                0.5000000000        0.5000000000        0.1062212398
O                0.5000000000        0.0000000000        0.6235560476
O                0.0000000000        0.5000000000        0.6235560476
End final coordinates



     Writing all to output data dir ./pto_k2.save/ :
     XML data file, charge density, pseudopotentials, collected wavefunctions
 
     init_run     :      0.25s CPU      0.33s WALL (       1 calls)
     electrons    :     21.58s CPU     23.23s WALL (       9 calls)
     update_pot   :      0.03s CPU      0.03s WALL (       8 calls)
     forces       :      0.56s CPU      0.66s WALL (       9 calls)
     stress       :      3.41s CPU      3.54s WALL (       9 calls)

     Called by init_run:
     wfcinit      :      0.03s CPU      0.05s WALL (       1 calls)
     potinit      :      0.01s CPU      0.01s WALL (       1 calls)
     hinit0       :      0.11s CPU      0.14s WALL (       1 calls)

     Called by electrons:
     c_bands      :     12.80s CPU     13.60s WALL (      88 calls)
     sum_band     :      4.88s CPU      5.18s WALL (      88 calls)
     v_of_rho     :      0.14s CPU      0.14s WALL (      94 calls)
     newd         :      3.96s CPU      4.39s WALL (      94 calls)
     mix_rho      :      0.09s CPU      0.10s WALL (      88 calls)

     Called by c_bands:
     init_us_2    :      0.12s CPU      0.13s WALL (    1170 calls)
     init_us_2:cp :      0.12s CPU      0.13s WALL (    1170 calls)
     ccgdiagg     :     11.44s CPU     12.16s WALL (     528 calls)
     wfcrot       :      1.30s CPU      1.38s WALL (     462 calls)

     Called by *cgdiagg:
     h_psi        :      7.18s CPU      7.61s WALL (   42619 calls)
     s_psi        :      1.25s CPU      1.34s WALL (   84776 calls)

     Called by h_psi:
     h_psi:calbec :      1.13s CPU      1.20s WALL (   42619 calls)
     vloc_psi     :      5.03s CPU      5.34s WALL (   42619 calls)
     add_vuspsi   :      0.68s CPU      0.72s WALL (   42619 calls)
     hs_1psi      :      7.01s CPU      7.45s WALL (   42157 calls)
     s_1psi       :      1.75s CPU      1.86s WALL (   42157 calls)

     General routines
     calbec       :      2.04s CPU      2.18s WALL (   85574 calls)
     fft          :      0.17s CPU      0.19s WALL (     629 calls)
     ffts         :      0.01s CPU      0.01s WALL (     182 calls)
     fftw         :      4.29s CPU      4.54s WALL (  116366 calls)
     interpolate  :      0.03s CPU      0.04s WALL (      94 calls)
 
     Parallel routines
 
     PWSCF        :     26.36s CPU     28.77s WALL

 
   This run was terminated on:   2:27:20  15Nov2025            

=------------------------------------------------------------------------------=
   JOB DONE.
=------------------------------------------------------------------------------=
TACC:  Shutdown complete. Exiting. 
