TACC:  Starting up job 2474968 
TACC:  Starting parallel tasks... 

     Program PWSCF v.7.3 starts on 17Oct2025 at 19:35:11 

     This program is part of the open-source Quantum ESPRESSO suite
     for quantum simulation of materials; please cite
         "P. Giannozzi et al., J. Phys.:Condens. Matter 21 395502 (2009);
         "P. Giannozzi et al., J. Phys.:Condens. Matter 29 465901 (2017);
         "P. Giannozzi et al., J. Chem. Phys. 152 154105 (2020);
          URL http://www.quantum-espresso.org", 
     in publications or presentations arising from this work. More details at
     http://www.quantum-espresso.org/quote

     Parallel version (MPI & OpenMP), running on      10 processor cores
     Number of MPI processes:                10
     Threads/MPI process:                     1

     MPI processes distributed on     1 nodes
     185688 MiB available memory on the printing compute node when the environment starts
 
     Waiting for input...
     Reading input from standard input

     Current dimensions of program PWSCF are:
     Max number of different atomic species (ntypx) = 10
     Max number of k-points (npk) =  40000
     Max angular momentum in pseudopotentials (lmaxx) =  4
 
     R & G space division:  proc/nbgrp/npool/nimage =      10
     Subspace diagonalization in iterative solution of the eigenvalue problem:
     a serial algorithm will be used

 
     Parallelization info
     --------------------
     sticks:   dense  smooth     PW     G-vecs:    dense   smooth      PW
     Min         537     141     42                26023     3572     567
     Max         538     142     43                26026     3576     569
     Sum        5377    1417    421               260251    35749    5673
 
     Using Slab Decomposition
 


     bravais-lattice index     =            2
     lattice parameter (alat)  =      10.2000  a.u.
     unit-cell volume          =     265.3020 (a.u.)^3
     number of atoms/cell      =            2
     number of atomic types    =            1
     number of electrons       =         8.00
     number of Kohn-Sham states=            8
     kinetic-energy cutoff     =     100.0000  Ry
     charge density cutoff     =    1500.0000  Ry
     scf convergence threshold =      1.0E-08
     mixing beta               =       0.7000
     number of iterations used =            8  plain     mixing
     Exchange-correlation= SLA  PZ   NOGX NOGC
                           (   1   1   0   0   0   0   0)

     celldm(1)=  10.200000  celldm(2)=   0.000000  celldm(3)=   0.000000
     celldm(4)=   0.000000  celldm(5)=   0.000000  celldm(6)=   0.000000

     crystal axes: (cart. coord. in units of alat)
               a(1) = (  -0.500000   0.000000   0.500000 )  
               a(2) = (   0.000000   0.500000   0.500000 )  
               a(3) = (  -0.500000   0.500000   0.000000 )  

     reciprocal axes: (cart. coord. in units 2 pi/alat)
               b(1) = ( -1.000000 -1.000000  1.000000 )  
               b(2) = (  1.000000  1.000000  1.000000 )  
               b(3) = ( -1.000000  1.000000 -1.000000 )  


     PseudoPot. # 1 for Si read from file:
     /scratch/11018/zhc/Assisgnment2/Q1/1A/energy_cutoff_test/Si_LDA.UPF
     MD5 check sum: b5ade7b37ee992b02096e360e546dc2d
     Pseudo is Ultrasoft + core correction, Zval =  4.0
     Generated by new atomic code, or converted to UPF format
     Using radial grid of  899 points,  6 beta functions with: 
                l(1) =   0
                l(2) =   0
                l(3) =   1
                l(4) =   1
                l(5) =   2
                l(6) =   2
     Q(r) pseudized with  8 coefficients,  rinner =    0.900   0.900   0.900
                                                       0.900   0.900

     atomic species   valence    mass     pseudopotential
     Si                4.00    28.08550     Si( 1.00)

     48 Sym. Ops., with inversion, found (24 have fractional translation)



   Cartesian axes

     site n.     atom                  positions (alat units)
         1        Si     tau(   1) = (   0.0000000   0.0000000   0.0000000  )
         2        Si     tau(   2) = (  -0.2500000   0.2500000   0.2500000  )

     number of k points=    72
                       cart. coord. in units 2pi/alat
        k(    1) = (   0.0000000   0.0000000   0.0000000), wk =   0.0011574
        k(    2) = (  -0.0833333   0.0833333  -0.0833333), wk =   0.0092593
        k(    3) = (  -0.1666667   0.1666667  -0.1666667), wk =   0.0092593
        k(    4) = (  -0.2500000   0.2500000  -0.2500000), wk =   0.0092593
        k(    5) = (  -0.3333333   0.3333333  -0.3333333), wk =   0.0092593
        k(    6) = (  -0.4166667   0.4166667  -0.4166667), wk =   0.0092593
        k(    7) = (   0.5000000  -0.5000000   0.5000000), wk =   0.0046296
        k(    8) = (   0.0000000   0.1666667   0.0000000), wk =   0.0069444
        k(    9) = (  -0.0833333   0.2500000  -0.0833333), wk =   0.0277778
        k(   10) = (  -0.1666667   0.3333333  -0.1666667), wk =   0.0277778
        k(   11) = (  -0.2500000   0.4166667  -0.2500000), wk =   0.0277778
        k(   12) = (  -0.3333333   0.5000000  -0.3333333), wk =   0.0277778
        k(   13) = (   0.5833333  -0.4166667   0.5833333), wk =   0.0277778
        k(   14) = (   0.5000000  -0.3333333   0.5000000), wk =   0.0277778
        k(   15) = (   0.4166667  -0.2500000   0.4166667), wk =   0.0277778
        k(   16) = (   0.3333333  -0.1666667   0.3333333), wk =   0.0277778
        k(   17) = (   0.2500000  -0.0833333   0.2500000), wk =   0.0277778
        k(   18) = (   0.1666667  -0.0000000   0.1666667), wk =   0.0138889
        k(   19) = (   0.0000000   0.3333333   0.0000000), wk =   0.0069444
        k(   20) = (  -0.0833333   0.4166667  -0.0833333), wk =   0.0277778
        k(   21) = (  -0.1666667   0.5000000  -0.1666667), wk =   0.0277778
        k(   22) = (  -0.2500000   0.5833333  -0.2500000), wk =   0.0277778
        k(   23) = (   0.6666667  -0.3333333   0.6666667), wk =   0.0277778
        k(   24) = (   0.5833333  -0.2500000   0.5833333), wk =   0.0277778
        k(   25) = (   0.5000000  -0.1666667   0.5000000), wk =   0.0277778
        k(   26) = (   0.4166667  -0.0833333   0.4166667), wk =   0.0277778
        k(   27) = (   0.3333333   0.0000000   0.3333333), wk =   0.0138889
        k(   28) = (   0.0000000   0.5000000   0.0000000), wk =   0.0069444
        k(   29) = (  -0.0833333   0.5833333  -0.0833333), wk =   0.0277778
        k(   30) = (  -0.1666667   0.6666667  -0.1666667), wk =   0.0277778
        k(   31) = (   0.7500000  -0.2500000   0.7500000), wk =   0.0277778
        k(   32) = (   0.6666667  -0.1666667   0.6666667), wk =   0.0277778
        k(   33) = (   0.5833333  -0.0833333   0.5833333), wk =   0.0277778
        k(   34) = (   0.5000000   0.0000000   0.5000000), wk =   0.0138889
        k(   35) = (   0.0000000   0.6666667   0.0000000), wk =   0.0069444
        k(   36) = (  -0.0833333   0.7500000  -0.0833333), wk =   0.0277778
        k(   37) = (   0.8333333  -0.1666667   0.8333333), wk =   0.0277778
        k(   38) = (   0.7500000  -0.0833333   0.7500000), wk =   0.0277778
        k(   39) = (   0.6666667  -0.0000000   0.6666667), wk =   0.0138889
        k(   40) = (   0.0000000   0.8333333   0.0000000), wk =   0.0069444
        k(   41) = (   0.9166667  -0.0833333   0.9166667), wk =   0.0277778
        k(   42) = (   0.8333333   0.0000000   0.8333333), wk =   0.0138889
        k(   43) = (   0.0000000  -1.0000000   0.0000000), wk =   0.0034722
        k(   44) = (  -0.1666667   0.3333333   0.0000000), wk =   0.0277778
        k(   45) = (  -0.2500000   0.4166667  -0.0833333), wk =   0.0555556
        k(   46) = (  -0.3333333   0.5000000  -0.1666667), wk =   0.0555556
        k(   47) = (   0.5833333  -0.4166667   0.7500000), wk =   0.0555556
        k(   48) = (   0.5000000  -0.3333333   0.6666667), wk =   0.0277778
        k(   49) = (  -0.1666667   0.5000000   0.0000000), wk =   0.0277778
        k(   50) = (  -0.2500000   0.5833333  -0.0833333), wk =   0.0555556
        k(   51) = (   0.6666667  -0.3333333   0.8333333), wk =   0.0555556
        k(   52) = (   0.5833333  -0.2500000   0.7500000), wk =   0.0555556
        k(   53) = (   0.5000000  -0.1666667   0.6666667), wk =   0.0555556
        k(   54) = (   0.4166667  -0.0833333   0.5833333), wk =   0.0555556
        k(   55) = (   0.3333333   0.0000000   0.5000000), wk =   0.0277778
        k(   56) = (  -0.1666667   0.6666667  -0.0000000), wk =   0.0277778
        k(   57) = (   0.7500000  -0.2500000   0.9166667), wk =   0.0555556
        k(   58) = (   0.6666667  -0.1666667   0.8333333), wk =   0.0555556
        k(   59) = (   0.5833333  -0.0833333   0.7500000), wk =   0.0555556
        k(   60) = (   0.5000000   0.0000000   0.6666667), wk =   0.0277778
        k(   61) = (   0.8333333  -0.1666667   1.0000000), wk =   0.0277778
        k(   62) = (   0.7500000  -0.0833333   0.9166667), wk =   0.0555556
        k(   63) = (   0.6666667   0.0000000   0.8333333), wk =   0.0277778
        k(   64) = (  -0.1666667  -1.0000000  -0.0000000), wk =   0.0138889
        k(   65) = (   0.6666667  -0.3333333   1.0000000), wk =   0.0277778
        k(   66) = (   0.5833333  -0.2500000   0.9166667), wk =   0.0555556
        k(   67) = (   0.5000000  -0.1666667   0.8333333), wk =   0.0277778
        k(   68) = (   0.6666667  -0.1666667   1.0000000), wk =   0.0277778
        k(   69) = (   0.5833333  -0.0833333   0.9166667), wk =   0.0555556
        k(   70) = (   0.5000000   0.0000000   0.8333333), wk =   0.0277778
        k(   71) = (  -0.3333333  -1.0000000   0.0000000), wk =   0.0138889
        k(   72) = (  -0.5000000  -1.0000000   0.0000000), wk =   0.0069444

     Dense  grid:   260251 G-vectors     FFT dimensions: (  90,  90,  90)

     Smooth grid:    35749 G-vectors     FFT dimensions: (  45,  45,  45)

     Estimated max dynamical RAM per process >     102.81 MB

     Estimated total dynamical RAM >       1.00 GB

     Initial potential from superposition of free atoms

     starting charge       7.9988, renormalised to       8.0000
     Starting wfcs are    8 randomized atomic wfcs

     total cpu time spent up to now is        0.6 secs

     Self-consistent Calculation

     iteration #  1     ecut=   100.00 Ry     beta= 0.70
     CG style diagonalization
     ethr =  1.00E-02,  avg # of iterations =  3.7

     Threshold (ethr) on eigenvalues was too large:
     Diagonalizing with lowered threshold

     CG style diagonalization
     ethr =  7.39E-04,  avg # of iterations =  2.0

     total cpu time spent up to now is        2.7 secs

     total energy              =     -19.25708212 Ry
     estimated scf accuracy    <       0.05919362 Ry

     iteration #  2     ecut=   100.00 Ry     beta= 0.70
     CG style diagonalization
     ethr =  7.40E-04,  avg # of iterations =  3.0

     total cpu time spent up to now is        3.7 secs

     total energy              =     -19.26043131 Ry
     estimated scf accuracy    <       0.00171477 Ry

     iteration #  3     ecut=   100.00 Ry     beta= 0.70
     CG style diagonalization
     ethr =  2.14E-05,  avg # of iterations =  3.8

     total cpu time spent up to now is        4.9 secs

     total energy              =     -19.26063770 Ry
     estimated scf accuracy    <       0.00003821 Ry

     iteration #  4     ecut=   100.00 Ry     beta= 0.70
     CG style diagonalization
     ethr =  4.78E-07,  avg # of iterations =  4.4

     total cpu time spent up to now is        6.3 secs

     total energy              =     -19.26067278 Ry
     estimated scf accuracy    <       0.00000010 Ry

     iteration #  5     ecut=   100.00 Ry     beta= 0.70
     CG style diagonalization
     ethr =  1.30E-09,  avg # of iterations =  4.2

     total cpu time spent up to now is        7.6 secs

     End of self-consistent calculation

          k = 0.0000 0.0000 0.0000 (  4477 PWs)   bands (ev):

    -5.8904   6.1993   6.1993   6.1993   8.7355   8.7355   8.7355   9.5916

          k =-0.0833 0.0833-0.0833 (  4519 PWs)   bands (ev):

    -5.7979   5.3282   6.0523   6.0523   8.7806   8.9510   8.9510  10.2493

          k =-0.1667 0.1667-0.1667 (  4498 PWs)   bands (ev):

    -5.5234   3.7859   5.7406   5.7406   8.5158   9.3919   9.3919  11.6616

          k =-0.2500 0.2500-0.2500 (  4501 PWs)   bands (ev):

    -5.0775   2.2188   5.4279   5.4279   8.1856   9.6829   9.6829  13.1023

          k =-0.3333 0.3333-0.3333 (  4462 PWs)   bands (ev):

    -4.4893   0.7903   5.1857   5.1857   7.9154   9.6723   9.6723  13.9476

          k =-0.4167 0.4167-0.4167 (  4494 PWs)   bands (ev):

    -3.8533  -0.3612   5.0367   5.0367   7.7452   9.5507   9.5507  13.8360

          k = 0.5000-0.5000 0.5000 (  4476 PWs)   bands (ev):

    -3.5074  -0.8807   4.9868   4.9868   7.6875   9.4931   9.4931  13.7463

          k = 0.0000 0.1667 0.0000 (  4517 PWs)   bands (ev):

    -5.7670   5.5050   5.7576   5.7576   8.4433   9.3263   9.3263  10.2291

          k =-0.0833 0.2500-0.0833 (  4488 PWs)   bands (ev):

    -5.5527   4.2516   5.3870   5.5848   8.4601   9.4158   9.8709  11.0984

          k =-0.1667 0.3333-0.1667 (  4494 PWs)   bands (ev):

    -5.1624   2.7278   5.0703   5.2551   8.5894   9.4002  10.2552  11.5511

          k =-0.2500 0.4167-0.2500 (  4495 PWs)   bands (ev):

    -4.6166   1.2694   4.8593   4.8965   8.4485   9.4638  10.2678  12.1210

          k =-0.3333 0.5000-0.3333 (  4480 PWs)   bands (ev):

    -3.9771   0.0171   4.5958   4.7706   8.2836   9.4145  10.0611  13.1696

          k = 0.5833-0.4167 0.5833 (  4475 PWs)   bands (ev):

    -3.4707  -0.7720   4.3870   4.8041   8.2048   9.4086   9.8540  13.9971

          k = 0.5000-0.3333 0.5000 (  4475 PWs)   bands (ev):

    -3.5960  -0.5891   4.2885   4.9510   8.2344   9.5253   9.7414  14.0929

          k = 0.4167-0.2500 0.4167 (  4488 PWs)   bands (ev):

    -4.1941   0.4047   4.3137   5.1949   8.3706   9.7141   9.7425  13.6214

          k = 0.3333-0.1667 0.3333 (  4487 PWs)   bands (ev):

    -4.8146   1.7413   4.4730   5.5097   8.6009   9.6428   9.9099  12.6805

          k = 0.2500-0.0833 0.2500 (  4491 PWs)   bands (ev):

    -5.3119   3.2225   4.7788   5.8437   8.8901   9.3476   9.7068  11.9260

          k = 0.1667-0.0000 0.1667 (  4495 PWs)   bands (ev):

    -5.6446   4.5945   5.3098   6.0819   8.9873   9.1224   9.1317  11.0409

          k = 0.0000 0.3333 0.0000 (  4500 PWs)   bands (ev):

    -5.3987   4.1565   4.9803   4.9803   7.8288  10.4648  10.5429  10.5429

          k =-0.0833 0.4167-0.0833 (  4505 PWs)   bands (ev):

    -5.0663   3.0527   4.6273   4.6411   7.8467  10.0443  10.8609  11.1079

          k =-0.1667 0.5000-0.1667 (  4489 PWs)   bands (ev):

    -4.5697   1.7193   4.1650   4.4206   8.0867  10.2241  10.6838  11.2684

          k =-0.2500 0.5833-0.2500 (  4489 PWs)   bands (ev):

    -3.9496   0.4615   3.7176   4.3371   8.1267  10.4371  11.0776  11.1978

          k = 0.6667-0.3333 0.6667 (  4472 PWs)   bands (ev):

    -3.3502  -0.4946   3.3664   4.3936   8.1591  10.2813  10.7967  12.5862

          k = 0.5833-0.2500 0.5833 (  4471 PWs)   bands (ev):

    -3.2313  -0.6597   3.1469   4.5822   8.3120  10.2256  10.5665  14.1460

          k = 0.5000-0.1667 0.5000 (  4478 PWs)   bands (ev):

    -3.7457   0.1189   3.0857   4.8835   8.5919  10.2737  10.4027  13.4549

          k = 0.4167-0.0833 0.4167 (  4490 PWs)   bands (ev):

    -4.3838   1.2897   3.2267   5.2589   8.9434  10.1818  10.3284  12.2927

          k = 0.3333 0.0000 0.3333 (  4495 PWs)   bands (ev):

    -4.9254   2.4503   3.7221   5.6299   9.2213   9.7394  10.0023  11.8245

          k = 0.0000 0.5000 0.0000 (  4520 PWs)   bands (ev):

    -4.7915   2.6691   4.2728   4.2728   7.2299   9.2382  11.9633  11.9634

          k =-0.0833 0.5833-0.0833 (  4491 PWs)   bands (ev):

    -4.3478   1.7479   3.7926   4.0232   7.3146   8.8766  12.2495  12.4441

          k =-0.1667 0.6667-0.1667 (  4495 PWs)   bands (ev):

    -3.7619   0.7015   3.1415   3.9155   7.5273   9.3665  12.1103  12.3944

          k = 0.7500-0.2500 0.7500 (  4470 PWs)   bands (ev):

    -3.1233  -0.2452   2.5822   3.9560   7.6118  10.5804  11.9415  12.1098

          k = 0.6667-0.1667 0.6667 (  4453 PWs)   bands (ev):

    -2.7880  -0.6732   2.2102   4.1401   7.7964  11.6021  11.8090  12.3597

          k = 0.5833-0.0833 0.5833 (  4473 PWs)   bands (ev):

    -3.1746  -0.1652   2.0840   4.4512   8.1332  11.5113  11.5968  13.3527

          k = 0.5000 0.0000 0.5000 (  4489 PWs)   bands (ev):

    -3.8107   0.6736   2.3501   4.8516   8.5796  10.9807  11.2866  12.3164

          k = 0.0000 0.6667 0.0000 (  4512 PWs)   bands (ev):

    -3.9564   1.1615   3.7378   3.7378   6.8095   8.0704  13.4747  13.4747

          k =-0.0833 0.7500-0.0833 (  4480 PWs)   bands (ev):

    -3.4127   0.3665   3.2320   3.5935   6.9727   7.9456  13.7971  13.8428

          k = 0.8333-0.1667 0.8333 (  4478 PWs)   bands (ev):

    -2.7711  -0.4124   2.4759   3.6005   7.1407   8.8303  13.6561  13.6825

          k = 0.7500-0.0833 0.7500 (  4465 PWs)   bands (ev):

    -2.2874  -0.9155   1.8777   3.7575   7.3208  10.2975  13.3028  13.5081

          k = 0.6667-0.0000 0.6667 (  4466 PWs)   bands (ev):

    -2.5639  -0.6269   1.6694   4.0517   7.6583  11.9368  12.6815  13.6246

          k = 0.0000 0.8333 0.0000 (  4468 PWs)   bands (ev):

    -2.9109  -0.3076   3.4084   3.4084   6.6428   7.2429  15.0409  15.0409

          k = 0.9167-0.0833 0.9167 (  4461 PWs)   bands (ev):

    -2.2869  -1.0043   2.9555   3.3745   6.8426   7.4260  15.2886  15.3843

          k = 0.8333 0.0000 0.8333 (  4456 PWs)   bands (ev):

    -1.8170  -1.4169   2.2555   3.4939   7.0043   8.6562  14.7428  15.2672

          k = 0.0000-1.0000 0.0000 (  4456 PWs)   bands (ev):

    -1.6818  -1.6818   3.2974   3.2974   6.7753   6.7753  16.3289  16.3290

          k =-0.1667 0.3333 0.0000 (  4499 PWs)   bands (ev):

    -5.2796   3.4512   4.5218   5.4833   8.4818   9.7456  10.3431  11.0602

          k =-0.2500 0.4167-0.0833 (  4488 PWs)   bands (ev):

    -4.8358   2.1911   3.9815   5.2027   8.7651   9.7046  10.7459  11.0299

          k =-0.3333 0.5000-0.1667 (  4493 PWs)   bands (ev):

    -4.2496   0.8659   3.7120   4.8683   8.8100   9.5493  10.8023  11.6932

          k = 0.5833-0.4167 0.7500 (  4475 PWs)   bands (ev):

    -3.6127  -0.2467   3.5859   4.6164   8.7605   9.3343  10.7167  12.9240

          k = 0.5000-0.3333 0.6667 (  4478 PWs)   bands (ev):

    -3.2627  -0.7592   3.5511   4.5225   8.7436   9.2389  10.6700  14.2143

          k =-0.1667 0.5000 0.0000 (  4491 PWs)   bands (ev):

    -4.6789   2.2556   3.8135   4.5421   7.9118   9.6483  11.0071  11.8376

          k =-0.2500 0.5833-0.0833 (  4491 PWs)   bands (ev):

    -4.1368   1.1890   3.2653   4.2447   8.2449   9.8702  10.7440  12.2210

          k = 0.6667-0.3333 0.8333 (  4481 PWs)   bands (ev):

    -3.4979   0.1119   2.9049   4.0280   8.3611  10.3623  10.9721  12.1993

          k = 0.5833-0.2500 0.7500 (  4470 PWs)   bands (ev):

    -2.9860  -0.6143   2.6552   4.0096   8.4916  10.0886  12.0834  12.4523

          k = 0.5000-0.1667 0.6667 (  4468 PWs)   bands (ev):

    -3.1259  -0.4217   2.5319   4.1869   8.7505   9.8944  12.0040  12.8303

          k = 0.4167-0.0833 0.5833 (  4481 PWs)   bands (ev):

    -3.7315   0.4778   2.6015   4.5120   9.1263   9.7522  11.4532  11.9465

          k = 0.3333 0.0000 0.5000 (  4481 PWs)   bands (ev):

    -4.3462   1.4745   3.0208   4.9040   9.3641   9.5293  10.8060  11.5231

          k =-0.1667 0.6667-0.0000 (  4487 PWs)   bands (ev):

    -3.8554   0.9833   3.2953   3.7373   7.4976   8.5717  12.2611  13.4213

          k = 0.7500-0.2500 0.9167 (  4479 PWs)   bands (ev):

    -3.2382   0.1367   2.6881   3.5128   7.8294   9.1223  11.9513  13.7904

          k = 0.6667-0.1667 0.8333 (  4477 PWs)   bands (ev):

    -2.6338  -0.5938   2.1516   3.5212   7.9823  10.4334  11.6530  13.7229

          k = 0.5833-0.0833 0.7500 (  4471 PWs)   bands (ev):

    -2.5584  -0.6686   1.8534   3.7247   8.2458  11.2108  12.2201  12.9226

          k = 0.5000 0.0000 0.6667 (  4486 PWs)   bands (ev):

    -3.1092  -0.0670   1.9409   4.0784   8.6507  10.8058  11.6656  13.0221

          k = 0.8333-0.1667 1.0000 (  4482 PWs)   bands (ev):

    -2.8309  -0.3428   3.0071   3.2092   7.3152   7.8192  13.6422  15.0373

          k = 0.7500-0.0833 0.9167 (  4473 PWs)   bands (ev):

    -2.1888  -0.9939   2.3517   3.1636   7.6056   8.7545  13.3144  14.8098

          k = 0.6667 0.0000 0.8333 (  4463 PWs)   bands (ev):

    -2.0243  -1.1133   1.8351   3.3653   7.8485  10.3040  12.8532  13.2363

          k =-0.1667-1.0000-0.0000 (  4460 PWs)   bands (ev):

    -1.6412  -1.6412   2.9718   2.9718   7.4103   7.4103  15.1208  15.1208

          k = 0.6667-0.3333 1.0000 (  4491 PWs)   bands (ev):

    -3.5620   0.5167   2.5399   3.8508   8.9889   9.8238  10.4159  13.2678

          k = 0.5833-0.2500 0.9167 (  4476 PWs)   bands (ev):

    -2.9240  -0.2665   2.1858   3.5026   9.3554   9.9096  10.9160  13.6955

          k = 0.5000-0.1667 0.8333 (  4456 PWs)   bands (ev):

    -2.5528  -0.7080   2.0926   3.3691   9.4696   9.7166  12.2561  12.7081

          k = 0.6667-0.1667 1.0000 (  4482 PWs)   bands (ev):

    -2.6099  -0.4870   2.3359   2.9695   8.8068   9.1984  11.5635  14.5108

          k = 0.5833-0.0833 0.9167 (  4471 PWs)   bands (ev):

    -2.0737  -1.0015   2.0077   2.8106   9.1454  10.4137  11.2908  12.6772

          k = 0.5000 0.0000 0.8333 (  4467 PWs)   bands (ev):

    -2.3087  -0.7697   1.8790   3.0422   9.4505  10.6194  11.1646  12.4231

          k =-0.3333-1.0000 0.0000 (  4466 PWs)   bands (ev):

    -1.5538  -1.5538   2.4612   2.4612   8.8657   8.8657  12.9498  12.9498

          k =-0.5000-1.0000 0.0000 (  4488 PWs)   bands (ev):

    -1.5065  -1.5065   2.2437   2.2437  10.3880  10.3880  11.1893  11.1893

     highest occupied, lowest unoccupied level (ev):     6.1993    6.6428

!    total energy              =     -19.26067333 Ry
     estimated scf accuracy    <          1.8E-09 Ry

     The total energy is the sum of the following terms:
     one-electron contribution =       5.18345180 Ry
     hartree contribution      =       1.09840375 Ry
     xc contribution           =      -8.64277031 Ry
     ewald contribution        =     -16.89975857 Ry

     convergence has been achieved in   5 iterations

     Forces acting on atoms (cartesian axes, Ry/au):

     atom    1 type  1   force =    -0.00000000   -0.00000000   -0.00000000
     atom    2 type  1   force =     0.00000000    0.00000000    0.00000000

     Total force =     0.000000     Total SCF correction =     0.000000


     Computing stress (Cartesian axis) and pressure

          total   stress  (Ry/bohr**3)                   (kbar)     P=        1.50
   0.00001019   0.00000000   0.00000000            1.50        0.00        0.00
   0.00000000   0.00001019  -0.00000000            0.00        1.50       -0.00
   0.00000000  -0.00000000   0.00001019            0.00       -0.00        1.50


     Writing all to output data dir ./Si_100.save/ :
     XML data file, charge density, pseudopotentials, collected wavefunctions
 
     init_run     :      0.43s CPU      0.52s WALL (       1 calls)
     electrons    :      6.61s CPU      7.02s WALL (       1 calls)
     forces       :      0.16s CPU      0.17s WALL (       1 calls)
     stress       :      1.03s CPU      1.08s WALL (       1 calls)

     Called by init_run:
     wfcinit      :      0.21s CPU      0.24s WALL (       1 calls)
     potinit      :      0.01s CPU      0.02s WALL (       1 calls)
     hinit0       :      0.08s CPU      0.11s WALL (       1 calls)

     Called by electrons:
     c_bands      :      5.07s CPU      5.28s WALL (       6 calls)
     sum_band     :      1.19s CPU      1.30s WALL (       6 calls)
     v_of_rho     :      0.03s CPU      0.03s WALL (       6 calls)
     newd         :      0.35s CPU      0.43s WALL (       6 calls)
     mix_rho      :      0.01s CPU      0.02s WALL (       6 calls)

     Called by c_bands:
     init_us_2    :      0.12s CPU      0.13s WALL (    1080 calls)
     init_us_2:cp :      0.12s CPU      0.13s WALL (    1080 calls)
     ccgdiagg     :      4.30s CPU      4.48s WALL (     432 calls)
     wfcrot       :      0.88s CPU      0.93s WALL (     360 calls)

     Called by *cgdiagg:
     h_psi        :      3.96s CPU      4.13s WALL (   10243 calls)
     s_psi        :      0.21s CPU      0.22s WALL (   20126 calls)

     Called by h_psi:
     h_psi:calbec :      0.32s CPU      0.33s WALL (   10243 calls)
     vloc_psi     :      3.44s CPU      3.57s WALL (   10243 calls)
     add_vuspsi   :      0.12s CPU      0.13s WALL (   10243 calls)
     hs_1psi      :      3.33s CPU      3.46s WALL (    9883 calls)
     s_1psi       :      0.35s CPU      0.36s WALL (    9883 calls)

     General routines
     calbec       :      0.54s CPU      0.56s WALL (   20918 calls)
     fft          :      0.05s CPU      0.06s WALL (      43 calls)
     ffts         :      0.00s CPU      0.01s WALL (      12 calls)
     fftw         :      2.85s CPU      2.95s WALL (   28982 calls)
     interpolate  :      0.01s CPU      0.02s WALL (       6 calls)
 
     Parallel routines
 
     PWSCF        :      8.39s CPU      9.49s WALL

 
   This run was terminated on:  19:35:21  17Oct2025            

=------------------------------------------------------------------------------=
   JOB DONE.
=------------------------------------------------------------------------------=
TACC:  Shutdown complete. Exiting. 
