TACC:  Starting up job 2386143 
TACC:  Starting parallel tasks... 

     Program PWSCF v.7.3 starts on 19Sep2025 at  9:29:56 

     This program is part of the open-source Quantum ESPRESSO suite
     for quantum simulation of materials; please cite
         "P. Giannozzi et al., J. Phys.:Condens. Matter 21 395502 (2009);
         "P. Giannozzi et al., J. Phys.:Condens. Matter 29 465901 (2017);
         "P. Giannozzi et al., J. Chem. Phys. 152 154105 (2020);
          URL http://www.quantum-espresso.org", 
     in publications or presentations arising from this work. More details at
     http://www.quantum-espresso.org/quote

     Parallel version (MPI & OpenMP), running on      10 processor cores
     Number of MPI processes:                10
     Threads/MPI process:                     1

     MPI processes distributed on     1 nodes
     187021 MiB available memory on the printing compute node when the environment starts
 
     Waiting for input...
     Reading input from standard input
Warning: card &CELL ignored
Warning: card  CELL_DYNAMICS = 'BFGS', ignored
Warning: card  PRESS=0.D0, ignored
Warning: card / ignored
     Message from routine read_cards :
     DEPRECATED: no units specified in ATOMIC_POSITIONS card
     Message from routine read_cards :
     ATOMIC_POSITIONS: units set to alat

     Current dimensions of program PWSCF are:
     Max number of different atomic species (ntypx) = 10
     Max number of k-points (npk) =  40000
     Max angular momentum in pseudopotentials (lmaxx) =  4
 
     R & G space division:  proc/nbgrp/npool/nimage =      10
     Subspace diagonalization in iterative solution of the eigenvalue problem:
     a serial algorithm will be used

 
     Parallelization info
     --------------------
     sticks:   dense  smooth     PW     G-vecs:    dense   smooth      PW
     Min          86      34     11                 1909      480      94
     Max          87      36     13                 1911      481      96
     Sum         869     349    121                19093     4801     949
 
     Using Slab Decomposition
 


     bravais-lattice index     =            1
     lattice parameter (alat)  =       7.3573  a.u.
     unit-cell volume          =     398.2496 (a.u.)^3
     number of atoms/cell      =            5
     number of atomic types    =            3
     number of electrons       =        40.00
     number of Kohn-Sham states=           20
     kinetic-energy cutoff     =      20.0000  Ry
     charge density cutoff     =     200.0000  Ry
     scf convergence threshold =      1.0E-08
     mixing beta               =       0.7000
     number of iterations used =            8  plain     mixing
     Exchange-correlation= SLA  PZ   NOGX NOGC
                           (   1   1   0   0   0   0   0)

     celldm(1)=   7.357300  celldm(2)=   0.000000  celldm(3)=   0.000000
     celldm(4)=   0.000000  celldm(5)=   0.000000  celldm(6)=   0.000000

     crystal axes: (cart. coord. in units of alat)
               a(1) = (   1.000000   0.000000   0.000000 )  
               a(2) = (   0.000000   1.000000   0.000000 )  
               a(3) = (   0.000000   0.000000   1.000000 )  

     reciprocal axes: (cart. coord. in units 2 pi/alat)
               b(1) = (  1.000000  0.000000  0.000000 )  
               b(2) = (  0.000000  1.000000  0.000000 )  
               b(3) = (  0.000000  0.000000  1.000000 )  


     PseudoPot. # 1 for Ca read from file:
     /scratch/11018/zhc/assisgnment1/CaTiO3/Ca_LDA.UPF
     MD5 check sum: d2d4e7693e10d071152e9eeb7dd009f3
     Pseudo is Ultrasoft + core correction, Zval = 10.0
     Generated by new atomic code, or converted to UPF format
     Using radial grid of  845 points,  6 beta functions with: 
                l(1) =   0
                l(2) =   0
                l(3) =   1
                l(4) =   1
                l(5) =   2
                l(6) =   2
     Q(r) pseudized with  8 coefficients,  rinner =    1.500   1.500   1.500
                                                       1.500   1.500

     PseudoPot. # 2 for Ti read from file:
     /scratch/11018/zhc/assisgnment1/CaTiO3/Ti_LDA.UPF
     MD5 check sum: 0d9f225c038fe889ca2a701dcc8d72cb
     Pseudo is Ultrasoft + core correction, Zval = 12.0
     Generated by new atomic code, or converted to UPF format
     Using radial grid of  851 points,  6 beta functions with: 
                l(1) =   0
                l(2) =   0
                l(3) =   1
                l(4) =   1
                l(5) =   2
                l(6) =   2
     Q(r) pseudized with  6 coefficients,  rinner =    1.000   1.000   1.000
                                                       1.000   1.000

     PseudoPot. # 3 for O  read from file:
     /scratch/11018/zhc/assisgnment1/CaTiO3/O_LDA.UPF
     MD5 check sum: 194b818514d2a7dbb603bb78519a4f40
     Pseudo is Ultrasoft + core correction, Zval =  6.0
     Generated by new atomic code, or converted to UPF format
     Using radial grid of  737 points,  5 beta functions with: 
                l(1) =   0
                l(2) =   0
                l(3) =   1
                l(4) =   1
                l(5) =   2
     Q(r) pseudized with  8 coefficients,  rinner =    0.900   0.900   0.900
                                                       0.900   0.900

     atomic species   valence    mass     pseudopotential
     Ca               10.00    40.07800     Ca( 1.00)
     Ti               12.00    47.88000     Ti( 1.00)
     O                 6.00    16.00000     O ( 1.00)

     48 Sym. Ops., with inversion, found



   Cartesian axes

     site n.     atom                  positions (alat units)
         1        Ca     tau(   1) = (   0.0000000   0.0000000   0.0000000  )
         2        Ti     tau(   2) = (   0.5000000   0.5000000   0.5000000  )
         3        O      tau(   3) = (   0.5000000   0.5000000   0.0000000  )
         4        O      tau(   4) = (   0.5000000   0.0000000   0.5000000  )
         5        O      tau(   5) = (   0.0000000   0.5000000   0.5000000  )

     number of k points=     4
                       cart. coord. in units 2pi/alat
        k(    1) = (   0.0000000   0.0000000   0.0000000), wk =   0.2500000
        k(    2) = (   0.0000000   0.0000000  -0.5000000), wk =   0.7500000
        k(    3) = (   0.0000000  -0.5000000  -0.5000000), wk =   0.7500000
        k(    4) = (  -0.5000000  -0.5000000  -0.5000000), wk =   0.2500000

     Dense  grid:    19093 G-vectors     FFT dimensions: (  36,  36,  36)

     Smooth grid:     4801 G-vectors     FFT dimensions: (  24,  24,  24)

     Estimated max dynamical RAM per process >      10.68 MB

     Estimated total dynamical RAM >     106.82 MB

     Check: negative core charge=   -0.000005

     Initial potential from superposition of free atoms

     starting charge      38.9952, renormalised to      40.0000

     negative rho (up, down):  1.503E-03 0.000E+00
     Starting wfcs are   32 randomized atomic wfcs

     total cpu time spent up to now is        0.4 secs

     Self-consistent Calculation

     iteration #  1     ecut=    20.00 Ry     beta= 0.70
     CG style diagonalization
     ethr =  1.00E-02,  avg # of iterations =  2.3

     negative rho (up, down):  1.715E-03 0.000E+00

     total cpu time spent up to now is        0.5 secs

     total energy              =    -290.69343234 Ry
     estimated scf accuracy    <       0.56385479 Ry

     iteration #  2     ecut=    20.00 Ry     beta= 0.70
     CG style diagonalization
     ethr =  1.41E-03,  avg # of iterations =  4.3

     negative rho (up, down):  1.427E-03 0.000E+00

     total cpu time spent up to now is        0.5 secs

     total energy              =    -290.60016725 Ry
     estimated scf accuracy    <       1.44048424 Ry

     iteration #  3     ecut=    20.00 Ry     beta= 0.70
     CG style diagonalization
     ethr =  1.41E-03,  avg # of iterations =  3.8

     negative rho (up, down):  1.496E-03 0.000E+00

     total cpu time spent up to now is        0.6 secs

     total energy              =    -290.91193728 Ry
     estimated scf accuracy    <       0.06377310 Ry

     iteration #  4     ecut=    20.00 Ry     beta= 0.70
     CG style diagonalization
     ethr =  1.59E-04,  avg # of iterations =  3.4

     negative rho (up, down):  1.493E-03 0.000E+00

     total cpu time spent up to now is        0.7 secs

     total energy              =    -290.92151175 Ry
     estimated scf accuracy    <       0.00431533 Ry

     iteration #  5     ecut=    20.00 Ry     beta= 0.70
     CG style diagonalization
     ethr =  1.08E-05,  avg # of iterations =  3.5

     negative rho (up, down):  1.499E-03 0.000E+00

     total cpu time spent up to now is        0.8 secs

     total energy              =    -290.92243508 Ry
     estimated scf accuracy    <       0.00020494 Ry

     iteration #  6     ecut=    20.00 Ry     beta= 0.70
     CG style diagonalization
     ethr =  5.12E-07,  avg # of iterations =  3.8

     negative rho (up, down):  1.498E-03 0.000E+00

     total cpu time spent up to now is        0.8 secs

     total energy              =    -290.92253917 Ry
     estimated scf accuracy    <       0.00004571 Ry

     iteration #  7     ecut=    20.00 Ry     beta= 0.70
     CG style diagonalization
     ethr =  1.14E-07,  avg # of iterations =  3.3

     negative rho (up, down):  1.498E-03 0.000E+00

     total cpu time spent up to now is        0.9 secs

     total energy              =    -290.92254103 Ry
     estimated scf accuracy    <       0.00000880 Ry

     iteration #  8     ecut=    20.00 Ry     beta= 0.70
     CG style diagonalization
     ethr =  2.20E-08,  avg # of iterations =  3.7

     negative rho (up, down):  1.498E-03 0.000E+00

     total cpu time spent up to now is        1.0 secs

     total energy              =    -290.92254339 Ry
     estimated scf accuracy    <       0.00000017 Ry

     iteration #  9     ecut=    20.00 Ry     beta= 0.70
     CG style diagonalization
     ethr =  4.13E-10,  avg # of iterations =  4.7

     negative rho (up, down):  1.498E-03 0.000E+00

     total cpu time spent up to now is        1.1 secs

     End of self-consistent calculation

          k = 0.0000 0.0000 0.0000 (   619 PWs)   bands (ev):

   -47.9735 -30.1395 -24.4458 -24.4458 -24.4458 -11.3141 -11.3141 -11.3141
    -8.9506  -7.8677  -7.8677   5.6520   5.6520   5.6520   7.6912   7.6912
     7.6912   8.1480   8.1480   8.1480

          k = 0.0000 0.0000-0.5000 (   610 PWs)   bands (ev):

   -47.9711 -30.1335 -24.5061 -24.4399 -24.4399 -11.5684 -11.3030 -11.3030
    -8.2976  -7.8340  -7.5709   4.2967   5.8665   5.8665   6.0736   6.1293
     6.1293   6.8263   8.0371   8.0371

          k = 0.0000-0.5000-0.5000 (   576 PWs)   bands (ev):

   -47.9682 -30.1263 -24.4859 -24.4859 -24.3733 -11.4474 -11.4474 -11.2775
    -8.2043  -7.3972  -7.3972   4.0033   4.1835   4.5564   6.0008   6.0008
     6.9264   6.9264   7.1320   8.7993

          k =-0.5000-0.5000-0.5000 (   624 PWs)   bands (ev):

   -47.9702 -30.1215 -24.5200 -24.5200 -24.5200 -11.3953 -11.3953 -11.3953
    -7.5046  -7.5046  -7.5046   3.9075   4.3376   4.3376   4.3376   4.4363
     4.4363   8.8083   8.8083   8.8083

     highest occupied level (ev):     8.8083

!    total energy              =    -290.92254356 Ry
     estimated scf accuracy    <          7.4E-09 Ry

     The total energy is the sum of the following terms:
     one-electron contribution =     -91.41859154 Ry
     hartree contribution      =      64.60034214 Ry
     xc contribution           =     -50.95972977 Ry
     ewald contribution        =    -213.14456439 Ry

     convergence has been achieved in   9 iterations

     negative rho (up, down):  1.498E-03 0.000E+00

     Forces acting on atoms (cartesian axes, Ry/au):

     atom    1 type  1   force =     0.00000000    0.00000000    0.00000000
     atom    2 type  2   force =     0.00000000    0.00000000    0.00000000
     atom    3 type  3   force =     0.00000000    0.00000000    0.00000000
     atom    4 type  3   force =     0.00000000    0.00000000    0.00000000
     atom    5 type  3   force =     0.00000000    0.00000000    0.00000000

     Total force =     0.000000     Total SCF correction =     0.000000


     Computing stress (Cartesian axis) and pressure


     negative rho (up, down):  1.498E-03 0.000E+00
          total   stress  (Ry/bohr**3)                   (kbar)     P=    -1223.01
  -0.00831388   0.00000000   0.00000000        -1223.01        0.00        0.00
   0.00000000  -0.00831388   0.00000000            0.00    -1223.01        0.00
   0.00000000   0.00000000  -0.00831388            0.00        0.00    -1223.01


     Writing all to output data dir ./CTO.save/ :
     XML data file, charge density, pseudopotentials, collected wavefunctions
 
     init_run     :      0.09s CPU      0.17s WALL (       1 calls)
     electrons    :      0.62s CPU      0.69s WALL (       1 calls)
     forces       :      0.02s CPU      0.02s WALL (       1 calls)
     stress       :      0.08s CPU      0.08s WALL (       1 calls)

     Called by init_run:
     wfcinit      :      0.01s CPU      0.03s WALL (       1 calls)
     potinit      :      0.01s CPU      0.01s WALL (       1 calls)
     hinit0       :      0.06s CPU      0.09s WALL (       1 calls)

     Called by electrons:
     c_bands      :      0.39s CPU      0.43s WALL (       9 calls)
     sum_band     :      0.13s CPU      0.14s WALL (       9 calls)
     v_of_rho     :      0.00s CPU      0.01s WALL (      10 calls)
     newd         :      0.09s CPU      0.10s WALL (      10 calls)
     mix_rho      :      0.00s CPU      0.01s WALL (       9 calls)

     Called by c_bands:
     init_us_2    :      0.00s CPU      0.00s WALL (      84 calls)
     init_us_2:cp :      0.00s CPU      0.00s WALL (      84 calls)
     ccgdiagg     :      0.34s CPU      0.37s WALL (      36 calls)
     wfcrot       :      0.06s CPU      0.08s WALL (      36 calls)

     Called by *cgdiagg:
     h_psi        :      0.20s CPU      0.22s WALL (    2024 calls)
     s_psi        :      0.03s CPU      0.03s WALL (    4012 calls)

     Called by h_psi:
     h_psi:calbec :      0.04s CPU      0.05s WALL (    2024 calls)
     vloc_psi     :      0.13s CPU      0.15s WALL (    2024 calls)
     add_vuspsi   :      0.01s CPU      0.02s WALL (    2024 calls)
     hs_1psi      :      0.18s CPU      0.20s WALL (    1988 calls)
     s_1psi       :      0.05s CPU      0.06s WALL (    1988 calls)

     General routines
     calbec       :      0.07s CPU      0.08s WALL (    4068 calls)
     fft          :      0.00s CPU      0.02s WALL (      66 calls)
     ffts         :      0.00s CPU      0.00s WALL (      19 calls)
     fftw         :      0.12s CPU      0.13s WALL (    6232 calls)
     interpolate  :      0.00s CPU      0.00s WALL (      10 calls)
 
     Parallel routines
 
     PWSCF        :      0.99s CPU      1.31s WALL

 
   This run was terminated on:   9:29:58  19Sep2025            

=------------------------------------------------------------------------------=
   JOB DONE.
=------------------------------------------------------------------------------=
TACC:  Shutdown complete. Exiting. 
