TACC:  Starting up job 2482472 
TACC:  Starting parallel tasks... 

     Program PWSCF v.7.3 starts on 20Oct2025 at 18:38:25 

     This program is part of the open-source Quantum ESPRESSO suite
     for quantum simulation of materials; please cite
         "P. Giannozzi et al., J. Phys.:Condens. Matter 21 395502 (2009);
         "P. Giannozzi et al., J. Phys.:Condens. Matter 29 465901 (2017);
         "P. Giannozzi et al., J. Chem. Phys. 152 154105 (2020);
          URL http://www.quantum-espresso.org", 
     in publications or presentations arising from this work. More details at
     http://www.quantum-espresso.org/quote

     Parallel version (MPI & OpenMP), running on      10 processor cores
     Number of MPI processes:                10
     Threads/MPI process:                     1

     MPI processes distributed on     1 nodes
     185663 MiB available memory on the printing compute node when the environment starts
 
     Waiting for input...
     Reading input from standard input
Warning: card &CELL ignored
Warning: card  CELL_DYNAMICS = 'BFGS', ignored
Warning: card  PRESS=0.D0, ignored
Warning: card / ignored
     Message from routine read_cards :
     DEPRECATED: no units specified in ATOMIC_POSITIONS card
     Message from routine read_cards :
     ATOMIC_POSITIONS: units set to alat

     Current dimensions of program PWSCF are:
     Max number of different atomic species (ntypx) = 10
     Max number of k-points (npk) =  40000
     Max angular momentum in pseudopotentials (lmaxx) =  4
     Message from routine setup:
     using ibrav=0 with symmetry is DISCOURAGED, use correct ibrav instead
 
     R & G space division:  proc/nbgrp/npool/nimage =      10
     Subspace diagonalization in iterative solution of the eigenvalue problem:
     a serial algorithm will be used

 
     Parallelization info
     --------------------
     sticks:   dense  smooth     PW     G-vecs:    dense   smooth      PW
     Min         125      49     18                 2806      710     159
     Max         126      50     19                 2809      712     161
     Sum        1255     499    181                28075     7107    1601
 
     Using Slab Decomposition
 


     bravais-lattice index     =            0
     lattice parameter (alat)  =       6.6800  a.u.
     unit-cell volume          =     149.0388 (a.u.)^3
     number of atoms/cell      =            2
     number of atomic types    =            1
     number of electrons       =         8.00
     number of Kohn-Sham states=            4
     kinetic-energy cutoff     =      50.0000  Ry
     charge density cutoff     =     500.0000  Ry
     scf convergence threshold =      1.0E-08
     mixing beta               =       0.7000
     number of iterations used =            8  plain     mixing
     Exchange-correlation= SLA  PZ   NOGX NOGC
                           (   1   1   0   0   0   0   0)

     celldm(1)=   6.680000  celldm(2)=   0.000000  celldm(3)=   0.000000
     celldm(4)=   0.000000  celldm(5)=   0.000000  celldm(6)=   0.000000

     crystal axes: (cart. coord. in units of alat)
               a(1) = (  -0.500000   0.500000   0.500000 )  
               a(2) = (   0.500000  -0.500000   0.500000 )  
               a(3) = (   0.500000   0.500000  -0.500000 )  

     reciprocal axes: (cart. coord. in units 2 pi/alat)
               b(1) = (  0.000000  1.000000  1.000000 )  
               b(2) = (  1.000000  0.000000  1.000000 )  
               b(3) = (  1.000000  1.000000  0.000000 )  


     PseudoPot. # 1 for C  read from file:
     /scratch/11018/zhc/Assisgnment2/Q2/Diamond/Diamond/C_LDA.UPF
     MD5 check sum: 407c1fe918d93b14b177d5600f28733c
     Pseudo is Ultrasoft + core correction, Zval =  4.0
     Generated by new atomic code, or converted to UPF format
     Using radial grid of  721 points,  4 beta functions with: 
                l(1) =   0
                l(2) =   0
                l(3) =   1
                l(4) =   1
     Q(r) pseudized with  8 coefficients,  rinner =    1.100   1.100   1.100


     atomic species   valence    mass     pseudopotential
     C                 4.00    12.01100     C ( 1.00)

      6 Sym. Ops. (no inversion) found



   Cartesian axes

     site n.     atom                  positions (alat units)
         1        C      tau(   1) = (   0.0000000   0.0000000   0.0000000  )
         2        C      tau(   2) = (   0.2492943   0.2492943   0.2492943  )

     number of k points=    13
                       cart. coord. in units 2pi/alat
        k(    1) = (   0.0000000   0.0000000   0.0000000), wk =   0.0312500
        k(    2) = (   0.2500000   0.2500000   0.0000000), wk =   0.1875000
        k(    3) = (  -0.5000000  -0.5000000   0.0000000), wk =   0.0937500
        k(    4) = (   0.5000000   0.2500000   0.2500000), wk =   0.1875000
        k(    5) = (   0.5000000   0.5000000   0.5000000), wk =   0.0625000
        k(    6) = (   0.0000000   0.0000000   0.5000000), wk =   0.1875000
        k(    7) = (  -1.0000000  -0.2500000  -0.2500000), wk =   0.1875000
        k(    8) = (  -1.0000000  -1.0000000  -1.0000000), wk =   0.0312500
        k(    9) = (   0.2500000  -0.2500000   0.0000000), wk =   0.1875000
        k(   10) = (  -0.5000000   0.5000000   0.0000000), wk =   0.0937500
        k(   11) = (   0.2500000  -0.5000000   0.2500000), wk =   0.1875000
        k(   12) = (  -0.2500000   0.5000000   0.2500000), wk =   0.3750000
        k(   13) = (   0.2500000  -1.0000000  -0.2500000), wk =   0.1875000

     Dense  grid:    28075 G-vectors     FFT dimensions: (  45,  45,  45)

     Smooth grid:     7107 G-vectors     FFT dimensions: (  27,  27,  27)

     Estimated max dynamical RAM per process >       4.60 MB

     Estimated total dynamical RAM >      45.98 MB

     Initial potential from superposition of free atoms

     starting charge       7.9999, renormalised to       8.0000
     Starting wfcs are    8 randomized atomic wfcs

     total cpu time spent up to now is        0.2 secs

     Self-consistent Calculation

     iteration #  1     ecut=    50.00 Ry     beta= 0.70
     CG style diagonalization
     ethr =  1.00E-02,  avg # of iterations =  2.8

     Threshold (ethr) on eigenvalues was too large:
     Diagonalizing with lowered threshold

     CG style diagonalization
     ethr =  5.13E-04,  avg # of iterations =  2.0

     total cpu time spent up to now is        0.3 secs

     total energy              =     -22.63835169 Ry
     estimated scf accuracy    <       0.03964129 Ry

     iteration #  2     ecut=    50.00 Ry     beta= 0.70
     CG style diagonalization
     ethr =  4.96E-04,  avg # of iterations =  3.6

     total cpu time spent up to now is        0.3 secs

     total energy              =     -22.64241447 Ry
     estimated scf accuracy    <       0.00104577 Ry

     iteration #  3     ecut=    50.00 Ry     beta= 0.70
     CG style diagonalization
     ethr =  1.31E-05,  avg # of iterations =  3.5

     total cpu time spent up to now is        0.4 secs

     total energy              =     -22.64254900 Ry
     estimated scf accuracy    <       0.00004313 Ry

     iteration #  4     ecut=    50.00 Ry     beta= 0.70
     CG style diagonalization
     ethr =  5.39E-07,  avg # of iterations =  4.1

     total cpu time spent up to now is        0.4 secs

     total energy              =     -22.64256513 Ry
     estimated scf accuracy    <       0.00000390 Ry

     iteration #  5     ecut=    50.00 Ry     beta= 0.70
     CG style diagonalization
     ethr =  4.87E-08,  avg # of iterations =  4.8

     total cpu time spent up to now is        0.5 secs

     total energy              =     -22.64256713 Ry
     estimated scf accuracy    <       0.00000438 Ry

     iteration #  6     ecut=    50.00 Ry     beta= 0.70
     CG style diagonalization
     ethr =  4.87E-08,  avg # of iterations =  3.1

     total cpu time spent up to now is        0.5 secs

     total energy              =     -22.64256708 Ry
     estimated scf accuracy    <       0.00000112 Ry

     iteration #  7     ecut=    50.00 Ry     beta= 0.70
     CG style diagonalization
     ethr =  1.40E-08,  avg # of iterations =  4.2

     total cpu time spent up to now is        0.5 secs

     total energy              =     -22.64256734 Ry
     estimated scf accuracy    <       0.00000115 Ry

     iteration #  8     ecut=    50.00 Ry     beta= 0.70
     CG style diagonalization
     ethr =  1.40E-08,  avg # of iterations =  3.0

     total cpu time spent up to now is        0.6 secs

     total energy              =     -22.64256721 Ry
     estimated scf accuracy    <       0.00000069 Ry

     iteration #  9     ecut=    50.00 Ry     beta= 0.70
     CG style diagonalization
     ethr =  8.57E-09,  avg # of iterations =  3.8

     total cpu time spent up to now is        0.6 secs

     total energy              =     -22.64256737 Ry
     estimated scf accuracy    <       0.00000056 Ry

     iteration # 10     ecut=    50.00 Ry     beta= 0.70
     CG style diagonalization
     ethr =  7.02E-09,  avg # of iterations =  3.0

     total cpu time spent up to now is        0.7 secs

     total energy              =     -22.64256735 Ry
     estimated scf accuracy    <       0.00000036 Ry

     iteration # 11     ecut=    50.00 Ry     beta= 0.70
     CG style diagonalization
     ethr =  4.46E-09,  avg # of iterations =  3.0

     total cpu time spent up to now is        0.7 secs

     total energy              =     -22.64256736 Ry
     estimated scf accuracy    <       0.00000022 Ry

     iteration # 12     ecut=    50.00 Ry     beta= 0.70
     CG style diagonalization
     ethr =  2.78E-09,  avg # of iterations =  3.0

     total cpu time spent up to now is        0.7 secs

     total energy              =     -22.64256735 Ry
     estimated scf accuracy    <       0.00000020 Ry

     iteration # 13     ecut=    50.00 Ry     beta= 0.70
     CG style diagonalization
     ethr =  2.47E-09,  avg # of iterations =  3.2

     total cpu time spent up to now is        0.8 secs

     End of self-consistent calculation

          k = 0.0000 0.0000 0.0000 (   935 PWs)   bands (ev):

   -11.4193  -2.9034   3.1819   3.1819

          k = 0.2500 0.2500 0.0000 (   889 PWs)   bands (ev):

   -10.4441  -4.6305   2.8857   3.7400

          k =-0.5000-0.5000 0.0000 (   886 PWs)   bands (ev):

    -7.8322  -7.8129   3.3884   3.4265

          k = 0.5000 0.2500 0.2500 (   892 PWs)   bands (ev):

    -8.4420  -7.0500   1.8789   4.3420

          k = 0.5000 0.5000 0.5000 (   868 PWs)   bands (ev):

    -8.6411  -5.6657   0.1468   0.1468

          k = 0.0000 0.0000 0.5000 (   900 PWs)   bands (ev):

    -9.7295  -4.6253   0.9333   2.8728

          k =-1.0000-0.2500-0.2500 (   882 PWs)   bands (ev):

    -8.7901  -4.6425  -0.8149   1.8144

          k =-1.0000-1.0000-1.0000 (   856 PWs)   bands (ev):

    -6.9400  -6.9185   2.7862   2.7862

          k = 0.2500-0.2500 0.0000 (   889 PWs)   bands (ev):

   -10.6248  -3.0509   0.4137   2.5883

          k =-0.5000 0.5000 0.0000 (   886 PWs)   bands (ev):

    -9.5212  -3.1989  -2.0792   2.0707

          k = 0.2500-0.5000 0.2500 (   892 PWs)   bands (ev):

    -9.5646  -3.2051  -1.1497   0.6313

          k =-0.2500 0.5000 0.2500 (   892 PWs)   bands (ev):

    -9.2155  -5.1861  -0.3901   2.7740

          k = 0.2500-1.0000-0.2500 (   882 PWs)   bands (ev):

    -7.4042  -7.3838   2.2221   2.2340

     highest occupied level (ev):     4.3420

!    total energy              =     -22.64256752 Ry
     estimated scf accuracy    <          9.3E-09 Ry

     The total energy is the sum of the following terms:
     one-electron contribution =      -0.12920623 Ry
     hartree contribution      =       3.40715902 Ry
     xc contribution           =      -6.56644392 Ry
     ewald contribution        =     -19.35407639 Ry

     convergence has been achieved in  13 iterations

     Forces acting on atoms (cartesian axes, Ry/au):

     atom    1 type  1   force =     0.01075926    0.01075926    0.01075926
     atom    2 type  1   force =    -0.01075926   -0.01075926   -0.01075926

     Total force =     0.026355     Total SCF correction =     0.000001


     Computing stress (Cartesian axis) and pressure

          total   stress  (Ry/bohr**3)                   (kbar)     P=     -656.81
  -0.00446488  -0.00521528  -0.00521528         -656.81     -767.19     -767.19
  -0.00521528  -0.00446488  -0.00521528         -767.19     -656.81     -767.19
  -0.00521528  -0.00521528  -0.00446488         -767.19     -767.19     -656.81


     Writing all to output data dir ./diamond_trigonal_eta0p0.save/ :
     XML data file, charge density, pseudopotentials, collected wavefunctions
 
     init_run     :      0.06s CPU      0.12s WALL (       1 calls)
     electrons    :      0.50s CPU      0.57s WALL (       1 calls)
     forces       :      0.01s CPU      0.01s WALL (       1 calls)
     stress       :      0.02s CPU      0.02s WALL (       1 calls)

     Called by init_run:
     wfcinit      :      0.01s CPU      0.04s WALL (       1 calls)
     potinit      :      0.00s CPU      0.01s WALL (       1 calls)
     hinit0       :      0.02s CPU      0.05s WALL (       1 calls)

     Called by electrons:
     c_bands      :      0.39s CPU      0.42s WALL (      14 calls)
     sum_band     :      0.07s CPU      0.07s WALL (      14 calls)
     v_of_rho     :      0.01s CPU      0.01s WALL (      14 calls)
     newd         :      0.02s CPU      0.03s WALL (      14 calls)
     mix_rho      :      0.01s CPU      0.01s WALL (      14 calls)

     Called by c_bands:
     init_us_2    :      0.01s CPU      0.01s WALL (     403 calls)
     init_us_2:cp :      0.01s CPU      0.01s WALL (     403 calls)
     ccgdiagg     :      0.31s CPU      0.34s WALL (     182 calls)
     wfcrot       :      0.08s CPU      0.10s WALL (     169 calls)

     Called by *cgdiagg:
     h_psi        :      0.24s CPU      0.26s WALL (    2000 calls)
     s_psi        :      0.01s CPU      0.01s WALL (    3831 calls)

     Called by h_psi:
     h_psi:calbec :      0.03s CPU      0.04s WALL (    2000 calls)
     vloc_psi     :      0.18s CPU      0.20s WALL (    2000 calls)
     add_vuspsi   :      0.01s CPU      0.01s WALL (    2000 calls)
     hs_1psi      :      0.19s CPU      0.21s WALL (    1831 calls)
     s_1psi       :      0.04s CPU      0.04s WALL (    1831 calls)

     General routines
     calbec       :      0.05s CPU      0.06s WALL (    4078 calls)
     fft          :      0.02s CPU      0.04s WALL (      91 calls)
     ffts         :      0.00s CPU      0.00s WALL (      28 calls)
     fftw         :      0.17s CPU      0.19s WALL (    5846 calls)
     interpolate  :      0.00s CPU      0.01s WALL (      14 calls)
 
     Parallel routines
 
     PWSCF        :      0.63s CPU      0.92s WALL

 
   This run was terminated on:  18:38:26  20Oct2025            

=------------------------------------------------------------------------------=
   JOB DONE.
=------------------------------------------------------------------------------=
TACC:  Shutdown complete. Exiting. 
