TACC:  Starting up job 2477595 
TACC:  Starting parallel tasks... 

     Program PWSCF v.7.3 starts on 19Oct2025 at  0:49:23 

     This program is part of the open-source Quantum ESPRESSO suite
     for quantum simulation of materials; please cite
         "P. Giannozzi et al., J. Phys.:Condens. Matter 21 395502 (2009);
         "P. Giannozzi et al., J. Phys.:Condens. Matter 29 465901 (2017);
         "P. Giannozzi et al., J. Chem. Phys. 152 154105 (2020);
          URL http://www.quantum-espresso.org", 
     in publications or presentations arising from this work. More details at
     http://www.quantum-espresso.org/quote

     Parallel version (MPI & OpenMP), running on      10 processor cores
     Number of MPI processes:                10
     Threads/MPI process:                     1

     MPI processes distributed on     1 nodes
     185487 MiB available memory on the printing compute node when the environment starts
 
     Waiting for input...
     Reading input from standard input
Warning: card &CELL ignored
Warning: card  CELL_DYNAMICS = 'BFGS', ignored
Warning: card  PRESS=0.D0, ignored
Warning: card / ignored
     Message from routine read_cards :
     DEPRECATED: no units specified in ATOMIC_POSITIONS card
     Message from routine read_cards :
     ATOMIC_POSITIONS: units set to alat

     Current dimensions of program PWSCF are:
     Max number of different atomic species (ntypx) = 10
     Max number of k-points (npk) =  40000
     Max angular momentum in pseudopotentials (lmaxx) =  4
     Message from routine setup:
     using ibrav=0 with symmetry is DISCOURAGED, use correct ibrav instead
 
     R & G space division:  proc/nbgrp/npool/nimage =      10
     Subspace diagonalization in iterative solution of the eigenvalue problem:
     a serial algorithm will be used

 
     Parallelization info
     --------------------
     sticks:   dense  smooth     PW     G-vecs:    dense   smooth      PW
     Min         126      49     19                 2848      710     166
     Max         127      50     20                 2849      712     167
     Sum        1263     499    197                28483     7107    1661
 
     Using Slab Decomposition
 


     bravais-lattice index     =            0
     lattice parameter (alat)  =       6.6720  a.u.
     unit-cell volume          =     150.2926 (a.u.)^3
     number of atoms/cell      =            2
     number of atomic types    =            1
     number of electrons       =         8.00
     number of Kohn-Sham states=            4
     kinetic-energy cutoff     =      50.0000  Ry
     charge density cutoff     =     500.0000  Ry
     scf convergence threshold =      1.0E-08
     mixing beta               =       0.7000
     number of iterations used =            8  plain     mixing
     Exchange-correlation= SLA  PZ   NOGX NOGC
                           (   1   1   0   0   0   0   0)

     celldm(1)=   6.672000  celldm(2)=   0.000000  celldm(3)=   0.000000
     celldm(4)=   0.000000  celldm(5)=   0.000000  celldm(6)=   0.000000

     crystal axes: (cart. coord. in units of alat)
               a(1) = (  -0.503004   0.503004   0.502000 )  
               a(2) = (   0.503004  -0.503004   0.502000 )  
               a(3) = (   0.500996   0.500996  -0.502000 )  

     reciprocal axes: (cart. coord. in units 2 pi/alat)
               b(1) = (  0.001992  0.996020  0.996016 )  
               b(2) = (  0.996020  0.001992  0.996016 )  
               b(3) = (  0.998012  0.998012  0.000000 )  


     PseudoPot. # 1 for C  read from file:
     /scratch/11018/zhc/Assisgnment2/Q2/Diamond/Diamond/C_LDA.UPF
     MD5 check sum: 407c1fe918d93b14b177d5600f28733c
     Pseudo is Ultrasoft + core correction, Zval =  4.0
     Generated by new atomic code, or converted to UPF format
     Using radial grid of  721 points,  4 beta functions with: 
                l(1) =   0
                l(2) =   0
                l(3) =   1
                l(4) =   1
     Q(r) pseudized with  8 coefficients,  rinner =    1.100   1.100   1.100


     atomic species   valence    mass     pseudopotential
     C                 4.00    12.01100     C ( 1.00)

      2 Sym. Ops. (no inversion) found



   Cartesian axes

     site n.     atom                  positions (alat units)
         1        C      tau(   1) = (   0.0000000   0.0000000   0.0000000  )
         2        C      tau(   2) = (   0.2211023   0.2211023   0.2211023  )

     number of k points=    24
                       cart. coord. in units 2pi/alat
        k(    1) = (   0.0000000   0.0000000   0.0000000), wk =   0.0312500
        k(    2) = (   0.2495030   0.2495030   0.0000000), wk =   0.0625000
        k(    3) = (  -0.4990060  -0.4990060   0.0000000), wk =   0.0312500
        k(    4) = (   0.2490050   0.0004980   0.2490040), wk =   0.1250000
        k(    5) = (   0.4985080   0.2500010   0.2490040), wk =   0.1250000
        k(    6) = (  -0.4980100  -0.0009960  -0.4980080), wk =   0.0625000
        k(    7) = (  -0.2485070   0.2485070  -0.4980080), wk =   0.1250000
        k(    8) = (   0.2495030   0.2495030   0.4980080), wk =   0.0625000
        k(    9) = (   0.4990060   0.4990060   0.4980080), wk =   0.0625000
        k(   10) = (   0.0000000   0.0000000   0.4980080), wk =   0.0625000
        k(   11) = (  -0.4975120   0.2480090  -0.2490040), wk =   0.1250000
        k(   12) = (  -0.9965179  -0.2509970  -0.2490040), wk =   0.1250000
        k(   13) = (  -0.2485070   0.2485070   0.0000000), wk =   0.0625000
        k(   14) = (   0.0009960   0.4980100   0.0000000), wk =   0.1250000
        k(   15) = (  -0.7475130  -0.2504990   0.0000000), wk =   0.0625000
        k(   16) = (  -0.4990060  -0.4990060  -0.9960159), wk =   0.0312500
        k(   17) = (  -0.2495030  -0.2495030  -0.9960159), wk =   0.0625000
        k(   18) = (  -0.9980120  -0.9980120  -0.9960159), wk =   0.0312500
        k(   19) = (   0.0004980   0.2490050  -0.2490040), wk =   0.1250000
        k(   20) = (   0.2500010   0.4985080  -0.2490040), wk =   0.1250000
        k(   21) = (  -0.0009960  -0.4980100   0.4980080), wk =   0.0625000
        k(   22) = (   0.2495030   0.2495030  -0.4980080), wk =   0.0625000
        k(   23) = (   0.2480090  -0.4975120   0.2490040), wk =   0.1250000
        k(   24) = (  -0.2509970  -0.9965179   0.2490040), wk =   0.1250000

     Dense  grid:    28483 G-vectors     FFT dimensions: (  45,  45,  45)

     Smooth grid:     7107 G-vectors     FFT dimensions: (  27,  27,  27)

     Estimated max dynamical RAM per process >       4.71 MB

     Estimated total dynamical RAM >      47.06 MB

     Initial potential from superposition of free atoms

     starting charge       7.9999, renormalised to       8.0000
     Starting wfcs are    8 randomized atomic wfcs

     total cpu time spent up to now is        0.2 secs

     Self-consistent Calculation

     iteration #  1     ecut=    50.00 Ry     beta= 0.70
     CG style diagonalization
     ethr =  1.00E-02,  avg # of iterations =  3.0

     total cpu time spent up to now is        0.3 secs

     total energy              =     -22.63416950 Ry
     estimated scf accuracy    <       0.11843908 Ry

     iteration #  2     ecut=    50.00 Ry     beta= 0.70
     CG style diagonalization
     ethr =  1.48E-03,  avg # of iterations =  3.9

     total cpu time spent up to now is        0.4 secs

     total energy              =     -22.65775173 Ry
     estimated scf accuracy    <       0.00350235 Ry

     iteration #  3     ecut=    50.00 Ry     beta= 0.70
     CG style diagonalization
     ethr =  4.38E-05,  avg # of iterations =  4.1

     total cpu time spent up to now is        0.5 secs

     total energy              =     -22.65890852 Ry
     estimated scf accuracy    <       0.00011337 Ry

     iteration #  4     ecut=    50.00 Ry     beta= 0.70
     CG style diagonalization
     ethr =  1.42E-06,  avg # of iterations =  4.2

     total cpu time spent up to now is        0.5 secs

     total energy              =     -22.65895719 Ry
     estimated scf accuracy    <       0.00000724 Ry

     iteration #  5     ecut=    50.00 Ry     beta= 0.70
     CG style diagonalization
     ethr =  9.05E-08,  avg # of iterations =  4.3

     total cpu time spent up to now is        0.6 secs

     total energy              =     -22.65896010 Ry
     estimated scf accuracy    <       0.00000005 Ry

     iteration #  6     ecut=    50.00 Ry     beta= 0.70
     CG style diagonalization
     ethr =  6.44E-10,  avg # of iterations =  5.6

     total cpu time spent up to now is        0.7 secs

     total energy              =     -22.65896025 Ry
     estimated scf accuracy    <       0.00000001 Ry

     iteration #  7     ecut=    50.00 Ry     beta= 0.70
     CG style diagonalization
     ethr =  1.65E-10,  avg # of iterations =  4.5

     total cpu time spent up to now is        0.8 secs

     End of self-consistent calculation

          k = 0.0000 0.0000 0.0000 (   935 PWs)   bands (ev):

   -11.5594  -2.9108   2.9181   2.9341

          k = 0.2495 0.2495 0.0000 (   897 PWs)   bands (ev):

   -10.6642  -4.4844   2.5451   3.3610

          k =-0.4990-0.4990 0.0000 (   886 PWs)   bands (ev):

    -9.0415  -6.6249   2.3707   4.0346

          k = 0.2490 0.0005 0.2490 (   901 PWs)   bands (ev):

   -10.6679  -4.4913   2.5511   3.3708

          k = 0.4985 0.2500 0.2490 (   894 PWs)   bands (ev):

    -9.1659  -6.3526   1.5967   3.4993

          k =-0.4980-0.0010-0.4980 (   886 PWs)   bands (ev):

    -9.0514  -6.6350   2.3961   4.0441

          k =-0.2485 0.2485-0.4980 (   894 PWs)   bands (ev):

    -9.5864  -4.8872  -0.4916   2.4781

          k = 0.2495 0.2495 0.4980 (   894 PWs)   bands (ev):

    -9.1696  -6.3599   1.5917   3.5271

          k = 0.4990 0.4990 0.4980 (   912 PWs)   bands (ev):

    -9.1466  -5.2037   0.0092   0.0121

          k = 0.0000 0.0000 0.4980 (   900 PWs)   bands (ev):

   -10.0140  -4.4328   0.7755   2.4599

          k =-0.4975 0.2480-0.2490 (   896 PWs)   bands (ev):

    -9.5924  -4.8878  -0.5020   2.5053

          k =-0.9965-0.2510-0.2490 (   898 PWs)   bands (ev):

    -9.1924  -4.3108  -0.9379   1.5338

          k =-0.2485 0.2485 0.0000 (   901 PWs)   bands (ev):

   -10.8154  -3.0339   0.3240   2.3718

          k = 0.0010 0.4980 0.0000 (   900 PWs)   bands (ev):

   -10.0156  -4.4265   0.7770   2.4532

          k =-0.7475-0.2505 0.0000 (   898 PWs)   bands (ev):

    -8.6790  -6.1430   1.6195   2.1099

          k =-0.4990-0.4990-0.9960 (   886 PWs)   bands (ev):

    -9.8135  -3.0225  -2.1577   1.8777

          k =-0.2495-0.2495-0.9960 (   898 PWs)   bands (ev):

    -9.1996  -4.3115  -0.9350   1.5407

          k =-0.9980-0.9980-0.9960 (   856 PWs)   bands (ev):

    -8.2877  -5.6230   1.7036   1.7234

          k = 0.0005 0.2490-0.2490 (   901 PWs)   bands (ev):

   -10.8108  -3.0330   0.3329   2.3514

          k = 0.2500 0.4985-0.2490 (   894 PWs)   bands (ev):

    -9.5809  -4.8812  -0.5048   2.4810

          k =-0.0010-0.4980 0.4980 (   886 PWs)   bands (ev):

    -9.8014  -3.0199  -2.1563   1.8508

          k = 0.2495 0.2495-0.4980 (   894 PWs)   bands (ev):

    -9.8378  -3.0685  -1.2154   0.4863

          k = 0.2480-0.4975 0.2490 (   896 PWs)   bands (ev):

    -9.8445  -3.0700  -1.2016   0.4809

          k =-0.2510-0.9965 0.2490 (   898 PWs)   bands (ev):

    -8.6843  -6.1485   1.6330   2.1036

     highest occupied level (ev):     4.0441

!    total energy              =     -22.65896025 Ry
     estimated scf accuracy    <          4.8E-09 Ry

     The total energy is the sum of the following terms:
     one-electron contribution =      -0.81024329 Ry
     hartree contribution      =       3.74683258 Ry
     xc contribution           =      -6.63545118 Ry
     ewald contribution        =     -18.96009836 Ry

     convergence has been achieved in   7 iterations

     Forces acting on atoms (cartesian axes, Ry/au):

     atom    1 type  1   force =     0.03945732    0.03945732    0.03904312
     atom    2 type  1   force =    -0.03945732   -0.03945732   -0.03904312

     Total force =     0.096313     Total SCF correction =     0.000028


     Computing stress (Cartesian axis) and pressure

          total   stress  (Ry/bohr**3)                   (kbar)     P=     -535.89
  -0.00363767  -0.00453470  -0.00455605         -535.12     -667.08     -670.22
  -0.00453470  -0.00363767  -0.00455605         -667.08     -535.12     -670.22
  -0.00455605  -0.00455605  -0.00365340         -670.22     -670.22     -537.43


     Writing all to output data dir ./diamond_trigonal_etam0p004.save/ :
     XML data file, charge density, pseudopotentials, collected wavefunctions
 
     init_run     :      0.06s CPU      0.13s WALL (       1 calls)
     electrons    :      0.55s CPU      0.62s WALL (       1 calls)
     forces       :      0.01s CPU      0.01s WALL (       1 calls)
     stress       :      0.03s CPU      0.03s WALL (       1 calls)

     Called by init_run:
     wfcinit      :      0.02s CPU      0.05s WALL (       1 calls)
     potinit      :      0.00s CPU      0.01s WALL (       1 calls)
     hinit0       :      0.02s CPU      0.04s WALL (       1 calls)

     Called by electrons:
     c_bands      :      0.46s CPU      0.52s WALL (       7 calls)
     sum_band     :      0.06s CPU      0.06s WALL (       7 calls)
     v_of_rho     :      0.01s CPU      0.01s WALL (       8 calls)
     newd         :      0.01s CPU      0.02s WALL (       8 calls)
     mix_rho      :      0.00s CPU      0.01s WALL (       7 calls)

     Called by c_bands:
     init_us_2    :      0.01s CPU      0.01s WALL (     408 calls)
     init_us_2:cp :      0.01s CPU      0.01s WALL (     408 calls)
     ccgdiagg     :      0.40s CPU      0.44s WALL (     168 calls)
     wfcrot       :      0.08s CPU      0.11s WALL (     168 calls)

     Called by *cgdiagg:
     h_psi        :      0.28s CPU      0.31s WALL (    2440 calls)
     s_psi        :      0.01s CPU      0.01s WALL (    4712 calls)

     Called by h_psi:
     h_psi:calbec :      0.04s CPU      0.04s WALL (    2440 calls)
     vloc_psi     :      0.22s CPU      0.24s WALL (    2440 calls)
     add_vuspsi   :      0.01s CPU      0.01s WALL (    2440 calls)
     hs_1psi      :      0.24s CPU      0.26s WALL (    2272 calls)
     s_1psi       :      0.04s CPU      0.05s WALL (    2272 calls)

     General routines
     calbec       :      0.06s CPU      0.07s WALL (    5000 calls)
     fft          :      0.01s CPU      0.03s WALL (      54 calls)
     ffts         :      0.00s CPU      0.00s WALL (      15 calls)
     fftw         :      0.20s CPU      0.22s WALL (    6752 calls)
     interpolate  :      0.00s CPU      0.00s WALL (       8 calls)
 
     Parallel routines
 
     PWSCF        :      0.70s CPU      1.02s WALL

 
   This run was terminated on:   0:49:24  19Oct2025            

=------------------------------------------------------------------------------=
   JOB DONE.
=------------------------------------------------------------------------------=
TACC:  Shutdown complete. Exiting. 
