TACC:  Starting up job 2476509 
TACC:  Starting parallel tasks... 

     Program PWSCF v.7.3 starts on 18Oct2025 at 15:12:22 

     This program is part of the open-source Quantum ESPRESSO suite
     for quantum simulation of materials; please cite
         "P. Giannozzi et al., J. Phys.:Condens. Matter 21 395502 (2009);
         "P. Giannozzi et al., J. Phys.:Condens. Matter 29 465901 (2017);
         "P. Giannozzi et al., J. Chem. Phys. 152 154105 (2020);
          URL http://www.quantum-espresso.org", 
     in publications or presentations arising from this work. More details at
     http://www.quantum-espresso.org/quote

     Parallel version (MPI & OpenMP), running on      10 processor cores
     Number of MPI processes:                10
     Threads/MPI process:                     1

     MPI processes distributed on     1 nodes
     185426 MiB available memory on the printing compute node when the environment starts
 
     Waiting for input...
     Reading input from standard input
Warning: card &CELL ignored
Warning: card  CELL_DYNAMICS = 'BFGS', ignored
Warning: card  PRESS=0.D0, ignored
Warning: card / ignored

     Current dimensions of program PWSCF are:
     Max number of different atomic species (ntypx) = 10
     Max number of k-points (npk) =  40000
     Max angular momentum in pseudopotentials (lmaxx) =  4
 
     R & G space division:  proc/nbgrp/npool/nimage =      10
     Subspace diagonalization in iterative solution of the eigenvalue problem:
     a serial algorithm will be used

 
     Parallelization info
     --------------------
     sticks:   dense  smooth     PW     G-vecs:    dense   smooth      PW
     Min         209      56     17                 7277     1004     181
     Max         210      57     18                 7282     1007     186
     Sum        2093     561    177                72791    10059    1839
 
     Using Slab Decomposition
 


     bravais-lattice index     =            1
     lattice parameter (alat)  =       7.6794  a.u.
     unit-cell volume          =     452.8787 (a.u.)^3
     number of atoms/cell      =            5
     number of atomic types    =            3
     number of electrons       =        40.00
     number of Kohn-Sham states=           20
     kinetic-energy cutoff     =      30.0000  Ry
     charge density cutoff     =     450.0000  Ry
     scf convergence threshold =      1.0E-08
     mixing beta               =       0.7000
     number of iterations used =            8  plain     mixing
     Exchange-correlation= SLA  PZ   NOGX NOGC
                           (   1   1   0   0   0   0   0)

     celldm(1)=   7.679400  celldm(2)=   0.000000  celldm(3)=   0.000000
     celldm(4)=   0.000000  celldm(5)=   0.000000  celldm(6)=   0.000000

     crystal axes: (cart. coord. in units of alat)
               a(1) = (   1.000000   0.000000   0.000000 )  
               a(2) = (   0.000000   1.000000   0.000000 )  
               a(3) = (   0.000000   0.000000   1.000000 )  

     reciprocal axes: (cart. coord. in units 2 pi/alat)
               b(1) = (  1.000000  0.000000  0.000000 )  
               b(2) = (  0.000000  1.000000  0.000000 )  
               b(3) = (  0.000000  0.000000  1.000000 )  


     PseudoPot. # 1 for Ba read from file:
     /scratch/11018/zhc/Assisgnment2/Q1/1D/energy_off/Ba_LDA.UPF
     MD5 check sum: 0ec7675c796dc0a11c6269c68e51391e
     Pseudo is Ultrasoft + core correction, Zval = 10.0
     Generated by new atomic code, or converted to UPF format
     Using radial grid of  907 points,  7 beta functions with: 
                l(1) =   0
                l(2) =   0
                l(3) =   1
                l(4) =   1
                l(5) =   2
                l(6) =   2
                l(7) =   3
     Q(r) pseudized with  6 coefficients,  rinner =    1.700   1.700   1.700
                                                       1.700   1.700   1.700
                                                       1.700

     PseudoPot. # 2 for Ti read from file:
     /scratch/11018/zhc/Assisgnment2/Q1/1D/energy_off/Ti_LDA.UPF
     MD5 check sum: 0d9f225c038fe889ca2a701dcc8d72cb
     Pseudo is Ultrasoft + core correction, Zval = 12.0
     Generated by new atomic code, or converted to UPF format
     Using radial grid of  851 points,  6 beta functions with: 
                l(1) =   0
                l(2) =   0
                l(3) =   1
                l(4) =   1
                l(5) =   2
                l(6) =   2
     Q(r) pseudized with  6 coefficients,  rinner =    1.000   1.000   1.000
                                                       1.000   1.000

     PseudoPot. # 3 for O  read from file:
     /scratch/11018/zhc/Assisgnment2/Q1/1D/energy_off/O_LDA.UPF
     MD5 check sum: 194b818514d2a7dbb603bb78519a4f40
     Pseudo is Ultrasoft + core correction, Zval =  6.0
     Generated by new atomic code, or converted to UPF format
     Using radial grid of  737 points,  5 beta functions with: 
                l(1) =   0
                l(2) =   0
                l(3) =   1
                l(4) =   1
                l(5) =   2
     Q(r) pseudized with  8 coefficients,  rinner =    0.900   0.900   0.900
                                                       0.900   0.900

     atomic species   valence    mass     pseudopotential
     Ba               10.00   137.32700     Ba( 1.00)
     Ti               12.00    47.88000     Ti( 1.00)
     O                 6.00    16.00000     O ( 1.00)

     48 Sym. Ops., with inversion, found



   Cartesian axes

     site n.     atom                  positions (alat units)
         1        Ba     tau(   1) = (   0.0000000   0.0000000   0.0000000  )
         2        Ti     tau(   2) = (   0.5000000   0.5000000   0.5000000  )
         3        O      tau(   3) = (   0.5000000   0.5000000   0.0000000  )
         4        O      tau(   4) = (   0.5000000   0.0000000   0.5000000  )
         5        O      tau(   5) = (   0.0000000   0.5000000   0.5000000  )

     number of k points=     4
                       cart. coord. in units 2pi/alat
        k(    1) = (   0.0000000   0.0000000   0.0000000), wk =   0.2500000
        k(    2) = (   0.0000000   0.0000000  -0.5000000), wk =   0.7500000
        k(    3) = (   0.0000000  -0.5000000  -0.5000000), wk =   0.7500000
        k(    4) = (  -0.5000000  -0.5000000  -0.5000000), wk =   0.2500000

     Dense  grid:    72791 G-vectors     FFT dimensions: (  54,  54,  54)

     Smooth grid:    10059 G-vectors     FFT dimensions: (  27,  27,  27)

     Estimated max dynamical RAM per process >      56.60 MB

     Estimated total dynamical RAM >     566.00 MB

     Check: negative core charge=   -0.000002

     Initial potential from superposition of free atoms

     starting charge      38.9872, renormalised to      40.0000

     negative rho (up, down):  1.009E-01 0.000E+00
     Starting wfcs are   35 randomized atomic wfcs

     total cpu time spent up to now is        0.6 secs

     Self-consistent Calculation

     iteration #  1     ecut=    30.00 Ry     beta= 0.70
     CG style diagonalization
     ethr =  1.00E-02,  avg # of iterations =  2.2

     negative rho (up, down):  9.502E-02 0.000E+00

     total cpu time spent up to now is        0.8 secs

     total energy              =    -286.60179958 Ry
     estimated scf accuracy    <       0.86023311 Ry

     iteration #  2     ecut=    30.00 Ry     beta= 0.70
     CG style diagonalization
     ethr =  2.15E-03,  avg # of iterations =  4.5

     negative rho (up, down):  9.357E-02 0.000E+00

     total cpu time spent up to now is        1.0 secs

     total energy              =    -285.81570546 Ry
     estimated scf accuracy    <       8.21233549 Ry

     iteration #  3     ecut=    30.00 Ry     beta= 0.70
     CG style diagonalization
     ethr =  2.15E-03,  avg # of iterations =  4.2

     negative rho (up, down):  9.274E-02 0.000E+00

     total cpu time spent up to now is        1.2 secs

     total energy              =    -287.09305292 Ry
     estimated scf accuracy    <       0.16046756 Ry

     iteration #  4     ecut=    30.00 Ry     beta= 0.70
     CG style diagonalization
     ethr =  4.01E-04,  avg # of iterations =  3.4

     negative rho (up, down):  9.221E-02 0.000E+00

     total cpu time spent up to now is        1.4 secs

     total energy              =    -287.09369708 Ry
     estimated scf accuracy    <       0.05192592 Ry

     iteration #  5     ecut=    30.00 Ry     beta= 0.70
     CG style diagonalization
     ethr =  1.30E-04,  avg # of iterations =  3.4

     negative rho (up, down):  9.222E-02 0.000E+00

     total cpu time spent up to now is        1.6 secs

     total energy              =    -287.10460664 Ry
     estimated scf accuracy    <       0.00053376 Ry

     iteration #  6     ecut=    30.00 Ry     beta= 0.70
     CG style diagonalization
     ethr =  1.33E-06,  avg # of iterations =  4.0

     negative rho (up, down):  9.212E-02 0.000E+00

     total cpu time spent up to now is        1.8 secs

     total energy              =    -287.10484156 Ry
     estimated scf accuracy    <       0.00008224 Ry

     iteration #  7     ecut=    30.00 Ry     beta= 0.70
     CG style diagonalization
     ethr =  2.06E-07,  avg # of iterations =  3.7

     negative rho (up, down):  9.206E-02 0.000E+00

     total cpu time spent up to now is        2.0 secs

     total energy              =    -287.10488563 Ry
     estimated scf accuracy    <       0.00000921 Ry

     iteration #  8     ecut=    30.00 Ry     beta= 0.70
     CG style diagonalization
     ethr =  2.30E-08,  avg # of iterations =  3.8

     negative rho (up, down):  9.205E-02 0.000E+00

     total cpu time spent up to now is        2.2 secs

     total energy              =    -287.10488700 Ry
     estimated scf accuracy    <       0.00000452 Ry

     iteration #  9     ecut=    30.00 Ry     beta= 0.70
     CG style diagonalization
     ethr =  1.13E-08,  avg # of iterations =  3.4

     negative rho (up, down):  9.205E-02 0.000E+00

     total cpu time spent up to now is        2.4 secs

     total energy              =    -287.10488773 Ry
     estimated scf accuracy    <       0.00000016 Ry

     iteration # 10     ecut=    30.00 Ry     beta= 0.70
     CG style diagonalization
     ethr =  4.02E-10,  avg # of iterations =  4.7

     negative rho (up, down):  9.205E-02 0.000E+00

     total cpu time spent up to now is        2.7 secs

     total energy              =    -287.10488787 Ry
     estimated scf accuracy    <       0.00000005 Ry

     iteration # 11     ecut=    30.00 Ry     beta= 0.70
     CG style diagonalization
     ethr =  1.24E-10,  avg # of iterations =  3.8

     negative rho (up, down):  9.205E-02 0.000E+00

     total cpu time spent up to now is        2.9 secs

     End of self-consistent calculation

          k = 0.0000 0.0000 0.0000 (  1237 PWs)   bands (ev):

   -47.1474 -23.6471 -23.6471 -23.6471 -15.3074  -6.9841  -6.2589  -6.2589
    -0.4549  -0.4549  -0.4549   7.1474   7.1474   7.1474   8.4286   8.4286
     8.4286   9.3121   9.3121   9.3121

          k = 0.0000 0.0000-0.5000 (  1238 PWs)   bands (ev):

   -47.1471 -23.6848 -23.6454 -23.6454 -15.2121  -7.1566  -6.2230  -6.0257
    -0.3031  -0.3031  -0.0741   5.4913   6.7501   6.7501   7.5478   7.6121
     7.6121   7.6579   8.7763   8.7763

          k = 0.0000-0.5000-0.5000 (  1260 PWs)   bands (ev):

   -47.1469 -23.6822 -23.6822 -23.6437 -15.1481  -6.5805  -6.2431  -6.2431
    -0.4818  -0.4818  -0.1191   5.1852   5.4890   5.6398   6.8396   6.8396
     7.7162   8.5981   8.5981   9.4237

          k =-0.5000-0.5000-0.5000 (  1328 PWs)   bands (ev):

   -47.1471 -23.6803 -23.6803 -23.6803 -15.0920  -6.0716  -6.0716  -6.0716
    -1.1070  -1.1070  -1.1070   4.9961   5.6478   5.6478   6.9988   6.9988
     6.9988   9.4736   9.4736   9.4736

     highest occupied level (ev):     9.4736

!    total energy              =    -287.10488788 Ry
     estimated scf accuracy    <          2.3E-09 Ry

     The total energy is the sum of the following terms:
     one-electron contribution =     -76.35892629 Ry
     hartree contribution      =      60.62466787 Ry
     xc contribution           =     -67.16606875 Ry
     ewald contribution        =    -204.20456071 Ry

     convergence has been achieved in  11 iterations

     negative rho (up, down):  9.205E-02 0.000E+00

     Forces acting on atoms (cartesian axes, Ry/au):

     atom    1 type  1   force =     0.00000000    0.00000000    0.00000000
     atom    2 type  2   force =     0.00000000    0.00000000    0.00000000
     atom    3 type  3   force =     0.00000000    0.00000000    0.00000000
     atom    4 type  3   force =     0.00000000    0.00000000    0.00000000
     atom    5 type  3   force =     0.00000000    0.00000000    0.00000000

     Total force =     0.000000     Total SCF correction =     0.000000


     Computing stress (Cartesian axis) and pressure


     negative rho (up, down):  9.205E-02 0.000E+00
          total   stress  (Ry/bohr**3)                   (kbar)     P=     -191.93
  -0.00130470   0.00000000   0.00000000         -191.93        0.00        0.00
   0.00000000  -0.00130470   0.00000000            0.00     -191.93        0.00
   0.00000000   0.00000000  -0.00130470            0.00        0.00     -191.93


     Writing all to output data dir ./BTO_30.save/ :
     XML data file, charge density, pseudopotentials, collected wavefunctions
 
     init_run     :      0.24s CPU      0.33s WALL (       1 calls)
     electrons    :      1.96s CPU      2.32s WALL (       1 calls)
     forces       :      0.07s CPU      0.09s WALL (       1 calls)
     stress       :      0.39s CPU      0.43s WALL (       1 calls)

     Called by init_run:
     wfcinit      :      0.02s CPU      0.04s WALL (       1 calls)
     potinit      :      0.01s CPU      0.01s WALL (       1 calls)
     hinit0       :      0.11s CPU      0.15s WALL (       1 calls)

     Called by electrons:
     c_bands      :      0.65s CPU      0.69s WALL (      11 calls)
     sum_band     :      0.71s CPU      0.86s WALL (      11 calls)
     v_of_rho     :      0.02s CPU      0.02s WALL (      12 calls)
     newd         :      0.61s CPU      0.77s WALL (      12 calls)
     mix_rho      :      0.01s CPU      0.01s WALL (      11 calls)

     Called by c_bands:
     init_us_2    :      0.01s CPU      0.01s WALL (     100 calls)
     init_us_2:cp :      0.01s CPU      0.01s WALL (     100 calls)
     ccgdiagg     :      0.56s CPU      0.59s WALL (      44 calls)
     wfcrot       :      0.10s CPU      0.13s WALL (      44 calls)

     Called by *cgdiagg:
     h_psi        :      0.38s CPU      0.41s WALL (    2528 calls)
     s_psi        :      0.05s CPU      0.05s WALL (    5012 calls)

     Called by h_psi:
     h_psi:calbec :      0.06s CPU      0.07s WALL (    2528 calls)
     vloc_psi     :      0.27s CPU      0.29s WALL (    2528 calls)
     add_vuspsi   :      0.03s CPU      0.03s WALL (    2528 calls)
     hs_1psi      :      0.34s CPU      0.35s WALL (    2484 calls)
     s_1psi       :      0.08s CPU      0.09s WALL (    2484 calls)

     General routines
     calbec       :      0.10s CPU      0.11s WALL (    5076 calls)
     fft          :      0.02s CPU      0.04s WALL (      78 calls)
     ffts         :      0.00s CPU      0.00s WALL (      23 calls)
     fftw         :      0.24s CPU      0.25s WALL (    7728 calls)
     interpolate  :      0.00s CPU      0.01s WALL (      12 calls)
 
     Parallel routines
 
     PWSCF        :      2.86s CPU      3.51s WALL

 
   This run was terminated on:  15:12:26  18Oct2025            

=------------------------------------------------------------------------------=
   JOB DONE.
=------------------------------------------------------------------------------=
TACC:  Shutdown complete. Exiting. 
