TACC:  Starting up job 2406174 
TACC:  Starting parallel tasks... 

     Program PWSCF v.7.3 starts on 23Sep2025 at 23:51:15 

     This program is part of the open-source Quantum ESPRESSO suite
     for quantum simulation of materials; please cite
         "P. Giannozzi et al., J. Phys.:Condens. Matter 21 395502 (2009);
         "P. Giannozzi et al., J. Phys.:Condens. Matter 29 465901 (2017);
         "P. Giannozzi et al., J. Chem. Phys. 152 154105 (2020);
          URL http://www.quantum-espresso.org", 
     in publications or presentations arising from this work. More details at
     http://www.quantum-espresso.org/quote

     Parallel version (MPI & OpenMP), running on      10 processor cores
     Number of MPI processes:                10
     Threads/MPI process:                     1

     MPI processes distributed on     1 nodes
     187220 MiB available memory on the printing compute node when the environment starts
 
     Waiting for input...
     Reading input from standard input
Warning: card &CELL ignored
Warning: card  CELL_DYNAMICS = 'BFGS', ignored
Warning: card  PRESS=0.D0, ignored
Warning: card / ignored
     Message from routine read_cards :
     DEPRECATED: no units specified in ATOMIC_POSITIONS card
     Message from routine read_cards :
     ATOMIC_POSITIONS: units set to alat

     Current dimensions of program PWSCF are:
     Max number of different atomic species (ntypx) = 10
     Max number of k-points (npk) =  40000
     Max angular momentum in pseudopotentials (lmaxx) =  4
 
     R & G space division:  proc/nbgrp/npool/nimage =      10
     Subspace diagonalization in iterative solution of the eigenvalue problem:
     a serial algorithm will be used

 
     Parallelization info
     --------------------
     sticks:   dense  smooth     PW     G-vecs:    dense   smooth      PW
     Min         280     111     34                11290     2841     468
     Max         281     112     35                11297     2844     471
     Sum        2809    1117    341               112931    28425    4697
 
     Using Slab Decomposition
 


     bravais-lattice index     =            1
     lattice parameter (alat)  =       7.1232  a.u.
     unit-cell volume          =     361.4316 (a.u.)^3
     number of atoms/cell      =            5
     number of atomic types    =            3
     number of electrons       =        40.00
     number of Kohn-Sham states=           20
     kinetic-energy cutoff     =      70.0000  Ry
     charge density cutoff     =     700.0000  Ry
     scf convergence threshold =      1.0E-08
     mixing beta               =       0.7000
     number of iterations used =            8  plain     mixing
     Exchange-correlation= SLA  PZ   NOGX NOGC
                           (   1   1   0   0   0   0   0)

     celldm(1)=   7.123204  celldm(2)=   0.000000  celldm(3)=   0.000000
     celldm(4)=   0.000000  celldm(5)=   0.000000  celldm(6)=   0.000000

     crystal axes: (cart. coord. in units of alat)
               a(1) = (   1.000000   0.000000   0.000000 )  
               a(2) = (   0.000000   1.000000   0.000000 )  
               a(3) = (   0.000000   0.000000   1.000000 )  

     reciprocal axes: (cart. coord. in units 2 pi/alat)
               b(1) = (  1.000000  0.000000  0.000000 )  
               b(2) = (  0.000000  1.000000  0.000000 )  
               b(3) = (  0.000000  0.000000  1.000000 )  


     PseudoPot. # 1 for Ca read from file:
     /scratch/11018/zhc/assisgnment1/CaTiO3/Ca_LDA.UPF
     MD5 check sum: d2d4e7693e10d071152e9eeb7dd009f3
     Pseudo is Ultrasoft + core correction, Zval = 10.0
     Generated by new atomic code, or converted to UPF format
     Using radial grid of  845 points,  6 beta functions with: 
                l(1) =   0
                l(2) =   0
                l(3) =   1
                l(4) =   1
                l(5) =   2
                l(6) =   2
     Q(r) pseudized with  8 coefficients,  rinner =    1.500   1.500   1.500
                                                       1.500   1.500

     PseudoPot. # 2 for Ti read from file:
     /scratch/11018/zhc/assisgnment1/CaTiO3/Ti_LDA.UPF
     MD5 check sum: 0d9f225c038fe889ca2a701dcc8d72cb
     Pseudo is Ultrasoft + core correction, Zval = 12.0
     Generated by new atomic code, or converted to UPF format
     Using radial grid of  851 points,  6 beta functions with: 
                l(1) =   0
                l(2) =   0
                l(3) =   1
                l(4) =   1
                l(5) =   2
                l(6) =   2
     Q(r) pseudized with  6 coefficients,  rinner =    1.000   1.000   1.000
                                                       1.000   1.000

     PseudoPot. # 3 for O  read from file:
     /scratch/11018/zhc/assisgnment1/CaTiO3/O_LDA.UPF
     MD5 check sum: 194b818514d2a7dbb603bb78519a4f40
     Pseudo is Ultrasoft + core correction, Zval =  6.0
     Generated by new atomic code, or converted to UPF format
     Using radial grid of  737 points,  5 beta functions with: 
                l(1) =   0
                l(2) =   0
                l(3) =   1
                l(4) =   1
                l(5) =   2
     Q(r) pseudized with  8 coefficients,  rinner =    0.900   0.900   0.900
                                                       0.900   0.900

     atomic species   valence    mass     pseudopotential
     Ca               10.00    40.07800     Ca( 1.00)
     Ti               12.00    47.88000     Ti( 1.00)
     O                 6.00    16.00000     O ( 1.00)

     48 Sym. Ops., with inversion, found



   Cartesian axes

     site n.     atom                  positions (alat units)
         1        Ca     tau(   1) = (   0.0000000   0.0000000   0.0000000  )
         2        Ti     tau(   2) = (   0.5000000   0.5000000   0.5000000  )
         3        O      tau(   3) = (   0.5000000   0.5000000   0.0000000  )
         4        O      tau(   4) = (   0.5000000   0.0000000   0.5000000  )
         5        O      tau(   5) = (   0.0000000   0.5000000   0.5000000  )

     number of k points=    20
                       cart. coord. in units 2pi/alat
        k(    1) = (   0.0000000   0.0000000   0.0000000), wk =   0.0092593
        k(    2) = (   0.0000000   0.0000000   0.1666667), wk =   0.0555556
        k(    3) = (   0.0000000   0.0000000   0.3333333), wk =   0.0555556
        k(    4) = (   0.0000000   0.0000000  -0.5000000), wk =   0.0277778
        k(    5) = (   0.0000000   0.1666667   0.1666667), wk =   0.1111111
        k(    6) = (   0.0000000   0.1666667   0.3333333), wk =   0.2222222
        k(    7) = (   0.0000000   0.1666667  -0.5000000), wk =   0.1111111
        k(    8) = (   0.0000000   0.3333333   0.3333333), wk =   0.1111111
        k(    9) = (   0.0000000   0.3333333  -0.5000000), wk =   0.1111111
        k(   10) = (   0.0000000  -0.5000000  -0.5000000), wk =   0.0277778
        k(   11) = (   0.1666667   0.1666667   0.1666667), wk =   0.0740741
        k(   12) = (   0.1666667   0.1666667   0.3333333), wk =   0.2222222
        k(   13) = (   0.1666667   0.1666667  -0.5000000), wk =   0.1111111
        k(   14) = (   0.1666667   0.3333333   0.3333333), wk =   0.2222222
        k(   15) = (   0.1666667   0.3333333  -0.5000000), wk =   0.2222222
        k(   16) = (   0.1666667  -0.5000000  -0.5000000), wk =   0.0555556
        k(   17) = (   0.3333333   0.3333333   0.3333333), wk =   0.0740741
        k(   18) = (   0.3333333   0.3333333  -0.5000000), wk =   0.1111111
        k(   19) = (   0.3333333  -0.5000000  -0.5000000), wk =   0.0555556
        k(   20) = (  -0.5000000  -0.5000000  -0.5000000), wk =   0.0092593

     Dense  grid:   112931 G-vectors     FFT dimensions: (  60,  60,  60)

     Smooth grid:    28425 G-vectors     FFT dimensions: (  40,  40,  40)

     Estimated max dynamical RAM per process >      50.52 MB

     Estimated total dynamical RAM >     505.16 MB

     Check: negative core charge=   -0.000003

     Initial potential from superposition of free atoms

     starting charge      38.9952, renormalised to      40.0000

     negative rho (up, down):  7.747E-04 0.000E+00
     Starting wfcs are   32 randomized atomic wfcs

     total cpu time spent up to now is        0.8 secs

     Self-consistent Calculation

     iteration #  1     ecut=    70.00 Ry     beta= 0.70
     CG style diagonalization
     ethr =  1.00E-02,  avg # of iterations =  2.2

     negative rho (up, down):  1.200E-03 0.000E+00

     total cpu time spent up to now is        1.3 secs

     total energy              =    -291.31737727 Ry
     estimated scf accuracy    <       0.82975196 Ry

     iteration #  2     ecut=    70.00 Ry     beta= 0.70
     CG style diagonalization
     ethr =  2.07E-03,  avg # of iterations =  5.0

     negative rho (up, down):  5.480E-04 0.000E+00

     total cpu time spent up to now is        2.1 secs

     total energy              =    -290.91061311 Ry
     estimated scf accuracy    <       4.35486534 Ry

     iteration #  3     ecut=    70.00 Ry     beta= 0.70
     CG style diagonalization
     ethr =  2.07E-03,  avg # of iterations =  4.3

     negative rho (up, down):  7.122E-04 0.000E+00

     total cpu time spent up to now is        2.8 secs

     total energy              =    -291.74261265 Ry
     estimated scf accuracy    <       0.13629007 Ry

     iteration #  4     ecut=    70.00 Ry     beta= 0.70
     CG style diagonalization
     ethr =  3.41E-04,  avg # of iterations =  3.6

     negative rho (up, down):  8.187E-04 0.000E+00

     total cpu time spent up to now is        3.4 secs

     total energy              =    -291.75254964 Ry
     estimated scf accuracy    <       0.02787809 Ry

     iteration #  5     ecut=    70.00 Ry     beta= 0.70
     CG style diagonalization
     ethr =  6.97E-05,  avg # of iterations =  3.6

     negative rho (up, down):  8.527E-04 0.000E+00

     total cpu time spent up to now is        4.0 secs

     total energy              =    -291.75958783 Ry
     estimated scf accuracy    <       0.00044945 Ry

     iteration #  6     ecut=    70.00 Ry     beta= 0.70
     CG style diagonalization
     ethr =  1.12E-06,  avg # of iterations =  4.5

     negative rho (up, down):  8.389E-04 0.000E+00

     total cpu time spent up to now is        4.7 secs

     total energy              =    -291.75999114 Ry
     estimated scf accuracy    <       0.00058056 Ry

     iteration #  7     ecut=    70.00 Ry     beta= 0.70
     CG style diagonalization
     ethr =  1.12E-06,  avg # of iterations =  3.4

     negative rho (up, down):  8.308E-04 0.000E+00

     total cpu time spent up to now is        5.3 secs

     total energy              =    -291.76000485 Ry
     estimated scf accuracy    <       0.00009479 Ry

     iteration #  8     ecut=    70.00 Ry     beta= 0.70
     CG style diagonalization
     ethr =  2.37E-07,  avg # of iterations =  3.6

     negative rho (up, down):  8.294E-04 0.000E+00

     total cpu time spent up to now is        5.9 secs

     total energy              =    -291.76002544 Ry
     estimated scf accuracy    <       0.00000094 Ry

     iteration #  9     ecut=    70.00 Ry     beta= 0.70
     CG style diagonalization
     ethr =  2.34E-09,  avg # of iterations =  4.6

     negative rho (up, down):  8.295E-04 0.000E+00

     total cpu time spent up to now is        6.6 secs

     total energy              =    -291.76002726 Ry
     estimated scf accuracy    <       0.00000055 Ry

     iteration # 10     ecut=    70.00 Ry     beta= 0.70
     CG style diagonalization
     ethr =  1.38E-09,  avg # of iterations =  3.6

     negative rho (up, down):  8.296E-04 0.000E+00

     total cpu time spent up to now is        7.2 secs

     End of self-consistent calculation

          k = 0.0000 0.0000 0.0000 (  3575 PWs)   bands (ev):

   -45.4060 -28.5444 -22.0843 -22.0843 -22.0843  -9.7614  -9.7614  -9.7614
    -7.6024  -6.3876  -6.3876   6.8010   6.8010   6.8010   8.6885   8.6885
     8.6885   9.6227   9.6227   9.6227

          k = 0.0000 0.0000 0.1667 (  3579 PWs)   bands (ev):

   -45.4055 -28.5421 -22.1129 -22.0829 -22.0829  -9.8767  -9.7573  -9.7573
    -7.3784  -6.3741  -6.2648   6.4632   6.7972   6.7972   8.2839   8.2839
     8.4194   8.7214   9.4800   9.4800

          k = 0.0000 0.0000 0.3333 (  3567 PWs)   bands (ev):

   -45.4044 -28.5374 -22.1693 -22.0800 -22.0800 -10.0757  -9.7491  -9.7491
    -6.9444  -6.3469  -6.0051   5.7097   6.8409   6.8409   7.4844   7.5782
     7.5782   7.9574   9.3498   9.3498

          k = 0.0000 0.0000-0.5000 (  3546 PWs)   bands (ev):

   -45.4039 -28.5351 -22.1971 -22.0785 -22.0785 -10.1643  -9.7450  -9.7450
    -6.7345  -6.3331  -5.8598   5.2743   7.0068   7.0068   7.0430   7.1348
     7.1348   7.7537   9.3055   9.3055

          k = 0.0000 0.1667 0.1667 (  3595 PWs)   bands (ev):

   -45.4050 -28.5397 -22.1122 -22.1112 -22.0815  -9.8948  -9.8178  -9.7529
    -7.1902  -6.3115  -6.1976   6.2193   6.6566   6.7865   7.5318   8.0097
     8.5973   8.6396   8.9901   9.2405

          k = 0.0000 0.1667 0.3333 (  3587 PWs)   bands (ev):

   -45.4039 -28.5348 -22.1686 -22.1093 -22.0786 -10.0389  -9.8135  -9.7440
    -6.8375  -6.2585  -5.9516   5.6309   6.2269   6.8098   6.8490   7.4384
     7.7749   8.6284   8.8482   9.0245

          k = 0.0000 0.1667-0.5000 (  3578 PWs)   bands (ev):

   -45.4034 -28.5323 -22.1966 -22.1081 -22.0772 -10.1142  -9.8017  -9.7396
    -6.6853  -6.2276  -5.7955   5.2708   5.8595   6.7366   6.9588   7.0395
     7.5202   8.6349   8.7149   8.9622

          k = 0.0000 0.3333 0.3333 (  3596 PWs)   bands (ev):

   -45.4029 -28.5295 -22.1676 -22.1666 -22.0759  -9.9841  -9.9178  -9.7339
    -6.7333  -5.9772  -5.8097   5.1663   5.8564   5.8670   6.7703   7.1150
     7.8459   8.0517   8.6458   9.4791

          k = 0.0000 0.3333-0.5000 (  3558 PWs)   bands (ev):

   -45.4024 -28.5268 -22.1955 -22.1663 -22.0745 -10.0135  -9.9104  -9.7287
    -6.7215  -5.8455  -5.6699   4.9250   5.2572   5.8301   6.8406   6.8576
     7.7755   8.0234   8.5263   9.6360

          k = 0.0000-0.5000-0.5000 (  3556 PWs)   bands (ev):

   -45.4018 -28.5240 -22.1950 -22.1950 -22.0731  -9.9627  -9.9627  -9.7233
    -6.7634  -5.6083  -5.6083   4.5874   5.1670   5.3601   6.7707   6.7707
     7.9019   7.9019   8.3774   9.9185

          k = 0.1667 0.1667 0.1667 (  3596 PWs)   bands (ev):

   -45.4044 -28.5372 -22.1107 -22.1107 -22.1100  -9.9014  -9.8081  -9.8081
    -7.0167  -6.1986  -6.1986   6.0076   6.6055   6.6055   7.4128   7.4128
     8.1479   8.9341   8.9341   8.9943

          k = 0.1667 0.1667 0.3333 (  3579 PWs)   bands (ev):

   -45.4034 -28.5322 -22.1676 -22.1082 -22.1076 -10.0068  -9.8168  -9.7884
    -6.6912  -6.2009  -5.9280   5.5534   6.1577   6.3555   6.6431   6.9952
     7.9206   8.6490   8.8549   8.9838

          k = 0.1667 0.1667-0.5000 (  3546 PWs)   bands (ev):

   -45.4029 -28.5297 -22.1957 -22.1072 -22.1060 -10.0713  -9.8054  -9.7785
    -6.5478  -6.2021  -5.7569   5.2705   5.7382   6.1734   6.4499   6.9366
     8.0012   8.4711   8.8233   8.8790

          k = 0.1667 0.3333 0.3333 (  3577 PWs)   bands (ev):

   -45.4024 -28.5270 -22.1658 -22.1653 -22.1050  -9.9590  -9.9001  -9.7803
    -6.5252  -5.9715  -5.8366   5.2090   5.8581   5.8608   6.2540   6.4457
     7.4868   8.7130   8.7559   9.5076

          k = 0.1667 0.3333-0.5000 (  3562 PWs)   bands (ev):

   -45.4019 -28.5243 -22.1940 -22.1646 -22.1036  -9.9855  -9.8946  -9.7712
    -6.5024  -5.8844  -5.6827   5.0356   5.2651   5.8115   6.0930   6.3469
     7.5042   8.6607   8.7356   9.6601

          k = 0.1667-0.5000-0.5000 (  3580 PWs)   bands (ev):

   -45.4013 -28.5217 -22.1931 -22.1931 -22.1021  -9.9423  -9.9423  -9.7629
    -6.5351  -5.6470  -5.6470   4.7383   5.1850   5.3653   6.1152   6.1152
     7.4808   8.7002   8.7002   9.9464

          k = 0.3333 0.3333 0.3333 (  3554 PWs)   bands (ev):

   -45.4013 -28.5219 -22.1632 -22.1623 -22.1623  -9.9165  -9.8640  -9.8640
    -6.1422  -5.8913  -5.8913   5.2073   5.6558   5.6558   5.9776   5.9776
     6.0964   9.3070   9.3070   9.6632

          k = 0.3333 0.3333-0.5000 (  3574 PWs)   bands (ev):

   -45.4008 -28.5194 -22.1909 -22.1616 -22.1605  -9.9291  -9.8713  -9.8456
    -6.0687  -5.9192  -5.7106   5.1917   5.2752   5.4433   5.5860   5.9515
     6.0828   9.4029   9.5148   9.7828

          k = 0.3333-0.5000-0.5000 (  3572 PWs)   bands (ev):

   -45.4003 -28.5170 -22.1894 -22.1894 -22.1593  -9.9006  -9.9006  -9.8408
    -6.0388  -5.7256  -5.7256   5.0488   5.2137   5.3756   5.4475   5.4475
     5.9848   9.6527   9.6527  10.0036

          k =-0.5000-0.5000-0.5000 (  3544 PWs)   bands (ev):

   -45.3998 -28.5146 -22.1875 -22.1875 -22.1875  -9.8791  -9.8791  -9.8791
    -5.7655  -5.7655  -5.7655   5.1549   5.2088   5.2088   5.2088   5.3808
     5.3808  10.0330  10.0330  10.0330

     highest occupied level (ev):    10.0330

!    total energy              =    -291.76002734 Ry
     estimated scf accuracy    <          8.1E-09 Ry

     The total energy is the sum of the following terms:
     one-electron contribution =     -82.96313672 Ry
     hartree contribution      =      62.90913585 Ry
     xc contribution           =     -51.55671143 Ry
     ewald contribution        =    -220.14931504 Ry

     convergence has been achieved in  10 iterations

     negative rho (up, down):  8.296E-04 0.000E+00

     Forces acting on atoms (cartesian axes, Ry/au):

     atom    1 type  1   force =     0.00000000    0.00000000    0.00000000
     atom    2 type  2   force =     0.00000000    0.00000000    0.00000000
     atom    3 type  3   force =     0.00000000    0.00000000    0.00000000
     atom    4 type  3   force =     0.00000000    0.00000000    0.00000000
     atom    5 type  3   force =     0.00000000    0.00000000    0.00000000

     Total force =     0.000000     Total SCF correction =     0.000000


     Computing stress (Cartesian axis) and pressure


     negative rho (up, down):  8.296E-04 0.000E+00
          total   stress  (Ry/bohr**3)                   (kbar)     P=       65.79
   0.00044724   0.00000000   0.00000000           65.79        0.00        0.00
   0.00000000   0.00044724   0.00000000            0.00       65.79        0.00
   0.00000000   0.00000000   0.00044724            0.00        0.00       65.79


     Writing all to output data dir ./CTO_CELLDM_3.save/ :
     XML data file, charge density, pseudopotentials, collected wavefunctions
 
     init_run     :      0.43s CPU      0.51s WALL (       1 calls)
     electrons    :      6.04s CPU      6.45s WALL (       1 calls)
     forces       :      0.12s CPU      0.13s WALL (       1 calls)
     stress       :      0.97s CPU      1.00s WALL (       1 calls)

     Called by init_run:
     wfcinit      :      0.13s CPU      0.15s WALL (       1 calls)
     potinit      :      0.01s CPU      0.02s WALL (       1 calls)
     hinit0       :      0.12s CPU      0.15s WALL (       1 calls)

     Called by electrons:
     c_bands      :      4.39s CPU      4.64s WALL (      10 calls)
     sum_band     :      1.03s CPU      1.10s WALL (      10 calls)
     v_of_rho     :      0.02s CPU      0.02s WALL (      11 calls)
     newd         :      0.64s CPU      0.71s WALL (      11 calls)
     mix_rho      :      0.01s CPU      0.02s WALL (      10 calls)

     Called by c_bands:
     init_us_2    :      0.06s CPU      0.07s WALL (     460 calls)
     init_us_2:cp :      0.06s CPU      0.07s WALL (     460 calls)
     ccgdiagg     :      3.79s CPU      4.00s WALL (     200 calls)
     wfcrot       :      0.67s CPU      0.73s WALL (     200 calls)

     Called by *cgdiagg:
     h_psi        :      2.71s CPU      2.86s WALL (   11978 calls)
     s_psi        :      0.41s CPU      0.44s WALL (   23756 calls)

     Called by h_psi:
     h_psi:calbec :      0.41s CPU      0.43s WALL (   11978 calls)
     vloc_psi     :      1.97s CPU      2.08s WALL (   11978 calls)
     add_vuspsi   :      0.23s CPU      0.24s WALL (   11978 calls)
     hs_1psi      :      2.43s CPU      2.56s WALL (   11778 calls)
     s_1psi       :      0.56s CPU      0.59s WALL (   11778 calls)

     General routines
     calbec       :      0.73s CPU      0.77s WALL (   24056 calls)
     fft          :      0.02s CPU      0.03s WALL (      72 calls)
     ffts         :      0.00s CPU      0.00s WALL (      21 calls)
     fftw         :      1.73s CPU      1.82s WALL (   36036 calls)
     interpolate  :      0.01s CPU      0.01s WALL (      11 calls)
 
     Parallel routines
 
     PWSCF        :      7.79s CPU      8.63s WALL

 
   This run was terminated on:  23:51:24  23Sep2025            

=------------------------------------------------------------------------------=
   JOB DONE.
=------------------------------------------------------------------------------=
TACC:  Shutdown complete. Exiting. 
