TACC:  Starting up job 2482950 
TACC:  Starting parallel tasks... 

     Program PWSCF v.7.3 starts on 20Oct2025 at 21:52:31 

     This program is part of the open-source Quantum ESPRESSO suite
     for quantum simulation of materials; please cite
         "P. Giannozzi et al., J. Phys.:Condens. Matter 21 395502 (2009);
         "P. Giannozzi et al., J. Phys.:Condens. Matter 29 465901 (2017);
         "P. Giannozzi et al., J. Chem. Phys. 152 154105 (2020);
          URL http://www.quantum-espresso.org", 
     in publications or presentations arising from this work. More details at
     http://www.quantum-espresso.org/quote

     Parallel version (MPI & OpenMP), running on      10 processor cores
     Number of MPI processes:                10
     Threads/MPI process:                     1

     MPI processes distributed on     1 nodes
     186615 MiB available memory on the printing compute node when the environment starts
 
     Waiting for input...
     Reading input from standard input
Warning: card &CELL ignored
Warning: card  CELL_DYNAMICS = 'BFGS', ignored
Warning: card  PRESS=0.D0, ignored
Warning: card / ignored
     Message from routine read_cards :
     DEPRECATED: no units specified in ATOMIC_POSITIONS card
     Message from routine read_cards :
     ATOMIC_POSITIONS: units set to alat

     Current dimensions of program PWSCF are:
     Max number of different atomic species (ntypx) = 10
     Max number of k-points (npk) =  40000
     Max angular momentum in pseudopotentials (lmaxx) =  4
 
     R & G space division:  proc/nbgrp/npool/nimage =      10
     Subspace diagonalization in iterative solution of the eigenvalue problem:
     a serial algorithm will be used

 
     Parallelization info
     --------------------
     sticks:   dense  smooth     PW     G-vecs:    dense   smooth      PW
     Min         139      36     12                 3401      463      89
     Max         140      37     13                 3402      466      92
     Sum        1393     367    121                34015     4645     893
 
     Using Slab Decomposition
 


     bravais-lattice index     =            2
     lattice parameter (alat)  =       6.6800  a.u.
     unit-cell volume          =      74.5194 (a.u.)^3
     number of atoms/cell      =            2
     number of atomic types    =            1
     number of electrons       =         8.00
     number of Kohn-Sham states=            4
     kinetic-energy cutoff     =      60.0000  Ry
     charge density cutoff     =     900.0000  Ry
     scf convergence threshold =      1.0E-08
     mixing beta               =       0.7000
     number of iterations used =            8  plain     mixing
     Exchange-correlation= SLA  PZ   NOGX NOGC
                           (   1   1   0   0   0   0   0)

     celldm(1)=   6.680000  celldm(2)=   0.000000  celldm(3)=   0.000000
     celldm(4)=   0.000000  celldm(5)=   0.000000  celldm(6)=   0.000000

     crystal axes: (cart. coord. in units of alat)
               a(1) = (  -0.500000   0.000000   0.500000 )  
               a(2) = (   0.000000   0.500000   0.500000 )  
               a(3) = (  -0.500000   0.500000   0.000000 )  

     reciprocal axes: (cart. coord. in units 2 pi/alat)
               b(1) = ( -1.000000 -1.000000  1.000000 )  
               b(2) = (  1.000000  1.000000  1.000000 )  
               b(3) = ( -1.000000  1.000000 -1.000000 )  


     PseudoPot. # 1 for C  read from file:
     /scratch/11018/zhc/Assisgnment2/Q2/Diamond/Diamond/C_LDA.UPF
     MD5 check sum: 407c1fe918d93b14b177d5600f28733c
     Pseudo is Ultrasoft + core correction, Zval =  4.0
     Generated by new atomic code, or converted to UPF format
     Using radial grid of  721 points,  4 beta functions with: 
                l(1) =   0
                l(2) =   0
                l(3) =   1
                l(4) =   1
     Q(r) pseudized with  8 coefficients,  rinner =    1.100   1.100   1.100


     atomic species   valence    mass     pseudopotential
     C                 4.00    12.01100     C ( 1.00)

      6 Sym. Ops. (no inversion) found



   Cartesian axes

     site n.     atom                  positions (alat units)
         1        C      tau(   1) = (   0.0000000   0.0000000   0.0000000  )
         2        C      tau(   2) = (   0.2492943   0.2492943   0.2492943  )

     number of k points=    19
                       cart. coord. in units 2pi/alat
        k(    1) = (   0.0000000   0.0000000   0.0000000), wk =   0.0160000
        k(    2) = (  -0.2000000   0.2000000  -0.2000000), wk =   0.0960000
        k(    3) = (  -0.4000000   0.4000000  -0.4000000), wk =   0.0960000
        k(    4) = (   0.0000000   0.4000000   0.0000000), wk =   0.0960000
        k(    5) = (  -0.2000000   0.6000000  -0.2000000), wk =   0.0960000
        k(    6) = (   0.6000000  -0.2000000   0.6000000), wk =   0.0960000
        k(    7) = (   0.4000000   0.0000000   0.4000000), wk =   0.0960000
        k(    8) = (   0.0000000   0.8000000   0.0000000), wk =   0.0960000
        k(    9) = (   0.8000000   0.0000000   0.8000000), wk =   0.0960000
        k(   10) = (   0.6000000  -0.2000000   1.0000000), wk =   0.1920000
        k(   11) = (  -0.2000000  -0.2000000  -0.2000000), wk =   0.0320000
        k(   12) = (  -0.4000000  -0.4000000  -0.4000000), wk =   0.0320000
        k(   13) = (   0.6000000   0.2000000  -0.2000000), wk =   0.1920000
        k(   14) = (  -0.6000000  -0.2000000  -0.2000000), wk =   0.0960000
        k(   15) = (  -0.2000000  -0.6000000   0.6000000), wk =   0.1920000
        k(   16) = (   0.2000000   0.6000000   0.6000000), wk =   0.0960000
        k(   17) = (   0.0000000  -0.4000000   0.4000000), wk =   0.0960000
        k(   18) = (   0.0000000  -0.8000000   0.8000000), wk =   0.0960000
        k(   19) = (  -0.2000000  -0.6000000   1.0000000), wk =   0.1920000

     Dense  grid:    34015 G-vectors     FFT dimensions: (  45,  45,  45)

     Smooth grid:     4645 G-vectors     FFT dimensions: (  24,  24,  24)

     Estimated max dynamical RAM per process >       5.46 MB

     Estimated total dynamical RAM >      54.55 MB

     Initial potential from superposition of free atoms

     starting charge       7.9999, renormalised to       8.0000
     Starting wfcs are    8 randomized atomic wfcs

     total cpu time spent up to now is        0.2 secs

     Self-consistent Calculation

     iteration #  1     ecut=    60.00 Ry     beta= 0.70
     CG style diagonalization
     ethr =  1.00E-02,  avg # of iterations =  3.0

     total cpu time spent up to now is        0.3 secs

     total energy              =     -23.03798102 Ry
     estimated scf accuracy    <       0.14191133 Ry

     iteration #  2     ecut=    60.00 Ry     beta= 0.70
     CG style diagonalization
     ethr =  1.77E-03,  avg # of iterations =  3.6

     total cpu time spent up to now is        0.3 secs

     total energy              =     -23.05463210 Ry
     estimated scf accuracy    <       0.00146905 Ry

     iteration #  3     ecut=    60.00 Ry     beta= 0.70
     CG style diagonalization
     ethr =  1.84E-05,  avg # of iterations =  4.0

     total cpu time spent up to now is        0.4 secs

     total energy              =     -23.05512166 Ry
     estimated scf accuracy    <       0.00004879 Ry

     iteration #  4     ecut=    60.00 Ry     beta= 0.70
     CG style diagonalization
     ethr =  6.10E-07,  avg # of iterations =  4.1

     total cpu time spent up to now is        0.5 secs

     total energy              =     -23.05513859 Ry
     estimated scf accuracy    <       0.00000220 Ry

     iteration #  5     ecut=    60.00 Ry     beta= 0.70
     CG style diagonalization
     ethr =  2.74E-08,  avg # of iterations =  3.9

     total cpu time spent up to now is        0.5 secs

     total energy              =     -23.05513941 Ry
     estimated scf accuracy    <       0.00000003 Ry

     iteration #  6     ecut=    60.00 Ry     beta= 0.70
     CG style diagonalization
     ethr =  3.63E-10,  avg # of iterations =  4.6

     total cpu time spent up to now is        0.6 secs

     End of self-consistent calculation

          k = 0.0000 0.0000 0.0000 (   561 PWs)   bands (ev):

    -8.0854  13.5101  13.6274  13.6274

          k =-0.2000 0.2000-0.2000 (   582 PWs)   bands (ev):

    -6.9646   8.6668  12.1825  12.2686

          k =-0.4000 0.4000-0.4000 (   589 PWs)   bands (ev):

    -3.7240   2.0253  10.8603  10.9428

          k = 0.0000 0.4000 0.0000 (   576 PWs)   bands (ev):

    -6.5927  10.2511  10.2923  10.5806

          k =-0.2000 0.6000-0.2000 (   592 PWs)   bands (ev):

    -4.0481   4.7320   8.8058   9.0963

          k = 0.6000-0.2000 0.6000 (   576 PWs)   bands (ev):

    -1.5291   1.2097   7.1038   9.6799

          k = 0.4000 0.0000 0.4000 (   592 PWs)   bands (ev):

    -5.1292   6.5718   7.4480  11.5857

          k = 0.0000 0.8000 0.0000 (   596 PWs)   bands (ev):

    -2.2601   4.1825   7.4851   7.5104

          k = 0.8000 0.0000 0.8000 (   586 PWs)   bands (ev):

     0.9220   1.4430   4.5281   7.7661

          k = 0.6000-0.2000 1.0000 (   575 PWs)   bands (ev):

    -1.0031   3.4684   5.0539   7.0044

          k =-0.2000-0.2000-0.2000 (   582 PWs)   bands (ev):

    -6.9649   8.6250  12.2525  12.2525

          k =-0.4000-0.4000-0.4000 (   589 PWs)   bands (ev):

    -3.7222   1.9999  10.9151  10.9151

          k = 0.6000 0.2000-0.2000 (   592 PWs)   bands (ev):

    -4.0481   4.7234   8.8520   9.0627

          k =-0.6000-0.2000-0.2000 (   592 PWs)   bands (ev):

    -4.0478   4.6946   8.8613   9.0863

          k =-0.2000-0.6000 0.6000 (   576 PWs)   bands (ev):

    -1.5298   1.2104   7.1394   9.6365

          k = 0.2000 0.6000 0.6000 (   576 PWs)   bands (ev):

    -1.5183   1.1744   7.1400   9.6682

          k = 0.0000-0.4000 0.4000 (   592 PWs)   bands (ev):

    -5.1290   6.6105   7.4436  11.5328

          k = 0.0000-0.8000 0.8000 (   586 PWs)   bands (ev):

     0.9017   1.4632   4.5518   7.7390

          k =-0.2000-0.6000 1.0000 (   575 PWs)   bands (ev):

    -0.9994   3.4395   5.0515   7.0365

     highest occupied level (ev):    13.6274

!    total energy              =     -23.05513947 Ry
     estimated scf accuracy    <          4.4E-10 Ry

     The total energy is the sum of the following terms:
     one-electron contribution =       8.24483474 Ry
     hartree contribution      =       1.89552971 Ry
     xc contribution           =      -7.39054382 Ry
     ewald contribution        =     -25.80496010 Ry

     convergence has been achieved in   6 iterations

     Forces acting on atoms (cartesian axes, Ry/au):

     atom    1 type  1   force =    -0.00381460   -0.00381460   -0.00381460
     atom    2 type  1   force =     0.00381460    0.00381460    0.00381460

     Total force =     0.009344     Total SCF correction =     0.000001


     Computing stress (Cartesian axis) and pressure

          total   stress  (Ry/bohr**3)                   (kbar)     P=       -6.18
  -0.00004198   0.00001014   0.00001014           -6.18        1.49        1.49
   0.00001014  -0.00004198   0.00001014            1.49       -6.18        1.49
   0.00001014   0.00001014  -0.00004198            1.49        1.49       -6.18


     Writing all to output data dir ./Diamond_k5.save/ :
     XML data file, charge density, pseudopotentials, collected wavefunctions
 
     init_run     :      0.07s CPU      0.14s WALL (       1 calls)
     electrons    :      0.30s CPU      0.35s WALL (       1 calls)
     forces       :      0.01s CPU      0.01s WALL (       1 calls)
     stress       :      0.02s CPU      0.02s WALL (       1 calls)

     Called by init_run:
     wfcinit      :      0.02s CPU      0.04s WALL (       1 calls)
     potinit      :      0.00s CPU      0.01s WALL (       1 calls)
     hinit0       :      0.03s CPU      0.05s WALL (       1 calls)

     Called by electrons:
     c_bands      :      0.25s CPU      0.27s WALL (       6 calls)
     sum_band     :      0.04s CPU      0.04s WALL (       6 calls)
     v_of_rho     :      0.01s CPU      0.01s WALL (       7 calls)
     newd         :      0.01s CPU      0.02s WALL (       7 calls)
     mix_rho      :      0.00s CPU      0.01s WALL (       6 calls)

     Called by c_bands:
     init_us_2    :      0.00s CPU      0.01s WALL (     285 calls)
     init_us_2:cp :      0.00s CPU      0.00s WALL (     285 calls)
     ccgdiagg     :      0.21s CPU      0.23s WALL (     114 calls)
     wfcrot       :      0.04s CPU      0.07s WALL (     114 calls)

     Called by *cgdiagg:
     h_psi        :      0.13s CPU      0.15s WALL (    1490 calls)
     s_psi        :      0.01s CPU      0.01s WALL (    2866 calls)

     Called by h_psi:
     h_psi:calbec :      0.02s CPU      0.03s WALL (    1490 calls)
     vloc_psi     :      0.10s CPU      0.11s WALL (    1490 calls)
     add_vuspsi   :      0.00s CPU      0.01s WALL (    1490 calls)
     hs_1psi      :      0.12s CPU      0.13s WALL (    1376 calls)
     s_1psi       :      0.03s CPU      0.03s WALL (    1376 calls)

     General routines
     calbec       :      0.04s CPU      0.04s WALL (    3075 calls)
     fft          :      0.01s CPU      0.03s WALL (      48 calls)
     ffts         :      0.00s CPU      0.00s WALL (      13 calls)
     fftw         :      0.08s CPU      0.09s WALL (    4272 calls)
     interpolate  :      0.00s CPU      0.01s WALL (       7 calls)
 
     Parallel routines
 
     PWSCF        :      0.45s CPU      0.77s WALL

 
   This run was terminated on:  21:52:32  20Oct2025            

=------------------------------------------------------------------------------=
   JOB DONE.
=------------------------------------------------------------------------------=
TACC:  Shutdown complete. Exiting. 
