TACC:  Starting up job 2403600 
TACC:  Starting parallel tasks... 

     Program PWSCF v.7.3 starts on 23Sep2025 at 13:30:45 

     This program is part of the open-source Quantum ESPRESSO suite
     for quantum simulation of materials; please cite
         "P. Giannozzi et al., J. Phys.:Condens. Matter 21 395502 (2009);
         "P. Giannozzi et al., J. Phys.:Condens. Matter 29 465901 (2017);
         "P. Giannozzi et al., J. Chem. Phys. 152 154105 (2020);
          URL http://www.quantum-espresso.org", 
     in publications or presentations arising from this work. More details at
     http://www.quantum-espresso.org/quote

     Parallel version (MPI & OpenMP), running on      10 processor cores
     Number of MPI processes:                10
     Threads/MPI process:                     1

     MPI processes distributed on     1 nodes
     186799 MiB available memory on the printing compute node when the environment starts
 
     Waiting for input...
     Reading input from standard input
Warning: card &CELL ignored
Warning: card  CELL_DYNAMICS = 'BFGS', ignored
Warning: card  PRESS=0.D0, ignored
Warning: card / ignored
     Message from routine read_cards :
     DEPRECATED: no units specified in ATOMIC_POSITIONS card
     Message from routine read_cards :
     ATOMIC_POSITIONS: units set to alat

     Current dimensions of program PWSCF are:
     Max number of different atomic species (ntypx) = 10
     Max number of k-points (npk) =  40000
     Max angular momentum in pseudopotentials (lmaxx) =  4
 
     R & G space division:  proc/nbgrp/npool/nimage =      10
     Subspace diagonalization in iterative solution of the eigenvalue problem:
     a serial algorithm will be used

 
     Parallelization info
     --------------------
     sticks:   dense  smooth     PW     G-vecs:    dense   smooth      PW
     Min         430     173     48                21291     5381     820
     Max         431     175     49                21292     5382     823
     Sum        4309    1733    489               212911    53811    8217
 
     Using Slab Decomposition
 


     bravais-lattice index     =            1
     lattice parameter (alat)  =       7.3573  a.u.
     unit-cell volume          =     398.2496 (a.u.)^3
     number of atoms/cell      =            5
     number of atomic types    =            3
     number of electrons       =        40.00
     number of Kohn-Sham states=           20
     kinetic-energy cutoff     =     100.0000  Ry
     charge density cutoff     =    1000.0000  Ry
     scf convergence threshold =      1.0E-08
     mixing beta               =       0.7000
     number of iterations used =            8  plain     mixing
     Exchange-correlation= SLA  PZ   NOGX NOGC
                           (   1   1   0   0   0   0   0)

     celldm(1)=   7.357300  celldm(2)=   0.000000  celldm(3)=   0.000000
     celldm(4)=   0.000000  celldm(5)=   0.000000  celldm(6)=   0.000000

     crystal axes: (cart. coord. in units of alat)
               a(1) = (   1.000000   0.000000   0.000000 )  
               a(2) = (   0.000000   1.000000   0.000000 )  
               a(3) = (   0.000000   0.000000   1.000000 )  

     reciprocal axes: (cart. coord. in units 2 pi/alat)
               b(1) = (  1.000000  0.000000  0.000000 )  
               b(2) = (  0.000000  1.000000  0.000000 )  
               b(3) = (  0.000000  0.000000  1.000000 )  


     PseudoPot. # 1 for Ca read from file:
     /scratch/11018/zhc/assisgnment1/CaTiO3/Ca_LDA.UPF
     MD5 check sum: d2d4e7693e10d071152e9eeb7dd009f3
     Pseudo is Ultrasoft + core correction, Zval = 10.0
     Generated by new atomic code, or converted to UPF format
     Using radial grid of  845 points,  6 beta functions with: 
                l(1) =   0
                l(2) =   0
                l(3) =   1
                l(4) =   1
                l(5) =   2
                l(6) =   2
     Q(r) pseudized with  8 coefficients,  rinner =    1.500   1.500   1.500
                                                       1.500   1.500

     PseudoPot. # 2 for Ti read from file:
     /scratch/11018/zhc/assisgnment1/CaTiO3/Ti_LDA.UPF
     MD5 check sum: 0d9f225c038fe889ca2a701dcc8d72cb
     Pseudo is Ultrasoft + core correction, Zval = 12.0
     Generated by new atomic code, or converted to UPF format
     Using radial grid of  851 points,  6 beta functions with: 
                l(1) =   0
                l(2) =   0
                l(3) =   1
                l(4) =   1
                l(5) =   2
                l(6) =   2
     Q(r) pseudized with  6 coefficients,  rinner =    1.000   1.000   1.000
                                                       1.000   1.000

     PseudoPot. # 3 for O  read from file:
     /scratch/11018/zhc/assisgnment1/CaTiO3/O_LDA.UPF
     MD5 check sum: 194b818514d2a7dbb603bb78519a4f40
     Pseudo is Ultrasoft + core correction, Zval =  6.0
     Generated by new atomic code, or converted to UPF format
     Using radial grid of  737 points,  5 beta functions with: 
                l(1) =   0
                l(2) =   0
                l(3) =   1
                l(4) =   1
                l(5) =   2
     Q(r) pseudized with  8 coefficients,  rinner =    0.900   0.900   0.900
                                                       0.900   0.900

     atomic species   valence    mass     pseudopotential
     Ca               10.00    40.07800     Ca( 1.00)
     Ti               12.00    47.88000     Ti( 1.00)
     O                 6.00    16.00000     O ( 1.00)

      8 Sym. Ops. (no inversion) found



   Cartesian axes

     site n.     atom                  positions (alat units)
         1        Ca     tau(   1) = (   0.0000000   0.0000000   0.0500000  )
         2        Ti     tau(   2) = (   0.5000000   0.5000000   0.5000000  )
         3        O      tau(   3) = (   0.5000000   0.5000000   0.0000000  )
         4        O      tau(   4) = (   0.5000000   0.0000000   0.5000000  )
         5        O      tau(   5) = (   0.0000000   0.5000000   0.5000000  )

     number of k points=    75
                       cart. coord. in units 2pi/alat
        k(    1) = (   0.0000000   0.0000000   0.0000000), wk =   0.0027435
        k(    2) = (   0.0000000   0.0000000   0.1111111), wk =   0.0054870
        k(    3) = (   0.0000000   0.0000000   0.2222222), wk =   0.0054870
        k(    4) = (   0.0000000   0.0000000   0.3333333), wk =   0.0054870
        k(    5) = (   0.0000000   0.0000000   0.4444444), wk =   0.0054870
        k(    6) = (   0.0000000   0.1111111   0.1111111), wk =   0.0219479
        k(    7) = (   0.0000000   0.1111111   0.2222222), wk =   0.0219479
        k(    8) = (   0.0000000   0.1111111   0.3333333), wk =   0.0219479
        k(    9) = (   0.0000000   0.1111111   0.4444444), wk =   0.0219479
        k(   10) = (   0.0000000   0.2222222   0.2222222), wk =   0.0219479
        k(   11) = (   0.0000000   0.2222222   0.3333333), wk =   0.0219479
        k(   12) = (   0.0000000   0.2222222   0.4444444), wk =   0.0219479
        k(   13) = (   0.0000000   0.3333333   0.3333333), wk =   0.0219479
        k(   14) = (   0.0000000   0.3333333   0.4444444), wk =   0.0219479
        k(   15) = (   0.0000000   0.4444444   0.4444444), wk =   0.0219479
        k(   16) = (   0.1111111   0.1111111   0.1111111), wk =   0.0219479
        k(   17) = (   0.1111111   0.1111111   0.2222222), wk =   0.0219479
        k(   18) = (   0.1111111   0.1111111   0.3333333), wk =   0.0219479
        k(   19) = (   0.1111111   0.1111111   0.4444444), wk =   0.0219479
        k(   20) = (   0.1111111   0.2222222   0.2222222), wk =   0.0438957
        k(   21) = (   0.1111111   0.2222222   0.3333333), wk =   0.0438957
        k(   22) = (   0.1111111   0.2222222   0.4444444), wk =   0.0438957
        k(   23) = (   0.1111111   0.3333333   0.3333333), wk =   0.0438957
        k(   24) = (   0.1111111   0.3333333   0.4444444), wk =   0.0438957
        k(   25) = (   0.1111111   0.4444444   0.4444444), wk =   0.0438957
        k(   26) = (   0.2222222   0.2222222   0.2222222), wk =   0.0219479
        k(   27) = (   0.2222222   0.2222222   0.3333333), wk =   0.0219479
        k(   28) = (   0.2222222   0.2222222   0.4444444), wk =   0.0219479
        k(   29) = (   0.2222222   0.3333333   0.3333333), wk =   0.0438957
        k(   30) = (   0.2222222   0.3333333   0.4444444), wk =   0.0438957
        k(   31) = (   0.2222222   0.4444444   0.4444444), wk =   0.0438957
        k(   32) = (   0.3333333   0.3333333   0.3333333), wk =   0.0219479
        k(   33) = (   0.3333333   0.3333333   0.4444444), wk =   0.0219479
        k(   34) = (   0.3333333   0.4444444   0.4444444), wk =   0.0438957
        k(   35) = (   0.4444444   0.4444444   0.4444444), wk =   0.0219479
        k(   36) = (   0.1111111   0.0000000   0.0000000), wk =   0.0109739
        k(   37) = (   0.2222222   0.0000000   0.0000000), wk =   0.0109739
        k(   38) = (   0.3333333   0.0000000   0.0000000), wk =   0.0109739
        k(   39) = (   0.4444444   0.0000000   0.0000000), wk =   0.0109739
        k(   40) = (   0.1111111  -0.1111111   0.0000000), wk =   0.0109739
        k(   41) = (   0.2222222  -0.1111111   0.0000000), wk =   0.0219479
        k(   42) = (   0.0000000   0.2222222   0.1111111), wk =   0.0219479
        k(   43) = (   0.3333333  -0.1111111   0.0000000), wk =   0.0219479
        k(   44) = (   0.0000000   0.3333333   0.1111111), wk =   0.0219479
        k(   45) = (   0.4444444  -0.1111111   0.0000000), wk =   0.0219479
        k(   46) = (   0.0000000   0.4444444   0.1111111), wk =   0.0219479
        k(   47) = (   0.2222222  -0.2222222   0.0000000), wk =   0.0109739
        k(   48) = (   0.3333333  -0.2222222   0.0000000), wk =   0.0219479
        k(   49) = (   0.0000000   0.3333333   0.2222222), wk =   0.0219479
        k(   50) = (   0.4444444  -0.2222222   0.0000000), wk =   0.0219479
        k(   51) = (   0.0000000   0.4444444   0.2222222), wk =   0.0219479
        k(   52) = (   0.3333333  -0.3333333   0.0000000), wk =   0.0109739
        k(   53) = (   0.4444444  -0.3333333   0.0000000), wk =   0.0219479
        k(   54) = (   0.0000000   0.4444444   0.3333333), wk =   0.0219479
        k(   55) = (   0.4444444  -0.4444444   0.0000000), wk =   0.0109739
        k(   56) = (   0.2222222  -0.1111111   0.1111111), wk =   0.0438957
        k(   57) = (   0.3333333  -0.1111111   0.1111111), wk =   0.0438957
        k(   58) = (   0.4444444  -0.1111111   0.1111111), wk =   0.0438957
        k(   59) = (   0.2222222  -0.2222222   0.1111111), wk =   0.0219479
        k(   60) = (   0.3333333  -0.2222222   0.1111111), wk =   0.0438957
        k(   61) = (  -0.1111111   0.3333333   0.2222222), wk =   0.0438957
        k(   62) = (   0.4444444  -0.2222222   0.1111111), wk =   0.0438957
        k(   63) = (  -0.1111111   0.4444444   0.2222222), wk =   0.0438957
        k(   64) = (   0.3333333  -0.3333333   0.1111111), wk =   0.0219479
        k(   65) = (   0.4444444  -0.3333333   0.1111111), wk =   0.0438957
        k(   66) = (  -0.1111111   0.4444444   0.3333333), wk =   0.0438957
        k(   67) = (   0.4444444  -0.4444444   0.1111111), wk =   0.0219479
        k(   68) = (   0.3333333  -0.2222222   0.2222222), wk =   0.0438957
        k(   69) = (   0.4444444  -0.2222222   0.2222222), wk =   0.0438957
        k(   70) = (   0.3333333  -0.3333333   0.2222222), wk =   0.0219479
        k(   71) = (   0.4444444  -0.3333333   0.2222222), wk =   0.0438957
        k(   72) = (  -0.2222222   0.4444444   0.3333333), wk =   0.0438957
        k(   73) = (   0.4444444  -0.4444444   0.2222222), wk =   0.0219479
        k(   74) = (   0.4444444  -0.3333333   0.3333333), wk =   0.0438957
        k(   75) = (   0.4444444  -0.4444444   0.3333333), wk =   0.0219479

     Dense  grid:   212911 G-vectors     FFT dimensions: (  75,  75,  75)

     Smooth grid:    53811 G-vectors     FFT dimensions: (  48,  48,  48)

     Estimated max dynamical RAM per process >     102.39 MB

     Estimated total dynamical RAM >    1023.88 MB

     Check: negative core charge=   -0.000001

     Initial potential from superposition of free atoms

     starting charge      38.9952, renormalised to      40.0000

     negative rho (up, down):  8.541E-04 0.000E+00
     Starting wfcs are   32 randomized atomic wfcs

     total cpu time spent up to now is        1.4 secs

     Self-consistent Calculation

     iteration #  1     ecut=   100.00 Ry     beta= 0.70
     CG style diagonalization
     ethr =  1.00E-02,  avg # of iterations =  2.2

     negative rho (up, down):  1.119E-03 0.000E+00

     total cpu time spent up to now is        3.6 secs

     total energy              =    -291.29576162 Ry
     estimated scf accuracy    <       0.83475963 Ry

     iteration #  2     ecut=   100.00 Ry     beta= 0.70
     CG style diagonalization
     ethr =  2.09E-03,  avg # of iterations =  5.4

     negative rho (up, down):  6.407E-04 0.000E+00

     total cpu time spent up to now is        7.8 secs

     total energy              =    -290.52553173 Ry
     estimated scf accuracy    <       7.17710760 Ry

     iteration #  3     ecut=   100.00 Ry     beta= 0.70
     CG style diagonalization
     ethr =  2.09E-03,  avg # of iterations =  4.7

     negative rho (up, down):  7.370E-04 0.000E+00

     total cpu time spent up to now is       11.5 secs

     total energy              =    -291.72668864 Ry
     estimated scf accuracy    <       0.17147016 Ry

     iteration #  4     ecut=   100.00 Ry     beta= 0.70
     CG style diagonalization
     ethr =  4.29E-04,  avg # of iterations =  3.7

     negative rho (up, down):  8.151E-04 0.000E+00

     total cpu time spent up to now is       14.4 secs

     total energy              =    -291.74172178 Ry
     estimated scf accuracy    <       0.06168666 Ry

     iteration #  5     ecut=   100.00 Ry     beta= 0.70
     CG style diagonalization
     ethr =  1.54E-04,  avg # of iterations =  3.6

     negative rho (up, down):  8.504E-04 0.000E+00

     total cpu time spent up to now is       17.1 secs

     total energy              =    -291.75118679 Ry
     estimated scf accuracy    <       0.00231402 Ry

     iteration #  6     ecut=   100.00 Ry     beta= 0.70
     CG style diagonalization
     ethr =  5.79E-06,  avg # of iterations =  4.4

     negative rho (up, down):  8.570E-04 0.000E+00

     total cpu time spent up to now is       20.6 secs

     total energy              =    -291.75283957 Ry
     estimated scf accuracy    <       0.00023848 Ry

     iteration #  7     ecut=   100.00 Ry     beta= 0.70
     CG style diagonalization
     ethr =  5.96E-07,  avg # of iterations =  3.9

     negative rho (up, down):  8.534E-04 0.000E+00

     total cpu time spent up to now is       23.6 secs

     total energy              =    -291.75287629 Ry
     estimated scf accuracy    <       0.00029218 Ry

     iteration #  8     ecut=   100.00 Ry     beta= 0.70
     CG style diagonalization
     ethr =  5.96E-07,  avg # of iterations =  3.4

     negative rho (up, down):  8.519E-04 0.000E+00

     total cpu time spent up to now is       26.3 secs

     total energy              =    -291.75288222 Ry
     estimated scf accuracy    <       0.00007843 Ry

     iteration #  9     ecut=   100.00 Ry     beta= 0.70
     CG style diagonalization
     ethr =  1.96E-07,  avg # of iterations =  3.6

     negative rho (up, down):  8.509E-04 0.000E+00

     total cpu time spent up to now is       29.1 secs

     total energy              =    -291.75289349 Ry
     estimated scf accuracy    <       0.00000318 Ry

     iteration # 10     ecut=   100.00 Ry     beta= 0.70
     CG style diagonalization
     ethr =  7.95E-09,  avg # of iterations =  4.3

     negative rho (up, down):  8.509E-04 0.000E+00

     total cpu time spent up to now is       32.5 secs

     total energy              =    -291.75289595 Ry
     estimated scf accuracy    <       0.00000074 Ry

     iteration # 11     ecut=   100.00 Ry     beta= 0.70
     CG style diagonalization
     ethr =  1.85E-09,  avg # of iterations =  3.8

     negative rho (up, down):  8.510E-04 0.000E+00

     total cpu time spent up to now is       35.5 secs

     total energy              =    -291.75289616 Ry
     estimated scf accuracy    <       0.00000015 Ry

     iteration # 12     ecut=   100.00 Ry     beta= 0.70
     CG style diagonalization
     ethr =  3.68E-10,  avg # of iterations =  3.6

     negative rho (up, down):  8.510E-04 0.000E+00

     total cpu time spent up to now is       38.3 secs

     total energy              =    -291.75289619 Ry
     estimated scf accuracy    <       0.00000001 Ry

     iteration # 13     ecut=   100.00 Ry     beta= 0.70
     CG style diagonalization
     ethr =  3.51E-11,  avg # of iterations =  3.9

     negative rho (up, down):  8.511E-04 0.000E+00

     total cpu time spent up to now is       41.4 secs

     End of self-consistent calculation

          k = 0.0000 0.0000 0.0000 (  6763 PWs)   bands (ev):

   -47.1743 -30.1514 -23.7702 -23.7702 -23.7615 -11.3743 -11.3524 -11.3524
    -8.5677  -7.4907  -7.4406   5.5455   5.5502   5.5502   7.4444   7.4508
     7.4508   8.1751   8.1751   8.1907

          k = 0.0000 0.0000 0.1111 (  6743 PWs)   bands (ev):

   -47.1741 -30.1507 -23.7699 -23.7698 -23.7698 -11.4035 -11.3511 -11.3511
    -8.4942  -7.4860  -7.4049   5.4077   5.5562   5.5562   7.2879   7.2879
     7.3403   7.7808   8.0937   8.0937

          k = 0.0000 0.0000 0.2222 (  6743 PWs)   bands (ev):

   -47.1738 -30.1490 -23.7912 -23.7688 -23.7688 -11.4743 -11.3478 -11.3478
    -8.3075  -7.4742  -7.3121   5.0465   5.5820   5.5820   6.8920   6.8920
     6.9718   7.0969   7.9843   7.9843

          k = 0.0000 0.0000 0.3333 (  6736 PWs)   bands (ev):

   -47.1734 -30.1470 -23.8153 -23.7677 -23.7677 -11.5503 -11.3440 -11.3440
    -8.0945  -7.4606  -7.2005   4.5996   5.6463   5.6463   6.2925   6.4668
     6.4668   6.8478   7.9124   7.9124

          k = 0.0000 0.0000 0.4444 (  6732 PWs)   bands (ev):

   -47.1731 -30.1457 -23.8309 -23.7669 -23.7669 -11.5977 -11.3416 -11.3416
    -7.9560  -7.4517  -7.1220   4.2815   5.7541   5.7541   5.9435   6.1505
     6.1505   6.6977   7.8758   7.8758

          k = 0.0000 0.1111 0.1111 (  6739 PWs)   bands (ev):

   -47.1740 -30.1500 -23.7783 -23.7696 -23.7694 -11.4068 -11.3733 -11.3498
    -8.4224  -7.4608  -7.3916   5.3144   5.5074   5.5616   6.9312   7.1498
     7.4563   7.6570   7.8524   7.9950

          k = 0.0000 0.1111 0.2222 (  6746 PWs)   bands (ev):

   -47.1736 -30.1483 -23.7909 -23.7774 -23.7684 -11.4701 -11.3701 -11.3464
    -8.2451  -7.4492  -7.2998   4.9968   5.4640   5.5852   6.3983   6.8110
     7.0266   7.4379   7.7000   7.8405

          k = 0.0000 0.1111 0.3333 (  6719 PWs)   bands (ev):

   -47.1732 -30.1463 -23.8150 -23.7763 -23.7673 -11.5409 -11.3640 -11.3426
    -8.0449  -7.4363  -7.1858   4.5828   5.4009   5.6459   5.8956   6.4183
     6.5647   7.2877   7.6157   7.7474

          k = 0.0000 0.1111 0.4444 (  6718 PWs)   bands (ev):

   -47.1730 -30.1450 -23.8307 -23.7756 -23.7665 -11.5855 -11.3598 -11.3400
    -7.9168  -7.4274  -7.1036   4.2789   5.2916   5.6857   5.7512   6.1153
     6.3454   7.1662   7.5794   7.7041

          k = 0.0000 0.2222 0.2222 (  6729 PWs)   bands (ev):

   -47.1733 -30.1464 -23.7990 -23.7901 -23.7674 -11.4696 -11.4149 -11.3429
    -8.0913  -7.3911  -7.2547   4.7923   5.2524   5.6024   5.8075   6.5761
     6.9577   7.1565   7.6056   7.7910

          k = 0.0000 0.2222 0.3333 (  6738 PWs)   bands (ev):

   -47.1729 -30.1444 -23.8144 -23.7980 -23.7663 -11.5180 -11.4127 -11.3388
    -7.9361  -7.3562  -7.1445   4.4903   4.9642   5.3623   5.6507   6.2804
     6.6518   7.0879   7.4380   7.8548

          k = 0.0000 0.2222 0.4444 (  6717 PWs)   bands (ev):

   -47.1726 -30.1430 -23.8301 -23.7974 -23.7656 -11.5546 -11.4053 -11.3362
    -7.8478  -7.3299  -7.0562   4.2632   4.6335   5.2717   5.7436   6.0253
     6.4839   7.0832   7.3643   7.8422

          k = 0.0000 0.3333 0.3333 (  6716 PWs)   bands (ev):

   -47.1725 -30.1422 -23.8226 -23.8137 -23.7652 -11.5004 -11.4583 -11.3346
    -7.8504  -7.2235  -7.0895   4.2456   4.7156   4.7836   5.6784   6.0852
     6.6676   6.8388   7.1981   8.1875

          k = 0.0000 0.3333 0.4444 (  6718 PWs)   bands (ev):

   -47.1722 -30.1408 -23.8295 -23.8221 -23.7644 -11.5196 -11.4557 -11.3317
    -7.8176  -7.1585  -7.0020   4.0897   4.2820   4.7034   5.7383   5.9164
     6.6179   6.8006   7.0733   8.3138

          k = 0.0000 0.4444 0.4444 (  6736 PWs)   bands (ev):

   -47.1720 -30.1393 -23.8381 -23.8291 -23.7637 -11.4982 -11.4866 -11.3288
    -7.8160  -7.0170  -6.9696   3.8501   4.1249   4.4192   5.7489   5.8283
     6.6800   6.7205   6.9187   8.5309

          k = 0.1111 0.1111 0.1111 (  6748 PWs)   bands (ev):

   -47.1739 -30.1493 -23.7781 -23.7778 -23.7692 -11.4103 -11.3727 -11.3682
    -8.3531  -7.4300  -7.3855   5.2209   5.5076   5.5108   6.8340   6.8383
     7.4293   7.5726   7.8137   7.8357

          k = 0.1111 0.1111 0.2222 (  6745 PWs)   bands (ev):

   -47.1735 -30.1475 -23.7906 -23.7770 -23.7770 -11.4661 -11.3722 -11.3631
    -8.1827  -7.4230  -7.2922   4.9424   5.4193   5.5158   6.3750   6.3860
     7.0843   7.5621   7.5647   7.7351

          k = 0.1111 0.1111 0.3333 (  6714 PWs)   bands (ev):

   -47.1731 -30.1455 -23.8148 -23.7760 -23.7759 -11.5320 -11.3661 -11.3574
    -7.9913  -7.4150  -7.1749   4.5653   5.3061   5.5257   5.8142   6.0062
     6.9446   7.3598   7.4228   7.6651

          k = 0.1111 0.1111 0.4444 (  6734 PWs)   bands (ev):

   -47.1728 -30.1442 -23.8304 -23.7753 -23.7751 -11.5740 -11.3618 -11.3536
    -7.8699  -7.4097  -7.0887   4.2767   5.1683   5.5362   5.5755   5.8050
     6.8769   7.2557   7.3022   7.6319

          k = 0.1111 0.2222 0.2222 (  6729 PWs)   bands (ev):

   -47.1732 -30.1457 -23.7986 -23.7898 -23.7760 -11.4655 -11.4110 -11.3612
    -8.0282  -7.3641  -7.2568   4.7480   5.2451   5.4615   5.8257   6.2228
     6.7162   7.4261   7.5641   7.8077

          k = 0.1111 0.2222 0.3333 (  6725 PWs)   bands (ev):

   -47.1728 -30.1436 -23.8140 -23.7976 -23.7749 -11.5104 -11.4094 -11.3554
    -7.8720  -7.3430  -7.1430   4.4765   4.9670   5.3333   5.4678   5.8853
     6.6522   7.2540   7.4567   7.8720

          k = 0.1111 0.2222 0.4444 (  6719 PWs)   bands (ev):

   -47.1725 -30.1423 -23.8298 -23.7970 -23.7742 -11.5449 -11.4024 -11.3515
    -7.7824  -7.3282  -7.0501   4.2629   4.6467   5.2295   5.4373   5.6932
     6.7171   7.0738   7.4284   7.8586

          k = 0.1111 0.3333 0.3333 (  6714 PWs)   bands (ev):

   -47.1724 -30.1415 -23.8222 -23.8132 -23.7738 -11.4938 -11.4530 -11.3496
    -7.7767  -7.2191  -7.0964   4.2585   4.7309   4.7854   5.4100   5.7059
     6.4968   7.2148   7.2854   8.1947

          k = 0.1111 0.3333 0.4444 (  6726 PWs)   bands (ev):

   -47.1721 -30.1401 -23.8291 -23.8216 -23.7731 -11.5121 -11.4507 -11.3459
    -7.7409  -7.1652  -7.0057   4.1238   4.2923   4.7026   5.4212   5.5360
     6.5162   7.1219   7.2324   8.3207

          k = 0.1111 0.4444 0.4444 (  6716 PWs)   bands (ev):

   -47.1718 -30.1386 -23.8376 -23.8286 -23.7723 -11.4919 -11.4806 -11.3421
    -7.7364  -7.0253  -6.9791   3.9043   4.1295   4.4212   5.3941   5.4536
     6.4911   7.1110   7.1590   8.5383

          k = 0.2222 0.2222 0.2222 (  6712 PWs)   bands (ev):

   -47.1728 -30.1438 -23.7978 -23.7976 -23.7889 -11.4611 -11.4011 -11.4008
    -7.8722  -7.2912  -7.2575   4.6058   5.2032   5.2080   5.7726   5.7765
     6.0854   7.5810   7.6251   7.9090

          k = 0.2222 0.2222 0.3333 (  6715 PWs)   bands (ev):

   -47.1724 -30.1417 -23.8132 -23.7968 -23.7965 -11.4921 -11.4066 -11.3905
    -7.7196  -7.2967  -7.1356   4.4151   4.9324   5.0878   5.2440   5.5212
     5.9855   7.5801   7.6380   7.9942

          k = 0.2222 0.2222 0.4444 (  6724 PWs)   bands (ev):

   -47.1721 -30.1404 -23.8289 -23.7962 -23.7957 -11.5206 -11.4013 -11.3838
    -7.6345  -7.3003  -7.0338   4.2547   4.5973   4.9560   5.0570   5.4588
     6.0225   7.5743   7.6185   7.9914

          k = 0.2222 0.3333 0.3333 (  6732 PWs)   bands (ev):

   -47.1720 -30.1396 -23.8212 -23.8122 -23.7955 -11.4777 -11.4396 -11.3870
    -7.5887  -7.2032  -7.1135   4.2738   4.7562   4.7940   5.0004   5.2064
     5.7053   7.6573   7.7456   8.2266

          k = 0.2222 0.3333 0.4444 (  6724 PWs)   bands (ev):

   -47.1717 -30.1382 -23.8280 -23.8205 -23.7948 -11.4932 -11.4382 -11.3813
    -7.5422  -7.1804  -7.0146   4.1854   4.3365   4.6870   4.8968   5.1034
     5.6937   7.6795   7.7632   8.3452

          k = 0.2222 0.4444 0.4444 (  6726 PWs)   bands (ev):

   -47.1715 -30.1368 -23.8365 -23.8274 -23.7940 -11.4760 -11.4654 -11.3754
    -7.5275  -7.0465  -7.0032   4.0392   4.1415   4.4262   4.8922   4.9373
     5.6476   7.7302   7.7902   8.5577

          k = 0.3333 0.3333 0.3333 (  6737 PWs)   bands (ev):

   -47.1716 -30.1375 -23.8202 -23.8200 -23.8110 -11.4627 -11.4272 -11.4226
    -7.3940  -7.1570  -7.1287   4.2375   4.6819   4.6895   4.8453   4.9022
     4.9277   7.9841   8.0331   8.3143

          k = 0.3333 0.3333 0.4444 (  6728 PWs)   bands (ev):

   -47.1713 -30.1361 -23.8268 -23.8195 -23.8191 -11.4717 -11.4273 -11.4176
    -7.3309  -7.1701  -7.0238   4.1882   4.3842   4.5493   4.5833   4.8439
     4.9134   8.0445   8.1927   8.4251

          k = 0.3333 0.4444 0.4444 (  6745 PWs)   bands (ev):

   -47.1711 -30.1348 -23.8352 -23.8260 -23.8184 -11.4578 -11.4479 -11.4129
    -7.2751  -7.0713  -7.0305   4.1029   4.2240   4.4283   4.5180   4.5559
     4.8310   8.2346   8.2971   8.5811

          k = 0.4444 0.4444 0.4444 (  6746 PWs)   bands (ev):

   -47.1708 -30.1334 -23.8343 -23.8343 -23.8251 -11.4459 -11.4394 -11.4342
    -7.1063  -7.0813  -7.0490   4.0133   4.2984   4.3382   4.3494   4.4276
     4.4487   8.5115   8.5607   8.6030

          k = 0.1111 0.0000 0.0000 (  6743 PWs)   bands (ev):

   -47.1741 -30.1507 -23.7787 -23.7698 -23.7611 -11.3886 -11.3668 -11.3511
    -8.4924  -7.4667  -7.4251   5.4067   5.5534   5.5563   7.2767   7.2803
     7.3528   7.7690   8.1059   8.1170

          k = 0.2222 0.0000 0.0000 (  6743 PWs)   bands (ev):

   -47.1738 -30.1490 -23.8001 -23.7688 -23.7601 -11.4611 -11.3635 -11.3479
    -8.3006  -7.4442  -7.3464   5.0333   5.5830   5.5832   6.8669   6.8784
     6.9656   7.1325   8.0123   8.0172

          k = 0.3333 0.0000 0.0000 (  6736 PWs)   bands (ev):

   -47.1734 -30.1470 -23.8243 -23.7676 -23.7590 -11.5408 -11.3576 -11.3443
    -8.0802  -7.4320  -7.2392   4.5738   5.6513   5.6569   6.2912   6.4324
     6.4489   6.9016   7.9485   7.9499

          k = 0.4444 0.0000 0.0000 (  6732 PWs)   bands (ev):

   -47.1731 -30.1456 -23.8399 -23.7669 -23.7583 -11.5904 -11.3537 -11.3419
    -7.9357  -7.4249  -7.1641   4.2493   5.7771   5.7935   5.9453   6.0965
     6.1037   6.7642   7.9148   7.9153

          k = 0.1111-0.1111 0.0000 (  6739 PWs)   bands (ev):

   -47.1740 -30.1500 -23.7785 -23.7782 -23.7607 -11.3967 -11.3702 -11.3637
    -8.4206  -7.4327  -7.4206   5.3087   5.5096   5.5606   6.9267   7.1516
     7.4584   7.6709   7.8359   8.0137

          k = 0.2222-0.1111 0.0000 (  6746 PWs)   bands (ev):

   -47.1736 -30.1482 -23.7998 -23.7774 -23.7597 -11.4576 -11.3728 -11.3587
    -8.2378  -7.4170  -7.3367   4.9803   5.4594   5.5896   6.3925   6.8114
     7.0539   7.4201   7.7159   7.8716

          k = 0.0000 0.2222 0.1111 (  6746 PWs)   bands (ev):

   -47.1736 -30.1482 -23.7998 -23.7686 -23.7684 -11.4587 -11.3832 -11.3465
    -8.2400  -7.4260  -7.3262   4.9859   5.4634   5.5861   6.4120   6.7930
     7.0041   7.4559   7.7280   7.8601

          k = 0.3333-0.1111 0.0000 (  6719 PWs)   bands (ev):

   -47.1732 -30.1462 -23.8240 -23.7763 -23.7586 -11.5317 -11.3674 -11.3525
    -8.0294  -7.4090  -7.2243   4.5554   5.3779   5.6615   5.9073   6.4117
     6.6005   7.2621   7.6537   7.7846

          k = 0.0000 0.3333 0.1111 (  6719 PWs)   bands (ev):

   -47.1732 -30.1462 -23.8240 -23.7676 -23.7672 -11.5321 -11.3761 -11.3428
    -8.0330  -7.4084  -7.2221   4.5579   5.3948   5.6507   5.9329   6.3882
     6.5435   7.3137   7.6525   7.7775

          k = 0.4444-0.1111 0.0000 (  6718 PWs)   bands (ev):

   -47.1730 -30.1449 -23.8397 -23.7756 -23.7579 -11.5784 -11.3636 -11.3484
    -7.8945  -7.4035  -7.1446   4.2453   5.2569   5.7098   5.7958   6.0843
     6.3829   7.1440   7.6231   7.7432

          k = 0.0000 0.4444 0.1111 (  6718 PWs)   bands (ev):

   -47.1730 -30.1449 -23.8397 -23.7669 -23.7665 -11.5787 -11.3708 -11.3403
    -7.9002  -7.3981  -7.1451   4.2461   5.2808   5.7416   5.7741   6.0643
     6.3207   7.1994   7.6181   7.7382

          k = 0.2222-0.2222 0.0000 (  6729 PWs)   bands (ev):

   -47.1733 -30.1464 -23.7993 -23.7987 -23.7588 -11.4616 -11.4134 -11.3547
    -8.0820  -7.3678  -7.2847   4.7722   5.2489   5.5944   5.8107   6.5886
     7.0013   7.1895   7.6298   7.7271

          k = 0.3333-0.2222 0.0000 (  6738 PWs)   bands (ev):

   -47.1729 -30.1442 -23.8234 -23.7981 -23.7577 -11.5096 -11.4150 -11.3488
    -7.9162  -7.3358  -7.1804   4.4613   4.9356   5.3634   5.6802   6.2874
     6.6865   7.1384   7.4717   7.7933

          k = 0.0000 0.3333 0.2222 (  6738 PWs)   bands (ev):

   -47.1729 -30.1443 -23.8233 -23.7892 -23.7663 -11.5114 -11.4210 -11.3389
    -7.9307  -7.3328  -7.1716   4.4742   4.9442   5.4031   5.6543   6.2629
     6.6300   7.1198   7.4537   7.8652

          k = 0.4444-0.2222 0.0000 (  6717 PWs)   bands (ev):

   -47.1726 -30.1429 -23.8392 -23.7975 -23.7569 -11.5482 -11.4077 -11.3448
    -7.8201  -7.3136  -7.0948   4.2269   4.6074   5.2802   5.7867   6.0167
     6.5193   7.1362   7.4022   7.7829

          k = 0.0000 0.4444 0.2222 (  6717 PWs)   bands (ev):

   -47.1726 -30.1430 -23.8391 -23.7887 -23.7655 -11.5492 -11.4133 -11.3363
    -7.8401  -7.2946  -7.0966   4.2309   4.6260   5.3194   5.7651   5.9841
     6.4633   7.1206   7.3867   7.8571

          k = 0.3333-0.3333 0.0000 (  6716 PWs)   bands (ev):

   -47.1725 -30.1420 -23.8230 -23.8225 -23.7565 -11.4939 -11.4596 -11.3433
    -7.8237  -7.2221  -7.1129   4.2247   4.6982   4.7632   5.7065   6.1026
     6.7106   6.8728   7.2285   8.1134

          k = 0.4444-0.3333 0.0000 (  6718 PWs)   bands (ev):

   -47.1722 -30.1406 -23.8387 -23.8223 -23.7558 -11.5141 -11.4577 -11.3397
    -7.7851  -7.1490  -7.0381   4.0715   4.2434   4.7035   5.7775   5.9202
     6.6435   6.8514   7.1107   8.2409

          k = 0.0000 0.4444 0.3333 (  6718 PWs)   bands (ev):

   -47.1722 -30.1408 -23.8385 -23.8132 -23.7644 -11.5159 -11.4603 -11.3318
    -7.8159  -7.1219  -7.0394   4.0855   4.2518   4.7402   5.7534   5.8929
     6.5949   6.8319   7.0826   8.3192

          k = 0.4444-0.4444 0.0000 (  6736 PWs)   bands (ev):

   -47.1720 -30.1391 -23.8383 -23.8383 -23.7551 -11.4935 -11.4883 -11.3362
    -7.7815  -7.0167  -6.9983   3.8404   4.0952   4.4031   5.7870   5.8352
     6.7195   6.7470   6.9559   8.4529

          k = 0.2222-0.1111 0.1111 (  6745 PWs)   bands (ev):

   -47.1735 -30.1475 -23.7995 -23.7770 -23.7683 -11.4554 -11.3829 -11.3649
    -8.1773  -7.3960  -7.3227   4.9291   5.4205   5.5133   6.3655   6.4012
     7.0923   7.5373   7.5820   7.7677

          k = 0.3333-0.1111 0.1111 (  6714 PWs)   bands (ev):

   -47.1731 -30.1454 -23.8237 -23.7759 -23.7672 -11.5235 -11.3771 -11.3583
    -7.9783  -7.3879  -7.2115   4.5388   5.2924   5.5206   5.8318   6.0336
     6.9323   7.3665   7.4314   7.7095

          k = 0.4444-0.1111 0.1111 (  6734 PWs)   bands (ev):

   -47.1728 -30.1441 -23.8395 -23.7752 -23.7665 -11.5674 -11.3723 -11.3540
    -7.8511  -7.3836  -7.1291   4.2427   5.1420   5.5224   5.6170   5.8432
     6.8470   7.2828   7.3123   7.6784

          k = 0.2222-0.2222 0.1111 (  6729 PWs)   bands (ev):

   -47.1731 -30.1456 -23.7989 -23.7984 -23.7673 -11.4588 -11.4098 -11.3707
    -8.0211  -7.3397  -7.2865   4.7323   5.2431   5.4620   5.8166   6.2313
     6.7512   7.4530   7.5867   7.7564

          k = 0.3333-0.2222 0.1111 (  6725 PWs)   bands (ev):

   -47.1727 -30.1435 -23.8231 -23.7977 -23.7662 -11.5026 -11.4124 -11.3634
    -7.8542  -7.3218  -7.1783   4.4486   4.9406   5.3382   5.4788   5.9114
     6.6916   7.2656   7.5048   7.8177

          k =-0.1111 0.3333 0.2222 (  6725 PWs)   bands (ev):

   -47.1727 -30.1436 -23.8230 -23.7888 -23.7749 -11.5040 -11.4178 -11.3552
    -7.8658  -7.3188  -7.1716   4.4589   4.9501   5.3628   5.4607   5.8974
     6.6622   7.2178   7.4998   7.8800

          k = 0.4444-0.2222 0.1111 (  6719 PWs)   bands (ev):

   -47.1725 -30.1421 -23.8389 -23.7971 -23.7655 -11.5390 -11.4057 -11.3583
    -7.7566  -7.3111  -7.0883   4.2263   4.6196   5.2463   5.4358   5.7358
     6.7592   7.0819   7.4811   7.8046

          k =-0.1111 0.4444 0.2222 (  6719 PWs)   bands (ev):

   -47.1725 -30.1422 -23.8388 -23.7882 -23.7742 -11.5396 -11.4107 -11.3512
    -7.7733  -7.2950  -7.0896   4.2294   4.6377   5.2756   5.4057   5.7254
     6.7365   7.0296   7.4764   7.8707

          k = 0.3333-0.3333 0.1111 (  6714 PWs)   bands (ev):

   -47.1723 -30.1413 -23.8225 -23.8221 -23.7651 -11.4878 -11.4546 -11.3571
    -7.7511  -7.2175  -7.1197   4.2377   4.7164   4.7635   5.4342   5.7219
     6.5386   7.2605   7.3024   8.1245

          k = 0.4444-0.3333 0.1111 (  6726 PWs)   bands (ev):

   -47.1721 -30.1399 -23.8382 -23.8218 -23.7644 -11.5068 -11.4532 -11.3526
    -7.7085  -7.1564  -7.0418   4.1026   4.2561   4.7038   5.4282   5.5725
     6.5597   7.1325   7.2858   8.2505

          k =-0.1111 0.4444 0.3333 (  6726 PWs)   bands (ev):

   -47.1721 -30.1400 -23.8381 -23.8127 -23.7731 -11.5084 -11.4556 -11.3458
    -7.7389  -7.1289  -7.0431   4.1167   4.2644   4.7393   5.3910   5.5670
     6.5237   7.0770   7.2786   8.3254

          k = 0.4444-0.4444 0.1111 (  6716 PWs)   bands (ev):

   -47.1718 -30.1384 -23.8378 -23.8378 -23.7636 -11.4874 -11.4825 -11.3485
    -7.7016  -7.0257  -7.0081   3.8930   4.1012   4.4052   5.4270   5.4623
     6.5316   7.1651   7.1671   8.4629

          k = 0.3333-0.2222 0.2222 (  6715 PWs)   bands (ev):

   -47.1724 -30.1417 -23.8222 -23.7967 -23.7878 -11.4860 -11.4153 -11.3896
    -7.7095  -7.2732  -7.1673   4.3953   4.9182   5.0791   5.2531   5.5409
     6.0127   7.5979   7.6398   7.9797

          k = 0.4444-0.2222 0.2222 (  6724 PWs)   bands (ev):

   -47.1721 -30.1403 -23.8381 -23.7960 -23.7871 -11.5156 -11.4106 -11.3820
    -7.6181  -7.2760  -7.0715   4.2192   4.5763   4.9472   5.0907   5.4814
     6.0525   7.5834   7.6357   7.9743

          k = 0.3333-0.3333 0.2222 (  6732 PWs)   bands (ev):

   -47.1720 -30.1395 -23.8213 -23.8212 -23.7867 -11.4730 -11.4419 -11.3910
    -7.5689  -7.1974  -7.1370   4.2570   4.7575   4.7617   5.0134   5.2152
     5.7426   7.7039   7.7481   8.1764

          k = 0.4444-0.3333 0.2222 (  6724 PWs)   bands (ev):

   -47.1717 -30.1381 -23.8372 -23.8206 -23.7859 -11.4885 -11.4421 -11.3847
    -7.5118  -7.1713  -7.0508   4.1573   4.3065   4.6934   4.8966   5.1336
     5.7331   7.7371   7.7656   8.2853

          k =-0.2222 0.4444 0.3333 (  6724 PWs)   bands (ev):

   -47.1717 -30.1382 -23.8371 -23.8116 -23.7948 -11.4894 -11.4438 -11.3804
    -7.5388  -7.1456  -7.0516   4.1675   4.3178   4.7221   4.8686   5.1346
     5.6999   7.6969   7.7495   8.3467

          k = 0.4444-0.4444 0.2222 (  6726 PWs)   bands (ev):

   -47.1715 -30.1367 -23.8366 -23.8366 -23.7851 -11.4721 -11.4677 -11.3795
    -7.4920  -7.0484  -7.0333   4.0236   4.1173   4.4101   4.9179   4.9453
     5.6857   7.7843   7.7982   8.4891

          k = 0.4444-0.3333 0.3333 (  6728 PWs)   bands (ev):

   -47.1713 -30.1361 -23.8360 -23.8193 -23.8102 -11.4678 -11.4362 -11.4135
    -7.3162  -7.1469  -7.0604   4.1654   4.3608   4.5401   4.6025   4.8574
     4.9426   8.1045   8.1554   8.4037

          k = 0.4444-0.4444 0.3333 (  6745 PWs)   bands (ev):

   -47.1711 -30.1347 -23.8352 -23.8352 -23.8094 -11.4548 -11.4506 -11.4142
    -7.2404  -7.0729  -7.0622   4.0862   4.2032   4.4139   4.5368   4.5610
     4.8652   8.2880   8.2986   8.5241

     highest occupied level (ev):     8.6030

!    total energy              =    -291.75289619 Ry
     estimated scf accuracy    <          2.1E-09 Ry

     The total energy is the sum of the following terms:
     one-electron contribution =     -94.04712608 Ry
     hartree contribution      =      66.23781716 Ry
     xc contribution           =     -51.22367090 Ry
     ewald contribution        =    -212.71991636 Ry

     convergence has been achieved in  13 iterations

     negative rho (up, down):  8.511E-04 0.000E+00

     Forces acting on atoms (cartesian axes, Ry/au):

     atom    1 type  1   force =     0.00000000    0.00000000   -0.00155004
     atom    2 type  2   force =     0.00000000    0.00000000    0.01671548
     atom    3 type  3   force =     0.00000000    0.00000000    0.00789284
     atom    4 type  3   force =     0.00000000    0.00000000   -0.01152914
     atom    5 type  3   force =     0.00000000    0.00000000   -0.01152914

     Total force =     0.024697     Total SCF correction =     0.000004


     Computing stress (Cartesian axis) and pressure


     negative rho (up, down):  8.511E-04 0.000E+00
          total   stress  (Ry/bohr**3)                   (kbar)     P=     -113.79
  -0.00077466   0.00000000   0.00000000         -113.96        0.00        0.00
   0.00000000  -0.00077466   0.00000000            0.00     -113.96        0.00
   0.00000000   0.00000000  -0.00077121            0.00        0.00     -113.45


     Writing all to output data dir ./CTO_DIS_K9.save/ :
     XML data file, charge density, pseudopotentials, collected wavefunctions
 
     init_run     :      1.03s CPU      1.16s WALL (       1 calls)
     electrons    :     38.41s CPU     40.03s WALL (       1 calls)
     forces       :      0.42s CPU      0.43s WALL (       1 calls)
     stress       :      4.88s CPU      4.95s WALL (       1 calls)

     Called by init_run:
     wfcinit      :      0.72s CPU      0.76s WALL (       1 calls)
     potinit      :      0.02s CPU      0.02s WALL (       1 calls)
     hinit0       :      0.15s CPU      0.18s WALL (       1 calls)

     Called by electrons:
     c_bands      :     32.48s CPU     33.69s WALL (      13 calls)
     sum_band     :      4.42s CPU      4.61s WALL (      13 calls)
     v_of_rho     :      0.05s CPU      0.05s WALL (      14 calls)
     newd         :      1.49s CPU      1.71s WALL (      14 calls)
     mix_rho      :      0.04s CPU      0.04s WALL (      13 calls)

     Called by c_bands:
     init_us_2    :      0.55s CPU      0.57s WALL (    2175 calls)
     init_us_2:cp :      0.54s CPU      0.56s WALL (    2175 calls)
     ccgdiagg     :     27.96s CPU     29.03s WALL (     975 calls)
     wfcrot       :      4.76s CPU      4.91s WALL (     975 calls)

     Called by *cgdiagg:
     h_psi        :     20.35s CPU     21.09s WALL (   58789 calls)
     s_psi        :      3.63s CPU      3.77s WALL (  116603 calls)

     Called by h_psi:
     h_psi:calbec :      3.47s CPU      3.60s WALL (   58789 calls)
     vloc_psi     :     14.29s CPU     14.81s WALL (   58789 calls)
     add_vuspsi   :      2.03s CPU      2.11s WALL (   58789 calls)
     hs_1psi      :     18.45s CPU     19.15s WALL (   57814 calls)
     s_1psi       :      4.40s CPU      4.57s WALL (   57814 calls)

     General routines
     calbec       :      6.01s CPU      6.24s WALL (  117953 calls)
     fft          :      0.07s CPU      0.09s WALL (      90 calls)
     ffts         :      0.00s CPU      0.01s WALL (      27 calls)
     fftw         :     11.24s CPU     11.62s WALL (  175928 calls)
     interpolate  :      0.01s CPU      0.02s WALL (      14 calls)
 
     Parallel routines
 
     PWSCF        :     45.11s CPU     47.87s WALL

 
   This run was terminated on:  13:31:33  23Sep2025            

=------------------------------------------------------------------------------=
   JOB DONE.
=------------------------------------------------------------------------------=
TACC:  Shutdown complete. Exiting. 
