TACC:  Starting up job 2553094 
TACC:  Starting parallel tasks... 

     Program PWSCF v.7.3 starts on 15Nov2025 at  2:36:39 

     This program is part of the open-source Quantum ESPRESSO suite
     for quantum simulation of materials; please cite
         "P. Giannozzi et al., J. Phys.:Condens. Matter 21 395502 (2009);
         "P. Giannozzi et al., J. Phys.:Condens. Matter 29 465901 (2017);
         "P. Giannozzi et al., J. Chem. Phys. 152 154105 (2020);
          URL http://www.quantum-espresso.org", 
     in publications or presentations arising from this work. More details at
     http://www.quantum-espresso.org/quote

     Parallel version (MPI & OpenMP), running on      10 processor cores
     Number of MPI processes:                10
     Threads/MPI process:                     1

     MPI processes distributed on     1 nodes
     180012 MiB available memory on the printing compute node when the environment starts
 
     Waiting for input...
     Reading input from standard input
Warning: card &CELL ignored
Warning: card  CELL_DYNAMICS = 'BFGS', ignored
Warning: card  PRESS=0.D0, ignored
Warning: card / ignored

     Current dimensions of program PWSCF are:
     Max number of different atomic species (ntypx) = 10
     Max number of k-points (npk) =  40000
     Max angular momentum in pseudopotentials (lmaxx) =  4
     Message from routine setup:
     using ibrav=0 with symmetry is DISCOURAGED, use correct ibrav instead
 
     R & G space division:  proc/nbgrp/npool/nimage =      10
     Subspace diagonalization in iterative solution of the eigenvalue problem:
     a serial algorithm will be used

 
     Parallelization info
     --------------------
     sticks:   dense  smooth     PW     G-vecs:    dense   smooth      PW
     Min         216      86     26                 7944     2004     338
     Max         217      87     27                 7947     2007     341
     Sum        2161     869    261                79447    20063    3391
 
     Using Slab Decomposition
 


     bravais-lattice index     =            0
     lattice parameter (alat)  =       7.3699  a.u.
     unit-cell volume          =     420.8329 (a.u.)^3
     number of atoms/cell      =            5
     number of atomic types    =            3
     number of electrons       =        44.00
     number of Kohn-Sham states=           22
     kinetic-energy cutoff     =      50.0000  Ry
     charge density cutoff     =     500.0000  Ry
     scf convergence threshold =      1.0E-08
     mixing beta               =       0.7000
     number of iterations used =            8  plain     mixing
     energy convergence thresh.=      1.0E-04
     force convergence thresh. =      1.0E-03
     Exchange-correlation= SLA  PZ   NOGX NOGC
                           (   1   1   0   0   0   0   0)
     nstep                     =           50


     celldm(1)=   7.369932  celldm(2)=   0.000000  celldm(3)=   0.000000
     celldm(4)=   0.000000  celldm(5)=   0.000000  celldm(6)=   0.000000

     crystal axes: (cart. coord. in units of alat)
               a(1) = (   1.000000   0.000000   0.000000 )  
               a(2) = (   0.000000   1.000000   0.000000 )  
               a(3) = (   0.000000   0.000000   1.051282 )  

     reciprocal axes: (cart. coord. in units 2 pi/alat)
               b(1) = (  1.000000  0.000000  0.000000 )  
               b(2) = (  0.000000  1.000000  0.000000 )  
               b(3) = (  0.000000  0.000000  0.951220 )  


     PseudoPot. # 1 for Pb read from file:
     /scratch/11018/zhc/assisgnment3/input_files/Pb_LDA.UPF
     MD5 check sum: 062a37469794d955244864f8fe2e5624
     Pseudo is Ultrasoft + core correction, Zval = 14.0
     Generated by new atomic code, or converted to UPF format
     Using radial grid of  899 points,  6 beta functions with: 
                l(1) =   0
                l(2) =   0
                l(3) =   1
                l(4) =   1
                l(5) =   2
                l(6) =   2
     Q(r) pseudized with  6 coefficients,  rinner =    1.000   1.000   1.000
                                                       1.000   1.000

     PseudoPot. # 2 for Ti read from file:
     /scratch/11018/zhc/assisgnment3/input_files/Ti_LDA.UPF
     MD5 check sum: 0d9f225c038fe889ca2a701dcc8d72cb
     Pseudo is Ultrasoft + core correction, Zval = 12.0
     Generated by new atomic code, or converted to UPF format
     Using radial grid of  851 points,  6 beta functions with: 
                l(1) =   0
                l(2) =   0
                l(3) =   1
                l(4) =   1
                l(5) =   2
                l(6) =   2
     Q(r) pseudized with  6 coefficients,  rinner =    1.000   1.000   1.000
                                                       1.000   1.000

     PseudoPot. # 3 for O  read from file:
     /scratch/11018/zhc/assisgnment3/input_files/O_LDA.UPF
     MD5 check sum: 194b818514d2a7dbb603bb78519a4f40
     Pseudo is Ultrasoft + core correction, Zval =  6.0
     Generated by new atomic code, or converted to UPF format
     Using radial grid of  737 points,  5 beta functions with: 
                l(1) =   0
                l(2) =   0
                l(3) =   1
                l(4) =   1
                l(5) =   2
     Q(r) pseudized with  8 coefficients,  rinner =    0.900   0.900   0.900
                                                       0.900   0.900

     atomic species   valence    mass     pseudopotential
     Pb               14.00   207.20000     Pb( 1.00)
     Ti               12.00    47.88000     Ti( 1.00)
     O                 6.00    16.00000     O ( 1.00)

      8 Sym. Ops. (no inversion) found



   Cartesian axes

     site n.     atom                  positions (alat units)
         1        Pb     tau(   1) = (   0.0000000   0.0000000   1.0580339  )
         2        Ti     tau(   2) = (   0.5000000   0.5000000   0.5681377  )
         3        O      tau(   3) = (   0.5000000   0.5000000   0.1036357  )
         4        O      tau(   4) = (   0.5000000   0.0000000   0.6422586  )
         5        O      tau(   5) = (   0.0000000   0.5000000   0.6422586  )

     number of k points=   126

     Number of k-points >= 100: set verbosity='high' to print them.

     Dense  grid:    79447 G-vectors     FFT dimensions: (  54,  54,  60)

     Smooth grid:    20063 G-vectors     FFT dimensions: (  36,  36,  36)

     Estimated max dynamical RAM per process >      45.69 MB

     Estimated total dynamical RAM >     456.87 MB

     Check: negative core charge=   -0.000004

     Initial potential from superposition of free atoms

     starting charge      42.9982, renormalised to      44.0000

     negative rho (up, down):  1.690E-02 0.000E+00
     Starting wfcs are   31 randomized atomic wfcs

     total cpu time spent up to now is        1.2 secs

     Self-consistent Calculation

     iteration #  1     ecut=    50.00 Ry     beta= 0.70
     CG style diagonalization
     ethr =  1.00E-02,  avg # of iterations =  2.1

     negative rho (up, down):  1.407E-02 0.000E+00

     total cpu time spent up to now is        3.2 secs

     total energy              =    -380.04724047 Ry
     estimated scf accuracy    <       1.03348199 Ry

     iteration #  2     ecut=    50.00 Ry     beta= 0.70
     CG style diagonalization
     ethr =  2.35E-03,  avg # of iterations =  4.9

     negative rho (up, down):  1.455E-02 0.000E+00

     total cpu time spent up to now is        7.0 secs

     total energy              =    -379.55222276 Ry
     estimated scf accuracy    <       5.14430479 Ry

     iteration #  3     ecut=    50.00 Ry     beta= 0.70
     CG style diagonalization
     ethr =  2.35E-03,  avg # of iterations =  4.5

     negative rho (up, down):  1.525E-02 0.000E+00

     total cpu time spent up to now is       10.5 secs

     total energy              =    -380.53270681 Ry
     estimated scf accuracy    <       0.36393741 Ry

     iteration #  4     ecut=    50.00 Ry     beta= 0.70
     CG style diagonalization
     ethr =  8.27E-04,  avg # of iterations =  3.4

     negative rho (up, down):  1.523E-02 0.000E+00

     total cpu time spent up to now is       13.0 secs

     total energy              =    -380.55269878 Ry
     estimated scf accuracy    <       0.07172340 Ry

     iteration #  5     ecut=    50.00 Ry     beta= 0.70
     CG style diagonalization
     ethr =  1.63E-04,  avg # of iterations =  3.7

     negative rho (up, down):  1.524E-02 0.000E+00

     total cpu time spent up to now is       15.8 secs

     total energy              =    -380.56661105 Ry
     estimated scf accuracy    <       0.00759182 Ry

     iteration #  6     ecut=    50.00 Ry     beta= 0.70
     CG style diagonalization
     ethr =  1.73E-05,  avg # of iterations =  4.2

     negative rho (up, down):  1.524E-02 0.000E+00

     total cpu time spent up to now is       19.0 secs

     total energy              =    -380.57094114 Ry
     estimated scf accuracy    <       0.00684031 Ry

     iteration #  7     ecut=    50.00 Ry     beta= 0.70
     CG style diagonalization
     ethr =  1.55E-05,  avg # of iterations =  3.2

     negative rho (up, down):  1.525E-02 0.000E+00

     total cpu time spent up to now is       21.3 secs

     total energy              =    -380.57056509 Ry
     estimated scf accuracy    <       0.00269484 Ry

     iteration #  8     ecut=    50.00 Ry     beta= 0.70
     CG style diagonalization
     ethr =  6.12E-06,  avg # of iterations =  3.6

     negative rho (up, down):  1.527E-02 0.000E+00

     total cpu time spent up to now is       24.1 secs

     total energy              =    -380.57104473 Ry
     estimated scf accuracy    <       0.00001257 Ry

     iteration #  9     ecut=    50.00 Ry     beta= 0.70
     CG style diagonalization
     c_bands:  1 eigenvalues not converged
     c_bands:  1 eigenvalues not converged
     c_bands:  1 eigenvalues not converged
     c_bands:  1 eigenvalues not converged
     c_bands:  1 eigenvalues not converged
     ethr =  2.86E-08,  avg # of iterations =  7.7

     negative rho (up, down):  1.531E-02 0.000E+00

     total cpu time spent up to now is       30.2 secs

     total energy              =    -380.57111061 Ry
     estimated scf accuracy    <       0.00001984 Ry

     iteration # 10     ecut=    50.00 Ry     beta= 0.70
     CG style diagonalization
     ethr =  2.86E-08,  avg # of iterations =  3.3

     negative rho (up, down):  1.539E-02 0.000E+00

     total cpu time spent up to now is       32.6 secs

     total energy              =    -380.57110770 Ry
     estimated scf accuracy    <       0.00000893 Ry

     iteration # 11     ecut=    50.00 Ry     beta= 0.70
     CG style diagonalization
     ethr =  2.03E-08,  avg # of iterations =  4.0

     negative rho (up, down):  1.539E-02 0.000E+00

     total cpu time spent up to now is       35.7 secs

     total energy              =    -380.57111042 Ry
     estimated scf accuracy    <       0.00000379 Ry

     iteration # 12     ecut=    50.00 Ry     beta= 0.70
     CG style diagonalization
     ethr =  8.62E-09,  avg # of iterations =  4.0

     negative rho (up, down):  1.540E-02 0.000E+00

     total cpu time spent up to now is       38.8 secs

     total energy              =    -380.57111146 Ry
     estimated scf accuracy    <       0.00000002 Ry

     iteration # 13     ecut=    50.00 Ry     beta= 0.70
     CG style diagonalization
     c_bands:  2 eigenvalues not converged
     c_bands:  3 eigenvalues not converged
     c_bands:  1 eigenvalues not converged
     c_bands:  2 eigenvalues not converged
     c_bands:  2 eigenvalues not converged
     c_bands:  1 eigenvalues not converged
     c_bands:  1 eigenvalues not converged
     c_bands:  1 eigenvalues not converged
     c_bands:  1 eigenvalues not converged
     c_bands:  1 eigenvalues not converged
     c_bands:  1 eigenvalues not converged
     c_bands:  1 eigenvalues not converged
     c_bands:  1 eigenvalues not converged
     c_bands:  1 eigenvalues not converged
     c_bands:  1 eigenvalues not converged
     c_bands:  2 eigenvalues not converged
     c_bands:  1 eigenvalues not converged
     c_bands:  1 eigenvalues not converged
     c_bands:  2 eigenvalues not converged
     c_bands:  1 eigenvalues not converged
     c_bands:  1 eigenvalues not converged
     c_bands:  1 eigenvalues not converged
     c_bands:  1 eigenvalues not converged
     c_bands:  1 eigenvalues not converged
     c_bands:  2 eigenvalues not converged
     c_bands:  1 eigenvalues not converged
     c_bands:  1 eigenvalues not converged
     c_bands:  2 eigenvalues not converged
     c_bands:  1 eigenvalues not converged
     c_bands:  1 eigenvalues not converged
     c_bands:  1 eigenvalues not converged
     c_bands:  2 eigenvalues not converged
     c_bands:  1 eigenvalues not converged
     c_bands:  1 eigenvalues not converged
     c_bands:  1 eigenvalues not converged
     c_bands:  1 eigenvalues not converged
     c_bands:  4 eigenvalues not converged
     c_bands:  1 eigenvalues not converged
     c_bands:  1 eigenvalues not converged
     c_bands:  1 eigenvalues not converged
     c_bands:  1 eigenvalues not converged
     c_bands:  2 eigenvalues not converged
     c_bands:  1 eigenvalues not converged
     c_bands:  1 eigenvalues not converged
     c_bands:  1 eigenvalues not converged
     c_bands:  2 eigenvalues not converged
     c_bands:  2 eigenvalues not converged
     c_bands:  2 eigenvalues not converged
     c_bands:  1 eigenvalues not converged
     c_bands:  2 eigenvalues not converged
     c_bands:  3 eigenvalues not converged
     c_bands:  1 eigenvalues not converged
     c_bands:  1 eigenvalues not converged
     c_bands:  1 eigenvalues not converged
     c_bands:  1 eigenvalues not converged
     c_bands:  1 eigenvalues not converged
     c_bands:  1 eigenvalues not converged
     c_bands:  1 eigenvalues not converged
     c_bands:  1 eigenvalues not converged
     c_bands:  1 eigenvalues not converged
     c_bands:  1 eigenvalues not converged
     c_bands:  2 eigenvalues not converged
     c_bands:  3 eigenvalues not converged
     c_bands:  1 eigenvalues not converged
     c_bands:  1 eigenvalues not converged
     c_bands:  1 eigenvalues not converged
     c_bands:  1 eigenvalues not converged
     ethr =  5.67E-11,  avg # of iterations = 14.0

     negative rho (up, down):  1.540E-02 0.000E+00

     total cpu time spent up to now is       50.2 secs

     total energy              =    -380.57111248 Ry
     estimated scf accuracy    <       0.00000003 Ry

     iteration # 14     ecut=    50.00 Ry     beta= 0.70
     CG style diagonalization
     ethr =  5.67E-11,  avg # of iterations =  3.4

     negative rho (up, down):  1.540E-02 0.000E+00

     total cpu time spent up to now is       52.7 secs

     total energy              =    -380.57111248 Ry
     estimated scf accuracy    <       0.00000003 Ry

     iteration # 15     ecut=    50.00 Ry     beta= 0.70
     CG style diagonalization
     ethr =  5.67E-11,  avg # of iterations =  3.3

     negative rho (up, down):  1.541E-02 0.000E+00

     total cpu time spent up to now is       55.1 secs

     total energy              =    -380.57111246 Ry
     estimated scf accuracy    <       0.00000004 Ry

     iteration # 16     ecut=    50.00 Ry     beta= 0.70
     CG style diagonalization
     ethr =  5.67E-11,  avg # of iterations =  3.9

     negative rho (up, down):  1.541E-02 0.000E+00

     total cpu time spent up to now is       58.1 secs

     End of self-consistent calculation

     Number of k-points >= 100: set verbosity='high' to print the bands.

     highest occupied level (ev):    10.3554

!    total energy              =    -380.57111247 Ry
     estimated scf accuracy    <          3.3E-09 Ry

     The total energy is the sum of the following terms:
     one-electron contribution =     -84.08391028 Ry
     hartree contribution      =      71.16889418 Ry
     xc contribution           =    -102.54193692 Ry
     ewald contribution        =    -265.11415945 Ry

     convergence has been achieved in  16 iterations

     negative rho (up, down):  1.541E-02 0.000E+00

     Forces acting on atoms (cartesian axes, Ry/au):

     atom    1 type  1   force =     0.00000000    0.00000000   -0.00791280
     atom    2 type  2   force =     0.00000000    0.00000000   -0.01198122
     atom    3 type  3   force =     0.00000000    0.00000000    0.02004820
     atom    4 type  3   force =     0.00000000    0.00000000   -0.00007709
     atom    5 type  3   force =     0.00000000    0.00000000   -0.00007709

     Total force =     0.024660     Total SCF correction =     0.000157


     Computing stress (Cartesian axis) and pressure


     negative rho (up, down):  1.541E-02 0.000E+00
          total   stress  (Ry/bohr**3)                   (kbar)     P=      -65.65
  -0.00043300   0.00000000   0.00000000          -63.70        0.00        0.00
   0.00000000  -0.00043300   0.00000000            0.00      -63.70        0.00
   0.00000000   0.00000000  -0.00047275            0.00        0.00      -69.54


     BFGS Geometry Optimization
     Energy error            =      0.0E+00 Ry
     Gradient error          =      2.0E-02 Ry/Bohr

     number of scf cycles    =   1
     number of bfgs steps    =   0

     energy             new  =    -380.5711124673 Ry

     new trust radius        =       0.0200482037 bohr
     new conv_thr            =       0.0000000100 Ry


ATOMIC_POSITIONS (crystal)
Pb               0.0000000000        0.0000000000        1.0054012214
Ti               0.5000000000        0.5000000000        0.5388773096
O                0.5000000000        0.5000000000        0.1011678748
O                0.5000000000        0.0000000000        0.6109189411
O                0.0000000000        0.5000000000        0.6109189411



     Writing config-only to output data dir ./pto_k10.save/ :
     XML data file
     NEW-OLD atomic charge density approx. for the potential

     Check: negative core charge=   -0.000004

     negative rho (up, down):  1.527E-02 0.000E+00

     total cpu time spent up to now is       61.8 secs

     Self-consistent Calculation

     iteration #  1     ecut=    50.00 Ry     beta= 0.70
     CG style diagonalization
     c_bands:  1 eigenvalues not converged
     c_bands:  1 eigenvalues not converged
     c_bands:  1 eigenvalues not converged
     c_bands:  1 eigenvalues not converged
     c_bands:  1 eigenvalues not converged
     c_bands:  1 eigenvalues not converged
     c_bands:  1 eigenvalues not converged
     c_bands:  1 eigenvalues not converged
     c_bands:  2 eigenvalues not converged
     c_bands:  1 eigenvalues not converged
     c_bands:  1 eigenvalues not converged
     c_bands:  2 eigenvalues not converged
     c_bands:  1 eigenvalues not converged
     c_bands:  1 eigenvalues not converged
     c_bands:  1 eigenvalues not converged
     c_bands:  2 eigenvalues not converged
     c_bands:  2 eigenvalues not converged
     c_bands:  1 eigenvalues not converged
     c_bands:  1 eigenvalues not converged
     c_bands:  1 eigenvalues not converged
     c_bands:  1 eigenvalues not converged
     c_bands:  2 eigenvalues not converged
     c_bands:  1 eigenvalues not converged
     c_bands:  1 eigenvalues not converged
     c_bands:  1 eigenvalues not converged
     c_bands:  1 eigenvalues not converged
     ethr =  1.00E-06,  avg # of iterations =  7.0

     negative rho (up, down):  1.525E-02 0.000E+00

     total cpu time spent up to now is       67.8 secs

     total energy              =    -380.57147167 Ry
     estimated scf accuracy    <       0.00022862 Ry

     iteration #  2     ecut=    50.00 Ry     beta= 0.70
     CG style diagonalization
     ethr =  5.20E-07,  avg # of iterations =  4.7

     negative rho (up, down):  1.525E-02 0.000E+00

     total cpu time spent up to now is       71.5 secs

     total energy              =    -380.57144666 Ry
     estimated scf accuracy    <       0.00066231 Ry

     iteration #  3     ecut=    50.00 Ry     beta= 0.70
     CG style diagonalization
     ethr =  5.20E-07,  avg # of iterations =  4.3

     negative rho (up, down):  1.525E-02 0.000E+00

     total cpu time spent up to now is       74.8 secs

     total energy              =    -380.57157710 Ry
     estimated scf accuracy    <       0.00004989 Ry

     iteration #  4     ecut=    50.00 Ry     beta= 0.70
     CG style diagonalization
     ethr =  1.13E-07,  avg # of iterations =  3.8

     negative rho (up, down):  1.525E-02 0.000E+00

     total cpu time spent up to now is       77.7 secs

     total energy              =    -380.57159041 Ry
     estimated scf accuracy    <       0.00000554 Ry

     iteration #  5     ecut=    50.00 Ry     beta= 0.70
     CG style diagonalization
     ethr =  1.26E-08,  avg # of iterations =  4.3

     negative rho (up, down):  1.525E-02 0.000E+00

     total cpu time spent up to now is       81.0 secs

     total energy              =    -380.57159356 Ry
     estimated scf accuracy    <       0.00000064 Ry

     iteration #  6     ecut=    50.00 Ry     beta= 0.70
     CG style diagonalization
     ethr =  1.44E-09,  avg # of iterations =  4.5

     negative rho (up, down):  1.525E-02 0.000E+00

     total cpu time spent up to now is       84.5 secs

     total energy              =    -380.57159391 Ry
     estimated scf accuracy    <       0.00000030 Ry

     iteration #  7     ecut=    50.00 Ry     beta= 0.70
     CG style diagonalization
     ethr =  6.82E-10,  avg # of iterations =  4.0

     negative rho (up, down):  1.525E-02 0.000E+00

     total cpu time spent up to now is       87.5 secs

     total energy              =    -380.57159398 Ry
     estimated scf accuracy    <       0.00000007 Ry

     iteration #  8     ecut=    50.00 Ry     beta= 0.70
     CG style diagonalization
     ethr =  1.54E-10,  avg # of iterations =  4.5

     negative rho (up, down):  1.525E-02 0.000E+00

     total cpu time spent up to now is       91.0 secs

     End of self-consistent calculation

     Number of k-points >= 100: set verbosity='high' to print the bands.

     highest occupied level (ev):    10.3432

!    total energy              =    -380.57159402 Ry
     estimated scf accuracy    <          3.3E-09 Ry

     The total energy is the sum of the following terms:
     one-electron contribution =     -84.29886210 Ry
     hartree contribution      =      71.28537465 Ry
     xc contribution           =    -102.55160146 Ry
     ewald contribution        =    -265.00650510 Ry

     convergence has been achieved in   8 iterations

     negative rho (up, down):  1.525E-02 0.000E+00

     Forces acting on atoms (cartesian axes, Ry/au):

     atom    1 type  1   force =     0.00000000    0.00000000   -0.00853069
     atom    2 type  2   force =     0.00000000    0.00000000   -0.00494167
     atom    3 type  3   force =     0.00000000    0.00000000    0.01123841
     atom    4 type  3   force =     0.00000000    0.00000000    0.00111697
     atom    5 type  3   force =     0.00000000    0.00000000    0.00111697

     Total force =     0.015033     Total SCF correction =     0.000099


     Computing stress (Cartesian axis) and pressure


     negative rho (up, down):  1.525E-02 0.000E+00
          total   stress  (Ry/bohr**3)                   (kbar)     P=      -60.41
  -0.00042181   0.00000000   0.00000000          -62.05        0.00        0.00
   0.00000000  -0.00042181   0.00000000            0.00      -62.05        0.00
   0.00000000   0.00000000  -0.00038834            0.00        0.00      -57.13

     Energy error            =      4.8E-04 Ry
     Gradient error          =      1.1E-02 Ry/Bohr

     number of scf cycles    =   2
     number of bfgs steps    =   1

     energy             old  =    -380.5711124673 Ry
     energy             new  =    -380.5715940152 Ry

     CASE: energy            _new < energy            _old

     new trust radius        =       0.0220530240 bohr
     new conv_thr            =       0.0000000005 Ry


ATOMIC_POSITIONS (crystal)
Pb               0.0000000000        0.0000000000        1.0033806490
Ti               0.5000000000        0.5000000000        0.5375650798
O                0.5000000000        0.5000000000        0.1040142059
O                0.5000000000        0.0000000000        0.6111621766
O                0.0000000000        0.5000000000        0.6111621766



     Writing config-only to output data dir ./pto_k10.save/ :
     XML data file
     NEW-OLD atomic charge density approx. for the potential

     Check: negative core charge=   -0.000004

     negative rho (up, down):  1.514E-02 0.000E+00

     total cpu time spent up to now is       94.7 secs

     Self-consistent Calculation

     iteration #  1     ecut=    50.00 Ry     beta= 0.70
     CG style diagonalization
     c_bands:  1 eigenvalues not converged
     c_bands:  2 eigenvalues not converged
     c_bands:  1 eigenvalues not converged
     c_bands:  1 eigenvalues not converged
     c_bands:  1 eigenvalues not converged
     c_bands:  1 eigenvalues not converged
     c_bands:  1 eigenvalues not converged
     c_bands:  2 eigenvalues not converged
     c_bands:  1 eigenvalues not converged
     c_bands:  1 eigenvalues not converged
     c_bands:  1 eigenvalues not converged
     c_bands:  1 eigenvalues not converged
     c_bands:  1 eigenvalues not converged
     ethr =  1.00E-06,  avg # of iterations =  7.2

     negative rho (up, down):  1.511E-02 0.000E+00

     total cpu time spent up to now is      100.9 secs

     total energy              =    -380.57176794 Ry
     estimated scf accuracy    <       0.00023180 Ry

     iteration #  2     ecut=    50.00 Ry     beta= 0.70
     CG style diagonalization
     ethr =  5.27E-07,  avg # of iterations =  4.7

     negative rho (up, down):  1.512E-02 0.000E+00

     total cpu time spent up to now is      104.5 secs

     total energy              =    -380.57174065 Ry
     estimated scf accuracy    <       0.00065605 Ry

     iteration #  3     ecut=    50.00 Ry     beta= 0.70
     CG style diagonalization
     ethr =  5.27E-07,  avg # of iterations =  4.2

     negative rho (up, down):  1.511E-02 0.000E+00

     total cpu time spent up to now is      107.8 secs

     total energy              =    -380.57187095 Ry
     estimated scf accuracy    <       0.00005317 Ry

     iteration #  4     ecut=    50.00 Ry     beta= 0.70
     CG style diagonalization
     ethr =  1.21E-07,  avg # of iterations =  3.7

     negative rho (up, down):  1.511E-02 0.000E+00

     total cpu time spent up to now is      110.6 secs

     total energy              =    -380.57188442 Ry
     estimated scf accuracy    <       0.00000621 Ry

     iteration #  5     ecut=    50.00 Ry     beta= 0.70
     CG style diagonalization
     ethr =  1.41E-08,  avg # of iterations =  4.3

     negative rho (up, down):  1.511E-02 0.000E+00

     total cpu time spent up to now is      113.9 secs

     total energy              =    -380.57188785 Ry
     estimated scf accuracy    <       0.00000063 Ry

     iteration #  6     ecut=    50.00 Ry     beta= 0.70
     CG style diagonalization
     ethr =  1.44E-09,  avg # of iterations =  4.7

     negative rho (up, down):  1.511E-02 0.000E+00

     total cpu time spent up to now is      117.5 secs

     total energy              =    -380.57188826 Ry
     estimated scf accuracy    <       0.00000028 Ry

     iteration #  7     ecut=    50.00 Ry     beta= 0.70
     CG style diagonalization
     ethr =  6.42E-10,  avg # of iterations =  4.1

     negative rho (up, down):  1.511E-02 0.000E+00

     total cpu time spent up to now is      120.6 secs

     total energy              =    -380.57188834 Ry
     estimated scf accuracy    <       0.00000006 Ry

     iteration #  8     ecut=    50.00 Ry     beta= 0.70
     CG style diagonalization
     ethr =  1.35E-10,  avg # of iterations =  4.8

     negative rho (up, down):  1.511E-02 0.000E+00

     total cpu time spent up to now is      124.4 secs

     total energy              =    -380.57188838 Ry
     estimated scf accuracy    <          3.8E-09 Ry

     iteration #  9     ecut=    50.00 Ry     beta= 0.70
     CG style diagonalization
     c_bands:  1 eigenvalues not converged
     ethr =  8.62E-12,  avg # of iterations =  7.1

     negative rho (up, down):  1.511E-02 0.000E+00

     total cpu time spent up to now is      130.0 secs

     total energy              =    -380.57188839 Ry
     estimated scf accuracy    <          4.8E-10 Ry

     iteration # 10     ecut=    50.00 Ry     beta= 0.70
     CG style diagonalization
     ethr =  1.10E-12,  avg # of iterations =  6.4

     negative rho (up, down):  1.511E-02 0.000E+00

     total cpu time spent up to now is      135.1 secs

     End of self-consistent calculation

     Number of k-points >= 100: set verbosity='high' to print the bands.

     highest occupied level (ev):    10.3344

!    total energy              =    -380.57188839 Ry
     estimated scf accuracy    <          1.0E-10 Ry

     The total energy is the sum of the following terms:
     one-electron contribution =     -84.63327239 Ry
     hartree contribution      =      71.46154966 Ry
     xc contribution           =    -102.56362523 Ry
     ewald contribution        =    -264.83654043 Ry

     convergence has been achieved in  10 iterations

     negative rho (up, down):  1.511E-02 0.000E+00

     Forces acting on atoms (cartesian axes, Ry/au):

     atom    1 type  1   force =     0.00000000    0.00000000   -0.00848764
     atom    2 type  2   force =     0.00000000    0.00000000    0.00265728
     atom    3 type  3   force =     0.00000000    0.00000000    0.00134427
     atom    4 type  3   force =     0.00000000    0.00000000    0.00224304
     atom    5 type  3   force =     0.00000000    0.00000000    0.00224304

     Total force =     0.009538     Total SCF correction =     0.000016


     Computing stress (Cartesian axis) and pressure


     negative rho (up, down):  1.511E-02 0.000E+00
          total   stress  (Ry/bohr**3)                   (kbar)     P=      -54.10
  -0.00040581   0.00000000   0.00000000          -59.70        0.00        0.00
   0.00000000  -0.00040581   0.00000000            0.00      -59.70        0.00
   0.00000000   0.00000000  -0.00029171            0.00        0.00      -42.91

     Energy error            =      2.9E-04 Ry
     Gradient error          =      8.5E-03 Ry/Bohr

     number of scf cycles    =   3
     number of bfgs steps    =   2

     energy             old  =    -380.5715940152 Ry
     energy             new  =    -380.5718883942 Ry

     CASE: energy            _new < energy            _old

     new trust radius        =       0.0193837723 bohr
     new conv_thr            =       0.0000000003 Ry


ATOMIC_POSITIONS (crystal)
Pb               0.0000000000        0.0000000000        1.0008788318
Ti               0.5000000000        0.5000000000        0.5372906010
O                0.5000000000        0.5000000000        0.1057848806
O                0.5000000000        0.0000000000        0.6116649873
O                0.0000000000        0.5000000000        0.6116649873



     Writing config-only to output data dir ./pto_k10.save/ :
     XML data file
     NEW-OLD atomic charge density approx. for the potential

     Check: negative core charge=   -0.000004

     negative rho (up, down):  1.492E-02 0.000E+00

     total cpu time spent up to now is      138.8 secs

     Self-consistent Calculation

     iteration #  1     ecut=    50.00 Ry     beta= 0.70
     CG style diagonalization
     c_bands:  1 eigenvalues not converged
     ethr =  1.00E-06,  avg # of iterations =  5.8

     negative rho (up, down):  1.490E-02 0.000E+00

     total cpu time spent up to now is      143.8 secs

     total energy              =    -380.57199306 Ry
     estimated scf accuracy    <       0.00005985 Ry

     iteration #  2     ecut=    50.00 Ry     beta= 0.70
     CG style diagonalization
     ethr =  1.36E-07,  avg # of iterations =  4.8

     negative rho (up, down):  1.490E-02 0.000E+00

     total cpu time spent up to now is      147.6 secs

     total energy              =    -380.57199670 Ry
     estimated scf accuracy    <       0.00015354 Ry

     iteration #  3     ecut=    50.00 Ry     beta= 0.70
     CG style diagonalization
     ethr =  1.36E-07,  avg # of iterations =  4.2

     negative rho (up, down):  1.489E-02 0.000E+00

     total cpu time spent up to now is      150.9 secs

     total energy              =    -380.57202824 Ry
     estimated scf accuracy    <       0.00001587 Ry

     iteration #  4     ecut=    50.00 Ry     beta= 0.70
     CG style diagonalization
     ethr =  3.61E-08,  avg # of iterations =  3.7

     negative rho (up, down):  1.489E-02 0.000E+00

     total cpu time spent up to now is      153.7 secs

     total energy              =    -380.57203194 Ry
     estimated scf accuracy    <       0.00000233 Ry

     iteration #  5     ecut=    50.00 Ry     beta= 0.70
     CG style diagonalization
     ethr =  5.30E-09,  avg # of iterations =  4.1

     negative rho (up, down):  1.489E-02 0.000E+00

     total cpu time spent up to now is      156.8 secs

     total energy              =    -380.57203302 Ry
     estimated scf accuracy    <       0.00000010 Ry

     iteration #  6     ecut=    50.00 Ry     beta= 0.70
     CG style diagonalization
     ethr =  2.25E-10,  avg # of iterations =  6.0

     negative rho (up, down):  1.489E-02 0.000E+00

     total cpu time spent up to now is      161.5 secs

     total energy              =    -380.57203320 Ry
     estimated scf accuracy    <       0.00000016 Ry

     iteration #  7     ecut=    50.00 Ry     beta= 0.70
     CG style diagonalization
     ethr =  2.25E-10,  avg # of iterations =  3.9

     negative rho (up, down):  1.489E-02 0.000E+00

     total cpu time spent up to now is      164.5 secs

     total energy              =    -380.57203321 Ry
     estimated scf accuracy    <       0.00000003 Ry

     iteration #  8     ecut=    50.00 Ry     beta= 0.70
     CG style diagonalization
     ethr =  6.67E-11,  avg # of iterations =  4.3

     negative rho (up, down):  1.489E-02 0.000E+00

     total cpu time spent up to now is      167.8 secs

     total energy              =    -380.57203323 Ry
     estimated scf accuracy    <          2.7E-09 Ry

     iteration #  9     ecut=    50.00 Ry     beta= 0.70
     CG style diagonalization
     ethr =  6.14E-12,  avg # of iterations =  6.3

     negative rho (up, down):  1.489E-02 0.000E+00

     total cpu time spent up to now is      172.7 secs

     End of self-consistent calculation

     Number of k-points >= 100: set verbosity='high' to print the bands.

     highest occupied level (ev):    10.3362

!    total energy              =    -380.57203323 Ry
     estimated scf accuracy    <          2.9E-10 Ry

     The total energy is the sum of the following terms:
     one-electron contribution =     -84.95611325 Ry
     hartree contribution      =      71.62652727 Ry
     xc contribution           =    -102.57220861 Ry
     ewald contribution        =    -264.67023863 Ry

     convergence has been achieved in   9 iterations

     negative rho (up, down):  1.489E-02 0.000E+00

     Forces acting on atoms (cartesian axes, Ry/au):

     atom    1 type  1   force =     0.00000000    0.00000000   -0.00704551
     atom    2 type  2   force =     0.00000000    0.00000000    0.00538868
     atom    3 type  3   force =     0.00000000    0.00000000   -0.00365636
     atom    4 type  3   force =     0.00000000    0.00000000    0.00265659
     atom    5 type  3   force =     0.00000000    0.00000000    0.00265659

     Total force =     0.010303     Total SCF correction =     0.000030


     Computing stress (Cartesian axis) and pressure


     negative rho (up, down):  1.489E-02 0.000E+00
          total   stress  (Ry/bohr**3)                   (kbar)     P=      -49.66
  -0.00038928   0.00000000   0.00000000          -57.27        0.00        0.00
   0.00000000  -0.00038928   0.00000000            0.00      -57.27        0.00
   0.00000000   0.00000000  -0.00023422            0.00        0.00      -34.45

     Energy error            =      1.4E-04 Ry
     Gradient error          =      7.0E-03 Ry/Bohr

     number of scf cycles    =   4
     number of bfgs steps    =   3

     energy             old  =    -380.5718883942 Ry
     energy             new  =    -380.5720332325 Ry

     CASE: energy            _new < energy            _old

     new trust radius        =       0.0328421736 bohr
     new conv_thr            =       0.0000000001 Ry


ATOMIC_POSITIONS (crystal)
Pb               0.0000000000        0.0000000000        0.9966399708
Ti               0.5000000000        0.5000000000        0.5377304502
O                0.5000000000        0.5000000000        0.1074479806
O                0.5000000000        0.0000000000        0.6127329432
O                0.0000000000        0.5000000000        0.6127329432



     Writing config-only to output data dir ./pto_k10.save/ :
     XML data file
     NEW-OLD atomic charge density approx. for the potential

     Check: negative core charge=   -0.000004

     negative rho (up, down):  1.528E-02 0.000E+00

     total cpu time spent up to now is      176.5 secs

     Self-consistent Calculation

     iteration #  1     ecut=    50.00 Ry     beta= 0.70
     CG style diagonalization
     c_bands:  1 eigenvalues not converged
     c_bands:  1 eigenvalues not converged
     c_bands:  1 eigenvalues not converged
     c_bands:  1 eigenvalues not converged
     c_bands:  1 eigenvalues not converged
     c_bands:  1 eigenvalues not converged
     c_bands:  1 eigenvalues not converged
     ethr =  1.00E-06,  avg # of iterations =  6.7

     negative rho (up, down):  1.523E-02 0.000E+00

     total cpu time spent up to now is      182.2 secs

     total energy              =    -380.57217596 Ry
     estimated scf accuracy    <       0.00004863 Ry

     iteration #  2     ecut=    50.00 Ry     beta= 0.70
     CG style diagonalization
     ethr =  1.11E-07,  avg # of iterations =  4.6

     negative rho (up, down):  1.522E-02 0.000E+00

     total cpu time spent up to now is      185.8 secs

     total energy              =    -380.57218767 Ry
     estimated scf accuracy    <       0.00003384 Ry

     iteration #  3     ecut=    50.00 Ry     beta= 0.70
     CG style diagonalization
     ethr =  7.69E-08,  avg # of iterations =  4.3

     negative rho (up, down):  1.521E-02 0.000E+00

     total cpu time spent up to now is      189.1 secs

     total energy              =    -380.57219672 Ry
     estimated scf accuracy    <       0.00002866 Ry

     iteration #  4     ecut=    50.00 Ry     beta= 0.70
     CG style diagonalization
     ethr =  6.51E-08,  avg # of iterations =  3.6

     negative rho (up, down):  1.521E-02 0.000E+00

     total cpu time spent up to now is      191.8 secs

     total energy              =    -380.57220139 Ry
     estimated scf accuracy    <       0.00000034 Ry

     iteration #  5     ecut=    50.00 Ry     beta= 0.70
     CG style diagonalization
     ethr =  7.73E-10,  avg # of iterations =  6.1

     negative rho (up, down):  1.521E-02 0.000E+00

     total cpu time spent up to now is      196.6 secs

     total energy              =    -380.57220230 Ry
     estimated scf accuracy    <       0.00000041 Ry

     iteration #  6     ecut=    50.00 Ry     beta= 0.70
     CG style diagonalization
     ethr =  7.73E-10,  avg # of iterations =  3.6

     negative rho (up, down):  1.521E-02 0.000E+00

     total cpu time spent up to now is      199.4 secs

     total energy              =    -380.57220233 Ry
     estimated scf accuracy    <       0.00000007 Ry

     iteration #  7     ecut=    50.00 Ry     beta= 0.70
     CG style diagonalization
     ethr =  1.62E-10,  avg # of iterations =  4.5

     negative rho (up, down):  1.521E-02 0.000E+00

     total cpu time spent up to now is      202.9 secs

     total energy              =    -380.57220236 Ry
     estimated scf accuracy    <          8.9E-09 Ry

     iteration #  8     ecut=    50.00 Ry     beta= 0.70
     CG style diagonalization
     ethr =  2.01E-11,  avg # of iterations =  6.2

     negative rho (up, down):  1.521E-02 0.000E+00

     total cpu time spent up to now is      207.7 secs

     total energy              =    -380.57220238 Ry
     estimated scf accuracy    <          3.9E-09 Ry

     iteration #  9     ecut=    50.00 Ry     beta= 0.70
     CG style diagonalization
     ethr =  8.96E-12,  avg # of iterations =  4.4

     negative rho (up, down):  1.521E-02 0.000E+00

     total cpu time spent up to now is      211.2 secs

     total energy              =    -380.57220238 Ry
     estimated scf accuracy    <          3.9E-10 Ry

     iteration # 10     ecut=    50.00 Ry     beta= 0.70
     CG style diagonalization
     c_bands:  1 eigenvalues not converged
     ethr =  8.96E-13,  avg # of iterations =  6.5

     negative rho (up, down):  1.521E-02 0.000E+00

     total cpu time spent up to now is      216.3 secs

     total energy              =    -380.57220238 Ry
     estimated scf accuracy    <          1.6E-10 Ry

     iteration # 11     ecut=    50.00 Ry     beta= 0.70
     CG style diagonalization
     ethr =  3.75E-13,  avg # of iterations =  4.6

     negative rho (up, down):  1.521E-02 0.000E+00

     total cpu time spent up to now is      219.8 secs

     End of self-consistent calculation

     Number of k-points >= 100: set verbosity='high' to print the bands.

     highest occupied level (ev):    10.3495

!    total energy              =    -380.57220238 Ry
     estimated scf accuracy    <          3.2E-12 Ry

     The total energy is the sum of the following terms:
     one-electron contribution =     -85.43778572 Ry
     hartree contribution      =      71.86751241 Ry
     xc contribution           =    -102.58197242 Ry
     ewald contribution        =    -264.41995665 Ry

     convergence has been achieved in  11 iterations

     negative rho (up, down):  1.521E-02 0.000E+00

     Forces acting on atoms (cartesian axes, Ry/au):

     atom    1 type  1   force =     0.00000000    0.00000000   -0.00342172
     atom    2 type  2   force =     0.00000000    0.00000000    0.00450728
     atom    3 type  3   force =     0.00000000    0.00000000   -0.00598073
     atom    4 type  3   force =     0.00000000    0.00000000    0.00244759
     atom    5 type  3   force =     0.00000000    0.00000000    0.00244759

     Total force =     0.008932     Total SCF correction =     0.000008


     Computing stress (Cartesian axis) and pressure


     negative rho (up, down):  1.521E-02 0.000E+00
          total   stress  (Ry/bohr**3)                   (kbar)     P=      -44.78
  -0.00036337   0.00000000   0.00000000          -53.45        0.00        0.00
   0.00000000  -0.00036337   0.00000000            0.00      -53.45        0.00
   0.00000000   0.00000000  -0.00018655            0.00        0.00      -27.44

     Energy error            =      1.7E-04 Ry
     Gradient error          =      6.0E-03 Ry/Bohr

     number of scf cycles    =   5
     number of bfgs steps    =   4

     energy             old  =    -380.5720332325 Ry
     energy             new  =    -380.5722023820 Ry

     CASE: energy            _new < energy            _old

     new trust radius        =       0.0219250072 bohr
     new conv_thr            =       0.0000000002 Ry


ATOMIC_POSITIONS (crystal)
Pb               0.0000000000        0.0000000000        0.9938101625
Ti               0.5000000000        0.5000000000        0.5384465239
O                0.5000000000        0.5000000000        0.1076561897
O                0.5000000000        0.0000000000        0.6136857060
O                0.0000000000        0.5000000000        0.6136857060



     Writing config-only to output data dir ./pto_k10.save/ :
     XML data file
     NEW-OLD atomic charge density approx. for the potential

     Check: negative core charge=   -0.000004

     negative rho (up, down):  1.557E-02 0.000E+00

     total cpu time spent up to now is      223.5 secs

     Self-consistent Calculation

     iteration #  1     ecut=    50.00 Ry     beta= 0.70
     CG style diagonalization
     c_bands:  1 eigenvalues not converged
     c_bands:  1 eigenvalues not converged
     c_bands:  1 eigenvalues not converged
     c_bands:  1 eigenvalues not converged
     c_bands:  1 eigenvalues not converged
     ethr =  1.00E-06,  avg # of iterations =  6.2

     Threshold (ethr) on eigenvalues was too large:
     Diagonalizing with lowered threshold

     CG style diagonalization
     c_bands:  1 eigenvalues not converged
     c_bands:  1 eigenvalues not converged
     c_bands:  1 eigenvalues not converged
     c_bands:  1 eigenvalues not converged
     c_bands:  1 eigenvalues not converged
     c_bands:  1 eigenvalues not converged
     c_bands:  1 eigenvalues not converged
     c_bands:  1 eigenvalues not converged
     c_bands:  1 eigenvalues not converged
     c_bands:  1 eigenvalues not converged
     c_bands:  1 eigenvalues not converged
     c_bands:  2 eigenvalues not converged
     c_bands:  1 eigenvalues not converged
     c_bands:  1 eigenvalues not converged
     c_bands:  1 eigenvalues not converged
     c_bands:  1 eigenvalues not converged
     c_bands:  1 eigenvalues not converged
     c_bands:  1 eigenvalues not converged
     c_bands:  1 eigenvalues not converged
     c_bands:  1 eigenvalues not converged
     c_bands:  1 eigenvalues not converged
     c_bands:  1 eigenvalues not converged
     c_bands:  2 eigenvalues not converged
     c_bands:  1 eigenvalues not converged
     c_bands:  1 eigenvalues not converged
     c_bands:  1 eigenvalues not converged
     c_bands:  1 eigenvalues not converged
     ethr =  8.06E-08,  avg # of iterations =  5.6

     negative rho (up, down):  1.554E-02 0.000E+00

     total cpu time spent up to now is      233.7 secs

     total energy              =    -380.57226399 Ry
     estimated scf accuracy    <       0.00003432 Ry

     iteration #  2     ecut=    50.00 Ry     beta= 0.70
     CG style diagonalization
     ethr =  7.80E-08,  avg # of iterations =  4.5

     negative rho (up, down):  1.553E-02 0.000E+00

     total cpu time spent up to now is      237.2 secs

     total energy              =    -380.57226488 Ry
     estimated scf accuracy    <       0.00004259 Ry

     iteration #  3     ecut=    50.00 Ry     beta= 0.70
     CG style diagonalization
     ethr =  7.80E-08,  avg # of iterations =  4.0

     negative rho (up, down):  1.552E-02 0.000E+00

     total cpu time spent up to now is      240.3 secs

     total energy              =    -380.57227482 Ry
     estimated scf accuracy    <       0.00001307 Ry

     iteration #  4     ecut=    50.00 Ry     beta= 0.70
     CG style diagonalization
     ethr =  2.97E-08,  avg # of iterations =  3.6

     negative rho (up, down):  1.552E-02 0.000E+00

     total cpu time spent up to now is      243.0 secs

     total energy              =    -380.57227725 Ry
     estimated scf accuracy    <       0.00000124 Ry

     iteration #  5     ecut=    50.00 Ry     beta= 0.70
     CG style diagonalization
     ethr =  2.83E-09,  avg # of iterations =  4.1

     negative rho (up, down):  1.552E-02 0.000E+00

     total cpu time spent up to now is      246.1 secs

     total energy              =    -380.57227785 Ry
     estimated scf accuracy    <       0.00000029 Ry

     iteration #  6     ecut=    50.00 Ry     beta= 0.70
     CG style diagonalization
     ethr =  6.62E-10,  avg # of iterations =  4.2

     negative rho (up, down):  1.552E-02 0.000E+00

     total cpu time spent up to now is      249.3 secs

     total energy              =    -380.57227795 Ry
     estimated scf accuracy    <       0.00000005 Ry

     iteration #  7     ecut=    50.00 Ry     beta= 0.70
     CG style diagonalization
     ethr =  1.05E-10,  avg # of iterations =  5.1

     negative rho (up, down):  1.552E-02 0.000E+00

     total cpu time spent up to now is      253.2 secs

     total energy              =    -380.57227799 Ry
     estimated scf accuracy    <          4.2E-09 Ry

     iteration #  8     ecut=    50.00 Ry     beta= 0.70
     CG style diagonalization
     ethr =  9.49E-12,  avg # of iterations =  6.1

     negative rho (up, down):  1.552E-02 0.000E+00

     total cpu time spent up to now is      258.1 secs

     total energy              =    -380.57227800 Ry
     estimated scf accuracy    <          3.8E-10 Ry

     iteration #  9     ecut=    50.00 Ry     beta= 0.70
     CG style diagonalization
     ethr =  8.66E-13,  avg # of iterations =  7.2

     negative rho (up, down):  1.552E-02 0.000E+00

     total cpu time spent up to now is      263.8 secs

     End of self-consistent calculation

     Number of k-points >= 100: set verbosity='high' to print the bands.

     highest occupied level (ev):    10.3647

!    total energy              =    -380.57227800 Ry
     estimated scf accuracy    <          6.1E-11 Ry

     The total energy is the sum of the following terms:
     one-electron contribution =     -85.71988957 Ry
     hartree contribution      =      72.00513343 Ry
     xc contribution           =    -102.58551951 Ry
     ewald contribution        =    -264.27200235 Ry

     convergence has been achieved in   9 iterations

     negative rho (up, down):  1.552E-02 0.000E+00

     Forces acting on atoms (cartesian axes, Ry/au):

     atom    1 type  1   force =     0.00000000    0.00000000   -0.00024519
     atom    2 type  2   force =     0.00000000    0.00000000    0.00056954
     atom    3 type  3   force =     0.00000000    0.00000000   -0.00342524
     atom    4 type  3   force =     0.00000000    0.00000000    0.00155045
     atom    5 type  3   force =     0.00000000    0.00000000    0.00155045

     Total force =     0.004114     Total SCF correction =     0.000024


     Computing stress (Cartesian axis) and pressure


     negative rho (up, down):  1.552E-02 0.000E+00
          total   stress  (Ry/bohr**3)                   (kbar)     P=      -43.22
  -0.00034767   0.00000000   0.00000000          -51.14        0.00        0.00
   0.00000000  -0.00034767   0.00000000            0.00      -51.14        0.00
   0.00000000   0.00000000  -0.00018606            0.00        0.00      -27.37

     Energy error            =      7.6E-05 Ry
     Gradient error          =      3.4E-03 Ry/Bohr

     number of scf cycles    =   6
     number of bfgs steps    =   5

     energy             old  =    -380.5722023820 Ry
     energy             new  =    -380.5722780041 Ry

     CASE: energy            _new < energy            _old

     new trust radius        =       0.0039553113 bohr
     new conv_thr            =            1.0E-10 Ry


ATOMIC_POSITIONS (crystal)
Pb               0.0000000000        0.0000000000        0.9935257476
Ti               0.5000000000        0.5000000000        0.5385852244
O                0.5000000000        0.5000000000        0.1071456871
O                0.5000000000        0.0000000000        0.6140138145
O                0.0000000000        0.5000000000        0.6140138145



     Writing config-only to output data dir ./pto_k10.save/ :
     XML data file
     NEW-OLD atomic charge density approx. for the potential

     Check: negative core charge=   -0.000004

     negative rho (up, down):  1.555E-02 0.000E+00

     total cpu time spent up to now is      267.5 secs

     Self-consistent Calculation

     iteration #  1     ecut=    50.00 Ry     beta= 0.70
     CG style diagonalization
     ethr =  1.00E-06,  avg # of iterations =  3.2

     Threshold (ethr) on eigenvalues was too large:
     Diagonalizing with lowered threshold

     CG style diagonalization
     c_bands:  2 eigenvalues not converged
     c_bands:  1 eigenvalues not converged
     c_bands:  1 eigenvalues not converged
     c_bands:  1 eigenvalues not converged
     c_bands:  1 eigenvalues not converged
     c_bands:  2 eigenvalues not converged
     c_bands:  1 eigenvalues not converged
     c_bands:  1 eigenvalues not converged
     c_bands:  1 eigenvalues not converged
     c_bands:  1 eigenvalues not converged
     c_bands:  2 eigenvalues not converged
     c_bands:  2 eigenvalues not converged
     c_bands:  1 eigenvalues not converged
     c_bands:  1 eigenvalues not converged
     c_bands:  1 eigenvalues not converged
     c_bands:  1 eigenvalues not converged
     c_bands:  2 eigenvalues not converged
     c_bands:  2 eigenvalues not converged
     c_bands:  1 eigenvalues not converged
     c_bands:  1 eigenvalues not converged
     c_bands:  1 eigenvalues not converged
     c_bands:  1 eigenvalues not converged
     c_bands:  1 eigenvalues not converged
     c_bands:  1 eigenvalues not converged
     c_bands:  2 eigenvalues not converged
     c_bands:  1 eigenvalues not converged
     c_bands:  1 eigenvalues not converged
     c_bands:  1 eigenvalues not converged
     c_bands:  1 eigenvalues not converged
     c_bands:  2 eigenvalues not converged
     c_bands:  1 eigenvalues not converged
     c_bands:  1 eigenvalues not converged
     c_bands:  1 eigenvalues not converged
     c_bands:  2 eigenvalues not converged
     c_bands:  1 eigenvalues not converged
     c_bands:  1 eigenvalues not converged
     c_bands:  1 eigenvalues not converged
     c_bands:  1 eigenvalues not converged
     c_bands:  1 eigenvalues not converged
     c_bands:  1 eigenvalues not converged
     c_bands:  1 eigenvalues not converged
     c_bands:  1 eigenvalues not converged
     c_bands:  1 eigenvalues not converged
     ethr =  2.43E-08,  avg # of iterations =  6.3

     negative rho (up, down):  1.555E-02 0.000E+00

     total cpu time spent up to now is      275.8 secs

     total energy              =    -380.57228597 Ry
     estimated scf accuracy    <       0.00001152 Ry

     iteration #  2     ecut=    50.00 Ry     beta= 0.70
     CG style diagonalization
     ethr =  2.62E-08,  avg # of iterations =  4.8

     negative rho (up, down):  1.555E-02 0.000E+00

     total cpu time spent up to now is      279.5 secs

     total energy              =    -380.57228425 Ry
     estimated scf accuracy    <       0.00003928 Ry

     iteration #  3     ecut=    50.00 Ry     beta= 0.70
     CG style diagonalization
     ethr =  2.62E-08,  avg # of iterations =  4.3

     negative rho (up, down):  1.555E-02 0.000E+00

     total cpu time spent up to now is      282.8 secs

     total energy              =    -380.57229144 Ry
     estimated scf accuracy    <       0.00000224 Ry

     iteration #  4     ecut=    50.00 Ry     beta= 0.70
     CG style diagonalization
     ethr =  5.09E-09,  avg # of iterations =  3.7

     negative rho (up, down):  1.555E-02 0.000E+00

     total cpu time spent up to now is      285.6 secs

     total energy              =    -380.57229202 Ry
     estimated scf accuracy    <       0.00000022 Ry

     iteration #  5     ecut=    50.00 Ry     beta= 0.70
     CG style diagonalization
     ethr =  5.01E-10,  avg # of iterations =  4.2

     negative rho (up, down):  1.555E-02 0.000E+00

     total cpu time spent up to now is      288.8 secs

     total energy              =    -380.57229213 Ry
     estimated scf accuracy    <       0.00000004 Ry

     iteration #  6     ecut=    50.00 Ry     beta= 0.70
     CG style diagonalization
     ethr =  8.19E-11,  avg # of iterations =  4.3

     negative rho (up, down):  1.555E-02 0.000E+00

     total cpu time spent up to now is      292.1 secs

     total energy              =    -380.57229215 Ry
     estimated scf accuracy    <          8.9E-09 Ry

     iteration #  7     ecut=    50.00 Ry     beta= 0.70
     CG style diagonalization
     ethr =  2.03E-11,  avg # of iterations =  4.2

     negative rho (up, down):  1.555E-02 0.000E+00

     total cpu time spent up to now is      295.3 secs

     total energy              =    -380.57229215 Ry
     estimated scf accuracy    <          1.3E-09 Ry

     iteration #  8     ecut=    50.00 Ry     beta= 0.70
     CG style diagonalization
     ethr =  2.88E-12,  avg # of iterations =  5.2

     negative rho (up, down):  1.555E-02 0.000E+00

     total cpu time spent up to now is      299.3 secs

     total energy              =    -380.57229215 Ry
     estimated scf accuracy    <          1.4E-10 Ry

     iteration #  9     ecut=    50.00 Ry     beta= 0.70
     CG style diagonalization
     ethr =  3.15E-13,  avg # of iterations =  6.2

     negative rho (up, down):  1.555E-02 0.000E+00

     total cpu time spent up to now is      304.2 secs

     End of self-consistent calculation

     Number of k-points >= 100: set verbosity='high' to print the bands.

     highest occupied level (ev):    10.3690

!    total energy              =    -380.57229215 Ry
     estimated scf accuracy    <          1.5E-11 Ry

     The total energy is the sum of the following terms:
     one-electron contribution =     -85.72258245 Ry
     hartree contribution      =      72.00471139 Ry
     xc contribution           =    -102.58439662 Ry
     ewald contribution        =    -264.27002448 Ry

     convergence has been achieved in   9 iterations

     negative rho (up, down):  1.555E-02 0.000E+00

     Forces acting on atoms (cartesian axes, Ry/au):

     atom    1 type  1   force =     0.00000000    0.00000000    0.00030076
     atom    2 type  2   force =     0.00000000    0.00000000   -0.00109007
     atom    3 type  3   force =     0.00000000    0.00000000   -0.00108461
     atom    4 type  3   force =     0.00000000    0.00000000    0.00093696
     atom    5 type  3   force =     0.00000000    0.00000000    0.00093696

     Total force =     0.002052     Total SCF correction =     0.000009


     Computing stress (Cartesian axis) and pressure


     negative rho (up, down):  1.555E-02 0.000E+00
          total   stress  (Ry/bohr**3)                   (kbar)     P=      -43.96
  -0.00034805   0.00000000   0.00000000          -51.20        0.00        0.00
   0.00000000  -0.00034805   0.00000000            0.00      -51.20        0.00
   0.00000000   0.00000000  -0.00020034            0.00        0.00      -29.47

     Energy error            =      1.4E-05 Ry
     Gradient error          =      1.1E-03 Ry/Bohr

     number of scf cycles    =   7
     number of bfgs steps    =   6

     energy             old  =    -380.5722780041 Ry
     energy             new  =    -380.5722921537 Ry

     CASE: energy            _new < energy            _old

     new trust radius        =       0.0030930389 bohr
     new conv_thr            =            1.0E-10 Ry


ATOMIC_POSITIONS (crystal)
Pb               0.0000000000        0.0000000000        0.9936058553
Ti               0.5000000000        0.5000000000        0.5384374199
O                0.5000000000        0.5000000000        0.1067464759
O                0.5000000000        0.0000000000        0.6142472685
O                0.0000000000        0.5000000000        0.6142472685



     Writing config-only to output data dir ./pto_k10.save/ :
     XML data file
     NEW-OLD atomic charge density approx. for the potential

     Check: negative core charge=   -0.000004

     negative rho (up, down):  1.554E-02 0.000E+00

     total cpu time spent up to now is      307.9 secs

     Self-consistent Calculation

     iteration #  1     ecut=    50.00 Ry     beta= 0.70
     CG style diagonalization
     ethr =  1.00E-06,  avg # of iterations =  2.9

     Threshold (ethr) on eigenvalues was too large:
     Diagonalizing with lowered threshold

     CG style diagonalization
     c_bands:  1 eigenvalues not converged
     c_bands:  1 eigenvalues not converged
     c_bands:  1 eigenvalues not converged
     c_bands:  1 eigenvalues not converged
     c_bands:  1 eigenvalues not converged
     c_bands:  1 eigenvalues not converged
     c_bands:  1 eigenvalues not converged
     c_bands:  3 eigenvalues not converged
     c_bands:  2 eigenvalues not converged
     c_bands:  2 eigenvalues not converged
     c_bands:  1 eigenvalues not converged
     c_bands:  3 eigenvalues not converged
     c_bands:  2 eigenvalues not converged
     c_bands:  1 eigenvalues not converged
     c_bands:  1 eigenvalues not converged
     c_bands:  1 eigenvalues not converged
     c_bands:  2 eigenvalues not converged
     c_bands:  1 eigenvalues not converged
     c_bands:  2 eigenvalues not converged
     c_bands:  1 eigenvalues not converged
     c_bands:  1 eigenvalues not converged
     c_bands:  1 eigenvalues not converged
     c_bands:  1 eigenvalues not converged
     c_bands:  1 eigenvalues not converged
     c_bands:  1 eigenvalues not converged
     c_bands:  1 eigenvalues not converged
     c_bands:  1 eigenvalues not converged
     c_bands:  2 eigenvalues not converged
     c_bands:  3 eigenvalues not converged
     c_bands:  1 eigenvalues not converged
     c_bands:  1 eigenvalues not converged
     c_bands:  1 eigenvalues not converged
     c_bands:  1 eigenvalues not converged
     c_bands:  1 eigenvalues not converged
     c_bands:  1 eigenvalues not converged
     c_bands:  1 eigenvalues not converged
     c_bands:  2 eigenvalues not converged
     c_bands:  1 eigenvalues not converged
     c_bands:  1 eigenvalues not converged
     c_bands:  1 eigenvalues not converged
     c_bands:  1 eigenvalues not converged
     c_bands:  1 eigenvalues not converged
     ethr =  3.63E-09,  avg # of iterations =  7.2

     negative rho (up, down):  1.554E-02 0.000E+00

     total cpu time spent up to now is      316.6 secs

     total energy              =    -380.57229690 Ry
     estimated scf accuracy    <       0.00000329 Ry

     iteration #  2     ecut=    50.00 Ry     beta= 0.70
     CG style diagonalization
     ethr =  7.47E-09,  avg # of iterations =  4.7

     negative rho (up, down):  1.554E-02 0.000E+00

     total cpu time spent up to now is      320.3 secs

     total energy              =    -380.57229615 Ry
     estimated scf accuracy    <       0.00001274 Ry

     iteration #  3     ecut=    50.00 Ry     beta= 0.70
     CG style diagonalization
     ethr =  7.47E-09,  avg # of iterations =  4.3

     negative rho (up, down):  1.554E-02 0.000E+00

     total cpu time spent up to now is      323.6 secs

     total energy              =    -380.57229844 Ry
     estimated scf accuracy    <       0.00000049 Ry

     iteration #  4     ecut=    50.00 Ry     beta= 0.70
     CG style diagonalization
     ethr =  1.12E-09,  avg # of iterations =  3.7

     negative rho (up, down):  1.554E-02 0.000E+00

     total cpu time spent up to now is      326.4 secs

     total energy              =    -380.57229857 Ry
     estimated scf accuracy    <       0.00000006 Ry

     iteration #  5     ecut=    50.00 Ry     beta= 0.70
     CG style diagonalization
     ethr =  1.29E-10,  avg # of iterations =  4.2

     negative rho (up, down):  1.554E-02 0.000E+00

     total cpu time spent up to now is      329.6 secs

     total energy              =    -380.57229860 Ry
     estimated scf accuracy    <       0.00000001 Ry

     iteration #  6     ecut=    50.00 Ry     beta= 0.70
     CG style diagonalization
     ethr =  2.50E-11,  avg # of iterations =  4.1

     negative rho (up, down):  1.554E-02 0.000E+00

     total cpu time spent up to now is      332.7 secs

     total energy              =    -380.57229860 Ry
     estimated scf accuracy    <          1.6E-09 Ry

     iteration #  7     ecut=    50.00 Ry     beta= 0.70
     CG style diagonalization
     ethr =  3.59E-12,  avg # of iterations =  4.7

     negative rho (up, down):  1.554E-02 0.000E+00

     total cpu time spent up to now is      336.4 secs

     total energy              =    -380.57229860 Ry
     estimated scf accuracy    <          2.1E-10 Ry

     iteration #  8     ecut=    50.00 Ry     beta= 0.70
     CG style diagonalization
     ethr =  4.88E-13,  avg # of iterations =  5.5

     negative rho (up, down):  1.554E-02 0.000E+00

     total cpu time spent up to now is      340.6 secs

     End of self-consistent calculation

     Number of k-points >= 100: set verbosity='high' to print the bands.

     highest occupied level (ev):    10.3700

!    total energy              =    -380.57229860 Ry
     estimated scf accuracy    <          1.1E-11 Ry

     The total energy is the sum of the following terms:
     one-electron contribution =     -85.69827819 Ry
     hartree contribution      =      71.99221087 Ry
     xc contribution           =    -102.58354316 Ry
     ewald contribution        =    -264.28268813 Ry

     convergence has been achieved in   8 iterations

     negative rho (up, down):  1.554E-02 0.000E+00

     Forces acting on atoms (cartesian axes, Ry/au):

     atom    1 type  1   force =     0.00000000    0.00000000    0.00023730
     atom    2 type  2   force =     0.00000000    0.00000000   -0.00127137
     atom    3 type  3   force =     0.00000000    0.00000000    0.00010741
     atom    4 type  3   force =     0.00000000    0.00000000    0.00046333
     atom    5 type  3   force =     0.00000000    0.00000000    0.00046333

     Total force =     0.001454     Total SCF correction =     0.000012


     Computing stress (Cartesian axis) and pressure


     negative rho (up, down):  1.554E-02 0.000E+00
          total   stress  (Ry/bohr**3)                   (kbar)     P=      -44.49
  -0.00035029   0.00000000   0.00000000          -51.53        0.00        0.00
   0.00000000  -0.00035029   0.00000000            0.00      -51.53        0.00
   0.00000000   0.00000000  -0.00020673            0.00        0.00      -30.41

     Energy error            =      6.4E-06 Ry
     Gradient error          =      1.3E-03 Ry/Bohr

     number of scf cycles    =   8
     number of bfgs steps    =   7

     energy             old  =    -380.5722921537 Ry
     energy             new  =    -380.5722986006 Ry

     CASE: energy            _new < energy            _old

     new trust radius        =       0.0019791483 bohr
     new conv_thr            =            1.0E-10 Ry


ATOMIC_POSITIONS (crystal)
Pb               0.0000000000        0.0000000000        0.9936280272
Ti               0.5000000000        0.5000000000        0.5381819759
O                0.5000000000        0.5000000000        0.1065574854
O                0.5000000000        0.0000000000        0.6144583997
O                0.0000000000        0.5000000000        0.6144583997



     Writing config-only to output data dir ./pto_k10.save/ :
     XML data file
     NEW-OLD atomic charge density approx. for the potential

     Check: negative core charge=   -0.000004

     negative rho (up, down):  1.553E-02 0.000E+00

     total cpu time spent up to now is      344.4 secs

     Self-consistent Calculation

     iteration #  1     ecut=    50.00 Ry     beta= 0.70
     CG style diagonalization
     ethr =  1.00E-06,  avg # of iterations =  2.9

     Threshold (ethr) on eigenvalues was too large:
     Diagonalizing with lowered threshold

     CG style diagonalization
     c_bands:  1 eigenvalues not converged
     c_bands:  1 eigenvalues not converged
     c_bands:  1 eigenvalues not converged
     c_bands:  1 eigenvalues not converged
     c_bands:  1 eigenvalues not converged
     c_bands:  1 eigenvalues not converged
     c_bands:  1 eigenvalues not converged
     c_bands:  1 eigenvalues not converged
     c_bands:  1 eigenvalues not converged
     c_bands:  3 eigenvalues not converged
     c_bands:  3 eigenvalues not converged
     c_bands:  3 eigenvalues not converged
     c_bands:  2 eigenvalues not converged
     c_bands:  2 eigenvalues not converged
     c_bands:  2 eigenvalues not converged
     c_bands:  2 eigenvalues not converged
     c_bands:  4 eigenvalues not converged
     c_bands:  2 eigenvalues not converged
     c_bands:  4 eigenvalues not converged
     c_bands:  1 eigenvalues not converged
     c_bands:  3 eigenvalues not converged
     c_bands:  1 eigenvalues not converged
     c_bands:  4 eigenvalues not converged
     c_bands:  1 eigenvalues not converged
     c_bands:  1 eigenvalues not converged
     c_bands:  2 eigenvalues not converged
     c_bands:  2 eigenvalues not converged
     c_bands:  1 eigenvalues not converged
     c_bands:  2 eigenvalues not converged
     c_bands:  1 eigenvalues not converged
     c_bands:  1 eigenvalues not converged
     c_bands:  1 eigenvalues not converged
     c_bands:  1 eigenvalues not converged
     c_bands:  1 eigenvalues not converged
     c_bands:  2 eigenvalues not converged
     c_bands:  4 eigenvalues not converged
     c_bands:  3 eigenvalues not converged
     c_bands:  2 eigenvalues not converged
     c_bands:  2 eigenvalues not converged
     c_bands:  2 eigenvalues not converged
     c_bands:  1 eigenvalues not converged
     c_bands:  1 eigenvalues not converged
     c_bands:  2 eigenvalues not converged
     c_bands:  1 eigenvalues not converged
     c_bands:  1 eigenvalues not converged
     c_bands:  1 eigenvalues not converged
     c_bands:  1 eigenvalues not converged
     c_bands:  1 eigenvalues not converged
     c_bands:  1 eigenvalues not converged
     c_bands:  1 eigenvalues not converged
     c_bands:  1 eigenvalues not converged
     c_bands:  1 eigenvalues not converged
     c_bands:  2 eigenvalues not converged
     c_bands:  1 eigenvalues not converged
     c_bands:  1 eigenvalues not converged
     c_bands:  1 eigenvalues not converged
     c_bands:  3 eigenvalues not converged
     c_bands:  1 eigenvalues not converged
     c_bands:  1 eigenvalues not converged
     c_bands:  1 eigenvalues not converged
     c_bands:  1 eigenvalues not converged
     c_bands:  2 eigenvalues not converged
     c_bands:  1 eigenvalues not converged
     ethr =  1.50E-09,  avg # of iterations =  7.9

     negative rho (up, down):  1.553E-02 0.000E+00

     total cpu time spent up to now is      353.7 secs

     total energy              =    -380.57230081 Ry
     estimated scf accuracy    <       0.00000080 Ry

     iteration #  2     ecut=    50.00 Ry     beta= 0.70
     CG style diagonalization
     ethr =  1.81E-09,  avg # of iterations =  4.4

     negative rho (up, down):  1.553E-02 0.000E+00

     total cpu time spent up to now is      357.1 secs

     total energy              =    -380.57230068 Ry
     estimated scf accuracy    <       0.00000208 Ry

     iteration #  3     ecut=    50.00 Ry     beta= 0.70
     CG style diagonalization
     ethr =  1.81E-09,  avg # of iterations =  4.1

     negative rho (up, down):  1.553E-02 0.000E+00

     total cpu time spent up to now is      360.3 secs

     total energy              =    -380.57230111 Ry
     estimated scf accuracy    <       0.00000015 Ry

     iteration #  4     ecut=    50.00 Ry     beta= 0.70
     CG style diagonalization
     ethr =  3.49E-10,  avg # of iterations =  3.6

     negative rho (up, down):  1.553E-02 0.000E+00

     total cpu time spent up to now is      363.0 secs

     total energy              =    -380.57230114 Ry
     estimated scf accuracy    <          7.1E-09 Ry

     iteration #  5     ecut=    50.00 Ry     beta= 0.70
     CG style diagonalization
     ethr =  1.62E-11,  avg # of iterations =  5.1

     negative rho (up, down):  1.553E-02 0.000E+00

     total cpu time spent up to now is      367.0 secs

     total energy              =    -380.57230115 Ry
     estimated scf accuracy    <          3.9E-09 Ry

     iteration #  6     ecut=    50.00 Ry     beta= 0.70
     CG style diagonalization
     ethr =  8.86E-12,  avg # of iterations =  3.8

     negative rho (up, down):  1.553E-02 0.000E+00

     total cpu time spent up to now is      369.9 secs

     total energy              =    -380.57230115 Ry
     estimated scf accuracy    <          7.7E-10 Ry

     iteration #  7     ecut=    50.00 Ry     beta= 0.70
     CG style diagonalization
     ethr =  1.76E-12,  avg # of iterations =  4.6

     negative rho (up, down):  1.553E-02 0.000E+00

     total cpu time spent up to now is      373.4 secs

     total energy              =    -380.57230115 Ry
     estimated scf accuracy    <          4.6E-10 Ry

     iteration #  8     ecut=    50.00 Ry     beta= 0.70
     CG style diagonalization
     ethr =  1.05E-12,  avg # of iterations =  4.1

     negative rho (up, down):  1.553E-02 0.000E+00

     total cpu time spent up to now is      376.5 secs

     End of self-consistent calculation

     Number of k-points >= 100: set verbosity='high' to print the bands.

     highest occupied level (ev):    10.3699

!    total energy              =    -380.57230115 Ry
     estimated scf accuracy    <          1.4E-11 Ry

     The total energy is the sum of the following terms:
     one-electron contribution =     -85.69166076 Ry
     hartree contribution      =      71.98934055 Ry
     xc contribution           =    -102.58352310 Ry
     ewald contribution        =    -264.28645784 Ry

     convergence has been achieved in   8 iterations

     negative rho (up, down):  1.553E-02 0.000E+00

     Forces acting on atoms (cartesian axes, Ry/au):

     atom    1 type  1   force =     0.00000000    0.00000000    0.00009110
     atom    2 type  2   force =     0.00000000    0.00000000   -0.00071080
     atom    3 type  3   force =     0.00000000    0.00000000    0.00040528
     atom    4 type  3   force =     0.00000000    0.00000000    0.00010721
     atom    5 type  3   force =     0.00000000    0.00000000    0.00010721

     Total force =     0.000837     Total SCF correction =     0.000008


     Computing stress (Cartesian axis) and pressure


     negative rho (up, down):  1.553E-02 0.000E+00
          total   stress  (Ry/bohr**3)                   (kbar)     P=      -44.56
  -0.00035166   0.00000000   0.00000000          -51.73        0.00        0.00
   0.00000000  -0.00035166   0.00000000            0.00      -51.73        0.00
   0.00000000   0.00000000  -0.00020542            0.00        0.00      -30.22

     Energy error            =      2.5E-06 Ry
     Gradient error          =      7.1E-04 Ry/Bohr

     bfgs converged in   9 scf cycles and   8 bfgs steps
     (criteria: energy <  1.0E-04 Ry, force <  1.0E-03 Ry/Bohr)

     End of BFGS Geometry Optimization

     Final energy             =    -380.5723011474 Ry

     File ./pto_k10.bfgs deleted, as requested
Begin final coordinates

ATOMIC_POSITIONS (crystal)
Pb               0.0000000000        0.0000000000        0.9936280272
Ti               0.5000000000        0.5000000000        0.5381819759
O                0.5000000000        0.5000000000        0.1065574854
O                0.5000000000        0.0000000000        0.6144583997
O                0.0000000000        0.5000000000        0.6144583997
End final coordinates



     Writing all to output data dir ./pto_k10.save/ :
     XML data file, charge density, pseudopotentials, collected wavefunctions
 
     init_run     :      0.86s CPU      0.98s WALL (       1 calls)
     electrons    :    325.25s CPU    345.70s WALL (       9 calls)
     update_pot   :      0.03s CPU      0.03s WALL (       8 calls)
     forces       :      2.25s CPU      2.36s WALL (       9 calls)
     stress       :     29.95s CPU     30.17s WALL (       9 calls)

     Called by init_run:
     wfcinit      :      0.64s CPU      0.69s WALL (       1 calls)
     potinit      :      0.01s CPU      0.01s WALL (       1 calls)
     hinit0       :      0.11s CPU      0.14s WALL (       1 calls)

     Called by electrons:
     c_bands      :    298.77s CPU    317.70s WALL (      92 calls)
     sum_band     :     22.38s CPU     23.39s WALL (      92 calls)
     v_of_rho     :      0.14s CPU      0.15s WALL (      97 calls)
     newd         :      4.16s CPU      4.53s WALL (      97 calls)
     mix_rho      :      0.10s CPU      0.10s WALL (      92 calls)

     Called by c_bands:
     init_us_2    :      2.54s CPU      2.66s WALL (   25578 calls)
     init_us_2:cp :      2.49s CPU      2.62s WALL (   25578 calls)
     ccgdiagg     :    269.69s CPU    287.11s WALL (   11592 calls)
     wfcrot       :     27.71s CPU     29.13s WALL (   10080 calls)

     Called by *cgdiagg:
     h_psi        :    166.69s CPU    177.14s WALL ( 1005632 calls)
     s_psi        :     29.37s CPU     31.35s WALL ( 2001184 calls)

     Called by h_psi:
     h_psi:calbec :     26.13s CPU     27.79s WALL ( 1005632 calls)
     vloc_psi     :    116.80s CPU    124.13s WALL ( 1005632 calls)
     add_vuspsi   :     15.69s CPU     16.75s WALL ( 1005632 calls)
     hs_1psi      :    165.26s CPU    175.87s WALL (  995552 calls)
     s_1psi       :     40.88s CPU     43.46s WALL (  995552 calls)

     General routines
     calbec       :     47.35s CPU     50.43s WALL ( 2018446 calls)
     fft          :      0.18s CPU      0.20s WALL (     648 calls)
     ffts         :      0.01s CPU      0.01s WALL (     189 calls)
     fftw         :     99.01s CPU    104.93s WALL ( 2691916 calls)
     interpolate  :      0.03s CPU      0.04s WALL (      97 calls)
 
     Parallel routines
 
     PWSCF        :   5m59.16s CPU   6m21.32s WALL

 
   This run was terminated on:   2:43: 0  15Nov2025            

=------------------------------------------------------------------------------=
   JOB DONE.
=------------------------------------------------------------------------------=
TACC:  Shutdown complete. Exiting. 
