TACC:  Starting up job 2560900 
TACC:  Starting parallel tasks... 

     Program PWSCF v.7.3 starts on 18Nov2025 at  0:42:19 

     This program is part of the open-source Quantum ESPRESSO suite
     for quantum simulation of materials; please cite
         "P. Giannozzi et al., J. Phys.:Condens. Matter 21 395502 (2009);
         "P. Giannozzi et al., J. Phys.:Condens. Matter 29 465901 (2017);
         "P. Giannozzi et al., J. Chem. Phys. 152 154105 (2020);
          URL http://www.quantum-espresso.org", 
     in publications or presentations arising from this work. More details at
     http://www.quantum-espresso.org/quote

     Parallel version (MPI & OpenMP), running on      10 processor cores
     Number of MPI processes:                10
     Threads/MPI process:                     1

     MPI processes distributed on     1 nodes
     181720 MiB available memory on the printing compute node when the environment starts
 
     Waiting for input...
     Reading input from standard input
Warning: card &CELL ignored
Warning: card  CELL_DYNAMICS = 'BFGS', ignored
Warning: card  PRESS=0.D0, ignored
Warning: card / ignored

     Current dimensions of program PWSCF are:
     Max number of different atomic species (ntypx) = 10
     Max number of k-points (npk) =  40000
     Max angular momentum in pseudopotentials (lmaxx) =  4
     Message from routine setup:
     using ibrav=0 with symmetry is DISCOURAGED, use correct ibrav instead
 
     R & G space division:  proc/nbgrp/npool/nimage =      10
     Subspace diagonalization in iterative solution of the eigenvalue problem:
     a serial algorithm will be used

 
     Parallelization info
     --------------------
     sticks:   dense  smooth     PW     G-vecs:    dense   smooth      PW
     Min         209      84     25                 7675     1944     321
     Max         210      85     26                 7680     1947     324
     Sum        2093     849    253                76763    19459    3231
 
     Using Slab Decomposition
 


     bravais-lattice index     =            0
     lattice parameter (alat)  =       7.2859  a.u.
     unit-cell volume          =     406.4751 (a.u.)^3
     number of atoms/cell      =            5
     number of atomic types    =            3
     number of electrons       =        44.00
     number of Kohn-Sham states=           22
     kinetic-energy cutoff     =      50.0000  Ry
     charge density cutoff     =     500.0000  Ry
     scf convergence threshold =      1.0E-08
     mixing beta               =       0.7000
     number of iterations used =            8  plain     mixing
     energy convergence thresh.=      1.0E-04
     force convergence thresh. =      1.0E-03
     Exchange-correlation= SLA  PZ   NOGX NOGC
                           (   1   1   0   0   0   0   0)
     nstep                     =           50


     celldm(1)=   7.285878  celldm(2)=   0.000000  celldm(3)=   0.000000
     celldm(4)=   0.000000  celldm(5)=   0.000000  celldm(6)=   0.000000

     crystal axes: (cart. coord. in units of alat)
               a(1) = (   1.000000   0.000519   0.000000 )  
               a(2) = (   0.000519   1.000000   0.000000 )  
               a(3) = (   0.000000   0.000000   1.050966 )  

     reciprocal axes: (cart. coord. in units 2 pi/alat)
               b(1) = (  1.000000 -0.000519  0.000000 )  
               b(2) = ( -0.000519  1.000000  0.000000 )  
               b(3) = (  0.000000  0.000000  0.951506 )  


     PseudoPot. # 1 for Pb read from file:
     /scratch/11018/zhc/assisgnment3/input_files/Pb_LDA.UPF
     MD5 check sum: 062a37469794d955244864f8fe2e5624
     Pseudo is Ultrasoft + core correction, Zval = 14.0
     Generated by new atomic code, or converted to UPF format
     Using radial grid of  899 points,  6 beta functions with: 
                l(1) =   0
                l(2) =   0
                l(3) =   1
                l(4) =   1
                l(5) =   2
                l(6) =   2
     Q(r) pseudized with  6 coefficients,  rinner =    1.000   1.000   1.000
                                                       1.000   1.000

     PseudoPot. # 2 for Ti read from file:
     /scratch/11018/zhc/assisgnment3/input_files/Ti_LDA.UPF
     MD5 check sum: 0d9f225c038fe889ca2a701dcc8d72cb
     Pseudo is Ultrasoft + core correction, Zval = 12.0
     Generated by new atomic code, or converted to UPF format
     Using radial grid of  851 points,  6 beta functions with: 
                l(1) =   0
                l(2) =   0
                l(3) =   1
                l(4) =   1
                l(5) =   2
                l(6) =   2
     Q(r) pseudized with  6 coefficients,  rinner =    1.000   1.000   1.000
                                                       1.000   1.000

     PseudoPot. # 3 for O  read from file:
     /scratch/11018/zhc/assisgnment3/input_files/O_LDA.UPF
     MD5 check sum: 194b818514d2a7dbb603bb78519a4f40
     Pseudo is Ultrasoft + core correction, Zval =  6.0
     Generated by new atomic code, or converted to UPF format
     Using radial grid of  737 points,  5 beta functions with: 
                l(1) =   0
                l(2) =   0
                l(3) =   1
                l(4) =   1
                l(5) =   2
     Q(r) pseudized with  8 coefficients,  rinner =    0.900   0.900   0.900
                                                       0.900   0.900

     atomic species   valence    mass     pseudopotential
     Pb               14.00   207.20000     Pb( 1.00)
     Ti               12.00    47.88000     Ti( 1.00)
     O                 6.00    16.00000     O ( 1.00)

      4 Sym. Ops. (no inversion) found



   Cartesian axes

     site n.     atom                  positions (alat units)
         1        Pb     tau(   1) = (   0.0000000   0.0000000   1.0564033  )
         2        Ti     tau(   2) = (   0.5002593   0.5002593   0.5670322  )
         3        O      tau(   3) = (   0.5002593   0.5002593   0.1045794  )
         4        O      tau(   4) = (   0.4999999   0.0002594   0.6427014  )
         5        O      tau(   5) = (   0.0002594   0.4999999   0.6427014  )

     number of k points=    39
                       cart. coord. in units 2pi/alat
        k(    1) = (   0.0000000   0.0000000   0.0000000), wk =   0.0138889
        k(    2) = (   0.0000000   0.0000000   0.2378764), wk =   0.0277778
        k(    3) = (   0.0000000   0.0000000  -0.4757529), wk =   0.0138889
        k(    4) = (  -0.0000865   0.1666667   0.0000000), wk =   0.0555556
        k(    5) = (  -0.0000865   0.1666667   0.2378764), wk =   0.1111111
        k(    6) = (  -0.0000865   0.1666667  -0.4757529), wk =   0.0555556
        k(    7) = (  -0.0001729   0.3333335   0.0000000), wk =   0.0555556
        k(    8) = (  -0.0001729   0.3333335   0.2378764), wk =   0.1111111
        k(    9) = (  -0.0001729   0.3333335  -0.4757529), wk =   0.0555556
        k(   10) = (   0.0002594  -0.5000002   0.0000000), wk =   0.0277778
        k(   11) = (   0.0002594  -0.5000002   0.2378764), wk =   0.0555556
        k(   12) = (   0.0002594  -0.5000002  -0.4757529), wk =   0.0277778
        k(   13) = (   0.1665803   0.1665803   0.0000000), wk =   0.0277778
        k(   14) = (   0.1665803   0.1665803   0.2378764), wk =   0.0555556
        k(   15) = (   0.1665803   0.1665803  -0.4757529), wk =   0.0277778
        k(   16) = (   0.1664938   0.3332470   0.0000000), wk =   0.0555556
        k(   17) = (   0.1664938   0.3332470   0.2378764), wk =   0.1111111
        k(   18) = (   0.1664938   0.3332470  -0.4757529), wk =   0.0555556
        k(   19) = (   0.1669261  -0.5000867   0.0000000), wk =   0.0555556
        k(   20) = (   0.1669261  -0.5000867   0.2378764), wk =   0.1111111
        k(   21) = (   0.1669261  -0.5000867  -0.4757529), wk =   0.0555556
        k(   22) = (   0.1668396  -0.3334199   0.0000000), wk =   0.0555556
        k(   23) = (   0.1668396  -0.3334199   0.2378764), wk =   0.1111111
        k(   24) = (   0.1668396  -0.3334199  -0.4757529), wk =   0.0555556
        k(   25) = (   0.1667532  -0.1667532   0.0000000), wk =   0.0277778
        k(   26) = (   0.1667532  -0.1667532   0.2378764), wk =   0.0555556
        k(   27) = (   0.1667532  -0.1667532  -0.4757529), wk =   0.0277778
        k(   28) = (   0.3331606   0.3331606   0.0000000), wk =   0.0277778
        k(   29) = (   0.3331606   0.3331606   0.2378764), wk =   0.0555556
        k(   30) = (   0.3331606   0.3331606  -0.4757529), wk =   0.0277778
        k(   31) = (   0.3335928  -0.5001731   0.0000000), wk =   0.0555556
        k(   32) = (   0.3335928  -0.5001731   0.2378764), wk =   0.1111111
        k(   33) = (   0.3335928  -0.5001731  -0.4757529), wk =   0.0555556
        k(   34) = (   0.3335064  -0.3335064   0.0000000), wk =   0.0277778
        k(   35) = (   0.3335064  -0.3335064   0.2378764), wk =   0.0555556
        k(   36) = (   0.3335064  -0.3335064  -0.4757529), wk =   0.0277778
        k(   37) = (  -0.4997408  -0.4997408   0.0000000), wk =   0.0138889
        k(   38) = (  -0.4997408  -0.4997408   0.2378764), wk =   0.0277778
        k(   39) = (  -0.4997408  -0.4997408  -0.4757529), wk =   0.0138889

     Dense  grid:    76763 G-vectors     FFT dimensions: (  54,  54,  60)

     Smooth grid:    19459 G-vectors     FFT dimensions: (  36,  36,  36)

     Estimated max dynamical RAM per process >      37.28 MB

     Estimated total dynamical RAM >     372.84 MB

     Check: negative core charge=   -0.000004

     Initial potential from superposition of free atoms

     starting charge      42.9982, renormalised to      44.0000

     negative rho (up, down):  1.669E-02 0.000E+00
     Starting wfcs are   31 randomized atomic wfcs

     total cpu time spent up to now is        0.7 secs

     Self-consistent Calculation

     iteration #  1     ecut=    50.00 Ry     beta= 0.70
     CG style diagonalization
     ethr =  1.00E-02,  avg # of iterations =  2.1

     negative rho (up, down):  1.400E-02 0.000E+00

     total cpu time spent up to now is        1.4 secs

     total energy              =    -380.06325521 Ry
     estimated scf accuracy    <       1.02052680 Ry

     iteration #  2     ecut=    50.00 Ry     beta= 0.70
     CG style diagonalization
     ethr =  2.32E-03,  avg # of iterations =  4.8

     negative rho (up, down):  1.451E-02 0.000E+00

     total cpu time spent up to now is        2.6 secs

     total energy              =    -379.75808965 Ry
     estimated scf accuracy    <       3.90252250 Ry

     iteration #  3     ecut=    50.00 Ry     beta= 0.70
     CG style diagonalization
     ethr =  2.32E-03,  avg # of iterations =  4.3

     negative rho (up, down):  1.512E-02 0.000E+00

     total cpu time spent up to now is        3.7 secs

     total energy              =    -380.53715500 Ry
     estimated scf accuracy    <       0.31014378 Ry

     iteration #  4     ecut=    50.00 Ry     beta= 0.70
     CG style diagonalization
     ethr =  7.05E-04,  avg # of iterations =  3.4

     negative rho (up, down):  1.511E-02 0.000E+00

     total cpu time spent up to now is        4.5 secs

     total energy              =    -380.56004761 Ry
     estimated scf accuracy    <       0.04193860 Ry

     iteration #  5     ecut=    50.00 Ry     beta= 0.70
     CG style diagonalization
     ethr =  9.53E-05,  avg # of iterations =  3.9

     negative rho (up, down):  1.512E-02 0.000E+00

     total cpu time spent up to now is        5.5 secs

     total energy              =    -380.57163226 Ry
     estimated scf accuracy    <       0.00778631 Ry

     iteration #  6     ecut=    50.00 Ry     beta= 0.70
     CG style diagonalization
     ethr =  1.77E-05,  avg # of iterations =  3.9

     negative rho (up, down):  1.512E-02 0.000E+00

     total cpu time spent up to now is        6.4 secs

     total energy              =    -380.57363380 Ry
     estimated scf accuracy    <       0.00623989 Ry

     iteration #  7     ecut=    50.00 Ry     beta= 0.70
     CG style diagonalization
     ethr =  1.42E-05,  avg # of iterations =  3.2

     negative rho (up, down):  1.514E-02 0.000E+00

     total cpu time spent up to now is        7.2 secs

     total energy              =    -380.57360980 Ry
     estimated scf accuracy    <       0.00171633 Ry

     iteration #  8     ecut=    50.00 Ry     beta= 0.70
     CG style diagonalization
     ethr =  3.90E-06,  avg # of iterations =  3.6

     negative rho (up, down):  1.516E-02 0.000E+00

     total cpu time spent up to now is        8.1 secs

     total energy              =    -380.57398154 Ry
     estimated scf accuracy    <       0.00000888 Ry

     iteration #  9     ecut=    50.00 Ry     beta= 0.70
     CG style diagonalization
     c_bands:  1 eigenvalues not converged
     c_bands:  1 eigenvalues not converged
     c_bands:  1 eigenvalues not converged
     ethr =  2.02E-08,  avg # of iterations =  8.0

     negative rho (up, down):  1.520E-02 0.000E+00

     total cpu time spent up to now is       10.1 secs

     total energy              =    -380.57404496 Ry
     estimated scf accuracy    <       0.00004294 Ry

     iteration # 10     ecut=    50.00 Ry     beta= 0.70
     CG style diagonalization
     ethr =  2.02E-08,  avg # of iterations =  3.7

     negative rho (up, down):  1.530E-02 0.000E+00

     total cpu time spent up to now is       11.0 secs

     total energy              =    -380.57403754 Ry
     estimated scf accuracy    <       0.00002187 Ry

     iteration # 11     ecut=    50.00 Ry     beta= 0.70
     CG style diagonalization
     ethr =  2.02E-08,  avg # of iterations =  4.2

     negative rho (up, down):  1.530E-02 0.000E+00

     total cpu time spent up to now is       12.1 secs

     total energy              =    -380.57404232 Ry
     estimated scf accuracy    <       0.00000133 Ry

     iteration # 12     ecut=    50.00 Ry     beta= 0.70
     CG style diagonalization
     ethr =  3.03E-09,  avg # of iterations =  5.1

     negative rho (up, down):  1.530E-02 0.000E+00

     total cpu time spent up to now is       13.3 secs

     total energy              =    -380.57404327 Ry
     estimated scf accuracy    <       0.00000005 Ry

     iteration # 13     ecut=    50.00 Ry     beta= 0.70
     CG style diagonalization
     c_bands:  1 eigenvalues not converged
     c_bands:  1 eigenvalues not converged
     ethr =  1.20E-10,  avg # of iterations = 10.5

     negative rho (up, down):  1.531E-02 0.000E+00

     total cpu time spent up to now is       16.0 secs

     total energy              =    -380.57404376 Ry
     estimated scf accuracy    <       0.00000007 Ry

     iteration # 14     ecut=    50.00 Ry     beta= 0.70
     CG style diagonalization
     ethr =  1.20E-10,  avg # of iterations =  4.3

     negative rho (up, down):  1.531E-02 0.000E+00

     total cpu time spent up to now is       17.1 secs

     End of self-consistent calculation

          k = 0.0000 0.0000 0.0000 (  2421 PWs)   bands (ev):

   -45.1707 -21.8508 -21.7676 -21.7670  -7.1665  -6.0144  -5.7570  -4.4133
    -4.4131  -4.3734  -4.2560  -4.1426   4.8408   6.7358   6.7362   7.1097
     8.7119   8.7140   8.9512   9.2899   9.4364   9.4478

          k = 0.0000 0.0000 0.2379 (  2429 PWs)   bands (ev):

   -45.1704 -21.8742 -21.7667 -21.7661  -6.9590  -5.9526  -5.6872  -4.4311
    -4.4309  -4.3719  -4.2438  -4.2196   3.9792   6.7902   6.7915   7.3062
     8.4593   8.4596   8.8680   9.3772   9.5560   9.5661

          k = 0.0000 0.0000-0.4758 (  2418 PWs)   bands (ev):

   -45.1701 -21.8974 -21.7657 -21.7651  -6.7336  -5.8850  -5.6240  -4.4486
    -4.4485  -4.3704  -4.3025  -4.2333   3.4362   6.6102   6.8236   6.8259
     8.3018   8.3024   8.7888   9.6323   9.6420  10.6533

          k =-0.0001 0.1667 0.0000 (  2423 PWs)   bands (ev):

   -45.1704 -21.8500 -21.7877 -21.7664  -7.0215  -5.9802  -5.7262  -4.4377
    -4.4116  -4.3882  -4.2589  -4.1309   4.3522   6.8011   6.8462   7.1420
     8.6691   8.7345   8.9480   9.0654   9.1709   9.5629

          k =-0.0001 0.1667 0.2379 (  2429 PWs)   bands (ev):

   -45.1700 -21.8732 -21.7866 -21.7655  -6.8305  -5.9345  -5.6507  -4.4362
    -4.4300  -4.3873  -4.2531  -4.1705   3.7458   6.5830   6.9122   7.3909
     8.1265   8.4415   8.7662   9.1617   9.2319   9.9342

          k =-0.0001 0.1667-0.4758 (  2426 PWs)   bands (ev):

   -45.1697 -21.8962 -21.7856 -21.7645  -6.6330  -5.8826  -5.5722  -4.4482
    -4.4324  -4.3865  -4.2578  -4.2057   3.2922   6.2645   6.9520   7.0365
     7.9312   8.2932   8.8333   9.2197   9.3134  10.5746

          k =-0.0002 0.3333 0.0000 (  2422 PWs)   bands (ev):

   -45.1696 -21.8483 -21.8280 -21.7647  -6.7068  -5.9062  -5.6806  -4.4749
    -4.4178  -4.4083  -4.2534  -4.1363   3.7242   6.4313   7.0960   7.1280
     8.3295   8.3573   8.8026   8.8544   9.2900  10.2151

          k =-0.0002 0.3333 0.2379 (  2421 PWs)   bands (ev):

   -45.1693 -21.8711 -21.8269 -21.7637  -6.5819  -5.8639  -5.5838  -4.4417
    -4.4281  -4.4179  -4.2464  -4.1099   3.3597   6.3014   7.0013   7.2273
     7.7611   8.1848   8.3398   8.9073   9.4254  10.2937

          k =-0.0002 0.3333-0.4758 (  2426 PWs)   bands (ev):

   -45.1689 -21.8937 -21.8256 -21.7627  -6.4895  -5.7965  -5.4561  -4.4474
    -4.4184  -4.4005  -4.2824  -4.0565   3.0401   5.9773   6.7629   7.2709
     7.6463   7.8132   8.1265   8.9382   9.8608  10.1241

          k = 0.0003-0.5000 0.0000 (  2438 PWs)   bands (ev):

   -45.1692 -21.8485 -21.8470 -21.7639  -6.5331  -5.8497  -5.6856  -4.4910
    -4.4323  -4.4067  -4.2266  -4.1692   3.5047   6.0472   7.3623   7.3710
     7.8337   7.9751   8.7240   8.8922   9.3209  11.0182

          k = 0.0003-0.5000 0.2379 (  2428 PWs)   bands (ev):

   -45.1689 -21.8698 -21.8470 -21.7629  -6.4741  -5.7737  -5.5777  -4.4540
    -4.4332  -4.4269  -4.2122  -4.1057   3.2081   6.0190   7.0315   7.2726
     7.5787   7.7761   8.4498   8.8852   9.4268  10.4960

          k = 0.0003-0.5000-0.4758 (  2432 PWs)   bands (ev):

   -45.1685 -21.8923 -21.8456 -21.7618  -6.4559  -5.6924  -5.4022  -4.4469
    -4.4342  -4.4093  -4.2677  -3.9945   2.9395   5.8374   6.4515   7.3321
     7.5964   7.8037   7.8259   8.8805   9.7945  10.1607

          k = 0.1666 0.1666 0.0000 (  2421 PWs)   bands (ev):

   -45.1700 -21.8491 -21.7868 -21.7867  -6.8794  -5.9447  -5.7180  -4.4436
    -4.4279  -4.3917  -4.2342  -4.1201   4.0221   6.7208   6.9749   7.1967
     8.1938   8.3043   9.0422   9.0769   9.3874   9.7967

          k = 0.1666 0.1666 0.2379 (  2423 PWs)   bands (ev):

   -45.1696 -21.8722 -21.7858 -21.7856  -6.6994  -5.9187  -5.6429  -4.4465
    -4.4229  -4.3855  -4.2235  -4.1360   3.6233   6.4985   6.6083   7.3332
     8.0239   8.0383   8.8481   9.2252   9.4645   9.9030

          k = 0.1666 0.1666-0.4758 (  2444 PWs)   bands (ev):

   -45.1693 -21.8951 -21.7849 -21.7845  -6.5205  -5.8924  -5.5551  -4.4595
    -4.4013  -4.3625  -4.2288  -4.1580   3.2605   6.2828   6.3334   7.0244
     7.9275   7.9676   8.7507   9.3008   9.5220  10.2691

          k = 0.1665 0.3332 0.0000 (  2426 PWs)   bands (ev):

   -45.1692 -21.8475 -21.8269 -21.7849  -6.5732  -5.8722  -5.7156  -4.4680
    -4.4169  -4.3758  -4.2096  -4.1256   3.5088   6.4282   6.9717   7.2710
     7.6537   8.2413   8.5480   9.2214   9.4111  10.2933

          k = 0.1665 0.3332 0.2379 (  2428 PWs)   bands (ev):

   -45.1689 -21.8701 -21.8258 -21.7838  -6.4445  -5.8630  -5.6331  -4.4434
    -4.4176  -4.3522  -4.1886  -4.0840   3.3645   6.2497   6.3794   6.9351
     7.3887   8.0792   8.9027   9.1804   9.5168  10.0026

          k = 0.1665 0.3332-0.4758 (  2426 PWs)   bands (ev):

   -45.1685 -21.8927 -21.8246 -21.7828  -6.3545  -5.8395  -5.5107  -4.4411
    -4.3917  -4.3108  -4.2014  -4.0293   3.1753   5.8954   6.3117   6.6356
     6.8782   7.9375   9.0061   9.2280   9.5074   9.9527

          k = 0.1669-0.5001 0.0000 (  2422 PWs)   bands (ev):

   -45.1688 -21.8473 -21.8461 -21.7839  -6.4050  -5.8189  -5.7408  -4.4711
    -4.4089  -4.3543  -4.1910  -4.1596   3.3086   6.0660   7.0901   7.3177
     7.6177   7.9632   8.4096   9.2542   9.4070  10.6273

          k = 0.1669-0.5001 0.2379 (  2428 PWs)   bands (ev):

   -45.1685 -21.8688 -21.8460 -21.7829  -6.3349  -5.7840  -5.6552  -4.4416
    -4.4039  -4.3309  -4.1657  -4.0781   3.2453   6.0235   6.2752   6.6836
     7.3492   8.2225   8.6682   9.1900   9.5252   9.9673

          k = 0.1669-0.5001-0.4758 (  2414 PWs)   bands (ev):

   -45.1682 -21.8914 -21.8446 -21.7819  -6.3194  -5.7504  -5.4933  -4.4357
    -4.3598  -4.3083  -4.1844  -3.9681   3.1344   5.7898   6.1441   6.2956
     6.7316   8.0513   8.8757   9.1376   9.1669  10.1703

          k = 0.1668-0.3334 0.0000 (  2426 PWs)   bands (ev):

   -45.1692 -21.8475 -21.8269 -21.7849  -6.5721  -5.8734  -5.7144  -4.4680
    -4.4168  -4.3763  -4.2106  -4.1257   3.5075   6.4294   6.9750   7.2720
     7.6541   8.2409   8.5469   9.2199   9.4077  10.2966

          k = 0.1668-0.3334 0.2379 (  2429 PWs)   bands (ev):

   -45.1689 -21.8701 -21.8259 -21.7838  -6.4435  -5.8641  -5.6318  -4.4434
    -4.4176  -4.3530  -4.1894  -4.0840   3.3625   6.2504   6.3817   6.9382
     7.3886   8.0800   8.8997   9.1787   9.5156  10.0063

          k = 0.1668-0.3334-0.4758 (  2426 PWs)   bands (ev):

   -45.1685 -21.8927 -21.8246 -21.7828  -6.3536  -5.8405  -5.5094  -4.4410
    -4.3918  -4.3118  -4.2019  -4.0292   3.1731   5.8962   6.3126   6.6370
     6.8804   7.9391   9.0077   9.2218   9.5109   9.9529

          k = 0.1668-0.1668 0.0000 (  2425 PWs)   bands (ev):

   -45.1700 -21.8491 -21.7872 -21.7863  -6.8786  -5.9455  -5.7169  -4.4436
    -4.4278  -4.3920  -4.2356  -4.1202   4.0200   6.7230   6.9752   7.1992
     8.1945   8.3086   9.0422   9.0777   9.3773   9.7976

          k = 0.1668-0.1668 0.2379 (  2421 PWs)   bands (ev):

   -45.1696 -21.8722 -21.7861 -21.7853  -6.6987  -5.9195  -5.6418  -4.4464
    -4.4229  -4.3859  -4.2249  -4.1359   3.6208   6.5009   6.6094   7.3358
     8.0241   8.0433   8.8472   9.2224   9.4578   9.9049

          k = 0.1668-0.1668-0.4758 (  2444 PWs)   bands (ev):

   -45.1693 -21.8951 -21.7850 -21.7843  -6.5197  -5.8934  -5.5539  -4.4594
    -4.4014  -4.3629  -4.2301  -4.1577   3.2580   6.2852   6.3325   7.0280
     7.9344   7.9676   8.7496   9.2970   9.5167  10.2728

          k = 0.3332 0.3332 0.0000 (  2436 PWs)   bands (ev):

   -45.1684 -21.8457 -21.8250 -21.8245  -6.3083  -5.8046  -5.7666  -4.4478
    -4.3973  -4.3037  -4.1282  -4.1277   3.1026   6.4122   6.5079   7.3802
     7.5310   7.6765   8.3462   9.0673   9.8871  10.0243

          k = 0.3332 0.3332 0.2379 (  2424 PWs)   bands (ev):

   -45.1681 -21.8681 -21.8240 -21.8236  -6.1703  -5.8530  -5.7219  -4.4057
    -4.3902  -4.2429  -4.0799  -4.0474   3.2926   5.9581   6.0293   6.4084
     7.0529   7.5550   8.9648   9.4787   9.5213   9.9029

          k = 0.3332 0.3332-0.4758 (  2428 PWs)   bands (ev):

   -45.1678 -21.8905 -21.8229 -21.8225  -6.1001  -5.8980  -5.5971  -4.3832
    -4.3638  -4.1769  -4.0301  -3.9691   3.4589   5.5538   5.5741   6.1540
     6.8069   6.9691   8.2112   9.8560   9.8729  10.0344

          k = 0.3336-0.5002 0.0000 (  2454 PWs)   bands (ev):

   -45.1681 -21.8450 -21.8444 -21.8237  -6.1876  -5.7814  -5.7623  -4.4394
    -4.3732  -4.2385  -4.1627  -4.0932   2.9153   6.0591   6.5545   7.1903
     7.7212   7.8419   7.9643   9.0359   9.7083  10.0909

          k = 0.3336-0.5002 0.2379 (  2429 PWs)   bands (ev):

   -45.1677 -21.8669 -21.8438 -21.8228  -6.0510  -5.8090  -5.7800  -4.3964
    -4.3615  -4.1486  -4.0789  -4.0171   3.2177   5.8509   6.0029   6.0715
     6.8348   7.6256   8.4922   9.4776   9.5059  10.0604

          k = 0.3336-0.5002-0.4758 (  2420 PWs)   bands (ev):

   -45.1674 -21.8893 -21.8426 -21.8218  -6.0404  -5.8525  -5.6349  -4.3658
    -4.3390  -4.0857  -3.9940  -3.9122   3.5981   5.2857   5.4817   5.9112
     6.5674   6.9826   7.4283   9.9569  10.0326  10.1944

          k = 0.3335-0.3335 0.0000 (  2438 PWs)   bands (ev):

   -45.1684 -21.8457 -21.8249 -21.8246  -6.3066  -5.8069  -5.7650  -4.4478
    -4.3972  -4.3039  -4.1290  -4.1284   3.1016   6.4141   6.5092   7.3776
     7.5328   7.6788   8.3434   9.0679   9.8831  10.0283

          k = 0.3335-0.3335 0.2379 (  2428 PWs)   bands (ev):

   -45.1681 -21.8681 -21.8241 -21.8235  -6.1683  -5.8554  -5.7206  -4.4056
    -4.3902  -4.2435  -4.0810  -4.0474   3.2908   5.9592   6.0304   6.4102
     7.0526   7.5544   8.9683   9.4789   9.5225   9.8993

          k = 0.3335-0.3335-0.4758 (  2424 PWs)   bands (ev):

   -45.1678 -21.8905 -21.8230 -21.8224  -6.0978  -5.9004  -5.5960  -4.3832
    -4.3637  -4.1781  -4.0307  -3.9689   3.4562   5.5544   5.5753   6.1553
     6.8073   6.9689   8.2174   9.8550   9.8695  10.0350

          k =-0.4997-0.4997 0.0000 (  2480 PWs)   bands (ev):

   -45.1677 -21.8440 -21.8436 -21.8430  -6.1316  -5.7386  -5.7355  -4.4284
    -4.3252  -4.1843  -4.1842  -4.0423   2.7221   5.9077   6.3863   7.4015
     7.4048   7.9580   7.9616   8.8030   9.2316  10.3514

          k =-0.4997-0.4997 0.2379 (  2428 PWs)   bands (ev):

   -45.1673 -21.8657 -21.8429 -21.8425  -5.9162  -5.8247  -5.8216  -4.3840
    -4.3230  -4.0375  -4.0375  -4.0078   3.1393   5.8644   5.9743   5.9748
     6.3930   7.5667   7.8366   9.5071   9.5076  10.3339

          k =-0.4997-0.4997-0.4758 (  2400 PWs)   bands (ev):

   -45.1670 -21.8881 -21.8418 -21.8414  -5.8998  -5.8967  -5.6942  -4.3395
    -4.3208  -3.9616  -3.8992  -3.8992   3.8152   5.3135   5.3144   5.7457
     6.3997   6.4178   6.6709  10.2056  10.2067  10.3164

     highest occupied level (ev):    11.0182

!    total energy              =    -380.57404378 Ry
     estimated scf accuracy    <          6.2E-09 Ry

     The total energy is the sum of the following terms:
     one-electron contribution =     -79.71020625 Ry
     hartree contribution      =      69.93307252 Ry
     xc contribution           =    -102.67713577 Ry
     ewald contribution        =    -268.11977427 Ry

     convergence has been achieved in  14 iterations

     negative rho (up, down):  1.531E-02 0.000E+00

     Forces acting on atoms (cartesian axes, Ry/au):

     atom    1 type  1   force =     0.00000000    0.00000000    0.00017822
     atom    2 type  2   force =     0.00000000    0.00000000   -0.00011899
     atom    3 type  3   force =     0.00000000    0.00000000    0.00010015
     atom    4 type  3   force =     0.00000000    0.00000000   -0.00007969
     atom    5 type  3   force =     0.00000000    0.00000000   -0.00007969

     Total force =     0.000262     Total SCF correction =     0.000319
     SCF correction compared to forces is large: reduce conv_thr to get better values


     Computing stress (Cartesian axis) and pressure


     negative rho (up, down):  1.531E-02 0.000E+00
          total   stress  (Ry/bohr**3)                   (kbar)     P=       -0.01
   0.00000174  -0.00000742   0.00000000            0.26       -1.09        0.00
  -0.00000742   0.00000174   0.00000000           -1.09        0.26        0.00
   0.00000000   0.00000000  -0.00000366            0.00        0.00       -0.54


     BFGS Geometry Optimization
     Energy error            =      0.0E+00 Ry
     Gradient error          =      1.8E-04 Ry/Bohr

     bfgs converged in   1 scf cycles and   0 bfgs steps
     (criteria: energy <  1.0E-04 Ry, force <  1.0E-03 Ry/Bohr)

     End of BFGS Geometry Optimization

     Final energy             =    -380.5740437812 Ry
Begin final coordinates

ATOMIC_POSITIONS (crystal)
Pb               0.0000000000        0.0000000000        1.0051738283
Ti               0.5000000000        0.5000000000        0.5395344294
O                0.5000000000        0.5000000000        0.0995079024
O                0.5000000000        0.0000000000        0.6115340639
O                0.0000000000        0.5000000000        0.6115340639
End final coordinates



     Writing all to output data dir ./pto_T6_eta0p004.save/ :
     XML data file, charge density, pseudopotentials, collected wavefunctions
 
     init_run     :      0.42s CPU      0.50s WALL (       1 calls)
     electrons    :     15.41s CPU     16.34s WALL (       1 calls)
     forces       :      0.12s CPU      0.12s WALL (       1 calls)
     stress       :      1.16s CPU      1.17s WALL (       1 calls)

     Called by init_run:
     wfcinit      :      0.20s CPU      0.23s WALL (       1 calls)
     potinit      :      0.01s CPU      0.01s WALL (       1 calls)
     hinit0       :      0.11s CPU      0.14s WALL (       1 calls)

     Called by electrons:
     c_bands      :     13.30s CPU     14.09s WALL (      14 calls)
     sum_band     :      1.47s CPU      1.55s WALL (      14 calls)
     v_of_rho     :      0.02s CPU      0.02s WALL (      15 calls)
     newd         :      0.62s CPU      0.68s WALL (      15 calls)
     mix_rho      :      0.02s CPU      0.02s WALL (      14 calls)

     Called by c_bands:
     init_us_2    :      0.12s CPU      0.12s WALL (    1209 calls)
     init_us_2:cp :      0.11s CPU      0.12s WALL (    1209 calls)
     ccgdiagg     :     11.83s CPU     12.55s WALL (     546 calls)
     wfcrot       :      1.55s CPU      1.64s WALL (     546 calls)

     Called by *cgdiagg:
     h_psi        :      7.58s CPU      8.02s WALL (   45285 calls)
     s_psi        :      1.17s CPU      1.24s WALL (   90024 calls)

     Called by h_psi:
     h_psi:calbec :      1.17s CPU      1.24s WALL (   45285 calls)
     vloc_psi     :      5.42s CPU      5.74s WALL (   45285 calls)
     add_vuspsi   :      0.64s CPU      0.68s WALL (   45285 calls)
     hs_1psi      :      7.17s CPU      7.61s WALL (   44739 calls)
     s_1psi       :      1.74s CPU      1.85s WALL (   44739 calls)

     General routines
     calbec       :      2.08s CPU      2.21s WALL (   90765 calls)
     fft          :      0.03s CPU      0.04s WALL (      96 calls)
     ffts         :      0.00s CPU      0.00s WALL (      29 calls)
     fftw         :      4.60s CPU      4.86s WALL (  126216 calls)
     interpolate  :      0.01s CPU      0.01s WALL (      15 calls)
 
     Parallel routines
 
     PWSCF        :     17.35s CPU     18.77s WALL

 
   This run was terminated on:   0:42:37  18Nov2025            

=------------------------------------------------------------------------------=
   JOB DONE.
=------------------------------------------------------------------------------=
TACC:  Shutdown complete. Exiting. 
