TACC:  Starting up job 2547121 
TACC:  Starting parallel tasks... 

     Program PWSCF v.7.3 starts on 13Nov2025 at  0:19:40 

     This program is part of the open-source Quantum ESPRESSO suite
     for quantum simulation of materials; please cite
         "P. Giannozzi et al., J. Phys.:Condens. Matter 21 395502 (2009);
         "P. Giannozzi et al., J. Phys.:Condens. Matter 29 465901 (2017);
         "P. Giannozzi et al., J. Chem. Phys. 152 154105 (2020);
          URL http://www.quantum-espresso.org", 
     in publications or presentations arising from this work. More details at
     http://www.quantum-espresso.org/quote

     Parallel version (MPI & OpenMP), running on      10 processor cores
     Number of MPI processes:                10
     Threads/MPI process:                     1

     MPI processes distributed on     1 nodes
     187552 MiB available memory on the printing compute node when the environment starts
 
     Waiting for input...
     Reading input from standard input
Warning: card &CELL ignored
Warning: card  CELL_DYNAMICS = 'BFGS', ignored
Warning: card  PRESS=0.D0, ignored
Warning: card / ignored

     Current dimensions of program PWSCF are:
     Max number of different atomic species (ntypx) = 10
     Max number of k-points (npk) =  40000
     Max angular momentum in pseudopotentials (lmaxx) =  4
     Message from routine setup:
     using ibrav=0 with symmetry is DISCOURAGED, use correct ibrav instead
 
     R & G space division:  proc/nbgrp/npool/nimage =      10
     Subspace diagonalization in iterative solution of the eigenvalue problem:
     a serial algorithm will be used

 
     Parallelization info
     --------------------
     sticks:   dense  smooth     PW     G-vecs:    dense   smooth      PW
     Min         259     104     30                10433     2636     432
     Max         260     105     31                10436     2639     435
     Sum        2593    1041    305               104341    26375    4333
 
     Using Slab Decomposition
 


     bravais-lattice index     =            0
     lattice parameter (alat)  =       7.3699  a.u.
     unit-cell volume          =     420.8329 (a.u.)^3
     number of atoms/cell      =            5
     number of atomic types    =            3
     number of electrons       =        44.00
     number of Kohn-Sham states=           22
     kinetic-energy cutoff     =      60.0000  Ry
     charge density cutoff     =     600.0000  Ry
     scf convergence threshold =      1.0E-08
     mixing beta               =       0.7000
     number of iterations used =            8  plain     mixing
     energy convergence thresh.=      1.0E-04
     force convergence thresh. =      1.0E-03
     Exchange-correlation= SLA  PZ   NOGX NOGC
                           (   1   1   0   0   0   0   0)
     nstep                     =           50


     celldm(1)=   7.369932  celldm(2)=   0.000000  celldm(3)=   0.000000
     celldm(4)=   0.000000  celldm(5)=   0.000000  celldm(6)=   0.000000

     crystal axes: (cart. coord. in units of alat)
               a(1) = (   1.000000   0.000000   0.000000 )  
               a(2) = (   0.000000   1.000000   0.000000 )  
               a(3) = (   0.000000   0.000000   1.051282 )  

     reciprocal axes: (cart. coord. in units 2 pi/alat)
               b(1) = (  1.000000  0.000000  0.000000 )  
               b(2) = (  0.000000  1.000000  0.000000 )  
               b(3) = (  0.000000  0.000000  0.951220 )  


     PseudoPot. # 1 for Pb read from file:
     /scratch/11018/zhc/assisgnment3/input_files/Pb_LDA.UPF
     MD5 check sum: 062a37469794d955244864f8fe2e5624
     Pseudo is Ultrasoft + core correction, Zval = 14.0
     Generated by new atomic code, or converted to UPF format
     Using radial grid of  899 points,  6 beta functions with: 
                l(1) =   0
                l(2) =   0
                l(3) =   1
                l(4) =   1
                l(5) =   2
                l(6) =   2
     Q(r) pseudized with  6 coefficients,  rinner =    1.000   1.000   1.000
                                                       1.000   1.000

     PseudoPot. # 2 for Ti read from file:
     /scratch/11018/zhc/assisgnment3/input_files/Ti_LDA.UPF
     MD5 check sum: 0d9f225c038fe889ca2a701dcc8d72cb
     Pseudo is Ultrasoft + core correction, Zval = 12.0
     Generated by new atomic code, or converted to UPF format
     Using radial grid of  851 points,  6 beta functions with: 
                l(1) =   0
                l(2) =   0
                l(3) =   1
                l(4) =   1
                l(5) =   2
                l(6) =   2
     Q(r) pseudized with  6 coefficients,  rinner =    1.000   1.000   1.000
                                                       1.000   1.000

     PseudoPot. # 3 for O  read from file:
     /scratch/11018/zhc/assisgnment3/input_files/O_LDA.UPF
     MD5 check sum: 194b818514d2a7dbb603bb78519a4f40
     Pseudo is Ultrasoft + core correction, Zval =  6.0
     Generated by new atomic code, or converted to UPF format
     Using radial grid of  737 points,  5 beta functions with: 
                l(1) =   0
                l(2) =   0
                l(3) =   1
                l(4) =   1
                l(5) =   2
     Q(r) pseudized with  8 coefficients,  rinner =    0.900   0.900   0.900
                                                       0.900   0.900

     atomic species   valence    mass     pseudopotential
     Pb               14.00   207.20000     Pb( 1.00)
     Ti               12.00    47.88000     Ti( 1.00)
     O                 6.00    16.00000     O ( 1.00)

      8 Sym. Ops. (no inversion) found



   Cartesian axes

     site n.     atom                  positions (alat units)
         1        Pb     tau(   1) = (   0.0000000   0.0000000   1.0580339  )
         2        Ti     tau(   2) = (   0.5000000   0.5000000   0.5681377  )
         3        O      tau(   3) = (   0.5000000   0.5000000   0.1036357  )
         4        O      tau(   4) = (   0.5000000   0.0000000   0.6422586  )
         5        O      tau(   5) = (   0.0000000   0.5000000   0.6422586  )

     number of k points=    30
                       cart. coord. in units 2pi/alat
        k(    1) = (   0.0000000   0.0000000   0.0000000), wk =   0.0138889
        k(    2) = (   0.0000000   0.0000000   0.2378049), wk =   0.0277778
        k(    3) = (   0.0000000   0.0000000  -0.4756098), wk =   0.0138889
        k(    4) = (   0.0000000   0.1666667   0.0000000), wk =   0.0555556
        k(    5) = (   0.0000000   0.1666667   0.2378049), wk =   0.1111111
        k(    6) = (   0.0000000   0.1666667  -0.4756098), wk =   0.0555556
        k(    7) = (   0.0000000   0.3333333   0.0000000), wk =   0.0555556
        k(    8) = (   0.0000000   0.3333333   0.2378049), wk =   0.1111111
        k(    9) = (   0.0000000   0.3333333  -0.4756098), wk =   0.0555556
        k(   10) = (   0.0000000  -0.5000000   0.0000000), wk =   0.0277778
        k(   11) = (   0.0000000  -0.5000000   0.2378049), wk =   0.0555556
        k(   12) = (   0.0000000  -0.5000000  -0.4756098), wk =   0.0277778
        k(   13) = (   0.1666667   0.1666667   0.0000000), wk =   0.0555556
        k(   14) = (   0.1666667   0.1666667   0.2378049), wk =   0.1111111
        k(   15) = (   0.1666667   0.1666667  -0.4756098), wk =   0.0555556
        k(   16) = (   0.1666667   0.3333333   0.0000000), wk =   0.1111111
        k(   17) = (   0.1666667   0.3333333   0.2378049), wk =   0.2222222
        k(   18) = (   0.1666667   0.3333333  -0.4756098), wk =   0.1111111
        k(   19) = (   0.1666667  -0.5000000   0.0000000), wk =   0.0555556
        k(   20) = (   0.1666667  -0.5000000   0.2378049), wk =   0.1111111
        k(   21) = (   0.1666667  -0.5000000  -0.4756098), wk =   0.0555556
        k(   22) = (   0.3333333   0.3333333   0.0000000), wk =   0.0555556
        k(   23) = (   0.3333333   0.3333333   0.2378049), wk =   0.1111111
        k(   24) = (   0.3333333   0.3333333  -0.4756098), wk =   0.0555556
        k(   25) = (   0.3333333  -0.5000000   0.0000000), wk =   0.0555556
        k(   26) = (   0.3333333  -0.5000000   0.2378049), wk =   0.1111111
        k(   27) = (   0.3333333  -0.5000000  -0.4756098), wk =   0.0555556
        k(   28) = (  -0.5000000  -0.5000000   0.0000000), wk =   0.0138889
        k(   29) = (  -0.5000000  -0.5000000   0.2378049), wk =   0.0277778
        k(   30) = (  -0.5000000  -0.5000000  -0.4756098), wk =   0.0138889

     Dense  grid:   104341 G-vectors     FFT dimensions: (  60,  60,  64)

     Smooth grid:    26375 G-vectors     FFT dimensions: (  40,  40,  40)

     Estimated max dynamical RAM per process >      48.35 MB

     Estimated total dynamical RAM >     483.51 MB

     Check: negative core charge=   -0.000003

     Initial potential from superposition of free atoms

     starting charge      42.9982, renormalised to      44.0000

     negative rho (up, down):  1.705E-02 0.000E+00
     Starting wfcs are   31 randomized atomic wfcs

     total cpu time spent up to now is        0.8 secs

     Self-consistent Calculation

     iteration #  1     ecut=    60.00 Ry     beta= 0.70
     CG style diagonalization
     ethr =  1.00E-02,  avg # of iterations =  2.1

     negative rho (up, down):  1.437E-02 0.000E+00

     total cpu time spent up to now is        1.5 secs

     total energy              =    -380.04866896 Ry
     estimated scf accuracy    <       1.03335072 Ry

     iteration #  2     ecut=    60.00 Ry     beta= 0.70
     CG style diagonalization
     ethr =  2.35E-03,  avg # of iterations =  4.9

     negative rho (up, down):  1.455E-02 0.000E+00

     total cpu time spent up to now is        2.7 secs

     total energy              =    -379.55413895 Ry
     estimated scf accuracy    <       5.13329481 Ry

     iteration #  3     ecut=    60.00 Ry     beta= 0.70
     CG style diagonalization
     ethr =  2.35E-03,  avg # of iterations =  4.5

     negative rho (up, down):  1.527E-02 0.000E+00

     total cpu time spent up to now is        3.8 secs

     total energy              =    -380.53378051 Ry
     estimated scf accuracy    <       0.36615482 Ry

     iteration #  4     ecut=    60.00 Ry     beta= 0.70
     CG style diagonalization
     ethr =  8.32E-04,  avg # of iterations =  3.4

     negative rho (up, down):  1.531E-02 0.000E+00

     total cpu time spent up to now is        4.6 secs

     total energy              =    -380.55422073 Ry
     estimated scf accuracy    <       0.07203369 Ry

     iteration #  5     ecut=    60.00 Ry     beta= 0.70
     CG style diagonalization
     ethr =  1.64E-04,  avg # of iterations =  3.7

     negative rho (up, down):  1.534E-02 0.000E+00

     total cpu time spent up to now is        5.5 secs

     total energy              =    -380.56724138 Ry
     estimated scf accuracy    <       0.00931497 Ry

     iteration #  6     ecut=    60.00 Ry     beta= 0.70
     CG style diagonalization
     ethr =  2.12E-05,  avg # of iterations =  4.1

     negative rho (up, down):  1.534E-02 0.000E+00

     total cpu time spent up to now is        6.5 secs

     total energy              =    -380.57189814 Ry
     estimated scf accuracy    <       0.00657295 Ry

     iteration #  7     ecut=    60.00 Ry     beta= 0.70
     CG style diagonalization
     ethr =  1.49E-05,  avg # of iterations =  3.2

     negative rho (up, down):  1.534E-02 0.000E+00

     total cpu time spent up to now is        7.3 secs

     total energy              =    -380.57169074 Ry
     estimated scf accuracy    <       0.00239068 Ry

     iteration #  8     ecut=    60.00 Ry     beta= 0.70
     CG style diagonalization
     ethr =  5.43E-06,  avg # of iterations =  3.6

     negative rho (up, down):  1.536E-02 0.000E+00

     total cpu time spent up to now is        8.1 secs

     total energy              =    -380.57209648 Ry
     estimated scf accuracy    <       0.00001596 Ry

     iteration #  9     ecut=    60.00 Ry     beta= 0.70
     CG style diagonalization
     ethr =  3.63E-08,  avg # of iterations =  7.2

     negative rho (up, down):  1.540E-02 0.000E+00

     total cpu time spent up to now is        9.8 secs

     total energy              =    -380.57216418 Ry
     estimated scf accuracy    <       0.00002172 Ry

     iteration # 10     ecut=    60.00 Ry     beta= 0.70
     CG style diagonalization
     ethr =  3.63E-08,  avg # of iterations =  3.2

     negative rho (up, down):  1.549E-02 0.000E+00

     total cpu time spent up to now is       10.6 secs

     total energy              =    -380.57215994 Ry
     estimated scf accuracy    <       0.00001173 Ry

     iteration # 11     ecut=    60.00 Ry     beta= 0.70
     CG style diagonalization
     ethr =  2.67E-08,  avg # of iterations =  3.9

     negative rho (up, down):  1.549E-02 0.000E+00

     total cpu time spent up to now is       11.6 secs

     total energy              =    -380.57216327 Ry
     estimated scf accuracy    <       0.00000400 Ry

     iteration # 12     ecut=    60.00 Ry     beta= 0.70
     CG style diagonalization
     ethr =  9.09E-09,  avg # of iterations =  4.2

     negative rho (up, down):  1.550E-02 0.000E+00

     total cpu time spent up to now is       12.6 secs

     total energy              =    -380.57216462 Ry
     estimated scf accuracy    <       0.00000005 Ry

     iteration # 13     ecut=    60.00 Ry     beta= 0.70
     CG style diagonalization
     c_bands:  1 eigenvalues not converged
     c_bands:  2 eigenvalues not converged
     c_bands:  1 eigenvalues not converged
     c_bands:  1 eigenvalues not converged
     c_bands:  2 eigenvalues not converged
     c_bands:  2 eigenvalues not converged
     c_bands:  2 eigenvalues not converged
     c_bands:  1 eigenvalues not converged
     c_bands:  1 eigenvalues not converged
     ethr =  1.03E-10,  avg # of iterations = 12.6

     negative rho (up, down):  1.550E-02 0.000E+00

     total cpu time spent up to now is       15.5 secs

     total energy              =    -380.57216571 Ry
     estimated scf accuracy    <       0.00000004 Ry

     iteration # 14     ecut=    60.00 Ry     beta= 0.70
     CG style diagonalization
     ethr =  8.65E-11,  avg # of iterations =  3.7

     negative rho (up, down):  1.550E-02 0.000E+00

     total cpu time spent up to now is       16.4 secs

     total energy              =    -380.57216569 Ry
     estimated scf accuracy    <       0.00000004 Ry

     iteration # 15     ecut=    60.00 Ry     beta= 0.70
     CG style diagonalization
     ethr =  8.65E-11,  avg # of iterations =  3.7

     negative rho (up, down):  1.551E-02 0.000E+00

     total cpu time spent up to now is       17.3 secs

     End of self-consistent calculation

          k = 0.0000 0.0000 0.0000 (  3279 PWs)   bands (ev):

   -45.8575 -22.4923 -22.4302 -22.4302  -7.5131  -6.4336  -6.2005  -5.0271
    -5.0271  -4.9921  -4.8707  -4.7662   4.2242   6.3078   6.3078   6.6264
     8.2747   8.2747   8.4913   8.7792   8.9399   8.9399

          k = 0.0000 0.0000 0.2378 (  3311 PWs)   bands (ev):

   -45.8572 -22.5118 -22.4294 -22.4294  -7.3202  -6.3748  -6.1428  -5.0423
    -5.0423  -4.9909  -4.8630  -4.8374   3.4624   6.3771   6.3771   6.7883
     8.0081   8.0081   8.4072   8.8276   9.0460   9.0460

          k = 0.0000 0.0000-0.4756 (  3276 PWs)   bands (ev):

   -45.8570 -22.5311 -22.4286 -22.4286  -7.1095  -6.3099  -6.0929  -5.0574
    -5.0574  -4.9896  -4.9145  -4.8572   2.9646   6.1480   6.4335   6.4335
     7.8244   7.8244   8.3269   9.1161   9.1161   9.9987

          k = 0.0000 0.1667 0.0000 (  3294 PWs)   bands (ev):

   -45.8572 -22.4916 -22.4473 -22.4294  -7.3782  -6.4043  -6.1716  -5.0478
    -5.0258  -5.0049  -4.8757  -4.7569   3.7957   6.3512   6.4168   6.6732
     8.1863   8.2984   8.4915   8.5699   8.6710   9.0383

          k = 0.0000 0.1667 0.2378 (  3291 PWs)   bands (ev):

   -45.8569 -22.5110 -22.4465 -22.4287  -7.2011  -6.3612  -6.1085  -5.0459
    -5.0414  -5.0041  -4.8728  -4.7935   3.2510   6.1630   6.4934   6.8887
     7.6644   7.9989   8.2720   8.6927   8.7202   9.3664

          k = 0.0000 0.1667-0.4756 (  3286 PWs)   bands (ev):

   -45.8567 -22.5302 -22.4456 -22.4279  -7.0170  -6.3122  -6.0444  -5.0570
    -5.0413  -5.0033  -4.8806  -4.8266   2.8360   5.8587   6.5527   6.5788
     7.4667   7.8272   8.3381   8.7472   8.7946   9.9278

          k = 0.0000 0.3333 0.0000 (  3308 PWs)   bands (ev):

   -45.8566 -22.4905 -22.4811 -22.4280  -7.0846  -6.3413  -6.1278  -5.0808
    -5.0304  -5.0229  -4.8735  -4.7651   3.2189   5.9807   6.6728   6.7026
     7.8547   7.8761   8.3458   8.4082   8.7759   9.6136

          k = 0.0000 0.3333 0.2378 (  3298 PWs)   bands (ev):

   -45.8563 -22.5092 -22.4804 -22.4272  -6.9703  -6.3024  -6.0450  -5.0510
    -5.0397  -5.0304  -4.8698  -4.7392   2.8951   5.8686   6.5589   6.7998
     7.3093   7.7478   7.8610   8.4053   8.9369   9.6819

          k = 0.0000 0.3333-0.4756 (  3296 PWs)   bands (ev):

   -45.8560 -22.5282 -22.4795 -22.4264  -6.8855  -6.2399  -5.9347  -5.0561
    -5.0305  -5.0129  -4.9065  -4.6901   2.6070   5.5745   6.3165   6.8546
     7.2009   7.3659   7.6890   8.4122   9.3282   9.5162

          k = 0.0000-0.5000 0.0000 (  3326 PWs)   bands (ev):

   -45.8562 -22.4987 -22.4891 -22.4273  -6.9220  -6.2945  -6.1292  -5.0962
    -5.0429  -5.0216  -4.8472  -4.7992   3.0108   5.6183   6.9603   6.9707
     7.3499   7.4687   8.2689   8.4486   8.8118  10.3562

          k = 0.0000-0.5000 0.2378 (  3294 PWs)   bands (ev):

   -45.8560 -22.5081 -22.4975 -22.4265  -6.8701  -6.2234  -6.0368  -5.0637
    -5.0435  -5.0387  -4.8402  -4.7353   2.7518   5.5905   6.5917   6.8580
     7.1646   7.3164   7.9702   8.3936   8.9301   9.8619

          k = 0.0000-0.5000-0.4756 (  3280 PWs)   bands (ev):

   -45.8557 -22.5270 -22.4964 -22.4256  -6.8554  -6.1469  -5.8827  -5.0556
    -5.0440  -5.0238  -4.8931  -4.6341   2.5126   5.4246   6.0399   6.9193
     7.1687   7.3707   7.3746   8.3573   9.1474   9.6531

          k = 0.1667 0.1667 0.0000 (  3291 PWs)   bands (ev):

   -45.8569 -22.4909 -22.4467 -22.4464  -7.2459  -6.3741  -6.1642  -5.0533
    -5.0399  -5.0071  -4.8544  -4.7481   3.4995   6.2926   6.5223   6.7213
     7.7672   7.8513   8.5444   8.5677   8.8871   9.2660

          k = 0.1667 0.1667 0.2378 (  3304 PWs)   bands (ev):

   -45.8566 -22.5101 -22.4458 -22.4456  -7.0798  -6.3502  -6.1017  -5.0558
    -5.0353  -5.0004  -4.8458  -4.7625   3.1379   6.1081   6.1888   6.8517
     7.5506   7.5530   8.3749   8.7469   8.9717   9.3179

          k = 0.1667 0.1667-0.4756 (  3298 PWs)   bands (ev):

   -45.8563 -22.5293 -22.4449 -22.4448  -6.9138  -6.3261  -6.0291  -5.0669
    -5.0166  -4.9774  -4.8534  -4.7819   2.8091   5.9087   5.9190   6.5856
     7.4563   7.4709   8.2677   8.8170   9.0317   9.6357

          k = 0.1667 0.3333 0.0000 (  3313 PWs)   bands (ev):

   -45.8562 -22.4898 -22.4802 -22.4450  -6.9613  -6.3123  -6.1635  -5.0756
    -5.0301  -4.9904  -4.8316  -4.7557   3.0306   5.9853   6.5407   6.8252
     7.2115   7.8045   8.0610   8.7216   8.8995   9.6945

          k = 0.1667 0.3333 0.2378 (  3297 PWs)   bands (ev):

   -45.8560 -22.5085 -22.4796 -22.4442  -6.8445  -6.3055  -6.0942  -5.0537
    -5.0307  -4.9670  -4.8137  -4.7152   2.9030   5.8355   6.0048   6.4894
     6.9297   7.5764   8.4104   8.7018   9.0262   9.4112

          k = 0.1667 0.3333-0.4756 (  3300 PWs)   bands (ev):

   -45.8557 -22.5273 -22.4787 -22.4433  -6.7628  -6.2854  -5.9898  -5.0506
    -5.0079  -4.9281  -4.8261  -4.6643   2.7383   5.5162   5.9216   6.2224
     6.4319   7.4291   8.5145   8.7401   8.9214   9.4495

          k = 0.1667-0.5000 0.0000 (  3318 PWs)   bands (ev):

   -45.8559 -22.4977 -22.4884 -22.4442  -6.8052  -6.2675  -6.1863  -5.0787
    -5.0230  -4.9686  -4.8123  -4.7903   2.8442   5.6349   6.6963   6.8507
     7.1893   7.4653   7.9757   8.7811   8.8792   9.9764

          k = 0.1667-0.5000 0.2378 (  3316 PWs)   bands (ev):

   -45.8557 -22.5074 -22.4966 -22.4434  -6.7439  -6.2364  -6.1151  -5.0525
    -5.0185  -4.9444  -4.7951  -4.7086   2.7941   5.5964   5.9122   6.2778
     6.8767   7.7197   8.1791   8.7165   9.0175   9.3828

          k = 0.1667-0.5000-0.4756 (  3304 PWs)   bands (ev):

   -45.8554 -22.5262 -22.4956 -22.4426  -6.7322  -6.2067  -5.9751  -5.0459
    -4.9812  -4.9208  -4.8105  -4.6089   2.7037   5.3941   5.7824   5.8876
     6.3060   7.5405   8.3018   8.6579   8.6653   9.6612

          k = 0.3333 0.3333 0.0000 (  3313 PWs)   bands (ev):

   -45.8556 -22.4885 -22.4788 -22.4782  -6.7175  -6.2549  -6.2168  -5.0580
    -5.0124  -4.9222  -4.7590  -4.7526   2.6718   5.9493   6.0851   6.9498
     7.0873   7.2645   7.8803   8.5184   9.3850   9.4060

          k = 0.3333 0.3333 0.2378 (  3310 PWs)   bands (ev):

   -45.8553 -22.5068 -22.4779 -22.4779  -6.5947  -6.3035  -6.1826  -5.0218
    -5.0058  -4.8623  -4.7083  -4.6819   2.8540   5.5997   5.6630   5.9395
     6.6063   7.0672   8.3843   8.9909   9.0199   9.4012

          k = 0.3333 0.3333-0.4756 (  3300 PWs)   bands (ev):

   -45.8551 -22.5256 -22.4771 -22.4771  -6.5331  -6.3484  -6.0770  -4.9995
    -4.9855  -4.7975  -4.6636  -4.6076   3.0206   5.2162   5.2357   5.7014
     6.3522   6.5134   7.6504   9.3560   9.3701   9.5316

          k = 0.3333-0.5000 0.0000 (  3308 PWs)   bands (ev):

   -45.8553 -22.4958 -22.4872 -22.4776  -6.6072  -6.2331  -6.2183  -5.0508
    -4.9909  -4.8605  -4.7919  -4.7187   2.5046   5.6147   6.1204   6.7800
     7.3018   7.4047   7.4996   8.4938   9.0787   9.5728

          k = 0.3333-0.5000 0.2378 (  3316 PWs)   bands (ev):

   -45.8550 -22.5058 -22.4949 -22.4771  -6.4877  -6.2658  -6.2387  -5.0138
    -4.9805  -4.7724  -4.7111  -4.6494   2.7975   5.4974   5.5743   5.6827
     6.3896   7.1411   7.9045   8.9874   9.0183   9.5535

          k = 0.3333-0.5000-0.4756 (  3296 PWs)   bands (ev):

   -45.8548 -22.5245 -22.4939 -22.4763  -6.4818  -6.3096  -6.1150  -4.9857
    -4.9629  -4.7092  -4.6302  -4.5549   3.1664   4.9604   5.1464   5.4571
     6.1411   6.5286   6.8811   9.4558   9.5253   9.6829

          k =-0.5000-0.5000 0.0000 (  3312 PWs)   bands (ev):

   -45.8550 -22.4949 -22.4949 -22.4858  -6.5570  -6.1966  -6.1966  -5.0412
    -4.9491  -4.8094  -4.8094  -4.6716   2.3354   5.4596   5.9629   6.9991
     6.9991   7.5186   7.5186   8.2484   8.5814   9.8301

          k =-0.5000-0.5000 0.2378 (  3304 PWs)   bands (ev):

   -45.8547 -22.5048 -22.4940 -22.4940  -6.3669  -6.2816  -6.2816  -5.0030
    -4.9472  -4.6710  -4.6710  -4.6376   2.7453   5.4132   5.6166   5.6166
     5.9691   7.0818   7.2559   9.0192   9.0192   9.8147

          k =-0.5000-0.5000-0.4756 (  3296 PWs)   bands (ev):

   -45.8545 -22.5236 -22.4931 -22.4931  -6.3551  -6.3551  -6.1728  -4.9649
    -4.9454  -4.5927  -4.5421  -4.5421   3.4111   4.9826   4.9826   5.2902
     5.8878   5.9752   6.2466   9.6938   9.6938   9.7993

     highest occupied level (ev):    10.3562

!    total energy              =    -380.57216570 Ry
     estimated scf accuracy    <          8.1E-09 Ry

     The total energy is the sum of the following terms:
     one-electron contribution =     -84.08556191 Ry
     hartree contribution      =      71.17004241 Ry
     xc contribution           =    -102.54248675 Ry
     ewald contribution        =    -265.11415945 Ry

     convergence has been achieved in  15 iterations

     negative rho (up, down):  1.551E-02 0.000E+00

     Forces acting on atoms (cartesian axes, Ry/au):

     atom    1 type  1   force =     0.00000000    0.00000000   -0.00792983
     atom    2 type  2   force =     0.00000000    0.00000000   -0.01226562
     atom    3 type  3   force =     0.00000000    0.00000000    0.02043215
     atom    4 type  3   force =     0.00000000    0.00000000   -0.00011835
     atom    5 type  3   force =     0.00000000    0.00000000   -0.00011835

     Total force =     0.025116     Total SCF correction =     0.000352


     Computing stress (Cartesian axis) and pressure


     negative rho (up, down):  1.551E-02 0.000E+00
          total   stress  (Ry/bohr**3)                   (kbar)     P=      -63.99
  -0.00042353   0.00000000   0.00000000          -62.30        0.00        0.00
   0.00000000  -0.00042353   0.00000000            0.00      -62.30        0.00
   0.00000000   0.00000000  -0.00045800            0.00        0.00      -67.37


     BFGS Geometry Optimization
     Energy error            =      0.0E+00 Ry
     Gradient error          =      2.0E-02 Ry/Bohr

     number of scf cycles    =   1
     number of bfgs steps    =   0

     energy             new  =    -380.5721656960 Ry

     new trust radius        =       0.0204321479 bohr
     new conv_thr            =       0.0000000100 Ry


ATOMIC_POSITIONS (crystal)
Pb               0.0000000000        0.0000000000        1.0053990237
Ti               0.5000000000        0.5000000000        0.5388406021
O                0.5000000000        0.5000000000        0.1012174295
O                0.5000000000        0.0000000000        0.6109136163
O                0.0000000000        0.5000000000        0.6109136163



     Writing config-only to output data dir ./pto_60.save/ :
     XML data file
     NEW-OLD atomic charge density approx. for the potential

     Check: negative core charge=   -0.000003

     negative rho (up, down):  1.542E-02 0.000E+00

     total cpu time spent up to now is       18.9 secs

     Self-consistent Calculation

     iteration #  1     ecut=    60.00 Ry     beta= 0.70
     CG style diagonalization
     c_bands:  3 eigenvalues not converged
     c_bands:  1 eigenvalues not converged
     c_bands:  1 eigenvalues not converged
     c_bands:  1 eigenvalues not converged
     ethr =  1.00E-06,  avg # of iterations =  6.7

     negative rho (up, down):  1.538E-02 0.000E+00

     total cpu time spent up to now is       20.6 secs

     total energy              =    -380.57254027 Ry
     estimated scf accuracy    <       0.00023780 Ry

     iteration #  2     ecut=    60.00 Ry     beta= 0.70
     CG style diagonalization
     ethr =  5.40E-07,  avg # of iterations =  4.7

     negative rho (up, down):  1.539E-02 0.000E+00

     total cpu time spent up to now is       21.8 secs

     total energy              =    -380.57251422 Ry
     estimated scf accuracy    <       0.00068202 Ry

     iteration #  3     ecut=    60.00 Ry     beta= 0.70
     CG style diagonalization
     ethr =  5.40E-07,  avg # of iterations =  4.3

     negative rho (up, down):  1.539E-02 0.000E+00

     total cpu time spent up to now is       22.8 secs

     total energy              =    -380.57264970 Ry
     estimated scf accuracy    <       0.00005700 Ry

     iteration #  4     ecut=    60.00 Ry     beta= 0.70
     CG style diagonalization
     ethr =  1.30E-07,  avg # of iterations =  3.7

     negative rho (up, down):  1.539E-02 0.000E+00

     total cpu time spent up to now is       23.7 secs

     total energy              =    -380.57266330 Ry
     estimated scf accuracy    <       0.00000596 Ry

     iteration #  5     ecut=    60.00 Ry     beta= 0.70
     CG style diagonalization
     ethr =  1.35E-08,  avg # of iterations =  4.2

     negative rho (up, down):  1.539E-02 0.000E+00

     total cpu time spent up to now is       24.7 secs

     total energy              =    -380.57266663 Ry
     estimated scf accuracy    <       0.00000067 Ry

     iteration #  6     ecut=    60.00 Ry     beta= 0.70
     CG style diagonalization
     ethr =  1.52E-09,  avg # of iterations =  4.5

     negative rho (up, down):  1.539E-02 0.000E+00

     total cpu time spent up to now is       25.8 secs

     total energy              =    -380.57266702 Ry
     estimated scf accuracy    <       0.00000032 Ry

     iteration #  7     ecut=    60.00 Ry     beta= 0.70
     CG style diagonalization
     ethr =  7.34E-10,  avg # of iterations =  3.9

     negative rho (up, down):  1.539E-02 0.000E+00

     total cpu time spent up to now is       26.8 secs

     total energy              =    -380.57266709 Ry
     estimated scf accuracy    <       0.00000008 Ry

     iteration #  8     ecut=    60.00 Ry     beta= 0.70
     CG style diagonalization
     ethr =  1.74E-10,  avg # of iterations =  4.3

     negative rho (up, down):  1.539E-02 0.000E+00

     total cpu time spent up to now is       27.8 secs

     End of self-consistent calculation

          k = 0.0000 0.0000 0.0000 (  3279 PWs)   bands (ev):

   -45.8223 -22.4794 -22.3943 -22.3943  -7.5104  -6.4276  -6.2112  -5.0296
    -5.0296  -4.9965  -4.8781  -4.7639   4.2144   6.3114   6.3114   6.6563
     8.2067   8.2067   8.4926   8.7220   8.9485   8.9485

          k = 0.0000 0.0000 0.2378 (  3311 PWs)   bands (ev):

   -45.8220 -22.4990 -22.3935 -22.3935  -7.3146  -6.3686  -6.1558  -5.0448
    -5.0448  -4.9952  -4.8703  -4.8352   3.4482   6.3711   6.3711   6.8036
     7.9655   7.9655   8.4081   8.8092   9.0514   9.0514

          k = 0.0000 0.0000-0.4756 (  3276 PWs)   bands (ev):

   -45.8217 -22.5184 -22.3928 -22.3928  -7.0999  -6.3036  -6.1095  -5.0598
    -5.0598  -4.9939  -4.9125  -4.8644   2.9433   6.1613   6.4147   6.4147
     7.8040   7.8040   8.3274   9.1213   9.1213  10.0018

          k = 0.0000 0.1667 0.0000 (  3294 PWs)   bands (ev):

   -45.8219 -22.4787 -22.4115 -22.3936  -7.3759  -6.3989  -6.1833  -5.0508
    -5.0283  -5.0092  -4.8810  -4.7546   3.7907   6.3533   6.4211   6.6854
     8.1544   8.2318   8.4840   8.5766   8.6510   9.0151

          k = 0.0000 0.1667 0.2378 (  3291 PWs)   bands (ev):

   -45.8217 -22.4981 -22.4107 -22.3928  -7.1959  -6.3558  -6.1226  -5.0485
    -5.0439  -5.0084  -4.8786  -4.7913   3.2412   6.1549   6.4885   6.9009
     7.6419   7.9589   8.2701   8.6766   8.7224   9.3651

          k = 0.0000 0.1667-0.4756 (  3286 PWs)   bands (ev):

   -45.8214 -22.5175 -22.4098 -22.3920  -7.0080  -6.3068  -6.0618  -5.0594
    -5.0437  -5.0076  -4.8860  -4.8249   2.8204   5.8458   6.5348   6.5894
     7.4558   7.8071   8.3445   8.7306   8.7995   9.9350

          k = 0.0000 0.3333 0.0000 (  3308 PWs)   bands (ev):

   -45.8213 -22.4772 -22.4458 -22.3922  -7.0830  -6.3376  -6.1420  -5.0836
    -5.0346  -5.0254  -4.8747  -4.7635   3.2168   5.9887   6.6707   6.7093
     7.8510   7.8837   8.3366   8.3465   8.7404   9.6011

          k = 0.0000 0.3333 0.2378 (  3298 PWs)   bands (ev):

   -45.8210 -22.4964 -22.4448 -22.3914  -6.9652  -6.2998  -6.0615  -5.0535
    -5.0421  -5.0346  -4.8723  -4.7366   2.8913   5.8675   6.5589   6.7981
     7.3042   7.7343   7.8601   8.3760   8.9221   9.6755

          k = 0.0000 0.3333-0.4756 (  3296 PWs)   bands (ev):

   -45.8208 -22.5154 -22.4437 -22.3905  -6.8777  -6.2370  -5.9544  -5.0585
    -5.0348  -5.0152  -4.9092  -4.6876   2.6012   5.5569   6.3288   6.8385
     7.1968   7.3779   7.6798   8.4029   9.2935   9.5287

          k = 0.0000-0.5000 0.0000 (  3326 PWs)   bands (ev):

   -45.8210 -22.4762 -22.4630 -22.3915  -6.9201  -6.2913  -6.1461  -5.0981
    -5.0471  -5.0241  -4.8444  -4.8004   3.0086   5.6343   6.9432   6.9805
     7.3612   7.4755   8.2685   8.3731   8.7749  10.3436

          k = 0.0000-0.5000 0.2378 (  3294 PWs)   bands (ev):

   -45.8207 -22.4953 -22.4618 -22.3906  -6.8647  -6.2205  -6.0571  -5.0655
    -5.0477  -5.0411  -4.8413  -4.7327   2.7498   5.6019   6.5857   6.8489
     7.1750   7.3026   7.9699   8.3510   8.9237   9.8456

          k = 0.0000-0.5000-0.4756 (  3280 PWs)   bands (ev):

   -45.8204 -22.5143 -22.4606 -22.3898  -6.8482  -6.1446  -5.9048  -5.0580
    -5.0483  -5.0253  -4.8943  -4.6317   2.5110   5.4176   6.0409   6.9144
     7.1420   7.3856   7.3879   8.3367   9.1444   9.6272

          k = 0.1667 0.1667 0.0000 (  3291 PWs)   bands (ev):

   -45.8216 -22.4780 -22.4109 -22.4106  -7.2445  -6.3690  -6.1763  -5.0562
    -5.0427  -5.0108  -4.8592  -4.7458   3.4964   6.3010   6.5257   6.7215
     7.7174   7.8503   8.5074   8.5720   8.8930   9.2245

          k = 0.1667 0.1667 0.2378 (  3304 PWs)   bands (ev):

   -45.8213 -22.4973 -22.4100 -22.4098  -7.0753  -6.3451  -6.1166  -5.0588
    -5.0381  -5.0038  -4.8512  -4.7600   3.1303   6.1022   6.1832   6.8546
     7.5384   7.5504   8.3352   8.7437   8.9697   9.3153

          k = 0.1667 0.1667-0.4756 (  3298 PWs)   bands (ev):

   -45.8211 -22.5165 -22.4091 -22.4090  -6.9056  -6.3210  -6.0473  -5.0701
    -5.0202  -4.9794  -4.8594  -4.7792   2.7962   5.8990   5.9040   6.5974
     7.4496   7.4733   8.2392   8.8141   9.0269   9.6431

          k = 0.1667 0.3333 0.0000 (  3313 PWs)   bands (ev):

   -45.8210 -22.4765 -22.4449 -22.4092  -6.9615  -6.3089  -6.1757  -5.0779
    -5.0329  -4.9945  -4.8344  -4.7537   3.0289   5.9962   6.5372   6.8313
     7.2084   7.7556   8.0637   8.7073   8.8930   9.6725

          k = 0.1667 0.3333 0.2378 (  3297 PWs)   bands (ev):

   -45.8207 -22.4956 -22.4439 -22.4084  -6.8409  -6.3027  -6.1095  -5.0565
    -5.0332  -4.9716  -4.8167  -4.7128   2.8994   5.8336   6.0005   6.4937
     6.9245   7.5746   8.3978   8.6831   9.0155   9.4036

          k = 0.1667 0.3333-0.4756 (  3300 PWs)   bands (ev):

   -45.8204 -22.5146 -22.4429 -22.4075  -6.7561  -6.2821  -6.0081  -5.0540
    -5.0109  -4.9326  -4.8288  -4.6619   2.7321   5.4994   5.9190   6.2269
     6.4404   7.4369   8.4814   8.7431   8.9230   9.4322

          k = 0.1667-0.5000 0.0000 (  3318 PWs)   bands (ev):

   -45.8207 -22.4755 -22.4620 -22.4084  -6.8060  -6.2647  -6.1992  -5.0807
    -5.0257  -4.9736  -4.8113  -4.7906   2.8425   5.6510   6.6770   6.8630
     7.2002   7.4734   7.9093   8.7794   8.8602   9.9696

          k = 0.1667-0.5000 0.2378 (  3316 PWs)   bands (ev):

   -45.8204 -22.4946 -22.4609 -22.4076  -6.7400  -6.2339  -6.1320  -5.0551
    -5.0207  -4.9511  -4.7952  -4.7069   2.7919   5.6073   5.9093   6.2712
     6.8733   7.7143   8.1802   8.6860   9.0194   9.3642

          k = 0.1667-0.5000-0.4756 (  3304 PWs)   bands (ev):

   -45.8201 -22.5135 -22.4598 -22.4068  -6.7261  -6.2044  -5.9934  -5.0491
    -4.9831  -4.9290  -4.8100  -4.6069   2.7013   5.3832   5.7832   5.8905
     6.3080   7.5514   8.2969   8.6363   8.6656   9.6380

          k = 0.3333 0.3333 0.0000 (  3313 PWs)   bands (ev):

   -45.8203 -22.4749 -22.4432 -22.4430  -6.7233  -6.2521  -6.2239  -5.0597
    -5.0155  -4.9246  -4.7586  -4.7565   2.6702   5.9551   6.1064   6.9334
     7.0875   7.2162   7.9031   8.5056   9.3880   9.3960

          k = 0.3333 0.3333 0.2378 (  3310 PWs)   bands (ev):

   -45.8201 -22.4939 -22.4423 -22.4421  -6.5947  -6.3006  -6.1948  -5.0235
    -5.0094  -4.8670  -4.7133  -4.6792   2.8509   5.5934   5.6599   5.9460
     6.6175   7.0658   8.3809   8.9792   8.9954   9.4023

          k = 0.3333 0.3333-0.4756 (  3300 PWs)   bands (ev):

   -45.8198 -22.5128 -22.4414 -22.4413  -6.5287  -6.3454  -6.0924  -5.0035
    -4.9874  -4.8055  -4.6669  -4.6047   3.0145   5.2071   5.2336   5.7046
     6.3558   6.5352   7.6490   9.3290   9.3761   9.5109

          k = 0.3333-0.5000 0.0000 (  3308 PWs)   bands (ev):

   -45.8200 -22.4739 -22.4601 -22.4422  -6.6175  -6.2361  -6.2164  -5.0524
    -4.9941  -4.8611  -4.7903  -4.7257   2.5027   5.6274   6.1424   6.7532
     7.2622   7.4148   7.5021   8.4897   9.0790   9.5787

          k = 0.3333-0.5000 0.2378 (  3316 PWs)   bands (ev):

   -45.8198 -22.4929 -22.4591 -22.4414  -6.4895  -6.2638  -6.2490  -5.0156
    -4.9840  -4.7793  -4.7093  -4.6519   2.7946   5.4910   5.5837   5.6811
     6.4018   7.1374   7.9101   8.9703   8.9969   9.5577

          k = 0.3333-0.5000-0.4756 (  3296 PWs)   bands (ev):

   -45.8195 -22.5118 -22.4582 -22.4405  -6.4783  -6.3076  -6.1290  -4.9887
    -4.9656  -4.7214  -4.6283  -4.5544   3.1614   4.9597   5.1334   5.4694
     6.1513   6.5412   6.8839   9.4309   9.5318   9.6609

          k =-0.5000-0.5000 0.0000 (  3312 PWs)   bands (ev):

   -45.8197 -22.4729 -22.4591 -22.4591  -6.5720  -6.1951  -6.1951  -5.0428
    -4.9531  -4.8061  -4.8061  -4.6837   2.3330   5.4703   5.9919   6.9658
     6.9658   7.5254   7.5254   8.2430   8.5943   9.8368

          k =-0.5000-0.5000 0.2378 (  3304 PWs)   bands (ev):

   -45.8194 -22.4919 -22.4583 -22.4583  -6.3809  -6.2799  -6.2799  -5.0048
    -4.9512  -4.6682  -4.6682  -4.6515   2.7420   5.4249   5.6054   5.6054
     5.9981   7.0776   7.2668   9.0017   9.0017   9.8213

          k =-0.5000-0.5000-0.4756 (  3296 PWs)   bands (ev):

   -45.8192 -22.5108 -22.4574 -22.4574  -6.3532  -6.3532  -6.1853  -4.9667
    -4.9494  -4.6090  -4.5397  -4.5397   3.4044   4.9742   4.9742   5.3036
     5.9009   6.0044   6.2423   9.6726   9.6726   9.8060

     highest occupied level (ev):    10.3436

!    total energy              =    -380.57266712 Ry
     estimated scf accuracy    <          3.7E-09 Ry

     The total energy is the sum of the following terms:
     one-electron contribution =     -84.30355369 Ry
     hartree contribution      =      71.28831397 Ry
     xc contribution           =    -102.55233123 Ry
     ewald contribution        =    -265.00509617 Ry

     convergence has been achieved in   8 iterations

     negative rho (up, down):  1.539E-02 0.000E+00

     Forces acting on atoms (cartesian axes, Ry/au):

     atom    1 type  1   force =     0.00000000    0.00000000   -0.00858540
     atom    2 type  2   force =     0.00000000    0.00000000   -0.00510468
     atom    3 type  3   force =     0.00000000    0.00000000    0.01144785
     atom    4 type  3   force =     0.00000000    0.00000000    0.00112112
     atom    5 type  3   force =     0.00000000    0.00000000    0.00112112

     Total force =     0.015275     Total SCF correction =     0.000109


     Computing stress (Cartesian axis) and pressure


     negative rho (up, down):  1.539E-02 0.000E+00
          total   stress  (Ry/bohr**3)                   (kbar)     P=      -58.72
  -0.00041258   0.00000000   0.00000000          -60.69        0.00        0.00
   0.00000000  -0.00041258   0.00000000            0.00      -60.69        0.00
   0.00000000   0.00000000  -0.00037238            0.00        0.00      -54.78

     Energy error            =      5.0E-04 Ry
     Gradient error          =      1.1E-02 Ry/Bohr

     number of scf cycles    =   2
     number of bfgs steps    =   1

     energy             old  =    -380.5721656960 Ry
     energy             new  =    -380.5726671195 Ry

     CASE: energy            _new < energy            _old

     new trust radius        =       0.0224753627 bohr
     new conv_thr            =       0.0000000005 Ry


ATOMIC_POSITIONS (crystal)
Pb               0.0000000000        0.0000000000        1.0033631796
Ti               0.5000000000        0.5000000000        0.5374875004
O                0.5000000000        0.5000000000        0.1041182709
O                0.5000000000        0.0000000000        0.6111576685
O                0.0000000000        0.5000000000        0.6111576685



     Writing config-only to output data dir ./pto_60.save/ :
     XML data file
     NEW-OLD atomic charge density approx. for the potential

     Check: negative core charge=   -0.000003

     negative rho (up, down):  1.533E-02 0.000E+00

     total cpu time spent up to now is       29.4 secs

     Self-consistent Calculation

     iteration #  1     ecut=    60.00 Ry     beta= 0.70
     CG style diagonalization
     c_bands:  1 eigenvalues not converged
     c_bands:  1 eigenvalues not converged
     c_bands:  1 eigenvalues not converged
     c_bands:  1 eigenvalues not converged
     ethr =  1.00E-06,  avg # of iterations =  7.1

     negative rho (up, down):  1.529E-02 0.000E+00

     total cpu time spent up to now is       31.2 secs

     total energy              =    -380.57284115 Ry
     estimated scf accuracy    <       0.00024344 Ry

     iteration #  2     ecut=    60.00 Ry     beta= 0.70
     CG style diagonalization
     ethr =  5.53E-07,  avg # of iterations =  4.6

     negative rho (up, down):  1.530E-02 0.000E+00

     total cpu time spent up to now is       32.3 secs

     total energy              =    -380.57281093 Ry
     estimated scf accuracy    <       0.00068628 Ry

     iteration #  3     ecut=    60.00 Ry     beta= 0.70
     CG style diagonalization
     ethr =  5.53E-07,  avg # of iterations =  4.2

     negative rho (up, down):  1.529E-02 0.000E+00

     total cpu time spent up to now is       33.3 secs

     total energy              =    -380.57294772 Ry
     estimated scf accuracy    <       0.00005933 Ry

     iteration #  4     ecut=    60.00 Ry     beta= 0.70
     CG style diagonalization
     ethr =  1.35E-07,  avg # of iterations =  3.7

     negative rho (up, down):  1.529E-02 0.000E+00

     total cpu time spent up to now is       34.2 secs

     total energy              =    -380.57296135 Ry
     estimated scf accuracy    <       0.00000618 Ry

     iteration #  5     ecut=    60.00 Ry     beta= 0.70
     CG style diagonalization
     ethr =  1.40E-08,  avg # of iterations =  4.2

     negative rho (up, down):  1.529E-02 0.000E+00

     total cpu time spent up to now is       35.2 secs

     total energy              =    -380.57296489 Ry
     estimated scf accuracy    <       0.00000059 Ry

     iteration #  6     ecut=    60.00 Ry     beta= 0.70
     CG style diagonalization
     ethr =  1.33E-09,  avg # of iterations =  4.7

     negative rho (up, down):  1.529E-02 0.000E+00

     total cpu time spent up to now is       36.3 secs

     total energy              =    -380.57296527 Ry
     estimated scf accuracy    <       0.00000033 Ry

     iteration #  7     ecut=    60.00 Ry     beta= 0.70
     CG style diagonalization
     ethr =  7.40E-10,  avg # of iterations =  4.0

     negative rho (up, down):  1.529E-02 0.000E+00

     total cpu time spent up to now is       37.3 secs

     total energy              =    -380.57296534 Ry
     estimated scf accuracy    <       0.00000008 Ry

     iteration #  8     ecut=    60.00 Ry     beta= 0.70
     CG style diagonalization
     ethr =  1.83E-10,  avg # of iterations =  4.4

     negative rho (up, down):  1.529E-02 0.000E+00

     total cpu time spent up to now is       38.4 secs

     total energy              =    -380.57296538 Ry
     estimated scf accuracy    <          3.9E-09 Ry

     iteration #  9     ecut=    60.00 Ry     beta= 0.70
     CG style diagonalization
     ethr =  8.89E-12,  avg # of iterations =  7.0

     negative rho (up, down):  1.529E-02 0.000E+00

     total cpu time spent up to now is       40.0 secs

     total energy              =    -380.57296540 Ry
     estimated scf accuracy    <          8.9E-10 Ry

     iteration # 10     ecut=    60.00 Ry     beta= 0.70
     CG style diagonalization
     ethr =  2.02E-12,  avg # of iterations =  4.9

     negative rho (up, down):  1.529E-02 0.000E+00

     total cpu time spent up to now is       41.2 secs

     End of self-consistent calculation

          k = 0.0000 0.0000 0.0000 (  3279 PWs)   bands (ev):

   -45.7870 -22.4685 -22.3586 -22.3586  -7.5134  -6.4300  -6.2197  -5.0287
    -5.0287  -4.9964  -4.8837  -4.7549   4.2051   6.3094   6.3094   6.6967
     8.1383   8.1383   8.4904   8.6625   8.9497   8.9497

          k = 0.0000 0.0000 0.2378 (  3311 PWs)   bands (ev):

   -45.7867 -22.4882 -22.3579 -22.3579  -7.3160  -6.3715  -6.1660  -5.0438
    -5.0438  -4.9952  -4.8754  -4.8256   3.4365   6.3587   6.3587   6.8239
     7.9223   7.9223   8.4055   8.7906   9.0495   9.0495

          k = 0.0000 0.0000-0.4756 (  3276 PWs)   bands (ev):

   -45.7864 -22.5077 -22.3571 -22.3571  -7.0991  -6.3072  -6.1219  -5.0588
    -5.0588  -4.9939  -4.9021  -4.8687   2.9250   6.1780   6.3888   6.3888
     7.7836   7.7836   8.3244   9.1186   9.1186  10.0034

          k = 0.0000 0.1667 0.0000 (  3294 PWs)   bands (ev):

   -45.7867 -22.4678 -22.3759 -22.3579  -7.3793  -6.4020  -6.1936  -5.0504
    -5.0273  -5.0091  -4.8836  -4.7455   3.7864   6.3516   6.4198   6.6998
     8.1219   8.1634   8.4749   8.5779   8.6220   8.9938

          k = 0.0000 0.1667 0.2378 (  3291 PWs)   bands (ev):

   -45.7864 -22.4873 -22.3751 -22.3571  -7.1977  -6.3595  -6.1344  -5.0473
    -5.0429  -5.0083  -4.8814  -4.7819   3.2338   6.1423   6.4769   6.9139
     7.6174   7.9170   8.2631   8.6585   8.7191   9.3625

          k = 0.0000 0.1667-0.4756 (  3286 PWs)   bands (ev):

   -45.7861 -22.5067 -22.3742 -22.3563  -7.0077  -6.3111  -6.0757  -5.0583
    -5.0417  -5.0076  -4.8880  -4.8161   2.8078   5.8307   6.5097   6.5984
     7.4430   7.7861   8.3420   8.7117   8.7977   9.9431

          k = 0.0000 0.3333 0.0000 (  3308 PWs)   bands (ev):

   -45.7860 -22.4662 -22.4103 -22.3565  -7.0871  -6.3427  -6.1563  -5.0824
    -5.0344  -5.0244  -4.8712  -4.7553   3.2156   5.9920   6.6668   6.7096
     7.8422   7.8855   8.2638   8.3433   8.7008   9.5934

          k = 0.0000 0.3333 0.2378 (  3298 PWs)   bands (ev):

   -45.7857 -22.4855 -22.4092 -22.3557  -6.9673  -6.3059  -6.0769  -5.0519
    -5.0411  -5.0344  -4.8705  -4.7273   2.8898   5.8612   6.5570   6.7894
     7.2922   7.7140   7.8579   8.3461   8.9031   9.6726

          k = 0.0000 0.3333-0.4756 (  3296 PWs)   bands (ev):

   -45.7855 -22.5046 -22.4082 -22.3549  -6.8781  -6.2435  -5.9714  -5.0574
    -5.0346  -5.0127  -4.9071  -4.6791   2.5985   5.5355   6.3394   6.8150
     7.1847   7.3860   7.6656   8.3906   9.2584   9.5432

          k = 0.0000-0.5000 0.0000 (  3326 PWs)   bands (ev):

   -45.7857 -22.4653 -22.4275 -22.3558  -6.9242  -6.2965  -6.1642  -5.0959
    -5.0468  -5.0230  -4.8338  -4.7971   3.0076   5.6455   6.9219   6.9826
     7.3690   7.4786   8.2634   8.2955   8.7340  10.3343

          k = 0.0000-0.5000 0.2378 (  3294 PWs)   bands (ev):

   -45.7854 -22.4845 -22.4263 -22.3550  -6.8666  -6.2268  -6.0761  -5.0629
    -5.0474  -5.0400  -4.8374  -4.7236   2.7503   5.6078   6.5777   6.8319
     7.1768   7.2835   7.9674   8.3074   8.9123   9.8352

          k = 0.0000-0.5000-0.4756 (  3280 PWs)   bands (ev):

   -45.7851 -22.5035 -22.4251 -22.3541  -6.8489  -6.1522  -5.9243  -5.0569
    -5.0481  -5.0222  -4.8896  -4.6236   2.5128   5.4047   6.0410   6.8979
     7.1107   7.3872   7.4039   8.3144   9.1444   9.6017

          k = 0.1667 0.1667 0.0000 (  3291 PWs)   bands (ev):

   -45.7863 -22.4670 -22.3754 -22.3750  -7.2486  -6.3727  -6.1875  -5.0555
    -5.0420  -5.0102  -4.8607  -4.7364   3.4930   6.3046   6.5257   6.7212
     7.6665   7.8429   8.4719   8.5724   8.8922   9.1834

          k = 0.1667 0.1667 0.2378 (  3304 PWs)   bands (ev):

   -45.7861 -22.4864 -22.3744 -22.3742  -7.0777  -6.3490  -6.1295  -5.0580
    -5.0369  -5.0031  -4.8532  -4.7505   3.1243   6.0915   6.1732   6.8563
     7.5223   7.5443   8.2946   8.7348   8.9626   9.3137

          k = 0.1667 0.1667-0.4756 (  3298 PWs)   bands (ev):

   -45.7858 -22.5057 -22.3735 -22.3733  -6.9061  -6.3250  -6.0620  -5.0695
    -5.0196  -4.9776  -4.8619  -4.7694   2.7858   5.8849   5.8876   6.6051
     7.4338   7.4740   8.2110   8.8047   9.0169   9.6524

          k = 0.1667 0.3333 0.0000 (  3313 PWs)   bands (ev):

   -45.7857 -22.4654 -22.4094 -22.3736  -6.9669  -6.3145  -6.1886  -5.0762
    -5.0319  -4.9942  -4.8325  -4.7447   3.0261   6.0021   6.5293   6.8348
     7.2009   7.7040   8.0654   8.6897   8.8803   9.6537

          k = 0.1667 0.3333 0.2378 (  3297 PWs)   bands (ev):

   -45.7854 -22.4847 -22.4084 -22.3728  -6.8441  -6.3085  -6.1235  -5.0553
    -5.0318  -4.9723  -4.8152  -4.7037   2.8961   5.8269   5.9907   6.4946
     6.9173   7.5705   8.3772   8.6634   8.9998   9.4000

          k = 0.1667 0.3333-0.4756 (  3300 PWs)   bands (ev):

   -45.7851 -22.5037 -22.4074 -22.3719  -6.7575  -6.2877  -6.0232  -5.0535
    -5.0099  -4.9335  -4.8266  -4.6535   2.7276   5.4793   5.9096   6.2294
     6.4441   7.4412   8.4465   8.7391   8.9265   9.4137

          k = 0.1667-0.5000 0.0000 (  3318 PWs)   bands (ev):

   -45.7854 -22.4645 -22.4265 -22.3728  -6.8119  -6.2705  -6.2139  -5.0786
    -5.0245  -4.9744  -4.8028  -4.7858   2.8394   5.6624   6.6524   6.8704
     7.2077   7.4787   7.8439   8.7715   8.8364   9.9661

          k = 0.1667-0.5000 0.2378 (  3316 PWs)   bands (ev):

   -45.7851 -22.4837 -22.4254 -22.3720  -6.7432  -6.2403  -6.1475  -5.0536
    -5.0189  -4.9540  -4.7900  -4.6987   2.7897   5.6130   5.8999   6.2617
     6.8685   7.7063   8.1748   8.6533   9.0148   9.3523

          k = 0.1667-0.5000-0.4756 (  3304 PWs)   bands (ev):

   -45.7848 -22.5027 -22.4243 -22.3711  -6.7279  -6.2113  -6.0085  -5.0485
    -4.9810  -4.9336  -4.8041  -4.5995   2.7003   5.3670   5.7736   5.8925
     6.3084   7.5583   8.2950   8.6057   8.6682   9.6128

          k = 0.3333 0.3333 0.0000 (  3313 PWs)   bands (ev):

   -45.7850 -22.4638 -22.4078 -22.4075  -6.7317  -6.2590  -6.2345  -5.0574
    -5.0145  -4.9222  -4.7599  -4.7467   2.6640   5.9558   6.1236   6.9101
     7.0900   7.1703   7.9206   8.4919   9.3827   9.3896

          k = 0.3333 0.3333 0.2378 (  3310 PWs)   bands (ev):

   -45.7848 -22.4829 -22.4068 -22.4066  -6.6004  -6.3065  -6.2064  -5.0212
    -5.0091  -4.8682  -4.7134  -4.6701   2.8435   5.5831   5.6541   5.9485
     6.6274   7.0640   8.3788   8.9637   8.9721   9.3959

          k = 0.3333 0.3333-0.4756 (  3300 PWs)   bands (ev):

   -45.7845 -22.5019 -22.4059 -22.4057  -6.5324  -6.3504  -6.1041  -5.0034
    -4.9854  -4.8109  -4.6654  -4.5964   3.0051   5.1970   5.2237   5.7055
     6.3583   6.5544   7.6556   9.2997   9.3732   9.4873

          k = 0.3333-0.5000 0.0000 (  3308 PWs)   bands (ev):

   -45.7847 -22.4629 -22.4246 -22.4067  -6.6275  -6.2457  -6.2241  -5.0500
    -4.9931  -4.8563  -4.7821  -4.7273   2.4947   5.6353   6.1606   6.7253
     7.2197   7.4216   7.5062   8.4838   9.0842   9.5762

          k = 0.3333-0.5000 0.2378 (  3316 PWs)   bands (ev):

   -45.7845 -22.4820 -22.4236 -22.4059  -6.4961  -6.2705  -6.2593  -5.0134
    -4.9835  -4.7834  -4.7018  -4.6483   2.7849   5.4828   5.5872   5.6785
     6.4123   7.1334   7.9216   8.9519   8.9728   9.5536

          k = 0.3333-0.5000-0.4756 (  3296 PWs)   bands (ev):

   -45.7842 -22.5009 -22.4227 -22.4050  -6.4825  -6.3135  -6.1390  -4.9879
    -4.9641  -4.7312  -4.6216  -4.5489   3.1487   4.9540   5.1195   5.4789
     6.1589   6.5517   6.8992   9.4035   9.5292   9.6366

          k =-0.5000-0.5000 0.0000 (  3312 PWs)   bands (ev):

   -45.7844 -22.4620 -22.4237 -22.4237  -6.5833  -6.2038  -6.2038  -5.0404
    -4.9528  -4.7952  -4.7952  -4.6932   2.3223   5.4763   6.0173   6.9326
     6.9326   7.5299   7.5299   8.2381   8.6114   9.8345

          k =-0.5000-0.5000 0.2378 (  3304 PWs)   bands (ev):

   -45.7841 -22.4810 -22.4227 -22.4227  -6.3908  -6.2868  -6.2868  -5.0024
    -4.9510  -4.6631  -4.6595  -4.6595   2.7279   5.4324   5.5944   5.5944
     6.0236   7.0733   7.2865   8.9821   8.9821   9.8191

          k =-0.5000-0.5000-0.4756 (  3296 PWs)   bands (ev):

   -45.7839 -22.5000 -22.4218 -22.4218  -6.3588  -6.3588  -6.1933  -4.9644
    -4.9491  -4.6232  -4.5328  -4.5328   3.3790   4.9666   4.9666   5.3140
     5.9318   6.0299   6.2365   9.6491   9.6491   9.8038

     highest occupied level (ev):    10.3343

!    total energy              =    -380.57296540 Ry
     estimated scf accuracy    <          1.3E-10 Ry

     The total energy is the sum of the following terms:
     one-electron contribution =     -84.64334084 Ry
     hartree contribution      =      71.46749368 Ry
     xc contribution           =    -102.56461714 Ry
     ewald contribution        =    -264.83250110 Ry

     convergence has been achieved in  10 iterations

     negative rho (up, down):  1.529E-02 0.000E+00

     Forces acting on atoms (cartesian axes, Ry/au):

     atom    1 type  1   force =     0.00000000    0.00000000   -0.00855628
     atom    2 type  2   force =     0.00000000    0.00000000    0.00272919
     atom    3 type  3   force =     0.00000000    0.00000000    0.00128330
     atom    4 type  3   force =     0.00000000    0.00000000    0.00227189
     atom    5 type  3   force =     0.00000000    0.00000000    0.00227189

     Total force =     0.009624     Total SCF correction =     0.000018


     Computing stress (Cartesian axis) and pressure


     negative rho (up, down):  1.529E-02 0.000E+00
          total   stress  (Ry/bohr**3)                   (kbar)     P=      -52.27
  -0.00039628   0.00000000   0.00000000          -58.29        0.00        0.00
   0.00000000  -0.00039628   0.00000000            0.00      -58.29        0.00
   0.00000000   0.00000000  -0.00027344            0.00        0.00      -40.22

     Energy error            =      3.0E-04 Ry
     Gradient error          =      8.6E-03 Ry/Bohr

     number of scf cycles    =   3
     number of bfgs steps    =   2

     energy             old  =    -380.5726671195 Ry
     energy             new  =    -380.5729654000 Ry

     CASE: energy            _new < energy            _old

     new trust radius        =       0.0190700348 bohr
     new conv_thr            =       0.0000000003 Ry


ATOMIC_POSITIONS (crystal)
Pb               0.0000000000        0.0000000000        1.0009018557
Ti               0.5000000000        0.5000000000        0.5372250378
O                0.5000000000        0.5000000000        0.1058473117
O                0.5000000000        0.0000000000        0.6116550414
O                0.0000000000        0.5000000000        0.6116550414



     Writing config-only to output data dir ./pto_60.save/ :
     XML data file
     NEW-OLD atomic charge density approx. for the potential

     Check: negative core charge=   -0.000003

     negative rho (up, down):  1.524E-02 0.000E+00

     total cpu time spent up to now is       42.7 secs

     Self-consistent Calculation

     iteration #  1     ecut=    60.00 Ry     beta= 0.70
     CG style diagonalization
     ethr =  1.00E-06,  avg # of iterations =  5.6

     negative rho (up, down):  1.521E-02 0.000E+00

     total cpu time spent up to now is       44.2 secs

     total energy              =    -380.57307452 Ry
     estimated scf accuracy    <       0.00005507 Ry

     iteration #  2     ecut=    60.00 Ry     beta= 0.70
     CG style diagonalization
     ethr =  1.25E-07,  avg # of iterations =  4.8

     negative rho (up, down):  1.521E-02 0.000E+00

     total cpu time spent up to now is       45.4 secs

     total energy              =    -380.57307936 Ry
     estimated scf accuracy    <       0.00013092 Ry

     iteration #  3     ecut=    60.00 Ry     beta= 0.70
     CG style diagonalization
     ethr =  1.25E-07,  avg # of iterations =  4.2

     negative rho (up, down):  1.520E-02 0.000E+00

     total cpu time spent up to now is       46.4 secs

     total energy              =    -380.57310727 Ry
     estimated scf accuracy    <       0.00001663 Ry

     iteration #  4     ecut=    60.00 Ry     beta= 0.70
     CG style diagonalization
     ethr =  3.78E-08,  avg # of iterations =  3.6

     negative rho (up, down):  1.520E-02 0.000E+00

     total cpu time spent up to now is       47.3 secs

     total energy              =    -380.57311080 Ry
     estimated scf accuracy    <       0.00000213 Ry

     iteration #  5     ecut=    60.00 Ry     beta= 0.70
     CG style diagonalization
     ethr =  4.83E-09,  avg # of iterations =  4.1

     negative rho (up, down):  1.520E-02 0.000E+00

     total cpu time spent up to now is       48.3 secs

     total energy              =    -380.57311187 Ry
     estimated scf accuracy    <       0.00000008 Ry

     iteration #  6     ecut=    60.00 Ry     beta= 0.70
     CG style diagonalization
     ethr =  1.85E-10,  avg # of iterations =  6.1

     negative rho (up, down):  1.520E-02 0.000E+00

     total cpu time spent up to now is       49.7 secs

     total energy              =    -380.57311205 Ry
     estimated scf accuracy    <       0.00000016 Ry

     iteration #  7     ecut=    60.00 Ry     beta= 0.70
     CG style diagonalization
     ethr =  1.85E-10,  avg # of iterations =  4.0

     negative rho (up, down):  1.520E-02 0.000E+00

     total cpu time spent up to now is       50.7 secs

     total energy              =    -380.57311207 Ry
     estimated scf accuracy    <       0.00000004 Ry

     iteration #  8     ecut=    60.00 Ry     beta= 0.70
     CG style diagonalization
     ethr =  8.23E-11,  avg # of iterations =  4.0

     negative rho (up, down):  1.520E-02 0.000E+00

     total cpu time spent up to now is       51.7 secs

     total energy              =    -380.57311208 Ry
     estimated scf accuracy    <          2.4E-09 Ry

     iteration #  9     ecut=    60.00 Ry     beta= 0.70
     CG style diagonalization
     ethr =  5.51E-12,  avg # of iterations =  6.1

     negative rho (up, down):  1.520E-02 0.000E+00

     total cpu time spent up to now is       53.2 secs

     End of self-consistent calculation

          k = 0.0000 0.0000 0.0000 (  3279 PWs)   bands (ev):

   -45.7737 -22.4663 -22.3457 -22.3457  -7.5237  -6.4444  -6.2205  -5.0227
    -5.0227  -4.9894  -4.8835  -4.7405   4.2017   6.3001   6.3001   6.7305
     8.1090   8.1090   8.4838   8.6336   8.9384   8.9384

          k = 0.0000 0.0000 0.2378 (  3311 PWs)   bands (ev):

   -45.7734 -22.4860 -22.3450 -22.3450  -7.3278  -6.3873  -6.1662  -5.0378
    -5.0378  -4.9881  -4.8740  -4.8098   3.4357   6.3444   6.3444   6.8410
     7.9035   7.9035   8.3988   8.7819   9.0365   9.0365

          k = 0.0000 0.0000-0.4756 (  3276 PWs)   bands (ev):

   -45.7731 -22.5055 -22.3442 -22.3442  -7.1130  -6.3247  -6.1210  -5.0528
    -5.0528  -4.9869  -4.8845  -4.8659   2.9222   6.1907   6.3687   6.3687
     7.7746   7.7746   8.3177   9.1044   9.1044  10.0014

          k = 0.0000 0.1667 0.0000 (  3294 PWs)   bands (ev):

   -45.7733 -22.4655 -22.3631 -22.3450  -7.3898  -6.4170  -6.1962  -5.0446
    -5.0213  -5.0020  -4.8805  -4.7308   3.7856   6.3442   6.4103   6.7109
     8.1110   8.1337   8.4647   8.5677   8.6020   8.9817

          k = 0.0000 0.1667 0.2378 (  3291 PWs)   bands (ev):

   -45.7731 -22.4851 -22.3622 -22.3442  -7.2095  -6.3753  -6.1364  -5.0406
    -5.0369  -5.0013  -4.8780  -4.7667   3.2346   6.1302   6.4628   6.9216
     7.6052   7.8977   8.2522   8.6465   8.7072   9.3593

          k = 0.0000 0.1667-0.4756 (  3286 PWs)   bands (ev):

   -45.7728 -22.5045 -22.3613 -22.3434  -7.0216  -6.3280  -6.0762  -5.0523
    -5.0340  -5.0005  -4.8834  -4.8011   2.8075   5.8211   6.4897   6.6004
     7.4355   7.7755   8.3268   8.6998   8.7855   9.9479

          k = 0.0000 0.3333 0.0000 (  3308 PWs)   bands (ev):

   -45.7727 -22.4640 -22.3975 -22.3436  -7.0978  -6.3587  -6.1635  -5.0757
    -5.0272  -5.0184  -4.8622  -4.7411   3.2170   5.9854   6.6639   6.6996
     7.8314   7.8791   8.2293   8.3344   8.6788   9.5976

          k = 0.0000 0.3333 0.2378 (  3298 PWs)   bands (ev):

   -45.7724 -22.4832 -22.3964 -22.3428  -6.9795  -6.3221  -6.0825  -5.0445
    -5.0350  -5.0273  -4.8628  -4.7126   2.8932   5.8503   6.5535   6.7757
     7.2772   7.6984   7.8551   8.3285   8.8895   9.6763

          k = 0.0000 0.3333-0.4756 (  3296 PWs)   bands (ev):

   -45.7722 -22.5024 -22.3954 -22.3419  -6.8913  -6.2612  -5.9750  -5.0513
    -5.0275  -5.0044  -4.8986  -4.6658   2.6029   5.5205   6.3403   6.7961
     7.1675   7.3839   7.6520   8.3789   9.2441   9.5521

          k = 0.0000-0.5000 0.0000 (  3326 PWs)   bands (ev):

   -45.7724 -22.4631 -22.4147 -22.3429  -6.9352  -6.3121  -6.1748  -5.0882
    -5.0397  -5.0170  -4.8167  -4.7884   3.0095   5.6422   6.9084   6.9707
     7.3660   7.4748   8.2531   8.2589   8.7110  10.3362

          k = 0.0000-0.5000 0.2378 (  3294 PWs)   bands (ev):

   -45.7721 -22.4823 -22.4135 -22.3420  -6.8791  -6.2441  -6.0829  -5.0548
    -5.0403  -5.0340  -4.8276  -4.7092   2.7548   5.6021   6.5702   6.8135
     7.1637   7.2703   7.9630   8.2853   8.9014   9.8392

          k = 0.0000-0.5000-0.4756 (  3280 PWs)   bands (ev):

   -45.7718 -22.5013 -22.4123 -22.3412  -6.8617  -6.1715  -5.9289  -5.0508
    -5.0409  -5.0136  -4.8785  -4.6113   2.5195   5.3920   6.0367   6.8732
     7.0929   7.3726   7.4092   8.3009   9.1544   9.5876

          k = 0.1667 0.1667 0.0000 (  3291 PWs)   bands (ev):

   -45.7730 -22.4648 -22.3625 -22.3621  -7.2591  -6.3884  -6.1917  -5.0494
    -5.0358  -5.0032  -4.8559  -4.7214   3.4913   6.2985   6.5198   6.7221
     7.6448   7.8310   8.4576   8.5670   8.8799   9.1674

          k = 0.1667 0.1667 0.2378 (  3304 PWs)   bands (ev):

   -45.7728 -22.4842 -22.3616 -22.3613  -7.0898  -6.3650  -6.1323  -5.0516
    -5.0299  -4.9963  -4.8488  -4.7354   3.1244   6.0809   6.1618   6.8560
     7.5137   7.5334   8.2758   8.7233   8.9494   9.3148

          k = 0.1667 0.1667-0.4756 (  3298 PWs)   bands (ev):

   -45.7725 -22.5035 -22.3606 -22.3605  -6.9202  -6.3415  -6.0629  -5.0630
    -5.0124  -4.9709  -4.8574  -4.7540   2.7856   5.8719   5.8796   6.6019
     7.4148   7.4716   8.1989   8.7920   9.0026   9.6595

          k = 0.1667 0.3333 0.0000 (  3313 PWs)   bands (ev):

   -45.7724 -22.4632 -22.3966 -22.3607  -6.9772  -6.3312  -6.1962  -5.0691
    -5.0255  -4.9872  -4.8241  -4.7299   3.0233   5.9966   6.5207   6.8329
     7.1896   7.6830   8.0609   8.6772   8.8649   9.6508

          k = 0.1667 0.3333 0.2378 (  3297 PWs)   bands (ev):

   -45.7721 -22.4824 -22.3956 -22.3599  -6.8563  -6.3247  -6.1284  -5.0483
    -5.0248  -4.9662  -4.8076  -4.6894   2.8955   5.8169   5.9789   6.4904
     6.9109   7.5658   8.3607   8.6491   8.9863   9.4032

          k = 0.1667 0.3333-0.4756 (  3300 PWs)   bands (ev):

   -45.7718 -22.5015 -22.3946 -22.3590  -6.7713  -6.3042  -6.0249  -5.0471
    -5.0028  -4.9281  -4.8181  -4.6406   2.7287   5.4659   5.8952   6.2282
     6.4374   7.4379   8.4314   8.7251   8.9326   9.4027

          k = 0.1667-0.5000 0.0000 (  3318 PWs)   bands (ev):

   -45.7721 -22.4623 -22.4137 -22.3600  -6.8219  -6.2871  -6.2241  -5.0711
    -5.0179  -4.9680  -4.7875  -4.7754   2.8360   5.6594   6.6365   6.8656
     7.2048   7.4765   7.8179   8.7580   8.8204   9.9702

          k = 0.1667-0.5000 0.2378 (  3316 PWs)   bands (ev):

   -45.7718 -22.4814 -22.4126 -22.3591  -6.7557  -6.2574  -6.1523  -5.0465
    -5.0118  -4.9491  -4.7795  -4.6851   2.7890   5.6074   5.8863   6.2536
     6.8639   7.6999   8.1633   8.6350   9.0045   9.3561

          k = 0.1667-0.5000-0.4756 (  3304 PWs)   bands (ev):

   -45.7715 -22.5004 -22.4115 -22.3583  -6.7412  -6.2288  -6.0100  -5.0420
    -4.9738  -4.9299  -4.7929  -4.5877   2.7026   5.3540   5.7536   5.8894
     6.3071   7.5552   8.3000   8.5904   8.6622   9.5983

          k = 0.3333 0.3333 0.0000 (  3313 PWs)   bands (ev):

   -45.7717 -22.4616 -22.3950 -22.3947  -6.7391  -6.2774  -6.2452  -5.0499
    -5.0074  -4.9135  -4.7531  -4.7311   2.6539   5.9481   6.1241   6.8988
     7.0868   7.1564   7.9191   8.4853   9.3672   9.3934

          k = 0.3333 0.3333 0.2378 (  3310 PWs)   bands (ev):

   -45.7715 -22.4807 -22.3940 -22.3938  -6.6117  -6.3231  -6.2110  -5.0137
    -5.0024  -4.8628  -4.7062  -4.6562   2.8333   5.5738   5.6494   5.9424
     6.6288   7.0632   8.3825   8.9519   8.9625   9.3804

          k = 0.3333 0.3333-0.4756 (  3300 PWs)   bands (ev):

   -45.7712 -22.4997 -22.3930 -22.3929  -6.5469  -6.3655  -6.1031  -4.9971
    -4.9779  -4.8086  -4.6579  -4.5840   2.9958   5.1925   5.2078   5.7022
     6.3573   6.5580   7.6725   9.2838   9.3583   9.4731

          k = 0.3333-0.5000 0.0000 (  3308 PWs)   bands (ev):

   -45.7714 -22.4606 -22.4118 -22.3939  -6.6313  -6.2609  -6.2427  -5.0425
    -4.9858  -4.8456  -4.7683  -4.7199   2.4814   5.6308   6.1612   6.7160
     7.2072   7.4167   7.5018   8.4795   9.0939   9.5617

          k = 0.3333-0.5000 0.2378 (  3316 PWs)   bands (ev):

   -45.7711 -22.4797 -22.4108 -22.3931  -6.5061  -6.2873  -6.2647  -5.0060
    -4.9767  -4.7800  -4.6897  -4.6379   2.7697   5.4778   5.5816   5.6753
     6.4127   7.1319   7.9366   8.9418   8.9585   9.5384

          k = 0.3333-0.5000-0.4756 (  3296 PWs)   bands (ev):

   -45.7709 -22.4987 -22.4099 -22.3922  -6.4967  -6.3288  -6.1368  -4.9811
    -4.9570  -4.7316  -4.6113  -4.5388   3.1311   4.9447   5.1135   5.4780
     6.1583   6.5521   6.9261   9.3887   9.5136   9.6233

          k =-0.5000-0.5000 0.0000 (  3312 PWs)   bands (ev):

   -45.7711 -22.4597 -22.4109 -22.4109  -6.5823  -6.2236  -6.2236  -5.0328
    -4.9459  -4.7787  -4.7787  -4.6931   2.3045   5.4709   6.0217   6.9257
     6.9257   7.5227   7.5227   8.2377   8.6254   9.8192

          k =-0.5000-0.5000 0.2378 (  3304 PWs)   bands (ev):

   -45.7708 -22.4788 -22.4100 -22.4100  -6.3888  -6.3035  -6.3035  -4.9949
    -4.9441  -4.6644  -4.6466  -4.6466   2.7046   5.4284   5.5919   5.5919
     6.0280   7.0717   7.3091   8.9705   8.9705   9.8039

          k =-0.5000-0.5000-0.4756 (  3296 PWs)   bands (ev):

   -45.7706 -22.4978 -22.4090 -22.4090  -6.3734  -6.3734  -6.1898  -4.9570
    -4.9423  -4.6263  -4.5226  -4.5226   3.3389   4.9660   4.9660   5.3132
     5.9730   6.0343   6.2318   9.6365   9.6365   9.7887

     highest occupied level (ev):    10.3362

!    total energy              =    -380.57311208 Ry
     estimated scf accuracy    <          2.8E-10 Ry

     The total energy is the sum of the following terms:
     one-electron contribution =     -84.96047350 Ry
     hartree contribution      =      71.62953915 Ry
     xc contribution           =    -102.57303025 Ry
     ewald contribution        =    -264.66914748 Ry

     convergence has been achieved in   9 iterations

     negative rho (up, down):  1.520E-02 0.000E+00

     Forces acting on atoms (cartesian axes, Ry/au):

     atom    1 type  1   force =     0.00000000    0.00000000   -0.00714428
     atom    2 type  2   force =     0.00000000    0.00000000    0.00538749
     atom    3 type  3   force =     0.00000000    0.00000000   -0.00359352
     atom    4 type  3   force =     0.00000000    0.00000000    0.00267515
     atom    5 type  3   force =     0.00000000    0.00000000    0.00267515

     Total force =     0.010358     Total SCF correction =     0.000036


     Computing stress (Cartesian axis) and pressure


     negative rho (up, down):  1.520E-02 0.000E+00
          total   stress  (Ry/bohr**3)                   (kbar)     P=      -47.92
  -0.00037999   0.00000000   0.00000000          -55.90        0.00        0.00
   0.00000000  -0.00037999   0.00000000            0.00      -55.90        0.00
   0.00000000   0.00000000  -0.00021723            0.00        0.00      -31.96

     Energy error            =      1.5E-04 Ry
     Gradient error          =      7.1E-03 Ry/Bohr

     number of scf cycles    =   4
     number of bfgs steps    =   3

     energy             old  =    -380.5729654000 Ry
     energy             new  =    -380.5731120830 Ry

     CASE: energy            _new < energy            _old

     new trust radius        =       0.0209770383 bohr
     new conv_thr            =       0.0000000001 Ry


ATOMIC_POSITIONS (crystal)
Pb               0.0000000000        0.0000000000        0.9981943995
Ti               0.5000000000        0.5000000000        0.5375035073
O                0.5000000000        0.5000000000        0.1069124611
O                0.5000000000        0.0000000000        0.6123369600
O                0.0000000000        0.5000000000        0.6123369600



     Writing config-only to output data dir ./pto_60.save/ :
     XML data file
     NEW-OLD atomic charge density approx. for the potential

     Check: negative core charge=   -0.000003

     negative rho (up, down):  1.533E-02 0.000E+00

     total cpu time spent up to now is       54.7 secs

     Self-consistent Calculation

     iteration #  1     ecut=    60.00 Ry     beta= 0.70
     CG style diagonalization
     ethr =  1.00E-06,  avg # of iterations =  5.4

     Threshold (ethr) on eigenvalues was too large:
     Diagonalizing with lowered threshold

     CG style diagonalization
     c_bands:  1 eigenvalues not converged
     c_bands:  1 eigenvalues not converged
     c_bands:  1 eigenvalues not converged
     ethr =  4.32E-08,  avg # of iterations =  5.9

     negative rho (up, down):  1.529E-02 0.000E+00

     total cpu time spent up to now is       57.6 secs

     total energy              =    -380.57323374 Ry
     estimated scf accuracy    <       0.00002084 Ry

     iteration #  2     ecut=    60.00 Ry     beta= 0.70
     CG style diagonalization
     ethr =  4.74E-08,  avg # of iterations =  4.2

     negative rho (up, down):  1.528E-02 0.000E+00

     total cpu time spent up to now is       58.7 secs

     total energy              =    -380.57323330 Ry
     estimated scf accuracy    <       0.00001703 Ry

     iteration #  3     ecut=    60.00 Ry     beta= 0.70
     CG style diagonalization
     ethr =  3.87E-08,  avg # of iterations =  4.1

     negative rho (up, down):  1.527E-02 0.000E+00

     total cpu time spent up to now is       59.6 secs

     total energy              =    -380.57323778 Ry
     estimated scf accuracy    <       0.00001131 Ry

     iteration #  4     ecut=    60.00 Ry     beta= 0.70
     CG style diagonalization
     ethr =  2.57E-08,  avg # of iterations =  3.5

     negative rho (up, down):  1.527E-02 0.000E+00

     total cpu time spent up to now is       60.5 secs

     total energy              =    -380.57323953 Ry
     estimated scf accuracy    <       0.00000013 Ry

     iteration #  5     ecut=    60.00 Ry     beta= 0.70
     CG style diagonalization
     ethr =  2.96E-10,  avg # of iterations =  5.8

     negative rho (up, down):  1.527E-02 0.000E+00

     total cpu time spent up to now is       61.9 secs

     total energy              =    -380.57323981 Ry
     estimated scf accuracy    <       0.00000024 Ry

     iteration #  6     ecut=    60.00 Ry     beta= 0.70
     CG style diagonalization
     ethr =  2.96E-10,  avg # of iterations =  3.9

     negative rho (up, down):  1.527E-02 0.000E+00

     total cpu time spent up to now is       62.8 secs

     total energy              =    -380.57323983 Ry
     estimated scf accuracy    <       0.00000003 Ry

     iteration #  7     ecut=    60.00 Ry     beta= 0.70
     CG style diagonalization
     ethr =  7.05E-11,  avg # of iterations =  4.0

     negative rho (up, down):  1.527E-02 0.000E+00

     total cpu time spent up to now is       63.8 secs

     total energy              =    -380.57323984 Ry
     estimated scf accuracy    <       0.00000001 Ry

     iteration #  8     ecut=    60.00 Ry     beta= 0.70
     CG style diagonalization
     ethr =  2.52E-11,  avg # of iterations =  4.5

     negative rho (up, down):  1.527E-02 0.000E+00

     total cpu time spent up to now is       64.9 secs

     total energy              =    -380.57323984 Ry
     estimated scf accuracy    <          5.5E-10 Ry

     iteration #  9     ecut=    60.00 Ry     beta= 0.70
     CG style diagonalization
     ethr =  1.25E-12,  avg # of iterations =  7.2

     negative rho (up, down):  1.527E-02 0.000E+00

     total cpu time spent up to now is       66.6 secs

     End of self-consistent calculation

          k = 0.0000 0.0000 0.0000 (  3279 PWs)   bands (ev):

   -45.7727 -22.4683 -22.3457 -22.3457  -7.5388  -6.4661  -6.2172  -5.0138
    -5.0138  -4.9782  -4.8799  -4.7224   4.2018   6.2860   6.2860   6.7609
     8.1010   8.1010   8.4743   8.6214   8.9195   8.9195

          k = 0.0000 0.0000 0.2378 (  3311 PWs)   bands (ev):

   -45.7724 -22.4880 -22.3449 -22.3449  -7.3459  -6.4106  -6.1611  -5.0289
    -5.0289  -4.9770  -4.8689  -4.7899   3.4411   6.3284   6.3284   6.8564
     7.8984   7.8984   8.3894   8.7789   9.0167   9.0167

          k = 0.0000 0.0000-0.4756 (  3276 PWs)   bands (ev):

   -45.7721 -22.5075 -22.3441 -22.3441  -7.1356  -6.3502  -6.1129  -5.0438
    -5.0438  -4.9757  -4.8624  -4.8591   2.9284   6.2013   6.3507   6.3507
     7.7722   7.7722   8.3083   9.0832   9.0832   9.9975

          k = 0.0000 0.1667 0.0000 (  3294 PWs)   bands (ev):

   -45.7724 -22.4676 -22.3630 -22.3450  -7.4049  -6.4392  -6.1948  -5.0357
    -5.0124  -4.9908  -4.8741  -4.7124   3.7869   6.3330   6.3957   6.7209
     8.1124   8.1255   8.4525   8.5500   8.5882   8.9734

          k = 0.0000 0.1667 0.2378 (  3291 PWs)   bands (ev):

   -45.7721 -22.4871 -22.3621 -22.3442  -7.2277  -6.3985  -6.1330  -5.0306
    -5.0279  -4.9901  -4.8711  -4.7477   3.2401   6.1176   6.4464   6.9267
     7.6001   7.8909   8.2391   8.6370   8.6899   9.3559

          k = 0.0000 0.1667-0.4756 (  3286 PWs)   bands (ev):

   -45.7718 -22.5065 -22.3613 -22.3434  -7.0440  -6.3526  -6.0696  -5.0433
    -5.0230  -4.9893  -4.8750  -4.7821   2.8144   5.8137   6.4717   6.5985
     7.4314   7.7711   8.3041   8.6912   8.7671   9.9513

          k = 0.0000 0.3333 0.0000 (  3308 PWs)   bands (ev):

   -45.7717 -22.4660 -22.3975 -22.3435  -7.1129  -6.3814  -6.1669  -5.0656
    -5.0160  -5.0094  -4.8500  -4.7230   3.2196   5.9733   6.6626   6.6834
     7.8199   7.8683   8.2148   8.3214   8.6665   9.6083

          k = 0.0000 0.3333 0.2378 (  3298 PWs)   bands (ev):

   -45.7714 -22.4853 -22.3964 -22.3427  -6.9979  -6.3448  -6.0827  -5.0337
    -5.0261  -5.0161  -4.8517  -4.6944   2.8994   5.8369   6.5492   6.7588
     7.2609   7.6858   7.8517   8.3166   8.8788   9.6837

          k = 0.0000 0.3333-0.4756 (  3296 PWs)   bands (ev):

   -45.7712 -22.5044 -22.3954 -22.3419  -6.9122  -6.2859  -5.9713  -5.0423
    -5.0163  -4.9926  -4.8862  -4.6495   2.6114   5.5085   6.3365   6.7792
     7.1466   7.3768   7.6385   8.3673   9.2411   9.5589

          k = 0.0000-0.5000 0.0000 (  3326 PWs)   bands (ev):

   -45.7714 -22.4651 -22.4147 -22.3428  -6.9509  -6.3343  -6.1812  -5.0773
    -5.0284  -5.0081  -4.7958  -4.7763   3.0128   5.6310   6.9010   6.9507
     7.3566   7.4667   8.2390   8.2443   8.6978  10.3445

          k = 0.0000-0.5000 0.2378 (  3294 PWs)   bands (ev):

   -45.7711 -22.4843 -22.4135 -22.3420  -6.8979  -6.2682  -6.0831  -5.0433
    -5.0291  -5.0250  -4.8143  -4.6915   2.7617   5.5901   6.5630   6.7947
     7.1420   7.2603   7.9573   8.2745   8.8912   9.8510

          k = 0.0000-0.5000-0.4756 (  3280 PWs)   bands (ev):

   -45.7708 -22.5033 -22.4124 -22.3411  -6.8816  -6.1980  -5.9258  -5.0418
    -5.0297  -5.0017  -4.8634  -4.5962   2.5292   5.3798   6.0296   6.8439
     7.0821   7.3488   7.4086   8.2924   9.1723   9.5783

          k = 0.1667 0.1667 0.0000 (  3291 PWs)   bands (ev):

   -45.7720 -22.4668 -22.3624 -22.3621  -7.2738  -6.4112  -6.1919  -5.0401
    -5.0265  -4.9923  -4.8477  -4.7028   3.4905   6.2866   6.5099   6.7244
     7.6392   7.8169   8.4543   8.5582   8.8610   9.1653

          k = 0.1667 0.1667 0.2378 (  3304 PWs)   bands (ev):

   -45.7718 -22.4862 -22.3615 -22.3612  -7.1078  -6.3883  -6.1297  -5.0418
    -5.0195  -4.9859  -4.8408  -4.7167   3.1280   6.0698   6.1492   6.8548
     7.5098   7.5199   8.2685   8.7098   8.9324   9.3179

          k = 0.1667 0.1667-0.4756 (  3298 PWs)   bands (ev):

   -45.7715 -22.5055 -22.3606 -22.3604  -6.9424  -6.3653  -6.0565  -5.0531
    -5.0013  -4.9611  -4.8489  -4.7350   2.7915   5.8617   5.8729   6.5930
     7.3939   7.4683   8.1957   8.7769   8.9856   9.6660

          k = 0.1667 0.3333 0.0000 (  3313 PWs)   bands (ev):

   -45.7714 -22.4652 -22.3966 -22.3607  -6.9910  -6.3547  -6.2007  -5.0587
    -5.0159  -4.9762  -4.8120  -4.7113   3.0201   5.9848   6.5115   6.8286
     7.1757   7.6799   8.0529   8.6672   8.8479   9.6567

          k = 0.1667 0.3333 0.2378 (  3297 PWs)   bands (ev):

   -45.7711 -22.4844 -22.3956 -22.3598  -6.8743  -6.3474  -6.1281  -5.0379
    -5.0145  -4.9562  -4.7963  -4.6716   2.8962   5.8050   5.9659   6.4831
     6.9050   7.5617   8.3475   8.6363   8.9739   9.4103

          k = 0.1667 0.3333-0.4756 (  3300 PWs)   bands (ev):

   -45.7708 -22.5035 -22.3946 -22.3590  -6.7924  -6.3276  -6.0194  -5.0372
    -4.9922  -4.9189  -4.8061  -4.6245   2.7329   5.4560   5.8774   6.2252
     6.4255   7.4308   8.4270   8.7047   8.9418   9.3951

          k = 0.1667-0.5000 0.0000 (  3318 PWs)   bands (ev):

   -45.7711 -22.4643 -22.4138 -22.3599  -6.8353  -6.3104  -6.2315  -5.0604
    -5.0082  -4.9574  -4.7681  -4.7617   2.8322   5.6486   6.6263   6.8533
     7.1964   7.4703   7.8133   8.7406   8.8091   9.9788

          k = 0.1667-0.5000 0.2378 (  3316 PWs)   bands (ev):

   -45.7708 -22.4835 -22.4127 -22.3591  -6.7741  -6.2812  -6.1514  -5.0361
    -5.0016  -4.9398  -4.7657  -4.6681   2.7889   5.5960   5.8708   6.2461
     6.8590   7.6952   8.1487   8.6239   8.9914   9.3679

          k = 0.1667-0.5000-0.4756 (  3304 PWs)   bands (ev):

   -45.7705 -22.5025 -22.4115 -22.3582  -6.7613  -6.2531  -6.0044  -5.0322
    -4.9635  -4.9214  -4.7785  -4.5732   2.7066   5.3431   5.7277   5.8829
     6.3051   7.5471   8.3079   8.5833   8.6533   9.5892

          k = 0.3333 0.3333 0.0000 (  3313 PWs)   bands (ev):

   -45.7707 -22.4636 -22.3950 -22.3947  -6.7472  -6.3026  -6.2556  -5.0394
    -4.9968  -4.9011  -4.7417  -4.7119   2.6411   5.9356   6.1153   6.8954
     7.0798   7.1605   7.9075   8.4830   9.3455   9.4030

          k = 0.3333 0.3333 0.2378 (  3310 PWs)   bands (ev):

   -45.7705 -22.4827 -22.3940 -22.3938  -6.6272  -6.3461  -6.2114  -5.0030
    -4.9921  -4.8535  -4.6950  -4.6392   2.8211   5.5652   5.6454   5.9313
     6.6262   7.0635   8.3906   8.9417   8.9601   9.3594

          k = 0.3333 0.3333-0.4756 (  3300 PWs)   bands (ev):

   -45.7702 -22.5017 -22.3930 -22.3929  -6.5680  -6.3867  -6.0954  -4.9871
    -4.9673  -4.8019  -4.6470  -4.5690   2.9861   5.1889   5.1912   5.6959
     6.3550   6.5536   7.6967   9.2749   9.3359   9.4642

          k = 0.3333-0.5000 0.0000 (  3308 PWs)   bands (ev):

   -45.7704 -22.4627 -22.4119 -22.3939  -6.6328  -6.2789  -6.2682  -5.0319
    -4.9749  -4.8315  -4.7509  -4.7071   2.4646   5.6196   6.1523   6.7180
     7.2123   7.4054   7.4918   8.4769   9.1064   9.5402

          k = 0.3333-0.5000 0.2378 (  3316 PWs)   bands (ev):

   -45.7701 -22.4817 -22.4109 -22.3931  -6.5197  -6.3105  -6.2663  -4.9953
    -4.9662  -4.7722  -4.6747  -4.6236   2.7507   5.4752   5.5717   5.6715
     6.4077   7.1324   7.9545   8.9362   8.9495   9.5165

          k = 0.3333-0.5000-0.4756 (  3296 PWs)   bands (ev):

   -45.7699 -22.5007 -22.4099 -22.3922  -6.5169  -6.3501  -6.1282  -4.9707
    -4.9465  -4.7266  -4.5985  -4.5260   3.1099   4.9344   5.1121   5.4710
     6.1536   6.5477   6.9603   9.3807   9.4904   9.6158

          k =-0.5000-0.5000 0.0000 (  3312 PWs)   bands (ev):

   -45.7701 -22.4617 -22.4109 -22.4109  -6.5748  -6.2501  -6.2501  -5.0222
    -4.9351  -4.7587  -4.7587  -4.6876   2.2820   5.4594   6.0149   6.9344
     6.9344   7.5087   7.5087   8.2402   8.6386   9.7961

          k =-0.5000-0.5000 0.2378 (  3304 PWs)   bands (ev):

   -45.7698 -22.4808 -22.4100 -22.4100  -6.3803  -6.3264  -6.3264  -4.9843
    -4.9333  -4.6599  -4.6308  -4.6308   2.6755   5.4178   5.5947   5.5947
     6.0212   7.0720   7.3343   8.9633   8.9633   9.7810

          k =-0.5000-0.5000-0.4756 (  3296 PWs)   bands (ev):

   -45.7696 -22.4997 -22.4091 -22.4091  -6.3936  -6.3936  -6.1802  -4.9464
    -4.9314  -4.6232  -4.5102  -4.5102   3.2901   4.9699   4.9699   5.3059
     6.0206   6.0275   6.2285   9.6299   9.6299   9.7660

     highest occupied level (ev):    10.3445

!    total energy              =    -380.57323985 Ry
     estimated scf accuracy    <          1.2E-10 Ry

     The total energy is the sum of the following terms:
     one-electron contribution =     -85.26541773 Ry
     hartree contribution      =      71.78213166 Ry
     xc contribution           =    -102.57923436 Ry
     ewald contribution        =    -264.51071942 Ry

     convergence has been achieved in   9 iterations

     negative rho (up, down):  1.527E-02 0.000E+00

     Forces acting on atoms (cartesian axes, Ry/au):

     atom    1 type  1   force =     0.00000000    0.00000000   -0.00487307
     atom    2 type  2   force =     0.00000000    0.00000000    0.00483869
     atom    3 type  3   force =     0.00000000    0.00000000   -0.00509634
     atom    4 type  3   force =     0.00000000    0.00000000    0.00256536
     atom    5 type  3   force =     0.00000000    0.00000000    0.00256536

     Total force =     0.009289     Total SCF correction =     0.000016


     Computing stress (Cartesian axis) and pressure


     negative rho (up, down):  1.527E-02 0.000E+00
          total   stress  (Ry/bohr**3)                   (kbar)     P=      -44.84
  -0.00036374   0.00000000   0.00000000          -53.51        0.00        0.00
   0.00000000  -0.00036374   0.00000000            0.00      -53.51        0.00
   0.00000000   0.00000000  -0.00018687            0.00        0.00      -27.49

     Energy error            =      1.3E-04 Ry
     Gradient error          =      5.1E-03 Ry/Bohr

     number of scf cycles    =   5
     number of bfgs steps    =   4

     energy             old  =    -380.5731120830 Ry
     energy             new  =    -380.5732398458 Ry

     CASE: energy            _new < energy            _old

     new trust radius        =       0.0314655574 bohr
     new conv_thr            =       0.0000000001 Ry


ATOMIC_POSITIONS (crystal)
Pb               0.0000000000        0.0000000000        0.9941332151
Ti               0.5000000000        0.5000000000        0.5382895200
O                0.5000000000        0.5000000000        0.1077073785
O                0.5000000000        0.0000000000        0.6135770872
O                0.0000000000        0.5000000000        0.6135770872



     Writing config-only to output data dir ./pto_60.save/ :
     XML data file
     NEW-OLD atomic charge density approx. for the potential

     Check: negative core charge=   -0.000003

     negative rho (up, down):  1.565E-02 0.000E+00

     total cpu time spent up to now is       68.2 secs

     Self-consistent Calculation

     iteration #  1     ecut=    60.00 Ry     beta= 0.70
     CG style diagonalization
     c_bands:  1 eigenvalues not converged
     c_bands:  1 eigenvalues not converged
     ethr =  1.00E-06,  avg # of iterations =  6.8

     negative rho (up, down):  1.560E-02 0.000E+00

     total cpu time spent up to now is       69.9 secs

     total energy              =    -380.57332845 Ry
     estimated scf accuracy    <       0.00004572 Ry

     iteration #  2     ecut=    60.00 Ry     beta= 0.70
     CG style diagonalization
     ethr =  1.04E-07,  avg # of iterations =  4.5

     negative rho (up, down):  1.558E-02 0.000E+00

     total cpu time spent up to now is       71.0 secs

     total energy              =    -380.57334639 Ry
     estimated scf accuracy    <       0.00003135 Ry

     iteration #  3     ecut=    60.00 Ry     beta= 0.70
     CG style diagonalization
     ethr =  7.12E-08,  avg # of iterations =  4.1

     negative rho (up, down):  1.557E-02 0.000E+00

     total cpu time spent up to now is       72.0 secs

     total energy              =    -380.57335458 Ry
     estimated scf accuracy    <       0.00002165 Ry

     iteration #  4     ecut=    60.00 Ry     beta= 0.70
     CG style diagonalization
     ethr =  4.92E-08,  avg # of iterations =  3.6

     negative rho (up, down):  1.556E-02 0.000E+00

     total cpu time spent up to now is       72.9 secs

     total energy              =    -380.57335866 Ry
     estimated scf accuracy    <       0.00000143 Ry

     iteration #  5     ecut=    60.00 Ry     beta= 0.70
     CG style diagonalization
     ethr =  3.24E-09,  avg # of iterations =  4.4

     negative rho (up, down):  1.556E-02 0.000E+00

     total cpu time spent up to now is       73.9 secs

     total energy              =    -380.57335946 Ry
     estimated scf accuracy    <       0.00000031 Ry

     iteration #  6     ecut=    60.00 Ry     beta= 0.70
     CG style diagonalization
     ethr =  6.95E-10,  avg # of iterations =  4.7

     negative rho (up, down):  1.556E-02 0.000E+00

     total cpu time spent up to now is       75.1 secs

     total energy              =    -380.57335964 Ry
     estimated scf accuracy    <       0.00000006 Ry

     iteration #  7     ecut=    60.00 Ry     beta= 0.70
     CG style diagonalization
     ethr =  1.36E-10,  avg # of iterations =  4.9

     negative rho (up, down):  1.556E-02 0.000E+00

     total cpu time spent up to now is       76.2 secs

     total energy              =    -380.57335970 Ry
     estimated scf accuracy    <          7.5E-09 Ry

     iteration #  8     ecut=    60.00 Ry     beta= 0.70
     CG style diagonalization
     ethr =  1.70E-11,  avg # of iterations =  5.7

     negative rho (up, down):  1.557E-02 0.000E+00

     total cpu time spent up to now is       77.6 secs

     total energy              =    -380.57335971 Ry
     estimated scf accuracy    <          1.2E-09 Ry

     iteration #  9     ecut=    60.00 Ry     beta= 0.70
     CG style diagonalization
     ethr =  2.69E-12,  avg # of iterations =  5.9

     negative rho (up, down):  1.557E-02 0.000E+00

     total cpu time spent up to now is       79.0 secs

     End of self-consistent calculation

          k = 0.0000 0.0000 0.0000 (  3279 PWs)   bands (ev):

   -45.7835 -22.4755 -22.3582 -22.3582  -7.5660  -6.5042  -6.2082  -4.9979
    -4.9979  -4.9579  -4.8711  -4.6920   4.2060   6.2600   6.2600   6.8010
     8.1086   8.1086   8.4571   8.6191   8.8847   8.8847

          k = 0.0000 0.0000 0.2378 (  3311 PWs)   bands (ev):

   -45.7832 -22.4951 -22.3575 -22.3575  -7.3787  -6.4515  -6.1488  -5.0129
    -5.0129  -4.9566  -4.8577  -4.7567   3.4555   6.3019   6.3019   6.8765
     7.9039   7.9039   8.3724   8.7800   8.9816   8.9816

          k = 0.0000 0.0000-0.4756 (  3276 PWs)   bands (ev):

   -45.7829 -22.5146 -22.3567 -22.3567  -7.1766  -6.3945  -6.0948  -5.0279
    -5.0279  -4.9553  -4.8450  -4.8257   2.9462   6.2141   6.3242   6.3242
     7.7768   7.7768   8.2915   9.0462   9.0462   9.9905

          k = 0.0000 0.1667 0.0000 (  3294 PWs)   bands (ev):

   -45.7831 -22.4748 -22.3756 -22.3575  -7.4319  -6.4780  -6.1888  -5.0195
    -4.9965  -4.9705  -4.8614  -4.6817   3.7909   6.3125   6.3687   6.7346
     8.1247   8.1331   8.4321   8.5169   8.5736   8.9666

          k = 0.0000 0.1667 0.2378 (  3291 PWs)   bands (ev):

   -45.7829 -22.4942 -22.3747 -22.3567  -7.2605  -6.4390  -6.1229  -5.0128
    -5.0120  -4.9697  -4.8575  -4.7160   3.2530   6.0978   6.4192   6.9316
     7.5990   7.8930   8.2180   8.6251   8.6600   9.3521

          k = 0.0000 0.1667-0.4756 (  3286 PWs)   bands (ev):

   -45.7826 -22.5136 -22.3739 -22.3559  -7.0843  -6.3953  -6.0537  -5.0274
    -5.0038  -4.9689  -4.8590  -4.7499   2.8314   5.8037   6.4450   6.5918
     7.4297   7.7718   8.2643   8.6812   8.7351   9.9560

          k = 0.0000 0.3333 0.0000 (  3308 PWs)   bands (ev):

   -45.7825 -22.4732 -22.4102 -22.3561  -7.1400  -6.4208  -6.1677  -5.0476
    -4.9957  -4.9934  -4.8292  -4.6925   3.2242   5.9509   6.6533   6.6636
     7.8034   7.8471   8.2127   8.2976   8.6576   9.6301

          k = 0.0000 0.3333 0.2378 (  3298 PWs)   bands (ev):

   -45.7822 -22.4924 -22.4091 -22.3553  -7.0310  -6.3843  -6.0775  -5.0144
    -5.0101  -4.9957  -4.8320  -4.6643   2.9109   5.8149   6.5429   6.7298
     7.2370   7.6695   7.8458   8.3057   8.8662   9.6985

          k = 0.0000 0.3333-0.4756 (  3296 PWs)   bands (ev):

   -45.7819 -22.5115 -22.4080 -22.3544  -6.9497  -6.3288  -5.9594  -5.0264
    -4.9960  -4.9720  -4.8643  -4.6223   2.6277   5.4931   6.3280   6.7540
     7.1118   7.3633   7.6195   8.3523   9.2458   9.5686

          k = 0.0000-0.5000 0.0000 (  3326 PWs)   bands (ev):

   -45.7822 -22.4723 -22.4274 -22.3554  -6.9790  -6.3733  -6.1855  -5.0581
    -5.0080  -4.9921  -4.7617  -4.7552   3.0183   5.6087   6.8987   6.9145
     7.3369   7.4493   8.2137   8.2436   8.6878  10.3629

          k = 0.0000-0.5000 0.2378 (  3294 PWs)   bands (ev):

   -45.7819 -22.4914 -22.4262 -22.3545  -6.9316  -6.3102  -6.0773  -5.0234
    -5.0090  -5.0087  -4.7912  -4.6624   2.7736   5.5676   6.5532   6.7686
     7.1027   7.2466   7.9476   8.2704   8.8777   9.8754

          k = 0.0000-0.5000-0.4756 (  3280 PWs)   bands (ev):

   -45.7816 -22.5104 -22.4250 -22.3537  -6.9171  -6.2436  -5.9145  -5.0259
    -5.0093  -4.9813  -4.8376  -4.5712   2.5459   5.3621   6.0183   6.7982
     7.0706   7.3058   7.4019   8.2864   9.2069   9.5687

          k = 0.1667 0.1667 0.0000 (  3291 PWs)   bands (ev):

   -45.7828 -22.4740 -22.3750 -22.3747  -7.3002  -6.4510  -6.1883  -5.0233
    -5.0098  -4.9726  -4.8321  -4.6717   3.4900   6.2629   6.4914   6.7293
     7.6458   7.7945   8.4596   8.5423   8.8277   9.1753

          k = 0.1667 0.1667 0.2378 (  3304 PWs)   bands (ev):

   -45.7825 -22.4934 -22.3741 -22.3738  -7.1404  -6.4289  -6.1208  -5.0245
    -5.0010  -4.9669  -4.8256  -4.6856   3.1366   6.0519   6.1291   6.8518
     7.4982   7.5096   8.2688   8.6866   8.9054   9.3253

          k = 0.1667 0.1667-0.4756 (  3298 PWs)   bands (ev):

   -45.7823 -22.5126 -22.3732 -22.3730  -6.9825  -6.4067  -6.0408  -5.0354
    -4.9814  -4.9437  -4.8327  -4.7035   2.8056   5.8480   5.8626   6.5757
     7.3614   7.4640   8.2000   8.7506   8.9599   9.6759

          k = 0.1667 0.3333 0.0000 (  3313 PWs)   bands (ev):

   -45.7822 -22.4724 -22.4093 -22.3733  -7.0160  -6.3953  -6.2036  -5.0404
    -4.9987  -4.9563  -4.7909  -4.6804   3.0147   5.9621   6.4969   6.8212
     7.1533   7.6921   8.0384   8.6542   8.8226   9.6738

          k = 0.1667 0.3333 0.2378 (  3297 PWs)   bands (ev):

   -45.7819 -22.4916 -22.4082 -22.3724  -6.9066  -6.3869  -6.1223  -5.0196
    -4.9963  -4.9376  -4.7764  -4.6422   2.8982   5.7860   5.9461   6.4689
     6.8977   7.5574   8.3313   8.6190   8.9574   9.4250

          k = 0.1667 0.3333-0.4756 (  3300 PWs)   bands (ev):

   -45.7816 -22.5106 -22.4072 -22.3716  -6.8300  -6.3681  -6.0052  -5.0197
    -4.9732  -4.9017  -4.7849  -4.5978   2.7419   5.4437   5.8480   6.2192
     6.4048   7.4177   8.4300   8.6693   8.9601   9.3870

          k = 0.1667-0.5000 0.0000 (  3318 PWs)   bands (ev):

   -45.7818 -22.4715 -22.4264 -22.3725  -6.8597  -6.3508  -6.2381  -5.0416
    -4.9909  -4.9378  -4.7382  -4.7358   2.8253   5.6267   6.6170   6.8277
     7.1812   7.4575   7.8268   8.7109   8.7976   9.9961

          k = 0.1667-0.5000 0.2378 (  3316 PWs)   bands (ev):

   -45.7816 -22.4906 -22.4253 -22.3717  -6.8069  -6.3224  -6.1443  -5.0178
    -4.9836  -4.9218  -4.7422  -4.6400   2.7887   5.5747   5.8474   6.2353
     6.8511   7.6914   8.1253   8.6143   8.9709   9.3922

          k = 0.1667-0.5000-0.4756 (  3304 PWs)   bands (ev):

   -45.7813 -22.5095 -22.4242 -22.3708  -6.7969  -6.2950  -5.9901  -5.0147
    -4.9452  -4.9044  -4.7541  -4.5490   2.7137   5.3289   5.6861   5.8707
     6.3015   7.5319   8.3172   8.5802   8.6433   9.5810

          k = 0.3333 0.3333 0.0000 (  3313 PWs)   bands (ev):

   -45.7815 -22.4708 -22.4076 -22.4073  -6.7623  -6.3459  -6.2684  -5.0209
    -4.9778  -4.8795  -4.7205  -4.6803   2.6195   5.9130   6.0944   6.8963
     7.0692   7.1831   7.8827   8.4848   9.3083   9.4229

          k = 0.3333 0.3333 0.2378 (  3310 PWs)   bands (ev):

   -45.7813 -22.4898 -22.4067 -22.4064  -6.6559  -6.3859  -6.2067  -4.9842
    -4.9736  -4.8358  -4.6745  -4.6111   2.8006   5.5543   5.6398   5.9104
     6.6203   7.0656   8.4072   8.9284   8.9634   9.3243

          k = 0.3333 0.3333-0.4756 (  3300 PWs)   bands (ev):

   -45.7810 -22.5088 -22.4057 -22.4055  -6.6052  -6.4236  -6.0784  -4.9689
    -4.9486  -4.7874  -4.6276  -4.5442   2.9707   5.1603   5.1921   5.6828
     6.3519   6.5416   7.7392   9.2685   9.2959   9.4566

          k = 0.3333-0.5000 0.0000 (  3308 PWs)   bands (ev):

   -45.7812 -22.4698 -22.4245 -22.4066  -6.6362  -6.3116  -6.3046  -5.0133
    -4.9555  -4.8081  -4.7222  -4.6830   2.4363   5.5978   6.1311   6.7309
     7.2351   7.3851   7.4737   8.4754   9.1273   9.5027

          k = 0.3333-0.5000 0.2378 (  3316 PWs)   bands (ev):

   -45.7809 -22.4889 -22.4235 -22.4057  -6.5463  -6.3504  -6.2626  -4.9767
    -4.9474  -4.7564  -4.6498  -4.5989   2.7189   5.4744   5.5530   5.6655
     6.3967   7.1359   7.9841   8.9324   8.9414   9.4786

          k = 0.3333-0.5000-0.4756 (  3296 PWs)   bands (ev):

   -45.7807 -22.5078 -22.4226 -22.4048  -6.5523  -6.3869  -6.1103  -4.9521
    -4.9278  -4.7139  -4.5772  -4.5043   3.0745   4.9205   5.1144   5.4544
     6.1443   6.5388   7.0168   9.3752   9.4497   9.6103

          k =-0.5000-0.5000 0.0000 (  3312 PWs)   bands (ev):

   -45.7809 -22.4689 -22.4236 -22.4236  -6.5585  -6.2951  -6.2951  -5.0035
    -4.9156  -4.7264  -4.7264  -4.6743   2.2444   5.4377   5.9962   6.9602
     6.9602   7.4839   7.4839   8.2469   8.6582   9.7556

          k =-0.5000-0.5000 0.2378 (  3304 PWs)   bands (ev):

   -45.7806 -22.4879 -22.4227 -22.4227  -6.3657  -6.3657  -6.3627  -4.9656
    -4.9138  -4.6478  -4.6051  -4.6051   2.6271   5.3969   5.6038   5.6038
     6.0025   7.0748   7.3741   8.9573   8.9573   9.7407

          k =-0.5000-0.5000-0.4756 (  3296 PWs)   bands (ev):

   -45.7803 -22.5068 -22.4217 -22.4217  -6.4286  -6.4286  -6.1609  -4.9277
    -4.9119  -4.6125  -4.4896  -4.4896   3.2118   4.9802   4.9802   5.2885
     6.0088   6.0955   6.2263   9.6258   9.6258   9.7259

     highest occupied level (ev):    10.3629

!    total energy              =    -380.57335971 Ry
     estimated scf accuracy    <          1.1E-10 Ry

     The total energy is the sum of the following terms:
     one-electron contribution =     -85.69401604 Ry
     hartree contribution      =      71.99346057 Ry
     xc contribution           =    -102.58601436 Ry
     ewald contribution        =    -264.28678988 Ry

     convergence has been achieved in   9 iterations

     negative rho (up, down):  1.557E-02 0.000E+00

     Forces acting on atoms (cartesian axes, Ry/au):

     atom    1 type  1   force =     0.00000000    0.00000000   -0.00072150
     atom    2 type  2   force =     0.00000000    0.00000000    0.00106193
     atom    3 type  3   force =     0.00000000    0.00000000   -0.00369585
     atom    4 type  3   force =     0.00000000    0.00000000    0.00167771
     atom    5 type  3   force =     0.00000000    0.00000000    0.00167771

     Total force =     0.004576     Total SCF correction =     0.000054


     Computing stress (Cartesian axis) and pressure


     negative rho (up, down):  1.557E-02 0.000E+00
          total   stress  (Ry/bohr**3)                   (kbar)     P=      -41.64
  -0.00034026   0.00000000   0.00000000          -50.05        0.00        0.00
   0.00000000  -0.00034026   0.00000000            0.00      -50.05        0.00
   0.00000000   0.00000000  -0.00016863            0.00        0.00      -24.81

     Energy error            =      1.2E-04 Ry
     Gradient error          =      3.7E-03 Ry/Bohr

     number of scf cycles    =   6
     number of bfgs steps    =   5

     energy             old  =    -380.5732398458 Ry
     energy             new  =    -380.5733597085 Ry

     CASE: energy            _new < energy            _old

     new trust radius        =       0.0055880984 bohr
     new conv_thr            =       0.0000000001 Ry


ATOMIC_POSITIONS (crystal)
Pb               0.0000000000        0.0000000000        0.9934119726
Ti               0.5000000000        0.5000000000        0.5384927589
O                0.5000000000        0.5000000000        0.1073724411
O                0.5000000000        0.0000000000        0.6140035577
O                0.0000000000        0.5000000000        0.6140035577



     Writing config-only to output data dir ./pto_60.save/ :
     XML data file
     NEW-OLD atomic charge density approx. for the potential

     Check: negative core charge=   -0.000003

     negative rho (up, down):  1.561E-02 0.000E+00

     total cpu time spent up to now is       80.6 secs

     Self-consistent Calculation

     iteration #  1     ecut=    60.00 Ry     beta= 0.70
     CG style diagonalization
     ethr =  1.00E-06,  avg # of iterations =  3.7

     Threshold (ethr) on eigenvalues was too large:
     Diagonalizing with lowered threshold

     CG style diagonalization
     c_bands:  1 eigenvalues not converged
     c_bands:  1 eigenvalues not converged
     c_bands:  1 eigenvalues not converged
     c_bands:  1 eigenvalues not converged
     c_bands:  2 eigenvalues not converged
     c_bands:  1 eigenvalues not converged
     c_bands:  2 eigenvalues not converged
     c_bands:  1 eigenvalues not converged
     c_bands:  1 eigenvalues not converged
     c_bands:  2 eigenvalues not converged
     ethr =  2.21E-08,  avg # of iterations =  6.4

     negative rho (up, down):  1.560E-02 0.000E+00

     total cpu time spent up to now is       83.2 secs

     total energy              =    -380.57337204 Ry
     estimated scf accuracy    <       0.00001070 Ry

     iteration #  2     ecut=    60.00 Ry     beta= 0.70
     CG style diagonalization
     ethr =  2.43E-08,  avg # of iterations =  4.6

     negative rho (up, down):  1.560E-02 0.000E+00

     total cpu time spent up to now is       84.3 secs

     total energy              =    -380.57337053 Ry
     estimated scf accuracy    <       0.00003037 Ry

     iteration #  3     ecut=    60.00 Ry     beta= 0.70
     CG style diagonalization
     ethr =  2.43E-08,  avg # of iterations =  4.2

     negative rho (up, down):  1.560E-02 0.000E+00

     total cpu time spent up to now is       85.3 secs

     total energy              =    -380.57337649 Ry
     estimated scf accuracy    <       0.00000276 Ry

     iteration #  4     ecut=    60.00 Ry     beta= 0.70
     CG style diagonalization
     ethr =  6.28E-09,  avg # of iterations =  3.6

     negative rho (up, down):  1.559E-02 0.000E+00

     total cpu time spent up to now is       86.2 secs

     total energy              =    -380.57337706 Ry
     estimated scf accuracy    <       0.00000029 Ry

     iteration #  5     ecut=    60.00 Ry     beta= 0.70
     CG style diagonalization
     ethr =  6.48E-10,  avg # of iterations =  4.1

     negative rho (up, down):  1.559E-02 0.000E+00

     total cpu time spent up to now is       87.2 secs

     total energy              =    -380.57337719 Ry
     estimated scf accuracy    <       0.00000005 Ry

     iteration #  6     ecut=    60.00 Ry     beta= 0.70
     CG style diagonalization
     ethr =  1.04E-10,  avg # of iterations =  4.3

     negative rho (up, down):  1.559E-02 0.000E+00

     total cpu time spent up to now is       88.2 secs

     total energy              =    -380.57337721 Ry
     estimated scf accuracy    <          9.5E-09 Ry

     iteration #  7     ecut=    60.00 Ry     beta= 0.70
     CG style diagonalization
     ethr =  2.16E-11,  avg # of iterations =  4.3

     negative rho (up, down):  1.559E-02 0.000E+00

     total cpu time spent up to now is       89.3 secs

     total energy              =    -380.57337722 Ry
     estimated scf accuracy    <          2.2E-09 Ry

     iteration #  8     ecut=    60.00 Ry     beta= 0.70
     CG style diagonalization
     ethr =  5.02E-12,  avg # of iterations =  4.6

     negative rho (up, down):  1.559E-02 0.000E+00

     total cpu time spent up to now is       90.4 secs

     total energy              =    -380.57337722 Ry
     estimated scf accuracy    <          3.1E-10 Ry

     iteration #  9     ecut=    60.00 Ry     beta= 0.70
     CG style diagonalization
     ethr =  7.06E-13,  avg # of iterations =  5.6

     negative rho (up, down):  1.559E-02 0.000E+00

     total cpu time spent up to now is       91.7 secs

     End of self-consistent calculation

          k = 0.0000 0.0000 0.0000 (  3279 PWs)   bands (ev):

   -45.7914 -22.4790 -22.3665 -22.3665  -7.5729  -6.5130  -6.2047  -4.9934
    -4.9934  -4.9520  -4.8674  -4.6844   4.2095   6.2526   6.2526   6.8050
     8.1177   8.1177   8.4519   8.6259   8.8754   8.8754

          k = 0.0000 0.0000 0.2378 (  3311 PWs)   bands (ev):

   -45.7911 -22.4986 -22.3658 -22.3658  -7.3870  -6.4609  -6.1444  -5.0084
    -5.0084  -4.9507  -4.8535  -4.7485   3.4614   6.2947   6.2947   6.8782
     7.9112   7.9112   8.3673   8.7829   8.9729   8.9729

          k = 0.0000 0.0000-0.4756 (  3276 PWs)   bands (ev):

   -45.7908 -22.5180 -22.3650 -22.3650  -7.1869  -6.4047  -6.0891  -5.0233
    -5.0233  -4.9494  -4.8402  -4.8167   2.9536   6.2147   6.3174   6.3174
     7.7829   7.7829   8.2865   9.0372   9.0372   9.9890

          k = 0.0000 0.1667 0.0000 (  3294 PWs)   bands (ev):

   -45.7911 -22.4782 -22.3839 -22.3658  -7.4387  -6.4870  -6.1858  -5.0148
    -4.9920  -4.9646  -4.8572  -4.6740   3.7930   6.3075   6.3611   6.7358
     8.1313   8.1427   8.4271   8.5077   8.5730   8.9682

          k = 0.0000 0.1667 0.2378 (  3291 PWs)   bands (ev):

   -45.7908 -22.4977 -22.3830 -22.3650  -7.2688  -6.4484  -6.1189  -5.0078
    -5.0075  -4.9638  -4.8530  -4.7081   3.2577   6.0931   6.4118   6.9310
     7.6021   7.8990   8.2141   8.6233   8.6530   9.3523

          k = 0.0000 0.1667-0.4756 (  3286 PWs)   bands (ev):

   -45.7905 -22.5170 -22.3822 -22.3642  -7.0945  -6.4053  -6.0483  -5.0228
    -4.9986  -4.9631  -4.8540  -4.7420   2.8378   5.8016   6.4382   6.5882
     7.4327   7.7766   8.2547   8.6800   8.7277   9.9574

          k = 0.0000 0.3333 0.0000 (  3308 PWs)   bands (ev):

   -45.7904 -22.4767 -22.4184 -22.3644  -7.1469  -6.4301  -6.1659  -5.0425
    -4.9901  -4.9887  -4.8236  -4.6849   3.2256   5.9456   6.6453   6.6658
     7.8020   7.8407   8.2202   8.2909   8.6598   9.6364

          k = 0.0000 0.3333 0.2378 (  3298 PWs)   bands (ev):

   -45.7901 -22.4959 -22.4174 -22.3636  -7.0393  -6.3937  -6.0743  -5.0091
    -5.0055  -4.9899  -4.8266  -4.6569   2.9143   5.8103   6.5423   6.7221
     7.2341   7.6673   7.8443   8.3076   8.8653   9.7028

          k = 0.0000 0.3333-0.4756 (  3296 PWs)   bands (ev):

   -45.7899 -22.5149 -22.4163 -22.3628  -6.9589  -6.3391  -5.9548  -5.0218
    -4.9901  -4.9664  -4.8583  -4.6156   2.6326   5.4909   6.3269   6.7476
     7.1051   7.3587   7.6171   8.3519   9.2506   9.5708

          k = 0.0000-0.5000 0.0000 (  3326 PWs)   bands (ev):

   -45.7901 -22.4757 -22.4357 -22.3637  -6.9860  -6.3829  -6.1840  -5.0528
    -5.0022  -4.9876  -4.7536  -4.7495   3.0197   5.6034   6.9040   6.9056
     7.3314   7.4429   8.2068   8.2520   8.6898  10.3688

          k = 0.0000-0.5000 0.2378 (  3294 PWs)   bands (ev):

   -45.7898 -22.4948 -22.4345 -22.3628  -6.9398  -6.3205  -6.0738  -5.0180
    -5.0045  -5.0028  -4.7851  -4.6553   2.7767   5.5624   6.5524   6.7656
     7.0931   7.2428   7.9452   8.2757   8.8763   9.8827

          k = 0.0000-0.5000-0.4756 (  3280 PWs)   bands (ev):

   -45.7895 -22.5138 -22.4333 -22.3620  -6.9256  -6.2546  -5.9099  -5.0213
    -5.0035  -4.9758  -4.8309  -4.5649   2.5504   5.3589   6.0176   6.7895
     7.0682   7.2954   7.3982   8.2899   9.2173   9.5688

          k = 0.1667 0.1667 0.0000 (  3291 PWs)   bands (ev):

   -45.7907 -22.4775 -22.3833 -22.3829  -7.3070  -6.4603  -6.1858  -5.0185
    -5.0050  -4.9669  -4.8273  -4.6640   3.4907   6.2556   6.4873   6.7297
     7.6534   7.7899   8.4652   8.5377   8.8204   9.1826

          k = 0.1667 0.1667 0.2378 (  3304 PWs)   bands (ev):

   -45.7905 -22.4968 -22.3824 -22.3821  -7.1486  -6.4384  -6.1170  -5.0195
    -4.9958  -4.9615  -4.8208  -4.6779   3.1399   6.0470   6.1248   6.8502
     7.4937   7.5132   8.2739   8.6807   8.9002   9.3285

          k = 0.1667 0.1667-0.4756 (  3298 PWs)   bands (ev):

   -45.7902 -22.5161 -22.3815 -22.3813  -6.9925  -6.4164  -6.0355  -5.0304
    -4.9757  -4.9389  -4.8276  -4.6957   2.8109   5.8448   5.8601   6.5711
     7.3541   7.4654   8.2056   8.7441   8.9550   9.6788

          k = 0.1667 0.3333 0.0000 (  3313 PWs)   bands (ev):

   -45.7901 -22.4759 -22.4175 -22.3816  -7.0223  -6.4049  -6.2024  -5.0353
    -4.9938  -4.9505  -4.7851  -4.6727   3.0137   5.9564   6.4933   6.8204
     7.1487   7.7019   8.0356   8.6524   8.8183   9.6804

          k = 0.1667 0.3333 0.2378 (  3297 PWs)   bands (ev):

   -45.7898 -22.4950 -22.4165 -22.3807  -6.9147  -6.3963  -6.1191  -5.0144
    -4.9912  -4.9321  -4.7709  -4.6349   2.8993   5.7820   5.9425   6.4647
     6.8974   7.5586   8.3305   8.6168   8.9551   9.4295

          k = 0.1667 0.3333-0.4756 (  3300 PWs)   bands (ev):

   -45.7895 -22.5140 -22.4155 -22.3799  -6.8392  -6.3778  -6.0003  -5.0146
    -4.9678  -4.8965  -4.7791  -4.5912   2.7450   5.4422   5.8417   6.2172
     6.4008   7.4153   8.4350   8.6612   8.9657   9.3867

          k = 0.1667-0.5000 0.0000 (  3318 PWs)   bands (ev):

   -45.7898 -22.4750 -22.4347 -22.3808  -6.8659  -6.3606  -6.2375  -5.0364
    -4.9860  -4.9319  -4.7322  -4.7280   2.8239   5.6215   6.6181   6.8191
     7.1790   7.4545   7.8381   8.7037   8.7979  10.0012

          k = 0.1667-0.5000 0.2378 (  3316 PWs)   bands (ev):

   -45.7895 -22.4940 -22.4336 -22.3800  -6.8150  -6.3324  -6.1408  -5.0126
    -4.9786  -4.9162  -4.7361  -4.6331   2.7890   5.5698   5.8437   6.2333
     6.8494   7.6934   8.1215   8.6152   8.9670   9.3991

          k = 0.1667-0.5000-0.4756 (  3304 PWs)   bands (ev):

   -45.7892 -22.5130 -22.4325 -22.3791  -6.8054  -6.3052  -5.9853  -5.0098
    -4.9402  -4.8989  -4.7479  -4.5429   2.7160   5.3269   5.6776   5.8683
     6.3005   7.5290   8.3197   8.5828   8.6421   9.5818

          k = 0.3333 0.3333 0.0000 (  3313 PWs)   bands (ev):

   -45.7894 -22.4742 -22.4159 -22.4156  -6.7663  -6.3561  -6.2698  -5.0159
    -4.9724  -4.8734  -4.7144  -4.6726   2.6149   5.9076   6.0878   6.8982
     7.0689   7.1944   7.8763   8.4882   9.2997   9.4290

          k = 0.3333 0.3333 0.2378 (  3310 PWs)   bands (ev):

   -45.7892 -22.4933 -22.4149 -22.4147  -6.6632  -6.3954  -6.2041  -4.9791
    -4.9683  -4.8304  -4.6687  -4.6043   2.7964   5.5534   5.6388   5.9049
     6.6202   7.0675   8.4135   8.9270   8.9665   9.3165

          k = 0.3333 0.3333-0.4756 (  3300 PWs)   bands (ev):

   -45.7889 -22.5122 -22.4139 -22.4138  -6.6144  -6.4324  -6.0733  -4.9636
    -4.9434  -4.7823  -4.6223  -4.5382   2.9680   5.1552   5.1934   5.6778
     6.3529   6.5390   7.7506   9.2701   9.2861   9.4574

          k = 0.3333-0.5000 0.0000 (  3308 PWs)   bands (ev):

   -45.7891 -22.4733 -22.4328 -22.4148  -6.6373  -6.3220  -6.3092  -5.0082
    -4.9500  -4.8016  -4.7152  -4.6762   2.4302   5.5926   6.1246   6.7369
     7.2449   7.3817   7.4710   8.4770   9.1325   9.4938

          k = 0.3333-0.5000 0.2378 (  3316 PWs)   bands (ev):

   -45.7888 -22.4923 -22.4318 -22.4140  -6.5532  -6.3600  -6.2601  -4.9716
    -4.9420  -4.7509  -4.6437  -4.5925   2.7121   5.4760   5.5484   5.6645
     6.3947   7.1386   7.9913   8.9338   8.9425   9.4697

          k = 0.3333-0.5000-0.4756 (  3296 PWs)   bands (ev):

   -45.7886 -22.5112 -22.4308 -22.4131  -6.5609  -6.3958  -6.1051  -4.9468
    -4.9226  -4.7086  -4.5719  -4.4988   3.0671   4.9188   5.1169   5.4485
     6.1430   6.5381   7.0300   9.3768   9.4399   9.6118

          k =-0.5000-0.5000 0.0000 (  3312 PWs)   bands (ev):

   -45.7888 -22.4724 -22.4318 -22.4318  -6.5536  -6.3057  -6.3057  -4.9985
    -4.9100  -4.7187  -4.7187  -4.6690   2.2363   5.4326   5.9911   6.9693
     6.9693   7.4798   7.4798   8.2500   8.6623   9.7458

          k =-0.5000-0.5000 0.2378 (  3304 PWs)   bands (ev):

   -45.7885 -22.4914 -22.4309 -22.4309  -6.3751  -6.3751  -6.3577  -4.9606
    -4.9081  -4.6425  -4.5989  -4.5989   2.6167   5.3913   5.6080   5.6080
     5.9973   7.0771   7.3827   8.9586   8.9586   9.7309

          k =-0.5000-0.5000-0.4756 (  3296 PWs)   bands (ev):

   -45.7883 -22.5102 -22.4300 -22.4300  -6.4371  -6.4371  -6.1557  -4.9226
    -4.9063  -4.6072  -4.4846  -4.4846   3.1952   4.9845   4.9845   5.2823
     6.0036   6.1113   6.2284   9.6275   9.6275   9.7162

     highest occupied level (ev):    10.3688

!    total energy              =    -380.57337722 Ry
     estimated scf accuracy    <          1.1E-11 Ry

     The total energy is the sum of the following terms:
     one-electron contribution =     -85.74874321 Ry
     hartree contribution      =      72.01898227 Ry
     xc contribution           =    -102.58590035 Ry
     ewald contribution        =    -264.25771593 Ry

     convergence has been achieved in   9 iterations

     negative rho (up, down):  1.559E-02 0.000E+00

     Forces acting on atoms (cartesian axes, Ry/au):

     atom    1 type  1   force =     0.00000000    0.00000000    0.00025123
     atom    2 type  2   force =     0.00000000    0.00000000   -0.00077298
     atom    3 type  3   force =     0.00000000    0.00000000   -0.00155612
     atom    4 type  3   force =     0.00000000    0.00000000    0.00103894
     atom    5 type  3   force =     0.00000000    0.00000000    0.00103894

     Total force =     0.002289     Total SCF correction =     0.000014


     Computing stress (Cartesian axis) and pressure


     negative rho (up, down):  1.559E-02 0.000E+00
          total   stress  (Ry/bohr**3)                   (kbar)     P=      -41.85
  -0.00033758   0.00000000   0.00000000          -49.66        0.00        0.00
   0.00000000  -0.00033758   0.00000000            0.00      -49.66        0.00
   0.00000000   0.00000000  -0.00017825            0.00        0.00      -26.22

     Energy error            =      1.8E-05 Ry
     Gradient error          =      1.6E-03 Ry/Bohr

     number of scf cycles    =   7
     number of bfgs steps    =   6

     energy             old  =    -380.5733597085 Ry
     energy             new  =    -380.5733772195 Ry

     CASE: energy            _new < energy            _old

     new trust radius        =       0.0032726086 bohr
     new conv_thr            =            1.0E-10 Ry


ATOMIC_POSITIONS (crystal)
Pb               0.0000000000        0.0000000000        0.9934083926
Ti               0.5000000000        0.5000000000        0.5384005376
O                0.5000000000        0.5000000000        0.1069500534
O                0.5000000000        0.0000000000        0.6142626522
O                0.0000000000        0.5000000000        0.6142626522



     Writing config-only to output data dir ./pto_60.save/ :
     XML data file
     NEW-OLD atomic charge density approx. for the potential

     Check: negative core charge=   -0.000003

     negative rho (up, down):  1.560E-02 0.000E+00

     total cpu time spent up to now is       93.3 secs

     Self-consistent Calculation

     iteration #  1     ecut=    60.00 Ry     beta= 0.70
     CG style diagonalization
     ethr =  1.00E-06,  avg # of iterations =  2.8

     Threshold (ethr) on eigenvalues was too large:
     Diagonalizing with lowered threshold

     CG style diagonalization
     c_bands:  2 eigenvalues not converged
     c_bands:  1 eigenvalues not converged
     c_bands:  1 eigenvalues not converged
     c_bands:  2 eigenvalues not converged
     c_bands:  1 eigenvalues not converged
     c_bands:  1 eigenvalues not converged
     c_bands:  1 eigenvalues not converged
     ethr =  4.57E-09,  avg # of iterations =  6.1

     negative rho (up, down):  1.560E-02 0.000E+00

     total cpu time spent up to now is       95.6 secs

     total energy              =    -380.57338236 Ry
     estimated scf accuracy    <       0.00000458 Ry

     iteration #  2     ecut=    60.00 Ry     beta= 0.70
     CG style diagonalization
     ethr =  1.04E-08,  avg # of iterations =  4.7

     negative rho (up, down):  1.560E-02 0.000E+00

     total cpu time spent up to now is       96.7 secs

     total energy              =    -380.57338109 Ry
     estimated scf accuracy    <       0.00001761 Ry

     iteration #  3     ecut=    60.00 Ry     beta= 0.70
     CG style diagonalization
     ethr =  1.04E-08,  avg # of iterations =  4.3

     negative rho (up, down):  1.560E-02 0.000E+00

     total cpu time spent up to now is       97.8 secs

     total energy              =    -380.57338427 Ry
     estimated scf accuracy    <       0.00000077 Ry

     iteration #  4     ecut=    60.00 Ry     beta= 0.70
     CG style diagonalization
     ethr =  1.74E-09,  avg # of iterations =  3.7

     negative rho (up, down):  1.560E-02 0.000E+00

     total cpu time spent up to now is       98.7 secs

     total energy              =    -380.57338446 Ry
     estimated scf accuracy    <       0.00000008 Ry

     iteration #  5     ecut=    60.00 Ry     beta= 0.70
     CG style diagonalization
     ethr =  1.77E-10,  avg # of iterations =  3.9

     negative rho (up, down):  1.560E-02 0.000E+00

     total cpu time spent up to now is       99.6 secs

     total energy              =    -380.57338449 Ry
     estimated scf accuracy    <       0.00000001 Ry

     iteration #  6     ecut=    60.00 Ry     beta= 0.70
     CG style diagonalization
     ethr =  3.03E-11,  avg # of iterations =  3.9

     negative rho (up, down):  1.560E-02 0.000E+00

     total cpu time spent up to now is      100.6 secs

     total energy              =    -380.57338449 Ry
     estimated scf accuracy    <          2.0E-09 Ry

     iteration #  7     ecut=    60.00 Ry     beta= 0.70
     CG style diagonalization
     ethr =  4.52E-12,  avg # of iterations =  4.1

     negative rho (up, down):  1.560E-02 0.000E+00

     total cpu time spent up to now is      101.6 secs

     total energy              =    -380.57338450 Ry
     estimated scf accuracy    <          2.8E-10 Ry

     iteration #  8     ecut=    60.00 Ry     beta= 0.70
     CG style diagonalization
     ethr =  6.35E-13,  avg # of iterations =  5.0

     negative rho (up, down):  1.560E-02 0.000E+00

     total cpu time spent up to now is      102.8 secs

     End of self-consistent calculation

          k = 0.0000 0.0000 0.0000 (  3279 PWs)   bands (ev):

   -45.7955 -22.4807 -22.3706 -22.3706  -7.5745  -6.5140  -6.2034  -4.9916
    -4.9916  -4.9496  -4.8654  -4.6819   4.2123   6.2500   6.2500   6.8025
     8.1210   8.1210   8.4495   8.6298   8.8729   8.8729

          k = 0.0000 0.0000 0.2378 (  3311 PWs)   bands (ev):

   -45.7952 -22.5003 -22.3698 -22.3698  -7.3888  -6.4621  -6.1430  -5.0066
    -5.0066  -4.9484  -4.8514  -4.7458   3.4643   6.2913   6.2913   6.8767
     7.9150   7.9150   8.3649   8.7847   8.9711   8.9711

          k = 0.0000 0.0000-0.4756 (  3276 PWs)   bands (ev):

   -45.7949 -22.5198 -22.3690 -22.3690  -7.1890  -6.4060  -6.0876  -5.0215
    -5.0215  -4.9471  -4.8380  -4.8139   2.9569   6.2135   6.3132   6.3132
     7.7877   7.7877   8.2841   9.0354   9.0354   9.9893

          k = 0.0000 0.1667 0.0000 (  3294 PWs)   bands (ev):

   -45.7952 -22.4800 -22.3879 -22.3699  -7.4403  -6.4882  -6.1845  -5.0129
    -4.9902  -4.9623  -4.8553  -4.6715   3.7946   6.3066   6.3586   6.7342
     8.1340   8.1463   8.4253   8.5050   8.5736   8.9700

          k = 0.0000 0.1667 0.2378 (  3291 PWs)   bands (ev):

   -45.7949 -22.4994 -22.3871 -22.3691  -7.2706  -6.4496  -6.1176  -5.0059
    -5.0057  -4.9615  -4.8510  -4.7055   3.2598   6.0913   6.4085   6.9296
     7.6043   7.9023   8.2143   8.6225   8.6518   9.3531

          k = 0.0000 0.1667-0.4756 (  3286 PWs)   bands (ev):

   -45.7946 -22.5187 -22.3862 -22.3683  -7.0965  -6.4067  -6.0469  -5.0210
    -4.9966  -4.9608  -4.8518  -4.7394   2.8404   5.7999   6.4341   6.5861
     7.4359   7.7809   8.2529   8.6792   8.7267   9.9589

          k = 0.0000 0.3333 0.0000 (  3308 PWs)   bands (ev):

   -45.7945 -22.4784 -22.4224 -22.3685  -7.1484  -6.4317  -6.1648  -5.0405
    -4.9879  -4.9867  -4.8217  -4.6825   3.2262   5.9453   6.6431   6.6679
     7.8042   7.8388   8.2233   8.2886   8.6613   9.6378

          k = 0.0000 0.3333 0.2378 (  3298 PWs)   bands (ev):

   -45.7943 -22.4976 -22.4213 -22.3676  -7.0409  -6.3954  -6.0731  -5.0071
    -5.0037  -4.9876  -4.8246  -4.6546   2.9155   5.8098   6.5431   6.7193
     7.2359   7.6669   7.8438   8.3102   8.8659   9.7040

          k = 0.0000 0.3333-0.4756 (  3296 PWs)   bands (ev):

   -45.7940 -22.5167 -22.4203 -22.3668  -6.9604  -6.3411  -5.9535  -5.0200
    -4.9878  -4.9644  -4.8561  -4.6134   2.6344   5.4902   6.3289   6.7440
     7.1051   7.3570   7.6180   8.3543   9.2523   9.5725

          k = 0.0000-0.5000 0.0000 (  3326 PWs)   bands (ev):

   -45.7942 -22.4775 -22.4396 -22.3677  -6.9874  -6.3850  -6.1828  -5.0509
    -4.9999  -4.9858  -4.7512  -4.7475   3.0201   5.6040   6.9044   6.9095
     7.3304   7.4397   8.2044   8.2557   8.6913  10.3705

          k = 0.0000-0.5000 0.2378 (  3294 PWs)   bands (ev):

   -45.7939 -22.4966 -22.4384 -22.3669  -6.9412  -6.3228  -6.0725  -5.0161
    -5.0027  -5.0006  -4.7830  -4.6531   2.7778   5.5626   6.5536   6.7673
     7.0918   7.2396   7.9445   8.2798   8.8770   9.8847

          k = 0.0000-0.5000-0.4756 (  3280 PWs)   bands (ev):

   -45.7937 -22.5155 -22.4373 -22.3661  -6.9268  -6.2571  -5.9087  -5.0195
    -5.0012  -4.9738  -4.8286  -4.5628   2.5520   5.3584   6.0204   6.7891
     7.0650   7.2940   7.3965   8.2943   9.2212   9.5695

          k = 0.1667 0.1667 0.0000 (  3291 PWs)   bands (ev):

   -45.7948 -22.4792 -22.3873 -22.3870  -7.3086  -6.4616  -6.1846  -5.0166
    -5.0031  -4.9648  -4.8253  -4.6615   3.4916   6.2529   6.4872   6.7285
     7.6569   7.7893   8.4679   8.5358   8.8201   9.1856

          k = 0.1667 0.1667 0.2378 (  3304 PWs)   bands (ev):

   -45.7946 -22.4986 -22.3864 -22.3862  -7.1505  -6.4398  -6.1157  -5.0176
    -4.9938  -4.9594  -4.8187  -4.6754   3.1415   6.0446   6.1239   6.8487
     7.4933   7.5165   8.2769   8.6789   8.8996   9.3306

          k = 0.1667 0.1667-0.4756 (  3298 PWs)   bands (ev):

   -45.7943 -22.5178 -22.3855 -22.3853  -6.9946  -6.4178  -6.0341  -5.0284
    -4.9735  -4.9370  -4.8255  -4.6932   2.8131   5.8426   5.8586   6.5706
     7.3520   7.4686   8.2091   8.7424   8.9541   9.6808

          k = 0.1667 0.3333 0.0000 (  3313 PWs)   bands (ev):

   -45.7942 -22.4776 -22.4215 -22.3856  -7.0239  -6.4066  -6.2015  -5.0334
    -4.9919  -4.9482  -4.7831  -4.6703   3.0139   5.9558   6.4921   6.8216
     7.1478   7.7065   8.0365   8.6522   8.8183   9.6825

          k = 0.1667 0.3333 0.2378 (  3297 PWs)   bands (ev):

   -45.7939 -22.4968 -22.4205 -22.3848  -6.9165  -6.3981  -6.1180  -5.0125
    -4.9893  -4.9298  -4.7688  -4.6326   2.9001   5.7815   5.9425   6.4631
     6.8986   7.5608   8.3324   8.6169   8.9551   9.4310

          k = 0.1667 0.3333-0.4756 (  3300 PWs)   bands (ev):

   -45.7937 -22.5158 -22.4195 -22.3839  -6.8409  -6.3797  -5.9991  -5.0127
    -4.9658  -4.8944  -4.7770  -4.5890   2.7464   5.4418   5.8407   6.2163
     6.4018   7.4163   8.4380   8.6600   8.9677   9.3870

          k = 0.1667-0.5000 0.0000 (  3318 PWs)   bands (ev):

   -45.7939 -22.4767 -22.4387 -22.3848  -6.8673  -6.3628  -6.2366  -5.0345
    -4.9841  -4.9296  -4.7301  -4.7256   2.8239   5.6221   6.6199   6.8156
     7.1811   7.4550   7.8428   8.7019   8.7990  10.0027

          k = 0.1667-0.5000 0.2378 (  3316 PWs)   bands (ev):

   -45.7936 -22.4958 -22.4376 -22.3840  -6.8165  -6.3347  -6.1397  -5.0107
    -4.9767  -4.9138  -4.7340  -4.6309   2.7896   5.5700   5.8444   6.2327
     6.8490   7.6963   8.1227   8.6160   8.9669   9.4004

          k = 0.1667-0.5000-0.4756 (  3304 PWs)   bands (ev):

   -45.7933 -22.5147 -22.4364 -22.3831  -6.8067  -6.3074  -5.9842  -5.0078
    -4.9383  -4.8965  -4.7458  -4.5408   2.7171   5.3269   5.6770   5.8689
     6.3002   7.5303   8.3217   8.5841   8.6423   9.5827

          k = 0.3333 0.3333 0.0000 (  3313 PWs)   bands (ev):

   -45.7936 -22.4760 -22.4198 -22.4196  -6.7676  -6.3581  -6.2696  -5.0140
    -4.9704  -4.8711  -4.7121  -4.6702   2.6145   5.9068   6.0869   6.8988
     7.0712   7.1986   7.8765   8.4910   9.2981   9.4308

          k = 0.3333 0.3333 0.2378 (  3310 PWs)   bands (ev):

   -45.7933 -22.4950 -22.4189 -22.4187  -6.6650  -6.3972  -6.2033  -4.9772
    -4.9663  -4.8281  -4.6665  -4.6021   2.7962   5.5542   5.6387   5.9037
     6.6229   7.0691   8.4171   8.9275   8.9674   9.3152

          k = 0.3333 0.3333-0.4756 (  3300 PWs)   bands (ev):

   -45.7930 -22.5139 -22.4179 -22.4178  -6.6163  -6.4341  -6.0723  -4.9616
    -4.9415  -4.7800  -4.6202  -4.5362   2.9683   5.1554   5.1941   5.6750
     6.3554   6.5411   7.7543   9.2711   9.2842   9.4580

          k = 0.3333-0.5000 0.0000 (  3308 PWs)   bands (ev):

   -45.7932 -22.4750 -22.4368 -22.4188  -6.6379  -6.3243  -6.3098  -5.0063
    -4.9479  -4.7992  -4.7130  -4.6737   2.4296   5.5928   6.1240   6.7387
     7.2476   7.3836   7.4728   8.4787   9.1339   9.4922

          k = 0.3333-0.5000 0.2378 (  3316 PWs)   bands (ev):

   -45.7930 -22.4940 -22.4358 -22.4179  -6.5548  -6.3621  -6.2594  -4.9696
    -4.9399  -4.7484  -4.6417  -4.5903   2.7114   5.4776   5.5482   5.6646
     6.3965   7.1409   7.9938   8.9348   8.9437   9.4681

          k = 0.3333-0.5000-0.4756 (  3296 PWs)   bands (ev):

   -45.7927 -22.5129 -22.4348 -22.4171  -6.5625  -6.3978  -6.1042  -4.9448
    -4.9207  -4.7060  -4.5702  -4.4968   3.0665   4.9196   5.1183   5.4461
     6.1448   6.5410   7.0330   9.3776   9.4383   9.6128

          k =-0.5000-0.5000 0.0000 (  3312 PWs)   bands (ev):

   -45.7929 -22.4741 -22.4358 -22.4358  -6.5527  -6.3081  -6.3081  -4.9966
    -4.9078  -4.7165  -4.7165  -4.6663   2.2353   5.4327   5.9922   6.9709
     6.9709   7.4818   7.4818   8.2517   8.6640   9.7440

          k =-0.5000-0.5000 0.2378 (  3304 PWs)   bands (ev):

   -45.7926 -22.4931 -22.4349 -22.4349  -6.3771  -6.3771  -6.3568  -4.9587
    -4.9060  -4.6397  -4.5970  -4.5970   2.6154   5.3907   5.6101   5.6101
     5.9985   7.0788   7.3847   8.9600   8.9600   9.7292

          k =-0.5000-0.5000-0.4756 (  3296 PWs)   bands (ev):

   -45.7924 -22.5120 -22.4340 -22.4340  -6.4389  -6.4389  -6.1549  -4.9207
    -4.9041  -4.6044  -4.4830  -4.4830   3.1929   4.9868   4.9868   5.2801
     6.0048   6.1143   6.2316   9.6285   9.6285   9.7144

     highest occupied level (ev):    10.3705

!    total energy              =    -380.57338450 Ry
     estimated scf accuracy    <          1.8E-11 Ry

     The total energy is the sum of the following terms:
     one-electron contribution =     -85.73095214 Ry
     hartree contribution      =      72.00945084 Ry
     xc contribution           =    -102.58501099 Ry
     ewald contribution        =    -264.26687221 Ry

     convergence has been achieved in   8 iterations

     negative rho (up, down):  1.560E-02 0.000E+00

     Forces acting on atoms (cartesian axes, Ry/au):

     atom    1 type  1   force =     0.00000000    0.00000000    0.00032176
     atom    2 type  2   force =     0.00000000    0.00000000   -0.00125557
     atom    3 type  3   force =     0.00000000    0.00000000   -0.00012127
     atom    4 type  3   force =     0.00000000    0.00000000    0.00052754
     atom    5 type  3   force =     0.00000000    0.00000000    0.00052754

     Total force =     0.001500     Total SCF correction =     0.000006


     Computing stress (Cartesian axis) and pressure


     negative rho (up, down):  1.560E-02 0.000E+00
          total   stress  (Ry/bohr**3)                   (kbar)     P=      -42.42
  -0.00033943   0.00000000   0.00000000          -49.93        0.00        0.00
   0.00000000  -0.00033943   0.00000000            0.00      -49.93        0.00
   0.00000000   0.00000000  -0.00018618            0.00        0.00      -27.39

     Energy error            =      7.3E-06 Ry
     Gradient error          =      1.3E-03 Ry/Bohr

     number of scf cycles    =   8
     number of bfgs steps    =   7

     energy             old  =    -380.5733772195 Ry
     energy             new  =    -380.5733844955 Ry

     CASE: energy            _new < energy            _old

     new trust radius        =       0.0018945672 bohr
     new conv_thr            =            1.0E-10 Ry


ATOMIC_POSITIONS (crystal)
Pb               0.0000000000        0.0000000000        0.9934829770
Ti               0.5000000000        0.5000000000        0.5381673098
O                0.5000000000        0.5000000000        0.1067055261
O                0.5000000000        0.0000000000        0.6144642376
O                0.0000000000        0.5000000000        0.6144642376



     Writing config-only to output data dir ./pto_60.save/ :
     XML data file
     NEW-OLD atomic charge density approx. for the potential

     Check: negative core charge=   -0.000003

     negative rho (up, down):  1.561E-02 0.000E+00

     total cpu time spent up to now is      104.3 secs

     Self-consistent Calculation

     iteration #  1     ecut=    60.00 Ry     beta= 0.70
     CG style diagonalization
     ethr =  1.00E-06,  avg # of iterations =  3.0

     Threshold (ethr) on eigenvalues was too large:
     Diagonalizing with lowered threshold

     CG style diagonalization
     c_bands:  1 eigenvalues not converged
     c_bands:  1 eigenvalues not converged
     c_bands:  1 eigenvalues not converged
     c_bands:  2 eigenvalues not converged
     c_bands:  1 eigenvalues not converged
     c_bands:  1 eigenvalues not converged
     ethr =  1.96E-09,  avg # of iterations =  7.3

     negative rho (up, down):  1.561E-02 0.000E+00

     total cpu time spent up to now is      107.0 secs

     total energy              =    -380.57338765 Ry
     estimated scf accuracy    <       0.00000102 Ry

     iteration #  2     ecut=    60.00 Ry     beta= 0.70
     CG style diagonalization
     ethr =  2.33E-09,  avg # of iterations =  4.5

     negative rho (up, down):  1.561E-02 0.000E+00

     total cpu time spent up to now is      108.1 secs

     total energy              =    -380.57338745 Ry
     estimated scf accuracy    <       0.00000347 Ry

     iteration #  3     ecut=    60.00 Ry     beta= 0.70
     CG style diagonalization
     ethr =  2.33E-09,  avg # of iterations =  4.2

     negative rho (up, down):  1.561E-02 0.000E+00

     total cpu time spent up to now is      109.1 secs

     total energy              =    -380.57338810 Ry
     estimated scf accuracy    <       0.00000015 Ry

     iteration #  4     ecut=    60.00 Ry     beta= 0.70
     CG style diagonalization
     ethr =  3.47E-10,  avg # of iterations =  3.7

     negative rho (up, down):  1.561E-02 0.000E+00

     total cpu time spent up to now is      110.0 secs

     total energy              =    -380.57338814 Ry
     estimated scf accuracy    <       0.00000001 Ry

     iteration #  5     ecut=    60.00 Ry     beta= 0.70
     CG style diagonalization
     ethr =  2.97E-11,  avg # of iterations =  4.7

     negative rho (up, down):  1.561E-02 0.000E+00

     total cpu time spent up to now is      111.1 secs

     total energy              =    -380.57338814 Ry
     estimated scf accuracy    <          4.7E-09 Ry

     iteration #  6     ecut=    60.00 Ry     beta= 0.70
     CG style diagonalization
     ethr =  1.08E-11,  avg # of iterations =  4.0

     negative rho (up, down):  1.561E-02 0.000E+00

     total cpu time spent up to now is      112.0 secs

     total energy              =    -380.57338815 Ry
     estimated scf accuracy    <          9.3E-10 Ry

     iteration #  7     ecut=    60.00 Ry     beta= 0.70
     CG style diagonalization
     ethr =  2.12E-12,  avg # of iterations =  4.5

     negative rho (up, down):  1.561E-02 0.000E+00

     total cpu time spent up to now is      113.1 secs

     total energy              =    -380.57338815 Ry
     estimated scf accuracy    <          2.0E-10 Ry

     iteration #  8     ecut=    60.00 Ry     beta= 0.70
     CG style diagonalization
     ethr =  4.58E-13,  avg # of iterations =  4.8

     negative rho (up, down):  1.561E-02 0.000E+00

     total cpu time spent up to now is      114.3 secs

     End of self-consistent calculation

          k = 0.0000 0.0000 0.0000 (  3279 PWs)   bands (ev):

   -45.7962 -22.4813 -22.3711 -22.3711  -7.5747  -6.5131  -6.2032  -4.9907
    -4.9907  -4.9485  -4.8644  -4.6803   4.2141   6.2488   6.2488   6.8009
     8.1185   8.1185   8.4480   8.6293   8.8726   8.8726

          k = 0.0000 0.0000 0.2378 (  3311 PWs)   bands (ev):

   -45.7959 -22.5009 -22.3703 -22.3703  -7.3888  -6.4611  -6.1431  -5.0057
    -5.0057  -4.9472  -4.8503  -4.7443   3.4654   6.2885   6.2885   6.8755
     7.9150   7.9150   8.3633   8.7851   8.9711   8.9711

          k = 0.0000 0.0000-0.4756 (  3276 PWs)   bands (ev):

   -45.7957 -22.5203 -22.3695 -22.3695  -7.1886  -6.4050  -6.0881  -5.0206
    -5.0206  -4.9460  -4.8369  -4.8123   2.9577   6.2128   6.3088   6.3088
     7.7904   7.7904   8.2825   9.0356   9.0356   9.9901

          k = 0.0000 0.1667 0.0000 (  3294 PWs)   bands (ev):

   -45.7959 -22.4805 -22.3884 -22.3704  -7.4406  -6.4874  -6.1844  -5.0119
    -4.9892  -4.9612  -4.8543  -4.6700   3.7956   6.3067   6.3576   6.7327
     8.1338   8.1441   8.4240   8.5045   8.5728   8.9703

          k = 0.0000 0.1667 0.2378 (  3291 PWs)   bands (ev):

   -45.7956 -22.5000 -22.3875 -22.3696  -7.2706  -6.4489  -6.1177  -5.0049
    -5.0047  -4.9604  -4.8500  -4.7041   3.2606   6.0898   6.4060   6.9287
     7.6048   7.9022   8.2152   8.6209   8.6521   9.3540

          k = 0.0000 0.1667-0.4756 (  3286 PWs)   bands (ev):

   -45.7953 -22.5193 -22.3867 -22.3688  -7.0962  -6.4060  -6.0474  -5.0201
    -4.9956  -4.9596  -4.8507  -4.7379   2.8410   5.7977   6.4299   6.5852
     7.4382   7.7832   8.2532   8.6775   8.7273   9.9608

          k = 0.0000 0.3333 0.0000 (  3308 PWs)   bands (ev):

   -45.7952 -22.4790 -22.4228 -22.3690  -7.1487  -6.4314  -6.1647  -5.0395
    -4.9869  -4.9857  -4.8207  -4.6812   3.2265   5.9465   6.6428   6.6695
     7.8064   7.8383   8.2207   8.2875   8.6603   9.6374

          k = 0.0000 0.3333 0.2378 (  3298 PWs)   bands (ev):

   -45.7950 -22.4982 -22.4218 -22.3681  -7.0407  -6.3953  -6.0734  -5.0061
    -5.0028  -4.9865  -4.8235  -4.6532   2.9160   5.8101   6.5440   6.7175
     7.2380   7.6659   7.8434   8.3110   8.8657   9.7042

          k = 0.0000 0.3333-0.4756 (  3296 PWs)   bands (ev):

   -45.7947 -22.5172 -22.4207 -22.3673  -6.9598  -6.3412  -5.9542  -5.0191
    -4.9867  -4.9633  -4.8550  -4.6121   2.6350   5.4888   6.3321   6.7402
     7.1058   7.3570   7.6187   8.3564   9.2509   9.5748

          k = 0.0000-0.5000 0.0000 (  3326 PWs)   bands (ev):

   -45.7949 -22.4780 -22.4401 -22.3683  -6.9875  -6.3853  -6.1827  -5.0499
    -4.9988  -4.9848  -4.7500  -4.7464   3.0201   5.6068   6.9053   6.9131
     7.3312   7.4379   8.2032   8.2535   8.6902  10.3704

          k = 0.0000-0.5000 0.2378 (  3294 PWs)   bands (ev):

   -45.7946 -22.4971 -22.4389 -22.3674  -6.9407  -6.3232  -6.0730  -5.0150
    -5.0018  -4.9995  -4.7818  -4.6519   2.7782   5.5645   6.5548   6.7691
     7.0929   7.2359   7.9442   8.2807   8.8775   9.8845

          k = 0.0000-0.5000-0.4756 (  3280 PWs)   bands (ev):

   -45.7944 -22.5161 -22.4377 -22.3666  -6.9260  -6.2576  -5.9096  -5.0186
    -5.0002  -4.9728  -4.8274  -4.5616   2.5528   5.3580   6.0238   6.7899
     7.0603   7.2952   7.3964   8.2971   9.2228   9.5690

          k = 0.1667 0.1667 0.0000 (  3291 PWs)   bands (ev):

   -45.7956 -22.4798 -22.3878 -22.3875  -7.3090  -6.4610  -6.1845  -5.0156
    -5.0021  -4.9637  -4.8243  -4.6601   3.4923   6.2520   6.4880   6.7269
     7.6561   7.7894   8.4679   8.5347   8.8216   9.1847

          k = 0.1667 0.1667 0.2378 (  3304 PWs)   bands (ev):

   -45.7953 -22.4991 -22.3869 -22.3866  -7.1506  -6.4392  -6.1158  -5.0166
    -4.9927  -4.9583  -4.8177  -4.6740   3.1421   6.0424   6.1234   6.8474
     7.4937   7.5184   8.2768   8.6780   8.8998   9.3320

          k = 0.1667 0.1667-0.4756 (  3298 PWs)   bands (ev):

   -45.7950 -22.5184 -22.3860 -22.3858  -6.9944  -6.4172  -6.0347  -5.0275
    -4.9724  -4.9360  -4.8244  -4.6918   2.8137   5.8399   5.8568   6.5717
     7.3506   7.4719   8.2101   8.7418   8.9536   9.6830

          k = 0.1667 0.3333 0.0000 (  3313 PWs)   bands (ev):

   -45.7949 -22.4782 -22.4220 -22.3861  -7.0244  -6.4065  -6.2015  -5.0324
    -4.9909  -4.9471  -4.7821  -4.6690   3.0143   5.9570   6.4911   6.8235
     7.1476   7.7063   8.0384   8.6515   8.8185   9.6822

          k = 0.1667 0.3333 0.2378 (  3297 PWs)   bands (ev):

   -45.7946 -22.4973 -22.4209 -22.3852  -6.9166  -6.3980  -6.1184  -5.0115
    -4.9883  -4.9288  -4.7678  -4.6313   2.9006   5.7816   5.9428   6.4623
     6.8996   7.5628   8.3337   8.6163   8.9548   9.4313

          k = 0.1667 0.3333-0.4756 (  3300 PWs)   bands (ev):

   -45.7944 -22.5163 -22.4199 -22.3844  -6.8406  -6.3797  -5.9998  -5.0117
    -4.9648  -4.8933  -4.7759  -4.5877   2.7470   5.4406   5.8406   6.2157
     6.4042   7.4183   8.4382   8.6603   8.9687   9.3865

          k = 0.1667-0.5000 0.0000 (  3318 PWs)   bands (ev):

   -45.7946 -22.4773 -22.4391 -22.3853  -6.8676  -6.3632  -6.2366  -5.0335
    -4.9831  -4.9284  -4.7290  -4.7244   2.8241   5.6248   6.6203   6.8142
     7.1843   7.4567   7.8417   8.7013   8.7987  10.0029

          k = 0.1667-0.5000 0.2378 (  3316 PWs)   bands (ev):

   -45.7943 -22.4963 -22.4380 -22.3845  -6.8163  -6.3350  -6.1401  -5.0097
    -4.9757  -4.9127  -4.7329  -4.6297   2.7900   5.5719   5.8456   6.2321
     6.8487   7.6986   8.1247   8.6147   8.9674   9.3996

          k = 0.1667-0.5000-0.4756 (  3304 PWs)   bands (ev):

   -45.7941 -22.5153 -22.4369 -22.3836  -6.8062  -6.3078  -5.9850  -5.0068
    -4.9373  -4.8955  -4.7447  -4.5396   2.7179   5.3265   5.6780   5.8703
     6.3000   7.5329   8.3231   8.5832   8.6429   9.5820

          k = 0.3333 0.3333 0.0000 (  3313 PWs)   bands (ev):

   -45.7943 -22.4766 -22.4203 -22.4200  -6.7684  -6.3582  -6.2697  -5.0130
    -4.9693  -4.8699  -4.7110  -4.6689   2.6149   5.9074   6.0885   6.8980
     7.0737   7.1978   7.8795   8.4924   9.2983   9.4310

          k = 0.3333 0.3333 0.2378 (  3310 PWs)   bands (ev):

   -45.7940 -22.4956 -22.4194 -22.4191  -6.6655  -6.3972  -6.2037  -4.9762
    -4.9652  -4.8270  -4.6654  -4.6009   2.7967   5.5547   5.6386   5.9040
     6.6265   7.0704   8.4195   8.9275   8.9663   9.3153

          k = 0.3333 0.3333-0.4756 (  3300 PWs)   bands (ev):

   -45.7937 -22.5145 -22.4184 -22.4183  -6.6164  -6.4340  -6.0730  -4.9605
    -4.9405  -4.7790  -4.6191  -4.5350   2.9688   5.1563   5.1939   5.6732
     6.3583   6.5452   7.7560   9.2703   9.2845   9.4571

          k = 0.3333-0.5000 0.0000 (  3308 PWs)   bands (ev):

   -45.7939 -22.4756 -22.4372 -22.4193  -6.6388  -6.3247  -6.3099  -5.0053
    -4.9469  -4.7979  -4.7118  -4.6725   2.4300   5.5949   6.1260   6.7376
     7.2459   7.3869   7.4757   8.4799   9.1346   9.4926

          k = 0.3333-0.5000 0.2378 (  3316 PWs)   bands (ev):

   -45.7937 -22.4946 -22.4362 -22.4184  -6.5552  -6.3624  -6.2599  -4.9687
    -4.9389  -4.7473  -4.6407  -4.5891   2.7118   5.4785   5.5494   5.6648
     6.3996   7.1425   7.9955   8.9345   8.9434   9.4683

          k = 0.3333-0.5000-0.4756 (  3296 PWs)   bands (ev):

   -45.7934 -22.5135 -22.4352 -22.4175  -6.5625  -6.3980  -6.1050  -4.9438
    -4.9196  -4.7050  -4.5692  -4.4957   3.0670   4.9206   5.1185   5.4455
     6.1476   6.5450   7.0341   9.3766   9.4387   9.6121

          k =-0.5000-0.5000 0.0000 (  3312 PWs)   bands (ev):

   -45.7936 -22.4747 -22.4362 -22.4362  -6.5536  -6.3085  -6.3085  -4.9956
    -4.9067  -4.7152  -4.7152  -4.6651   2.2357   5.4346   5.9964   6.9687
     6.9687   7.4852   7.4852   8.2525   8.6658   9.7444

          k =-0.5000-0.5000 0.2378 (  3304 PWs)   bands (ev):

   -45.7934 -22.4937 -22.4353 -22.4353  -6.3775  -6.3775  -6.3577  -4.9577
    -4.9049  -4.6385  -4.5959  -4.5959   2.6158   5.3920   5.6108   5.6108
     6.0027   7.0800   7.3859   8.9601   8.9601   9.7296

          k =-0.5000-0.5000-0.4756 (  3296 PWs)   bands (ev):

   -45.7931 -22.5125 -22.4344 -22.4344  -6.4391  -6.4391  -6.1557  -4.9197
    -4.9031  -4.6032  -4.4821  -4.4821   3.1933   4.9879   4.9879   5.2798
     6.0090   6.1152   6.2342   9.6278   9.6278   9.7148

     highest occupied level (ev):    10.3704

!    total energy              =    -380.57338815 Ry
     estimated scf accuracy    <          4.9E-12 Ry

     The total energy is the sum of the following terms:
     one-electron contribution =     -85.71587458 Ry
     hartree contribution      =      72.00218116 Ry
     xc contribution           =    -102.58472203 Ry
     ewald contribution        =    -264.27497269 Ry

     convergence has been achieved in   8 iterations

     negative rho (up, down):  1.561E-02 0.000E+00

     Forces acting on atoms (cartesian axes, Ry/au):

     atom    1 type  1   force =     0.00000000    0.00000000    0.00015804
     atom    2 type  2   force =     0.00000000    0.00000000   -0.00084630
     atom    3 type  3   force =     0.00000000    0.00000000    0.00037544
     atom    4 type  3   force =     0.00000000    0.00000000    0.00015641
     atom    5 type  3   force =     0.00000000    0.00000000    0.00015641

     Total force =     0.000965     Total SCF correction =     0.000005


     Computing stress (Cartesian axis) and pressure


     negative rho (up, down):  1.561E-02 0.000E+00
          total   stress  (Ry/bohr**3)                   (kbar)     P=      -42.63
  -0.00034122   0.00000000   0.00000000          -50.20        0.00        0.00
   0.00000000  -0.00034122   0.00000000            0.00      -50.20        0.00
   0.00000000   0.00000000  -0.00018692            0.00        0.00      -27.50

     Energy error            =      3.7E-06 Ry
     Gradient error          =      8.5E-04 Ry/Bohr

     bfgs converged in   9 scf cycles and   8 bfgs steps
     (criteria: energy <  1.0E-04 Ry, force <  1.0E-03 Ry/Bohr)

     End of BFGS Geometry Optimization

     Final energy             =    -380.5733881461 Ry

     File ./pto_60.bfgs deleted, as requested
Begin final coordinates

ATOMIC_POSITIONS (crystal)
Pb               0.0000000000        0.0000000000        0.9934829770
Ti               0.5000000000        0.5000000000        0.5381673098
O                0.5000000000        0.5000000000        0.1067055261
O                0.5000000000        0.0000000000        0.6144642376
O                0.0000000000        0.5000000000        0.6144642376
End final coordinates



     Writing all to output data dir ./pto_60.save/ :
     XML data file, charge density, pseudopotentials, collected wavefunctions
 
     init_run     :      0.48s CPU      0.57s WALL (       1 calls)
     electrons    :     95.09s CPU    101.16s WALL (       9 calls)
     update_pot   :      0.03s CPU      0.04s WALL (       8 calls)
     forces       :      1.20s CPU      1.27s WALL (       9 calls)
     stress       :     11.60s CPU     11.78s WALL (       9 calls)

     Called by init_run:
     wfcinit      :      0.19s CPU      0.22s WALL (       1 calls)
     potinit      :      0.01s CPU      0.02s WALL (       1 calls)
     hinit0       :      0.12s CPU      0.14s WALL (       1 calls)

     Called by electrons:
     c_bands      :     79.86s CPU     84.04s WALL (      89 calls)
     sum_band     :     10.73s CPU     11.37s WALL (      89 calls)
     v_of_rho     :      0.17s CPU      0.18s WALL (      94 calls)
     newd         :      4.59s CPU      5.76s WALL (      94 calls)
     mix_rho      :      0.11s CPU      0.11s WALL (      89 calls)

     Called by c_bands:
     init_us_2    :      0.76s CPU      0.79s WALL (    5910 calls)
     init_us_2:cp :      0.75s CPU      0.78s WALL (    5910 calls)
     ccgdiagg     :     71.49s CPU     75.32s WALL (    2670 calls)
     wfcrot       :      7.98s CPU      8.31s WALL (    2310 calls)

     Called by *cgdiagg:
     h_psi        :     46.78s CPU     49.19s WALL (  224652 calls)
     s_psi        :      7.18s CPU      7.58s WALL (  446994 calls)

     Called by h_psi:
     h_psi:calbec :      7.03s CPU      7.40s WALL (  224652 calls)
     vloc_psi     :     33.92s CPU     35.66s WALL (  224652 calls)
     add_vuspsi   :      3.96s CPU      4.18s WALL (  224652 calls)
     hs_1psi      :     45.14s CPU     47.55s WALL (  222342 calls)
     s_1psi       :     10.16s CPU     10.68s WALL (  222342 calls)

     General routines
     calbec       :     12.70s CPU     13.37s WALL (  451014 calls)
     fft          :      0.20s CPU      0.21s WALL (     630 calls)
     ffts         :      0.02s CPU      0.02s WALL (     183 calls)
     fftw         :     28.37s CPU     29.75s WALL (  605604 calls)
     interpolate  :      0.04s CPU      0.04s WALL (      94 calls)
 
     Parallel routines
 
     PWSCF        :   1m49.10s CPU   1m56.10s WALL

 
   This run was terminated on:   0:21:36  13Nov2025            

=------------------------------------------------------------------------------=
   JOB DONE.
=------------------------------------------------------------------------------=
TACC:  Shutdown complete. Exiting. 
