TACC:  Starting up job 2388100 
TACC:  Starting parallel tasks... 

     Program PWSCF v.7.3 starts on 19Sep2025 at 17:25:23 

     This program is part of the open-source Quantum ESPRESSO suite
     for quantum simulation of materials; please cite
         "P. Giannozzi et al., J. Phys.:Condens. Matter 21 395502 (2009);
         "P. Giannozzi et al., J. Phys.:Condens. Matter 29 465901 (2017);
         "P. Giannozzi et al., J. Chem. Phys. 152 154105 (2020);
          URL http://www.quantum-espresso.org", 
     in publications or presentations arising from this work. More details at
     http://www.quantum-espresso.org/quote

     Parallel version (MPI & OpenMP), running on      10 processor cores
     Number of MPI processes:                10
     Threads/MPI process:                     1

     MPI processes distributed on     1 nodes
     186905 MiB available memory on the printing compute node when the environment starts
 
     Waiting for input...
     Reading input from standard input
Warning: card &CELL ignored
Warning: card  CELL_DYNAMICS = 'BFGS', ignored
Warning: card  PRESS=0.D0, ignored
Warning: card / ignored
     Message from routine read_cards :
     DEPRECATED: no units specified in ATOMIC_POSITIONS card
     Message from routine read_cards :
     ATOMIC_POSITIONS: units set to alat

     Current dimensions of program PWSCF are:
     Max number of different atomic species (ntypx) = 10
     Max number of k-points (npk) =  40000
     Max angular momentum in pseudopotentials (lmaxx) =  4
 
     R & G space division:  proc/nbgrp/npool/nimage =      10
     Subspace diagonalization in iterative solution of the eigenvalue problem:
     a serial algorithm will be used

 
     Parallelization info
     --------------------
     sticks:   dense  smooth     PW     G-vecs:    dense   smooth      PW
     Min         215      86     25                 7503     1909     318
     Max         217      87     27                 7505     1911     321
     Sum        2161     869    261                75037    19093    3191
 
     Using Slab Decomposition
 


     bravais-lattice index     =            1
     lattice parameter (alat)  =       7.3573  a.u.
     unit-cell volume          =     398.2496 (a.u.)^3
     number of atoms/cell      =            5
     number of atomic types    =            3
     number of electrons       =        40.00
     number of Kohn-Sham states=           20
     kinetic-energy cutoff     =      50.0000  Ry
     charge density cutoff     =     500.0000  Ry
     scf convergence threshold =      1.0E-08
     mixing beta               =       0.7000
     number of iterations used =            8  plain     mixing
     Exchange-correlation= SLA  PZ   NOGX NOGC
                           (   1   1   0   0   0   0   0)

     celldm(1)=   7.357300  celldm(2)=   0.000000  celldm(3)=   0.000000
     celldm(4)=   0.000000  celldm(5)=   0.000000  celldm(6)=   0.000000

     crystal axes: (cart. coord. in units of alat)
               a(1) = (   1.000000   0.000000   0.000000 )  
               a(2) = (   0.000000   1.000000   0.000000 )  
               a(3) = (   0.000000   0.000000   1.000000 )  

     reciprocal axes: (cart. coord. in units 2 pi/alat)
               b(1) = (  1.000000  0.000000  0.000000 )  
               b(2) = (  0.000000  1.000000  0.000000 )  
               b(3) = (  0.000000  0.000000  1.000000 )  


     PseudoPot. # 1 for Ca read from file:
     /scratch/11018/zhc/assisgnment1/CaTiO3/Ca_LDA.UPF
     MD5 check sum: d2d4e7693e10d071152e9eeb7dd009f3
     Pseudo is Ultrasoft + core correction, Zval = 10.0
     Generated by new atomic code, or converted to UPF format
     Using radial grid of  845 points,  6 beta functions with: 
                l(1) =   0
                l(2) =   0
                l(3) =   1
                l(4) =   1
                l(5) =   2
                l(6) =   2
     Q(r) pseudized with  8 coefficients,  rinner =    1.500   1.500   1.500
                                                       1.500   1.500

     PseudoPot. # 2 for Ti read from file:
     /scratch/11018/zhc/assisgnment1/CaTiO3/Ti_LDA.UPF
     MD5 check sum: 0d9f225c038fe889ca2a701dcc8d72cb
     Pseudo is Ultrasoft + core correction, Zval = 12.0
     Generated by new atomic code, or converted to UPF format
     Using radial grid of  851 points,  6 beta functions with: 
                l(1) =   0
                l(2) =   0
                l(3) =   1
                l(4) =   1
                l(5) =   2
                l(6) =   2
     Q(r) pseudized with  6 coefficients,  rinner =    1.000   1.000   1.000
                                                       1.000   1.000

     PseudoPot. # 3 for O  read from file:
     /scratch/11018/zhc/assisgnment1/CaTiO3/O_LDA.UPF
     MD5 check sum: 194b818514d2a7dbb603bb78519a4f40
     Pseudo is Ultrasoft + core correction, Zval =  6.0
     Generated by new atomic code, or converted to UPF format
     Using radial grid of  737 points,  5 beta functions with: 
                l(1) =   0
                l(2) =   0
                l(3) =   1
                l(4) =   1
                l(5) =   2
     Q(r) pseudized with  8 coefficients,  rinner =    0.900   0.900   0.900
                                                       0.900   0.900

     atomic species   valence    mass     pseudopotential
     Ca               10.00    40.07800     Ca( 1.00)
     Ti               12.00    47.88000     Ti( 1.00)
     O                 6.00    16.00000     O ( 1.00)

      8 Sym. Ops. (no inversion) found



   Cartesian axes

     site n.     atom                  positions (alat units)
         1        Ca     tau(   1) = (   0.0000000   0.0000000   0.0500000  )
         2        Ti     tau(   2) = (   0.5000000   0.5000000   0.5000000  )
         3        O      tau(   3) = (   0.5000000   0.5000000   0.0000000  )
         4        O      tau(   4) = (   0.5000000   0.0000000   0.5000000  )
         5        O      tau(   5) = (   0.0000000   0.5000000   0.5000000  )

     number of k points=    40
                       cart. coord. in units 2pi/alat
        k(    1) = (   0.0000000   0.0000000   0.0000000), wk =   0.0092593
        k(    2) = (   0.0000000   0.0000000   0.1666667), wk =   0.0185185
        k(    3) = (   0.0000000   0.0000000   0.3333333), wk =   0.0185185
        k(    4) = (   0.0000000   0.0000000  -0.5000000), wk =   0.0092593
        k(    5) = (   0.0000000   0.1666667   0.1666667), wk =   0.0740741
        k(    6) = (   0.0000000   0.1666667   0.3333333), wk =   0.0740741
        k(    7) = (   0.0000000   0.1666667  -0.5000000), wk =   0.0370370
        k(    8) = (   0.0000000   0.3333333   0.3333333), wk =   0.0740741
        k(    9) = (   0.0000000   0.3333333  -0.5000000), wk =   0.0370370
        k(   10) = (   0.0000000  -0.5000000  -0.5000000), wk =   0.0185185
        k(   11) = (   0.1666667   0.1666667   0.1666667), wk =   0.0740741
        k(   12) = (   0.1666667   0.1666667   0.3333333), wk =   0.0740741
        k(   13) = (   0.1666667   0.1666667  -0.5000000), wk =   0.0370370
        k(   14) = (   0.1666667   0.3333333   0.3333333), wk =   0.1481481
        k(   15) = (   0.1666667   0.3333333  -0.5000000), wk =   0.0740741
        k(   16) = (   0.1666667  -0.5000000  -0.5000000), wk =   0.0370370
        k(   17) = (   0.3333333   0.3333333   0.3333333), wk =   0.0740741
        k(   18) = (   0.3333333   0.3333333  -0.5000000), wk =   0.0370370
        k(   19) = (   0.3333333  -0.5000000  -0.5000000), wk =   0.0370370
        k(   20) = (  -0.5000000  -0.5000000  -0.5000000), wk =   0.0092593
        k(   21) = (   0.1666667   0.0000000   0.0000000), wk =   0.0370370
        k(   22) = (   0.3333333   0.0000000   0.0000000), wk =   0.0370370
        k(   23) = (  -0.5000000   0.0000000   0.0000000), wk =   0.0185185
        k(   24) = (   0.1666667  -0.1666667   0.0000000), wk =   0.0370370
        k(   25) = (   0.3333333  -0.1666667   0.0000000), wk =   0.0740741
        k(   26) = (   0.0000000   0.3333333   0.1666667), wk =   0.0740741
        k(   27) = (  -0.5000000  -0.1666667   0.0000000), wk =   0.0370370
        k(   28) = (   0.0000000  -0.5000000   0.1666667), wk =   0.0370370
        k(   29) = (   0.3333333  -0.3333333   0.0000000), wk =   0.0370370
        k(   30) = (  -0.5000000  -0.3333333   0.0000000), wk =   0.0370370
        k(   31) = (   0.0000000  -0.5000000   0.3333333), wk =   0.0370370
        k(   32) = (  -0.5000000   0.5000000   0.0000000), wk =   0.0092593
        k(   33) = (   0.3333333  -0.1666667   0.1666667), wk =   0.1481481
        k(   34) = (  -0.5000000  -0.1666667   0.1666667), wk =   0.0740741
        k(   35) = (   0.3333333  -0.3333333   0.1666667), wk =   0.0740741
        k(   36) = (  -0.5000000  -0.3333333   0.1666667), wk =   0.0740741
        k(   37) = (  -0.1666667  -0.5000000   0.3333333), wk =   0.0740741
        k(   38) = (  -0.5000000   0.5000000   0.1666667), wk =   0.0185185
        k(   39) = (  -0.5000000  -0.3333333   0.3333333), wk =   0.0740741
        k(   40) = (  -0.5000000   0.5000000   0.3333333), wk =   0.0185185

     Dense  grid:    75037 G-vectors     FFT dimensions: (  54,  54,  54)

     Smooth grid:    19093 G-vectors     FFT dimensions: (  36,  36,  36)

     Estimated max dynamical RAM per process >      36.38 MB

     Estimated total dynamical RAM >     363.75 MB

     Check: negative core charge=   -0.000005

     Initial potential from superposition of free atoms

     starting charge      38.9952, renormalised to      40.0000

     negative rho (up, down):  5.755E-04 0.000E+00
     Starting wfcs are   32 randomized atomic wfcs

     total cpu time spent up to now is        0.8 secs

     Self-consistent Calculation

     iteration #  1     ecut=    50.00 Ry     beta= 0.70
     CG style diagonalization
     ethr =  1.00E-02,  avg # of iterations =  2.2

     negative rho (up, down):  1.237E-03 0.000E+00

     total cpu time spent up to now is        1.4 secs

     total energy              =    -291.29978731 Ry
     estimated scf accuracy    <       0.82754777 Ry

     iteration #  2     ecut=    50.00 Ry     beta= 0.70
     CG style diagonalization
     ethr =  2.07E-03,  avg # of iterations =  5.3

     negative rho (up, down):  3.899E-04 0.000E+00

     total cpu time spent up to now is        2.7 secs

     total energy              =    -290.58758378 Ry
     estimated scf accuracy    <       6.72862953 Ry

     iteration #  3     ecut=    50.00 Ry     beta= 0.70
     CG style diagonalization
     ethr =  2.07E-03,  avg # of iterations =  4.6

     negative rho (up, down):  4.231E-04 0.000E+00

     total cpu time spent up to now is        3.8 secs

     total energy              =    -291.73070043 Ry
     estimated scf accuracy    <       0.19249206 Ry

     iteration #  4     ecut=    50.00 Ry     beta= 0.70
     CG style diagonalization
     ethr =  4.81E-04,  avg # of iterations =  3.4

     negative rho (up, down):  5.362E-04 0.000E+00

     total cpu time spent up to now is        4.6 secs

     total energy              =    -291.73846310 Ry
     estimated scf accuracy    <       0.05456495 Ry

     iteration #  5     ecut=    50.00 Ry     beta= 0.70
     CG style diagonalization
     ethr =  1.36E-04,  avg # of iterations =  3.6

     negative rho (up, down):  5.930E-04 0.000E+00

     total cpu time spent up to now is        5.4 secs

     total energy              =    -291.74855429 Ry
     estimated scf accuracy    <       0.00103780 Ry

     iteration #  6     ecut=    50.00 Ry     beta= 0.70
     CG style diagonalization
     ethr =  2.59E-06,  avg # of iterations =  4.5

     negative rho (up, down):  6.196E-04 0.000E+00

     total cpu time spent up to now is        6.5 secs

     total energy              =    -291.74981164 Ry
     estimated scf accuracy    <       0.00072773 Ry

     iteration #  7     ecut=    50.00 Ry     beta= 0.70
     CG style diagonalization
     ethr =  1.82E-06,  avg # of iterations =  3.3

     negative rho (up, down):  6.039E-04 0.000E+00

     total cpu time spent up to now is        7.3 secs

     total energy              =    -291.74976656 Ry
     estimated scf accuracy    <       0.00033603 Ry

     iteration #  8     ecut=    50.00 Ry     beta= 0.70
     CG style diagonalization
     ethr =  8.40E-07,  avg # of iterations =  3.5

     negative rho (up, down):  6.005E-04 0.000E+00

     total cpu time spent up to now is        8.1 secs

     total energy              =    -291.74980447 Ry
     estimated scf accuracy    <       0.00002358 Ry

     iteration #  9     ecut=    50.00 Ry     beta= 0.70
     CG style diagonalization
     ethr =  5.90E-08,  avg # of iterations =  3.9

     negative rho (up, down):  5.986E-04 0.000E+00

     total cpu time spent up to now is        9.0 secs

     total energy              =    -291.74981210 Ry
     estimated scf accuracy    <       0.00000112 Ry

     iteration # 10     ecut=    50.00 Ry     beta= 0.70
     CG style diagonalization
     ethr =  2.81E-09,  avg # of iterations =  4.5

     negative rho (up, down):  5.989E-04 0.000E+00

     total cpu time spent up to now is       10.1 secs

     total energy              =    -291.74981332 Ry
     estimated scf accuracy    <       0.00000039 Ry

     iteration # 11     ecut=    50.00 Ry     beta= 0.70
     CG style diagonalization
     ethr =  9.85E-10,  avg # of iterations =  3.3

     negative rho (up, down):  5.994E-04 0.000E+00

     total cpu time spent up to now is       10.9 secs

     total energy              =    -291.74981331 Ry
     estimated scf accuracy    <       0.00000014 Ry

     iteration # 12     ecut=    50.00 Ry     beta= 0.70
     CG style diagonalization
     ethr =  3.44E-10,  avg # of iterations =  3.7

     negative rho (up, down):  5.993E-04 0.000E+00

     total cpu time spent up to now is       11.7 secs

     End of self-consistent calculation

          k = 0.0000 0.0000 0.0000 (  2373 PWs)   bands (ev):

   -47.1760 -30.1508 -23.7712 -23.7712 -23.7624 -11.3735 -11.3515 -11.3515
    -8.5691  -7.4920  -7.4422   5.5462   5.5509   5.5509   7.4456   7.4517
     7.4517   8.1762   8.1762   8.1916

          k = 0.0000 0.0000 0.1667 (  2401 PWs)   bands (ev):

   -47.1758 -30.1493 -23.7805 -23.7703 -23.7703 -11.4350 -11.3488 -11.3488
    -8.4118  -7.4820  -7.3653   5.2486   5.5662   5.5662   7.1065   7.1065
     7.2287   7.3863   8.0358   8.0358

          k = 0.0000 0.0000 0.3333 (  2376 PWs)   bands (ev):

   -47.1752 -30.1464 -23.8162 -23.7686 -23.7686 -11.5496 -11.3432 -11.3432
    -8.0957  -7.4619  -7.2022   4.5998   5.6469   5.6469   6.2932   6.4672
     6.4672   6.8488   7.9137   7.9137

          k = 0.0000 0.0000-0.5000 (  2392 PWs)   bands (ev):

   -47.1749 -30.1449 -23.8339 -23.7678 -23.7678 -11.6034 -11.3404 -11.3404
    -7.9383  -7.4518  -7.1125   4.2363   5.7861   5.7861   5.9010   6.0922
     6.0922   6.6786   7.8725   7.8725

          k = 0.0000 0.1667 0.1667 (  2378 PWs)   bands (ev):

   -47.1755 -30.1478 -23.7885 -23.7797 -23.7695 -11.4385 -11.3919 -11.3459
    -8.2673  -7.4325  -7.3331   5.0713   5.4192   5.5782   6.4005   6.8687
     7.2689   7.3783   7.7063   7.8134

          k = 0.0000 0.1667 0.3333 (  2383 PWs)   bands (ev):

   -47.1749 -30.1448 -23.8157 -23.7870 -23.7678 -11.5297 -11.3854 -11.3401
    -7.9939  -7.4054  -7.1697   4.5535   5.1698   5.6474   5.6493   6.3597
     6.6111   7.3224   7.5943   7.6093

          k = 0.0000 0.1667-0.5000 (  2368 PWs)   bands (ev):

   -47.1746 -30.1433 -23.8335 -23.7863 -23.7670 -11.5764 -11.3788 -11.3371
    -7.8667  -7.3894  -7.0716   4.2329   4.9124   5.5043   5.7804   6.0191
     6.3908   7.3158   7.5082   7.5329

          k = 0.0000 0.3333 0.3333 (  2390 PWs)   bands (ev):

   -47.1743 -30.1416 -23.8235 -23.8146 -23.7661 -11.4997 -11.4575 -11.3338
    -7.8516  -7.2250  -7.0911   4.2459   4.7160   4.7839   5.6789   6.0856
     6.6684   6.8397   7.1990   8.1885

          k = 0.0000 0.3333-0.5000 (  2380 PWs)   bands (ev):

   -47.1740 -30.1400 -23.8326 -23.8229 -23.7653 -11.5226 -11.4534 -11.3305
    -7.8154  -7.1521  -6.9890   4.0836   4.2023   4.6999   5.7620   5.8782
     6.6085   6.8022   7.0593   8.3283

          k = 0.0000-0.5000-0.5000 (  2408 PWs)   bands (ev):

   -47.1737 -30.1383 -23.8411 -23.8321 -23.7645 -11.4933 -11.4922 -11.3272
    -7.8190  -6.9902  -6.9488   3.7854   4.0567   4.3692   5.7478   5.8103
     6.6873   6.7157   6.8786   8.5835

          k = 0.1667 0.1667 0.1667 (  2364 PWs)   bands (ev):

   -47.1752 -30.1462 -23.7879 -23.7876 -23.7790 -11.4401 -11.3862 -11.3833
    -8.1292  -7.3664  -7.3277   4.9092   5.4044   5.4086   6.3010   6.3056
     6.7715   7.6112   7.6511   7.7281

          k = 0.1667 0.1667 0.3333 (  2386 PWs)   bands (ev):

   -47.1746 -30.1432 -23.8150 -23.7863 -23.7861 -11.5121 -11.3862 -11.3716
    -7.8726  -7.3637  -7.1544   4.5076   5.0820   5.3241   5.5299   5.7889
     6.5960   7.4077   7.5474   7.7393

          k = 0.1667 0.1667-0.5000 (  2388 PWs)   bands (ev):

   -47.1743 -30.1417 -23.8329 -23.7856 -23.7852 -11.5530 -11.3799 -11.3657
    -7.7550  -7.3623  -7.0466   4.2318   4.8035   5.2167   5.3119   5.6805
     6.6548   7.2608   7.5200   7.6609

          k = 0.1667 0.3333 0.3333 (  2360 PWs)   bands (ev):

   -47.1740 -30.1400 -23.8226 -23.8137 -23.7845 -11.4857 -11.4462 -11.3658
    -7.6935  -7.2146  -7.1058   4.2693   4.7472   4.7883   5.1959   5.4434
     6.1416   7.4455   7.5165   8.2069

          k = 0.1667 0.3333-0.5000 (  2370 PWs)   bands (ev):

   -47.1737 -30.1384 -23.8317 -23.8220 -23.7837 -11.5062 -11.4430 -11.3604
    -7.6494  -7.1696  -6.9954   4.1778   4.2056   4.6943   5.1407   5.2939
     6.1386   7.4389   7.4625   8.3445

          k = 0.1667-0.5000-0.5000 (  2384 PWs)   bands (ev):

   -47.1734 -30.1368 -23.8401 -23.8311 -23.7828 -11.4801 -11.4793 -11.3550
    -7.6460  -7.0105  -6.9701   3.9100   4.0644   4.3737   5.1232   5.1640
     6.0907   7.4251   7.4776   8.6008

          k = 0.3333 0.3333 0.3333 (  2365 PWs)   bands (ev):

   -47.1734 -30.1368 -23.8211 -23.8209 -23.8119 -11.4619 -11.4264 -11.4218
    -7.3954  -7.1582  -7.1304   4.2378   4.6823   4.6899   4.8456   4.9027
     4.9279   7.9852   8.0341   8.3154

          k = 0.3333 0.3333-0.5000 (  2380 PWs)   bands (ev):

   -47.1731 -30.1353 -23.8298 -23.8203 -23.8199 -11.4733 -11.4259 -11.4155
    -7.3267  -7.1732  -7.0074   4.1834   4.3108   4.5275   4.5740   4.8414
     4.9204   8.0517   8.2128   8.4401

          k = 0.3333-0.5000-0.5000 (  2368 PWs)   bands (ev):

   -47.1728 -30.1338 -23.8381 -23.8289 -23.8191 -11.4534 -11.4531 -11.4100
    -7.2747  -7.0518  -7.0133   4.0495   4.1674   4.3825   4.5001   4.5287
     4.8253   8.2677   8.3269   8.6360

          k =-0.5000-0.5000-0.5000 (  2320 PWs)   bands (ev):

   -47.1725 -30.1323 -23.8371 -23.8371 -23.8278 -11.4400 -11.4400 -11.4370
    -7.0728  -7.0728  -7.0362   3.9326   4.2771   4.3009   4.3009   4.3708
     4.3918   8.5972   8.6526   8.6526

          k = 0.1667 0.0000 0.0000 (  2401 PWs)   bands (ev):

   -47.1757 -30.1493 -23.7893 -23.7703 -23.7616 -11.4202 -11.3652 -11.3489
    -8.4079  -7.4542  -7.3953   5.2422   5.5649   5.5666   7.0875   7.0976
     7.2463   7.3812   8.0568   8.0642

          k = 0.3333 0.0000 0.0000 (  2376 PWs)   bands (ev):

   -47.1752 -30.1463 -23.8252 -23.7686 -23.7600 -11.5401 -11.3568 -11.3435
    -8.0816  -7.4335  -7.2406   4.5744   5.6519   5.6574   6.2918   6.4330
     6.4495   6.9024   7.9496   7.9509

          k =-0.5000 0.0000 0.0000 (  2392 PWs)   bands (ev):

   -47.1749 -30.1448 -23.8430 -23.7677 -23.7592 -11.5964 -11.3523 -11.3408
    -7.9172  -7.4255  -7.1547   4.2037   5.8233   5.8500   5.8992   6.0239
     6.0247   6.7467   7.9114   7.9122

          k = 0.1667-0.1667 0.0000 (  2378 PWs)   bands (ev):

   -47.1755 -30.1478 -23.7888 -23.7883 -23.7608 -11.4294 -11.3891 -11.3593
    -8.2629  -7.4005  -7.3678   5.0580   5.4197   5.5796   6.3921   6.8766
     7.3035   7.4028   7.6553   7.8346

          k = 0.3333-0.1667 0.0000 (  2383 PWs)   bands (ev):

   -47.1749 -30.1447 -23.8247 -23.7870 -23.7592 -11.5209 -11.3879 -11.3504
    -7.9769  -7.3807  -7.2070   4.5249   5.1421   5.6271   5.7021   6.3609
     6.6478   7.3666   7.5597   7.6326

          k = 0.0000 0.3333 0.1667 (  2383 PWs)   bands (ev):

   -47.1749 -30.1447 -23.8246 -23.7783 -23.7678 -11.5218 -11.3959 -11.3402
    -7.9850  -7.3791  -7.2022   4.5312   5.1573   5.6517   5.6910   6.3351
     6.5897   7.3557   7.6177   7.6279

          k =-0.5000-0.1667 0.0000 (  2368 PWs)   bands (ev):

   -47.1746 -30.1431 -23.8426 -23.7863 -23.7583 -11.5700 -11.3815 -11.3458
    -7.8411  -7.3698  -7.1113   4.1974   4.8824   5.5210   5.8428   5.9822
     6.4316   7.3649   7.4627   7.5714

          k = 0.0000-0.5000 0.1667 (  2368 PWs)   bands (ev):

   -47.1746 -30.1432 -23.8425 -23.7776 -23.7669 -11.5706 -11.3882 -11.3374
    -7.8541  -7.3568  -7.1131   4.1989   4.9052   5.5573   5.8224   5.9523
     6.3701   7.3544   7.5308   7.5620

          k = 0.3333-0.3333 0.0000 (  2390 PWs)   bands (ev):

   -47.1743 -30.1414 -23.8239 -23.8234 -23.7575 -11.4932 -11.4588 -11.3425
    -7.8254  -7.2235  -7.1142   4.2251   4.6987   4.7637   5.7070   6.1032
     6.7110   6.8733   7.2291   8.1146

          k =-0.5000-0.3333 0.0000 (  2380 PWs)   bands (ev):

   -47.1740 -30.1398 -23.8418 -23.8231 -23.7567 -11.5175 -11.4553 -11.3383
    -7.7828  -7.1418  -7.0258   4.0700   4.1600   4.6999   5.8184   5.8647
     6.6324   6.8537   7.0971   8.2559

          k = 0.0000-0.5000 0.3333 (  2380 PWs)   bands (ev):

   -47.1740 -30.1399 -23.8416 -23.8140 -23.7653 -11.5190 -11.4580 -11.3306
    -7.8135  -7.1109  -7.0309   4.0828   4.1686   4.7371   5.8143   5.8164
     6.5846   6.8357   7.0696   8.3343

          k =-0.5000 0.5000 0.0000 (  2408 PWs)   bands (ev):

   -47.1737 -30.1381 -23.8413 -23.8413 -23.7559 -11.4914 -11.4914 -11.3344
    -7.7844  -6.9836  -6.9836   3.7773   4.0266   4.3532   5.8012   5.8012
     6.7332   6.7332   6.9166   8.5054

          k = 0.3333-0.1667 0.1667 (  2386 PWs)   bands (ev):

   -47.1746 -30.1431 -23.8240 -23.7862 -23.7774 -11.5047 -11.3960 -11.3719
    -7.8610  -7.3385  -7.1884   4.4827   5.0667   5.3148   5.5472   5.8160
     6.6222   7.3783   7.5963   7.7311

          k =-0.5000-0.1667 0.1667 (  2388 PWs)   bands (ev):

   -47.1743 -30.1416 -23.8419 -23.7854 -23.7767 -11.5475 -11.3896 -11.3651
    -7.7370  -7.3373  -7.0856   4.1954   4.7801   5.2067   5.3518   5.7116
     6.6873   7.2276   7.5748   7.6521

          k = 0.3333-0.3333 0.1667 (  2360 PWs)   bands (ev):

   -47.1740 -30.1399 -23.8229 -23.8226 -23.7758 -11.4801 -11.4481 -11.3718
    -7.6701  -7.2119  -7.1287   4.2496   4.7381   4.7631   5.2158   5.4566
     6.1806   7.4957   7.5259   8.1436

          k =-0.5000-0.3333 0.1667 (  2370 PWs)   bands (ev):

   -47.1737 -30.1383 -23.8408 -23.8221 -23.7749 -11.5016 -11.4458 -11.3656
    -7.6172  -7.1609  -7.0319   4.1607   4.1653   4.6974   5.1395   5.3337
     6.1792   7.4481   7.5174   8.2782

          k =-0.1667-0.5000 0.3333 (  2370 PWs)   bands (ev):

   -47.1737 -30.1384 -23.8407 -23.8130 -23.7837 -11.5025 -11.4482 -11.3600
    -7.6469  -7.1312  -7.0352   4.1717   4.1757   4.7311   5.1050   5.3319
     6.1449   7.3910   7.5134   8.3487

          k =-0.5000 0.5000 0.1667 (  2384 PWs)   bands (ev):

   -47.1734 -30.1366 -23.8403 -23.8403 -23.7740 -11.4787 -11.4787 -11.3603
    -7.6105  -7.0057  -7.0057   3.8986   4.0372   4.3576   5.1624   5.1624
     6.1296   7.4823   7.4823   8.5279

          k =-0.5000-0.3333 0.3333 (  2380 PWs)   bands (ev):

   -47.1731 -30.1353 -23.8390 -23.8201 -23.8110 -11.4696 -11.4350 -11.4112
    -7.3112  -7.1498  -7.0449   4.1535   4.2936   4.5182   4.5945   4.8555
     4.9495   8.1144   8.1745   8.4172

          k =-0.5000 0.5000 0.3333 (  2368 PWs)   bands (ev):

   -47.1728 -30.1337 -23.8382 -23.8382 -23.8100 -11.4530 -11.4530 -11.4116
    -7.2377  -7.0503  -7.0503   4.0305   4.1483   4.3664   4.5279   4.5279
     4.8594   8.3270   8.3270   8.5737

     highest occupied level (ev):     8.6526

!    total energy              =    -291.74981334 Ry
     estimated scf accuracy    <          8.4E-09 Ry

     The total energy is the sum of the following terms:
     one-electron contribution =     -94.04169697 Ry
     hartree contribution      =      66.23501127 Ry
     xc contribution           =     -51.22321128 Ry
     ewald contribution        =    -212.71991636 Ry

     convergence has been achieved in  12 iterations

     negative rho (up, down):  5.993E-04 0.000E+00

     Forces acting on atoms (cartesian axes, Ry/au):

     atom    1 type  1   force =     0.00000000    0.00000000   -0.00152253
     atom    2 type  2   force =     0.00000000    0.00000000    0.01670851
     atom    3 type  3   force =     0.00000000    0.00000000    0.00788928
     atom    4 type  3   force =     0.00000000    0.00000000   -0.01153763
     atom    5 type  3   force =     0.00000000    0.00000000   -0.01153763

     Total force =     0.024698     Total SCF correction =     0.000009


     Computing stress (Cartesian axis) and pressure


     negative rho (up, down):  5.993E-04 0.000E+00
          total   stress  (Ry/bohr**3)                   (kbar)     P=     -115.11
  -0.00078347   0.00000000   0.00000000         -115.25        0.00        0.00
   0.00000000  -0.00078347   0.00000000            0.00     -115.25        0.00
   0.00000000   0.00000000  -0.00078050            0.00        0.00     -114.82


     Writing all to output data dir ./CTO.save/ :
     XML data file, charge density, pseudopotentials, collected wavefunctions
 
     init_run     :      0.42s CPU      0.51s WALL (       1 calls)
     electrons    :     10.25s CPU     10.95s WALL (       1 calls)
     forces       :      0.11s CPU      0.12s WALL (       1 calls)
     stress       :      1.08s CPU      1.10s WALL (       1 calls)

     Called by init_run:
     wfcinit      :      0.21s CPU      0.24s WALL (       1 calls)
     potinit      :      0.01s CPU      0.01s WALL (       1 calls)
     hinit0       :      0.11s CPU      0.14s WALL (       1 calls)

     Called by electrons:
     c_bands      :      8.56s CPU      9.05s WALL (      12 calls)
     sum_band     :      1.22s CPU      1.29s WALL (      12 calls)
     v_of_rho     :      0.02s CPU      0.02s WALL (      13 calls)
     newd         :      0.47s CPU      0.59s WALL (      13 calls)
     mix_rho      :      0.02s CPU      0.02s WALL (      12 calls)

     Called by c_bands:
     init_us_2    :      0.10s CPU      0.11s WALL (    1080 calls)
     init_us_2:cp :      0.10s CPU      0.11s WALL (    1080 calls)
     ccgdiagg     :      7.39s CPU      7.82s WALL (     480 calls)
     wfcrot       :      1.26s CPU      1.35s WALL (     480 calls)

     Called by *cgdiagg:
     h_psi        :      5.07s CPU      5.37s WALL (   28309 calls)
     s_psi        :      0.79s CPU      0.84s WALL (   56138 calls)

     Called by h_psi:
     h_psi:calbec :      0.78s CPU      0.82s WALL (   28309 calls)
     vloc_psi     :      3.63s CPU      3.84s WALL (   28309 calls)
     add_vuspsi   :      0.44s CPU      0.47s WALL (   28309 calls)
     hs_1psi      :      4.60s CPU      4.86s WALL (   27829 calls)
     s_1psi       :      1.12s CPU      1.19s WALL (   27829 calls)

     General routines
     calbec       :      1.40s CPU      1.48s WALL (   56818 calls)
     fft          :      0.03s CPU      0.04s WALL (      84 calls)
     ffts         :      0.00s CPU      0.00s WALL (      25 calls)
     fftw         :      3.16s CPU      3.32s WALL (   85418 calls)
     interpolate  :      0.00s CPU      0.01s WALL (      13 calls)
 
     Parallel routines
 
     PWSCF        :     12.11s CPU     13.42s WALL

 
   This run was terminated on:  17:25:37  19Sep2025            

=------------------------------------------------------------------------------=
   JOB DONE.
=------------------------------------------------------------------------------=
TACC:  Shutdown complete. Exiting. 
