TACC:  Starting up job 2476555 
TACC:  Starting parallel tasks... 

     Program PWSCF v.7.3 starts on 18Oct2025 at 15:27:39 

     This program is part of the open-source Quantum ESPRESSO suite
     for quantum simulation of materials; please cite
         "P. Giannozzi et al., J. Phys.:Condens. Matter 21 395502 (2009);
         "P. Giannozzi et al., J. Phys.:Condens. Matter 29 465901 (2017);
         "P. Giannozzi et al., J. Chem. Phys. 152 154105 (2020);
          URL http://www.quantum-espresso.org", 
     in publications or presentations arising from this work. More details at
     http://www.quantum-espresso.org/quote

     Parallel version (MPI & OpenMP), running on      10 processor cores
     Number of MPI processes:                10
     Threads/MPI process:                     1

     MPI processes distributed on     1 nodes
     184018 MiB available memory on the printing compute node when the environment starts
 
     Waiting for input...
     Reading input from standard input
Warning: card &CELL ignored
Warning: card  CELL_DYNAMICS = 'BFGS', ignored
Warning: card  PRESS=0.D0, ignored
Warning: card / ignored

     Current dimensions of program PWSCF are:
     Max number of different atomic species (ntypx) = 10
     Max number of k-points (npk) =  40000
     Max angular momentum in pseudopotentials (lmaxx) =  4
 
     R & G space division:  proc/nbgrp/npool/nimage =      10
     Subspace diagonalization in iterative solution of the eigenvalue problem:
     a serial algorithm will be used

 
     Parallelization info
     --------------------
     sticks:   dense  smooth     PW     G-vecs:    dense   smooth      PW
     Min          94      37     12                 2162      543     104
     Max          95      38     14                 2165      546     105
     Sum         949     373    129                21631     5449    1045
 
     Using Slab Decomposition
 


     bravais-lattice index     =            1
     lattice parameter (alat)  =       7.6794  a.u.
     unit-cell volume          =     452.8787 (a.u.)^3
     number of atoms/cell      =            5
     number of atomic types    =            3
     number of electrons       =        40.00
     number of Kohn-Sham states=           20
     kinetic-energy cutoff     =      20.0000  Ry
     charge density cutoff     =     200.0000  Ry
     scf convergence threshold =      1.0E-08
     mixing beta               =       0.7000
     number of iterations used =            8  plain     mixing
     Exchange-correlation= SLA  PZ   NOGX NOGC
                           (   1   1   0   0   0   0   0)

     celldm(1)=   7.679400  celldm(2)=   0.000000  celldm(3)=   0.000000
     celldm(4)=   0.000000  celldm(5)=   0.000000  celldm(6)=   0.000000

     crystal axes: (cart. coord. in units of alat)
               a(1) = (   1.000000   0.000000   0.000000 )  
               a(2) = (   0.000000   1.000000   0.000000 )  
               a(3) = (   0.000000   0.000000   1.000000 )  

     reciprocal axes: (cart. coord. in units 2 pi/alat)
               b(1) = (  1.000000  0.000000  0.000000 )  
               b(2) = (  0.000000  1.000000  0.000000 )  
               b(3) = (  0.000000  0.000000  1.000000 )  


     PseudoPot. # 1 for Ba read from file:
     /scratch/11018/zhc/Assisgnment2/Q1/1D/Kpoints/Ba_LDA.UPF
     MD5 check sum: 0ec7675c796dc0a11c6269c68e51391e
     Pseudo is Ultrasoft + core correction, Zval = 10.0
     Generated by new atomic code, or converted to UPF format
     Using radial grid of  907 points,  7 beta functions with: 
                l(1) =   0
                l(2) =   0
                l(3) =   1
                l(4) =   1
                l(5) =   2
                l(6) =   2
                l(7) =   3
     Q(r) pseudized with  6 coefficients,  rinner =    1.700   1.700   1.700
                                                       1.700   1.700   1.700
                                                       1.700

     PseudoPot. # 2 for Ti read from file:
     /scratch/11018/zhc/Assisgnment2/Q1/1D/Kpoints/Ti_LDA.UPF
     MD5 check sum: 0d9f225c038fe889ca2a701dcc8d72cb
     Pseudo is Ultrasoft + core correction, Zval = 12.0
     Generated by new atomic code, or converted to UPF format
     Using radial grid of  851 points,  6 beta functions with: 
                l(1) =   0
                l(2) =   0
                l(3) =   1
                l(4) =   1
                l(5) =   2
                l(6) =   2
     Q(r) pseudized with  6 coefficients,  rinner =    1.000   1.000   1.000
                                                       1.000   1.000

     PseudoPot. # 3 for O  read from file:
     /scratch/11018/zhc/Assisgnment2/Q1/1D/Kpoints/O_LDA.UPF
     MD5 check sum: 194b818514d2a7dbb603bb78519a4f40
     Pseudo is Ultrasoft + core correction, Zval =  6.0
     Generated by new atomic code, or converted to UPF format
     Using radial grid of  737 points,  5 beta functions with: 
                l(1) =   0
                l(2) =   0
                l(3) =   1
                l(4) =   1
                l(5) =   2
     Q(r) pseudized with  8 coefficients,  rinner =    0.900   0.900   0.900
                                                       0.900   0.900

     atomic species   valence    mass     pseudopotential
     Ba               10.00   137.32700     Ba( 1.00)
     Ti               12.00    47.88000     Ti( 1.00)
     O                 6.00    16.00000     O ( 1.00)

      8 Sym. Ops. (no inversion) found



   Cartesian axes

     site n.     atom                  positions (alat units)
         1        Ba     tau(   1) = (   0.0000000   0.0000000   0.0000000  )
         2        Ti     tau(   2) = (   0.5000000   0.5000000   0.4900000  )
         3        O      tau(   3) = (   0.5000000   0.5000000   0.0000000  )
         4        O      tau(   4) = (   0.5000000   0.0000000   0.5000000  )
         5        O      tau(   5) = (   0.0000000   0.5000000   0.5000000  )

     number of k points=    75
                       cart. coord. in units 2pi/alat
        k(    1) = (   0.0000000   0.0000000   0.0000000), wk =   0.0039062
        k(    2) = (   0.0000000   0.0000000   0.1250000), wk =   0.0078125
        k(    3) = (   0.0000000   0.0000000   0.2500000), wk =   0.0078125
        k(    4) = (   0.0000000   0.0000000   0.3750000), wk =   0.0078125
        k(    5) = (   0.0000000   0.0000000  -0.5000000), wk =   0.0039062
        k(    6) = (   0.0000000   0.1250000   0.1250000), wk =   0.0312500
        k(    7) = (   0.0000000   0.1250000   0.2500000), wk =   0.0312500
        k(    8) = (   0.0000000   0.1250000   0.3750000), wk =   0.0312500
        k(    9) = (   0.0000000   0.1250000  -0.5000000), wk =   0.0156250
        k(   10) = (   0.0000000   0.2500000   0.2500000), wk =   0.0312500
        k(   11) = (   0.0000000   0.2500000   0.3750000), wk =   0.0312500
        k(   12) = (   0.0000000   0.2500000  -0.5000000), wk =   0.0156250
        k(   13) = (   0.0000000   0.3750000   0.3750000), wk =   0.0312500
        k(   14) = (   0.0000000   0.3750000  -0.5000000), wk =   0.0156250
        k(   15) = (   0.0000000  -0.5000000  -0.5000000), wk =   0.0078125
        k(   16) = (   0.1250000   0.1250000   0.1250000), wk =   0.0312500
        k(   17) = (   0.1250000   0.1250000   0.2500000), wk =   0.0312500
        k(   18) = (   0.1250000   0.1250000   0.3750000), wk =   0.0312500
        k(   19) = (   0.1250000   0.1250000  -0.5000000), wk =   0.0156250
        k(   20) = (   0.1250000   0.2500000   0.2500000), wk =   0.0625000
        k(   21) = (   0.1250000   0.2500000   0.3750000), wk =   0.0625000
        k(   22) = (   0.1250000   0.2500000  -0.5000000), wk =   0.0312500
        k(   23) = (   0.1250000   0.3750000   0.3750000), wk =   0.0625000
        k(   24) = (   0.1250000   0.3750000  -0.5000000), wk =   0.0312500
        k(   25) = (   0.1250000  -0.5000000  -0.5000000), wk =   0.0156250
        k(   26) = (   0.2500000   0.2500000   0.2500000), wk =   0.0312500
        k(   27) = (   0.2500000   0.2500000   0.3750000), wk =   0.0312500
        k(   28) = (   0.2500000   0.2500000  -0.5000000), wk =   0.0156250
        k(   29) = (   0.2500000   0.3750000   0.3750000), wk =   0.0625000
        k(   30) = (   0.2500000   0.3750000  -0.5000000), wk =   0.0312500
        k(   31) = (   0.2500000  -0.5000000  -0.5000000), wk =   0.0156250
        k(   32) = (   0.3750000   0.3750000   0.3750000), wk =   0.0312500
        k(   33) = (   0.3750000   0.3750000  -0.5000000), wk =   0.0156250
        k(   34) = (   0.3750000  -0.5000000  -0.5000000), wk =   0.0156250
        k(   35) = (  -0.5000000  -0.5000000  -0.5000000), wk =   0.0039062
        k(   36) = (   0.1250000   0.0000000   0.0000000), wk =   0.0156250
        k(   37) = (   0.2500000   0.0000000   0.0000000), wk =   0.0156250
        k(   38) = (   0.3750000   0.0000000   0.0000000), wk =   0.0156250
        k(   39) = (  -0.5000000   0.0000000   0.0000000), wk =   0.0078125
        k(   40) = (   0.1250000  -0.1250000   0.0000000), wk =   0.0156250
        k(   41) = (   0.2500000  -0.1250000   0.0000000), wk =   0.0312500
        k(   42) = (   0.0000000   0.2500000   0.1250000), wk =   0.0312500
        k(   43) = (   0.3750000  -0.1250000   0.0000000), wk =   0.0312500
        k(   44) = (   0.0000000   0.3750000   0.1250000), wk =   0.0312500
        k(   45) = (  -0.5000000  -0.1250000   0.0000000), wk =   0.0156250
        k(   46) = (   0.0000000  -0.5000000   0.1250000), wk =   0.0156250
        k(   47) = (   0.2500000  -0.2500000   0.0000000), wk =   0.0156250
        k(   48) = (   0.3750000  -0.2500000   0.0000000), wk =   0.0312500
        k(   49) = (   0.0000000   0.3750000   0.2500000), wk =   0.0312500
        k(   50) = (  -0.5000000  -0.2500000   0.0000000), wk =   0.0156250
        k(   51) = (   0.0000000  -0.5000000   0.2500000), wk =   0.0156250
        k(   52) = (   0.3750000  -0.3750000   0.0000000), wk =   0.0156250
        k(   53) = (  -0.5000000  -0.3750000   0.0000000), wk =   0.0156250
        k(   54) = (   0.0000000  -0.5000000   0.3750000), wk =   0.0156250
        k(   55) = (  -0.5000000   0.5000000   0.0000000), wk =   0.0039062
        k(   56) = (   0.2500000  -0.1250000   0.1250000), wk =   0.0625000
        k(   57) = (   0.3750000  -0.1250000   0.1250000), wk =   0.0625000
        k(   58) = (  -0.5000000  -0.1250000   0.1250000), wk =   0.0312500
        k(   59) = (   0.2500000  -0.2500000   0.1250000), wk =   0.0312500
        k(   60) = (   0.3750000  -0.2500000   0.1250000), wk =   0.0625000
        k(   61) = (  -0.1250000   0.3750000   0.2500000), wk =   0.0625000
        k(   62) = (  -0.5000000  -0.2500000   0.1250000), wk =   0.0312500
        k(   63) = (  -0.1250000  -0.5000000   0.2500000), wk =   0.0312500
        k(   64) = (   0.3750000  -0.3750000   0.1250000), wk =   0.0312500
        k(   65) = (  -0.5000000  -0.3750000   0.1250000), wk =   0.0312500
        k(   66) = (  -0.1250000  -0.5000000   0.3750000), wk =   0.0312500
        k(   67) = (  -0.5000000   0.5000000   0.1250000), wk =   0.0078125
        k(   68) = (   0.3750000  -0.2500000   0.2500000), wk =   0.0625000
        k(   69) = (  -0.5000000  -0.2500000   0.2500000), wk =   0.0312500
        k(   70) = (   0.3750000  -0.3750000   0.2500000), wk =   0.0312500
        k(   71) = (  -0.5000000  -0.3750000   0.2500000), wk =   0.0312500
        k(   72) = (  -0.2500000  -0.5000000   0.3750000), wk =   0.0312500
        k(   73) = (  -0.5000000   0.5000000   0.2500000), wk =   0.0078125
        k(   74) = (  -0.5000000  -0.3750000   0.3750000), wk =   0.0312500
        k(   75) = (  -0.5000000   0.5000000   0.3750000), wk =   0.0078125

     Dense  grid:    21631 G-vectors     FFT dimensions: (  36,  36,  36)

     Smooth grid:     5449 G-vectors     FFT dimensions: (  24,  24,  24)

     Estimated max dynamical RAM per process >      21.92 MB

     Estimated total dynamical RAM >     219.20 MB

     Check: negative core charge=   -0.000005

     Initial potential from superposition of free atoms

     starting charge      38.9872, renormalised to      40.0000

     negative rho (up, down):  1.016E-01 0.000E+00
     Starting wfcs are   35 randomized atomic wfcs

     total cpu time spent up to now is        0.7 secs

     Self-consistent Calculation

     iteration #  1     ecut=    20.00 Ry     beta= 0.70
     CG style diagonalization
     ethr =  1.00E-02,  avg # of iterations =  2.2

     negative rho (up, down):  9.644E-02 0.000E+00

     total cpu time spent up to now is        1.4 secs

     total energy              =    -286.15733123 Ry
     estimated scf accuracy    <       0.51297518 Ry

     iteration #  2     ecut=    20.00 Ry     beta= 0.70
     CG style diagonalization
     ethr =  1.28E-03,  avg # of iterations =  5.2

     negative rho (up, down):  9.511E-02 0.000E+00

     total cpu time spent up to now is        2.8 secs

     total energy              =    -285.38145152 Ry
     estimated scf accuracy    <       6.87539597 Ry

     iteration #  3     ecut=    20.00 Ry     beta= 0.70
     CG style diagonalization
     ethr =  1.28E-03,  avg # of iterations =  4.8

     negative rho (up, down):  9.475E-02 0.000E+00

     total cpu time spent up to now is        4.2 secs

     total energy              =    -286.38985071 Ry
     estimated scf accuracy    <       0.14350991 Ry

     iteration #  4     ecut=    20.00 Ry     beta= 0.70
     CG style diagonalization
     ethr =  3.59E-04,  avg # of iterations =  3.4

     negative rho (up, down):  9.445E-02 0.000E+00

     total cpu time spent up to now is        5.1 secs

     total energy              =    -286.39128359 Ry
     estimated scf accuracy    <       0.06590565 Ry

     iteration #  5     ecut=    20.00 Ry     beta= 0.70
     CG style diagonalization
     ethr =  1.65E-04,  avg # of iterations =  3.4

     negative rho (up, down):  9.441E-02 0.000E+00

     total cpu time spent up to now is        6.0 secs

     total energy              =    -286.39520484 Ry
     estimated scf accuracy    <       0.01015950 Ry

     iteration #  6     ecut=    20.00 Ry     beta= 0.70
     CG style diagonalization
     ethr =  2.54E-05,  avg # of iterations =  3.7

     negative rho (up, down):  9.441E-02 0.000E+00

     total cpu time spent up to now is        6.9 secs

     total energy              =    -286.39733247 Ry
     estimated scf accuracy    <       0.00056514 Ry

     iteration #  7     ecut=    20.00 Ry     beta= 0.70
     CG style diagonalization
     ethr =  1.41E-06,  avg # of iterations =  4.1

     negative rho (up, down):  9.440E-02 0.000E+00

     total cpu time spent up to now is        8.1 secs

     total energy              =    -286.39773015 Ry
     estimated scf accuracy    <       0.00005771 Ry

     iteration #  8     ecut=    20.00 Ry     beta= 0.70
     CG style diagonalization
     ethr =  1.44E-07,  avg # of iterations =  3.9

     negative rho (up, down):  9.440E-02 0.000E+00

     total cpu time spent up to now is        9.1 secs

     total energy              =    -286.39774215 Ry
     estimated scf accuracy    <       0.00003264 Ry

     iteration #  9     ecut=    20.00 Ry     beta= 0.70
     CG style diagonalization
     ethr =  8.16E-08,  avg # of iterations =  3.3

     negative rho (up, down):  9.440E-02 0.000E+00

     total cpu time spent up to now is       10.0 secs

     total energy              =    -286.39774239 Ry
     estimated scf accuracy    <       0.00001301 Ry

     iteration # 10     ecut=    20.00 Ry     beta= 0.70
     CG style diagonalization
     ethr =  3.25E-08,  avg # of iterations =  3.3

     negative rho (up, down):  9.440E-02 0.000E+00

     total cpu time spent up to now is       10.8 secs

     total energy              =    -286.39774315 Ry
     estimated scf accuracy    <       0.00000221 Ry

     iteration # 11     ecut=    20.00 Ry     beta= 0.70
     CG style diagonalization
     ethr =  5.52E-09,  avg # of iterations =  3.4

     negative rho (up, down):  9.439E-02 0.000E+00

     total cpu time spent up to now is       11.7 secs

     total energy              =    -286.39774323 Ry
     estimated scf accuracy    <       0.00000058 Ry

     iteration # 12     ecut=    20.00 Ry     beta= 0.70
     CG style diagonalization
     ethr =  1.45E-09,  avg # of iterations =  4.0

     negative rho (up, down):  9.439E-02 0.000E+00

     total cpu time spent up to now is       12.8 secs

     total energy              =    -286.39774351 Ry
     estimated scf accuracy    <       0.00000015 Ry

     iteration # 13     ecut=    20.00 Ry     beta= 0.70
     CG style diagonalization
     ethr =  3.82E-10,  avg # of iterations =  3.3

     negative rho (up, down):  9.439E-02 0.000E+00

     total cpu time spent up to now is       13.7 secs

     total energy              =    -286.39774351 Ry
     estimated scf accuracy    <       0.00000005 Ry

     iteration # 14     ecut=    20.00 Ry     beta= 0.70
     CG style diagonalization
     ethr =  1.22E-10,  avg # of iterations =  3.7

     negative rho (up, down):  9.439E-02 0.000E+00

     total cpu time spent up to now is       14.6 secs

     End of self-consistent calculation

          k = 0.0000 0.0000 0.0000 (   691 PWs)   bands (ev):

   -47.2414 -23.6557 -23.6522 -23.6522 -15.2623  -7.5401  -6.8647  -6.8527
    -0.4119  -0.4119  -0.4099   7.0110   7.0111   7.0111   8.4583   8.4583
     8.4713   9.2492   9.2520   9.2520

          k = 0.0000 0.0000 0.1250 (   703 PWs)   bands (ev):

   -47.2419 -23.6699 -23.6699 -23.6667 -15.2480  -7.5385  -6.8632  -6.8529
    -0.3913  -0.3913  -0.3616   6.8410   6.9564   6.9564   8.1691   8.1691
     8.2772   8.8680   9.1192   9.1192

          k = 0.0000 0.0000 0.2500 (   683 PWs)   bands (ev):

   -47.2408 -23.6709 -23.6522 -23.6522 -15.2130  -7.5712  -6.8381  -6.8052
    -0.3351  -0.3351  -0.2459   6.3530   6.9240   6.9240   7.9348   7.9348
     8.0170   8.2156   8.9789   8.9789

          k = 0.0000 0.0000 0.3750 (   683 PWs)   bands (ev):

   -47.2404 -23.6761 -23.6554 -23.6554 -15.1772  -7.6456  -6.8263  -6.6994
    -0.2798  -0.2798  -0.1298   5.8753   6.7683   6.7683   7.7183   7.7183
     7.7218   7.8311   8.7870   8.7870

          k = 0.0000 0.0000-0.5000 (   682 PWs)   bands (ev):

   -47.2404 -23.6783 -23.6541 -23.6541 -15.1622  -7.6807  -6.8236  -6.6483
    -0.2544  -0.2544  -0.0847   5.6840   6.6514   6.6514   7.6326   7.6654
     7.6742   7.6742   8.7691   8.7691

          k = 0.0000 0.1250 0.1250 (   697 PWs)   bands (ev):

   -47.2415 -23.6786 -23.6658 -23.6573 -15.2343  -7.5286  -6.8613  -6.8453
    -0.4191  -0.3680  -0.2869   6.6502   6.9402   6.9594   7.8523   8.0561
     8.3636   8.6460   9.0110   9.0182

          k = 0.0000 0.1250 0.2500 (   687 PWs)   bands (ev):

   -47.2409 -23.6771 -23.6609 -23.6510 -15.2010  -7.5359  -6.8357  -6.8130
    -0.3965  -0.3112  -0.1980   6.2353   6.7997   6.9090   7.4187   7.7965
     8.1176   8.3794   8.8106   8.8680

          k = 0.0000 0.1250 0.3750 (   677 PWs)   bands (ev):

   -47.2401 -23.6729 -23.6511 -23.6476 -15.1669  -7.5859  -6.8173  -6.7221
    -0.3328  -0.2536  -0.1500   5.8191   6.6742   6.7909   7.0349   7.6242
     7.9121   8.3997   8.6132   8.7054

          k = 0.0000 0.1250-0.5000 (   680 PWs)   bands (ev):

   -47.2402 -23.6809 -23.6549 -23.6483 -15.1527  -7.6163  -6.8113  -6.6748
    -0.2948  -0.2290  -0.1461   5.6359   6.6766   6.6803   6.8515   7.5560
     7.8073   8.4670   8.5079   8.5315

          k = 0.0000 0.2500 0.2500 (   688 PWs)   bands (ev):

   -47.2407 -23.6835 -23.6684 -23.6493 -15.1716  -7.4712  -6.8487  -6.7883
    -0.4420  -0.2523  -0.1820   5.9450   6.5219   6.8513   6.9203   7.4661
     8.0450   8.4618   8.5017   8.9600

          k = 0.0000 0.2500 0.3750 (   683 PWs)   bands (ev):

   -47.2402 -23.6823 -23.6699 -23.6476 -15.1419  -7.4454  -6.8168  -6.7598
    -0.4236  -0.2328  -0.1910   5.6456   6.2841   6.4502   6.8270   7.2990
     8.0942   8.2349   8.4516   9.0096

          k = 0.0000 0.2500-0.5000 (   692 PWs)   bands (ev):

   -47.2404 -23.6936 -23.6808 -23.6555 -15.1295  -7.4480  -6.7986  -6.7405
    -0.3806  -0.2914  -0.1653   5.5073   6.0490   6.3460   6.7160   7.2284
     8.1080   8.1196   8.3831   8.9981

          k = 0.0000 0.3750 0.3750 (   680 PWs)   bands (ev):

   -47.2397 -23.6803 -23.6753 -23.6515 -15.1165  -7.3080  -6.8322  -6.7697
    -0.4681  -0.3474  -0.1259   5.4798   5.8344   6.1026   6.8432   7.0487
     7.9006   8.3008   8.6053   9.3006

          k = 0.0000 0.3750-0.5000 (   682 PWs)   bands (ev):

   -47.2397 -23.6862 -23.6822 -23.6500 -15.1059  -7.2551  -6.8063  -6.8015
    -0.4539  -0.4252  -0.0980   5.3441   5.6558   6.0342   6.8395   6.9637
     7.7672   8.4836   8.5329   9.3661

          k = 0.0000-0.5000-0.5000 (   680 PWs)   bands (ev):

   -47.2394 -23.6848 -23.6816 -23.6584 -15.0960  -7.1592  -6.8343  -6.8187
    -0.4818  -0.4785  -0.0695   5.2472   5.5322   5.9518   6.8406   6.8638
     7.6311   8.6261   8.6282   9.4679

          k = 0.1250 0.1250 0.1250 (   697 PWs)   bands (ev):

   -47.2414 -23.6769 -23.6746 -23.6568 -15.2213  -7.5108  -6.8564  -6.8447
    -0.4154  -0.4141  -0.2001   6.4455   6.9138   6.9169   7.7387   7.7428
     8.3449   8.5043   8.9453   8.9472

          k = 0.1250 0.1250 0.2500 (   692 PWs)   bands (ev):

   -47.2410 -23.6815 -23.6626 -23.6616 -15.1894  -7.4968  -6.8280  -6.8248
    -0.4067  -0.4032  -0.1135   6.1125   6.7011   6.8268   7.4075   7.4511
     8.0038   8.4991   8.7726   8.7928

          k = 0.1250 0.1250 0.3750 (   682 PWs)   bands (ev):

   -47.2403 -23.6828 -23.6535 -23.6532 -15.1569  -7.5279  -6.8082  -6.7406
    -0.3920  -0.3181  -0.1118   5.7314   6.6021   6.7359   6.9698   7.2554
     8.0600   8.4296   8.5975   8.6128

          k = 0.1250 0.1250-0.5000 (   680 PWs)   bands (ev):

   -47.2400 -23.6806 -23.6613 -23.6472 -15.1434  -7.5512  -6.8002  -6.6933
    -0.3872  -0.2121  -0.1832   5.6087   6.5679   6.6788   6.7277   7.2346
     8.1386   8.4252   8.4352   8.5282

          k = 0.1250 0.2500 0.2500 (   687 PWs)   bands (ev):

   -47.2405 -23.6812 -23.6642 -23.6589 -15.1611  -7.4221  -6.8351  -6.7966
    -0.4776  -0.4212  -0.0694   5.8684   6.5187   6.7025   7.0141   7.3414
     7.6806   8.5899   8.6399   8.9151

          k = 0.1250 0.2500 0.3750 (   687 PWs)   bands (ev):

   -47.2402 -23.6829 -23.6734 -23.6622 -15.1325  -7.3846  -6.8048  -6.7657
    -0.4928  -0.4080  -0.1194   5.6039   6.2576   6.4490   6.7805   7.1682
     7.6845   8.4540   8.5990   8.9834

          k = 0.1250 0.2500-0.5000 (   684 PWs)   bands (ev):

   -47.2399 -23.6835 -23.6751 -23.6567 -15.1206  -7.3826  -6.7845  -6.7433
    -0.4976  -0.3667  -0.1782   5.5006   6.1202   6.3763   6.7116   7.1459
     7.7354   8.4630   8.4890   9.0135

          k = 0.1250 0.3750 0.3750 (   686 PWs)   bands (ev):

   -47.2398 -23.6869 -23.6837 -23.6609 -15.1078  -7.2447  -6.8170  -6.7627
    -0.5421  -0.4903  -0.1781   5.4217   5.9577   6.1019   6.8136   7.0072
     7.5244   8.4534   8.6806   9.2747

          k = 0.1250 0.3750-0.5000 (   676 PWs)   bands (ev):

   -47.2393 -23.6811 -23.6771 -23.6527 -15.0975  -7.1886  -6.7932  -6.7836
    -0.5572  -0.5113  -0.2168   5.3589   5.8702   6.0494   6.8226   7.0200
     7.4740   8.6344   8.6459   9.3721

          k = 0.1250-0.5000-0.5000 (   676 PWs)   bands (ev):

   -47.2394 -23.6817 -23.6785 -23.6548 -15.0878  -7.0916  -6.8153  -6.7997
    -0.5707  -0.5674  -0.2419   5.2497   5.7992   5.9408   6.9231   6.9481
     7.2494   8.7391   8.7419   9.4976

          k = 0.2500 0.2500 0.2500 (   690 PWs)   bands (ev):

   -47.2405 -23.6805 -23.6782 -23.6671 -15.1356  -7.3162  -6.8089  -6.7977
    -0.5641  -0.5626  -0.0713   5.7114   6.4647   6.4799   6.9641   7.1651
     7.1678   8.7466   8.7472   8.8686

          k = 0.2500 0.2500 0.3750 (   682 PWs)   bands (ev):

   -47.2396 -23.6866 -23.6676 -23.6665 -15.1097  -7.2349  -6.7785  -6.7668
    -0.6491  -0.5833  -0.1976   5.5303   6.2508   6.4880   6.5707   7.0439
     7.2835   8.6851   8.8928   9.0092

          k = 0.2500 0.2500-0.5000 (   680 PWs)   bands (ev):

   -47.2394 -23.6823 -23.6725 -23.6687 -15.0989  -7.2154  -6.7543  -6.7508
    -0.6837  -0.5430  -0.2997   5.4240   6.1976   6.3987   6.4715   7.0381
     7.3231   8.6475   8.9211   9.0752

          k = 0.2500 0.3750 0.3750 (   690 PWs)   bands (ev):

   -47.2398 -23.6929 -23.6900 -23.6742 -15.0867  -7.0884  -6.7754  -6.7422
    -0.7345  -0.7183  -0.3787   5.3799   6.0714   6.2379   6.5149   7.0261
     7.0722   8.7870   8.9348   9.2551

          k = 0.2500 0.3750-0.5000 (   676 PWs)   bands (ev):

   -47.2390 -23.6832 -23.6830 -23.6634 -15.0770  -7.0253  -6.7615  -6.7381
    -0.7834  -0.7110  -0.4944   5.2838   6.0500   6.2998   6.5463   7.0254
     7.1090   8.8723   9.0013   9.3866

          k = 0.2500-0.5000-0.5000 (   672 PWs)   bands (ev):

   -47.2387 -23.6867 -23.6836 -23.6556 -15.0679  -6.9260  -6.7660  -6.7501
    -0.7792  -0.7761  -0.6155   5.1616   5.9884   6.3071   6.6120   7.0394
     7.0479   9.0070   9.0132   9.5400

          k = 0.3750 0.3750 0.3750 (   678 PWs)   bands (ev):

   -47.2389 -23.6872 -23.6850 -23.6759 -15.0653  -6.9240  -6.7312  -6.7205
    -0.8882  -0.8865  -0.6371   5.2412   6.1019   6.1166   6.6375   7.0232
     7.0258   9.1618   9.1667   9.3391

          k = 0.3750 0.3750-0.5000 (   678 PWs)   bands (ev):

   -47.2387 -23.6900 -23.6862 -23.6808 -15.0564  -6.8464  -6.7298  -6.7021
    -0.9584  -0.9025  -0.7832   5.1204   6.0526   6.1102   6.6820   7.0095
     7.0583   9.1984   9.3136   9.4100

          k = 0.3750-0.5000-0.5000 (   668 PWs)   bands (ev):

   -47.2380 -23.6845 -23.6815 -23.6711 -15.0478  -6.7532  -6.7151  -6.6990
    -0.9806  -0.9777  -0.9396   5.0243   6.0371   6.1148   6.8289   7.0521
     7.0604   9.3898   9.3995   9.5691

          k =-0.5000-0.5000-0.5000 (   672 PWs)   bands (ev):

   -47.2380 -23.6888 -23.6858 -23.6858 -15.0394  -6.6947  -6.6785  -6.6785
    -1.0635  -1.0635  -1.0608   4.8998   6.0219   6.0407   7.0280   7.0280
     7.0356   9.5496   9.5496   9.5605

          k = 0.1250 0.0000 0.0000 (   703 PWs)   bands (ev):

   -47.2419 -23.6732 -23.6699 -23.6634 -15.2480  -7.5406  -6.8636  -6.8505
    -0.3912  -0.3893  -0.3636   6.8440   6.9562   6.9570   8.1724   8.1730
     8.2744   8.8636   9.1099   9.1252

          k = 0.2500 0.0000 0.0000 (   683 PWs)   bands (ev):

   -47.2408 -23.6676 -23.6555 -23.6522 -15.2129  -7.5770  -6.8472  -6.7906
    -0.3349  -0.3330  -0.2481   6.3634   6.9229   6.9257   7.9176   7.9450
     8.0324   8.2196   8.9569   8.9725

          k = 0.3750 0.0000 0.0000 (   683 PWs)   bands (ev):

   -47.2404 -23.6729 -23.6586 -23.6554 -15.1771  -7.6533  -6.8353  -6.6834
    -0.2794  -0.2776  -0.1324   5.8962   6.7656   6.7710   7.6710   7.7338
     7.7524   7.8508   8.7581   8.7728

          k =-0.5000 0.0000 0.0000 (   682 PWs)   bands (ev):

   -47.2404 -23.6751 -23.6573 -23.6540 -15.1621  -7.6888  -6.8326  -6.6321
    -0.2539  -0.2521  -0.0874   5.7080   6.6474   6.6543   7.5861   7.6578
     7.6934   7.7310   8.7374   8.7514

          k = 0.1250-0.1250 0.0000 (   697 PWs)   bands (ev):

   -47.2415 -23.6768 -23.6691 -23.6558 -15.2343  -7.5307  -6.8544  -6.8501
    -0.4201  -0.3660  -0.2879   6.6507   6.9408   6.9629   7.8551   8.0601
     8.3614   8.6199   9.0202   9.0302

          k = 0.2500-0.1250 0.0000 (   687 PWs)   bands (ev):

   -47.2409 -23.6743 -23.6604 -23.6543 -15.2009  -7.5420  -6.8395  -6.8035
    -0.3971  -0.3091  -0.1995   6.2426   6.8043   6.9108   7.4252   7.8024
     8.1008   8.3690   8.8040   8.8800

          k = 0.0000 0.2500 0.1250 (   687 PWs)   bands (ev):

   -47.2409 -23.6750 -23.6630 -23.6510 -15.2010  -7.5402  -6.8443  -6.8004
    -0.3959  -0.3110  -0.1988   6.2434   6.8010   6.9078   7.4166   7.8034
     8.1207   8.3745   8.7980   8.8660

          k = 0.3750-0.1250 0.0000 (   677 PWs)   bands (ev):

   -47.2401 -23.6697 -23.6512 -23.6507 -15.1668  -7.5942  -6.8255  -6.7066
    -0.3328  -0.2514  -0.1522   5.8360   6.6818   6.7941   7.0353   7.6278
     7.9058   8.3914   8.5860   8.7212

          k = 0.0000 0.3750 0.1250 (   677 PWs)   bands (ev):

   -47.2401 -23.6697 -23.6543 -23.6476 -15.1668  -7.5929  -6.8269  -6.7063
    -0.3312  -0.2532  -0.1519   5.8369   6.6813   6.7878   7.0252   7.6382
     7.9144   8.3983   8.5921   8.6980

          k =-0.5000-0.1250 0.0000 (   680 PWs)   bands (ev):

   -47.2402 -23.6777 -23.6582 -23.6483 -15.1526  -7.6249  -6.8198  -6.6588
    -0.2943  -0.2268  -0.1488   5.6577   6.6800   6.7028   6.8334   7.5591
     7.8066   8.4206   8.4797   8.5802

          k = 0.0000-0.5000 0.1250 (   680 PWs)   bands (ev):

   -47.2402 -23.6777 -23.6549 -23.6516 -15.1526  -7.6239  -6.8207  -6.6588
    -0.2923  -0.2286  -0.1489   5.6580   6.6752   6.7015   6.8220   7.5753
     7.8088   8.4728   8.4942   8.5060

          k = 0.2500-0.2500 0.0000 (   688 PWs)   bands (ev):

   -47.2407 -23.6817 -23.6669 -23.6526 -15.1716  -7.4776  -6.8397  -6.7915
    -0.4429  -0.2503  -0.1832   5.9464   6.5371   6.8472   6.9275   7.4754
     8.0101   8.4494   8.5221   8.9681

          k = 0.3750-0.2500 0.0000 (   683 PWs)   bands (ev):

   -47.2401 -23.6801 -23.6689 -23.6509 -15.1418  -7.4552  -6.8168  -6.7512
    -0.4241  -0.2345  -0.1890   5.6561   6.3254   6.4213   6.8306   7.3125
     8.0507   8.2503   8.4417   9.0199

          k = 0.0000 0.3750 0.2500 (   683 PWs)   bands (ev):

   -47.2401 -23.6815 -23.6706 -23.6476 -15.1418  -7.4499  -6.8234  -6.7491
    -0.4227  -0.2338  -0.1908   5.6569   6.3082   6.4214   6.8209   7.3109
     8.0943   8.2255   8.4478   9.0111

          k =-0.5000-0.2500 0.0000 (   692 PWs)   bands (ev):

   -47.2404 -23.6905 -23.6808 -23.6588 -15.1294  -7.4584  -6.8054  -6.7246
    -0.3800  -0.2943  -0.1632   5.5230   6.0726   6.3321   6.7196   7.2432
     8.0816   8.1057   8.3800   9.0097

          k = 0.0000-0.5000 0.2500 (   692 PWs)   bands (ev):

   -47.2404 -23.6905 -23.6839 -23.6554 -15.1294  -7.4539  -6.8091  -6.7246
    -0.3776  -0.2945  -0.1650   5.5247   6.0637   6.3239   6.7078   7.2466
     8.0932   8.1215   8.3753   9.0008

          k = 0.3750-0.3750 0.0000 (   680 PWs)   bands (ev):

   -47.2397 -23.6781 -23.6743 -23.6548 -15.1165  -7.3192  -6.8235  -6.7686
    -0.4691  -0.3487  -0.1240   5.4837   5.8489   6.1078   6.8523   7.0564
     7.8915   8.2892   8.5875   9.3111

          k =-0.5000-0.3750 0.0000 (   682 PWs)   bands (ev):

   -47.2397 -23.6830 -23.6822 -23.6534 -15.1058  -7.2690  -6.8048  -6.7906
    -0.4531  -0.4282  -0.0961   5.3513   5.6684   6.0411   6.8453   6.9791
     7.7580   8.4664   8.5139   9.3771

          k = 0.0000-0.5000 0.3750 (   682 PWs)   bands (ev):

   -47.2397 -23.6854 -23.6830 -23.6500 -15.1059  -7.2578  -6.8146  -6.7906
    -0.4504  -0.4287  -0.0979   5.3497   5.6596   6.0279   6.8273   6.9799
     7.7623   8.4858   8.5288   9.3667

          k =-0.5000 0.5000 0.0000 (   680 PWs)   bands (ev):

   -47.2394 -23.6816 -23.6816 -23.6616 -15.0960  -7.1764  -6.8187  -6.8187
    -0.4813  -0.4813  -0.0678   5.2514   5.5415   5.9655   6.8629   6.8629
     7.6225   8.6075   8.6075   9.4787

          k = 0.2500-0.1250 0.1250 (   692 PWs)   bands (ev):

   -47.2410 -23.6789 -23.6652 -23.6617 -15.1893  -7.5014  -6.8373  -6.8112
    -0.4077  -0.4020  -0.1138   6.1184   6.7074   6.8261   7.4149   7.4498
     7.9884   8.5018   8.7583   8.8040

          k = 0.3750-0.1250 0.1250 (   682 PWs)   bands (ev):

   -47.2403 -23.6796 -23.6567 -23.6533 -15.1569  -7.5354  -6.8171  -6.7250
    -0.3908  -0.3190  -0.1121   5.7468   6.6142   6.7370   6.9654   7.2539
     8.0419   8.4343   8.5755   8.6300

          k =-0.5000-0.1250 0.1250 (   680 PWs)   bands (ev):

   -47.2400 -23.6775 -23.6632 -23.6486 -15.1433  -7.5593  -6.8091  -6.6773
    -0.3858  -0.2145  -0.1822   5.6289   6.6024   6.6780   6.6990   7.2342
     8.1129   8.4281   8.4459   8.5205

          k = 0.2500-0.2500 0.1250 (   687 PWs)   bands (ev):

   -47.2405 -23.6794 -23.6638 -23.6610 -15.1611  -7.4270  -6.8258  -6.8015
    -0.4785  -0.4203  -0.0694   5.8706   6.5343   6.6988   7.0176   7.3476
     7.6629   8.5982   8.6218   8.9252

          k = 0.3750-0.2500 0.1250 (   687 PWs)   bands (ev):

   -47.2402 -23.6800 -23.6734 -23.6652 -15.1325  -7.3936  -6.8053  -6.7572
    -0.4925  -0.4090  -0.1188   5.6139   6.2884   6.4328   6.7824   7.1721
     7.6677   8.4522   8.5849   8.9944

          k =-0.1250 0.3750 0.2500 (   687 PWs)   bands (ev):

   -47.2402 -23.6805 -23.6759 -23.6622 -15.1325  -7.3894  -6.8113  -6.7548
    -0.4912  -0.4097  -0.1192   5.6140   6.2769   6.4304   6.7775   7.1727
     7.6752   8.4528   8.5988   8.9843

          k =-0.5000-0.2500 0.1250 (   684 PWs)   bands (ev):

   -47.2399 -23.6804 -23.6752 -23.6599 -15.1205  -7.3925  -6.7917  -6.7274
    -0.4967  -0.3695  -0.1765   5.5157   6.1450   6.3636   6.7131   7.1502
     7.7204   8.4598   8.4728   9.0251

          k =-0.1250-0.5000 0.2500 (   684 PWs)   bands (ev):

   -47.2399 -23.6804 -23.6783 -23.6567 -15.1205  -7.3890  -6.7946  -6.7274
    -0.4955  -0.3697  -0.1773   5.5166   6.1385   6.3555   6.7073   7.1536
     7.7223   8.4738   8.4771   9.0148

          k = 0.3750-0.3750 0.1250 (   686 PWs)   bands (ev):

   -47.2398 -23.6840 -23.6836 -23.6640 -15.1078  -7.2552  -6.8082  -6.7622
    -0.5432  -0.4908  -0.1769   5.4261   5.9769   6.1015   6.8201   7.0123
     7.5154   8.4427   8.6642   9.2856

          k =-0.5000-0.3750 0.1250 (   676 PWs)   bands (ev):

   -47.2393 -23.6779 -23.6773 -23.6558 -15.0974  -7.2022  -6.7871  -6.7775
    -0.5566  -0.5142  -0.2149   5.3667   5.8865   6.0524   6.8256   7.0317
     7.4637   8.6234   8.6247   9.3832

          k =-0.1250-0.5000 0.3750 (   676 PWs)   bands (ev):

   -47.2393 -23.6802 -23.6779 -23.6528 -15.0974  -7.1918  -6.7963  -6.7775
    -0.5543  -0.5147  -0.2164   5.3649   5.8782   6.0387   6.8131   7.0341
     7.4671   8.6382   8.6413   9.3725

          k =-0.5000 0.5000 0.1250 (   676 PWs)   bands (ev):

   -47.2394 -23.6785 -23.6785 -23.6582 -15.0878  -7.1087  -6.7997  -6.7997
    -0.5702  -0.5702  -0.2399   5.2533   5.8083   5.9546   6.9460   6.9460
     7.2359   8.7230   8.7230   9.5084

          k = 0.3750-0.2500 0.2500 (   682 PWs)   bands (ev):

   -47.2396 -23.6835 -23.6703 -23.6669 -15.1097  -7.2410  -6.7758  -6.7639
    -0.6478  -0.5852  -0.1971   5.5386   6.2702   6.4787   6.5675   7.0418
     7.2766   8.6755   8.8939   9.0157

          k =-0.5000-0.2500 0.2500 (   680 PWs)   bands (ev):

   -47.2394 -23.6792 -23.6747 -23.6697 -15.0989  -7.2235  -6.7628  -6.7349
    -0.6823  -0.5459  -0.2983   5.4369   6.2217   6.3864   6.4663   7.0376
     7.3147   8.6367   8.9221   9.0812

          k = 0.3750-0.3750 0.2500 (   690 PWs)   bands (ev):

   -47.2398 -23.6906 -23.6899 -23.6767 -15.0866  -7.0958  -6.7661  -6.7447
    -0.7341  -0.7195  -0.3779   5.3840   6.0865   6.2385   6.5090   7.0267
     7.0685   8.7801   8.9235   9.2659

          k =-0.5000-0.3750 0.2500 (   676 PWs)   bands (ev):

   -47.2390 -23.6832 -23.6799 -23.6666 -15.0770  -7.0372  -6.7456  -6.7429
    -0.7825  -0.7138  -0.4926   5.2913   6.0631   6.3066   6.5387   7.0285
     7.1026   8.8583   8.9940   9.3973

          k =-0.2500-0.5000 0.3750 (   676 PWs)   bands (ev):

   -47.2390 -23.6863 -23.6799 -23.6634 -15.0770  -7.0299  -6.7495  -6.7456
    -0.7813  -0.7141  -0.4935   5.2892   6.0503   6.3009   6.5463   7.0312
     7.1004   8.8647   9.0077   9.3868

          k =-0.5000 0.5000 0.2500 (   672 PWs)   bands (ev):

   -47.2387 -23.6836 -23.6836 -23.6588 -15.0679  -6.9429  -6.7501  -6.7501
    -0.7789  -0.7789  -0.6131   5.1667   6.0020   6.3152   6.6042   7.0436
     7.0436   8.9980   8.9980   9.5509

          k =-0.5000-0.3750 0.3750 (   678 PWs)   bands (ev):

   -47.2387 -23.6882 -23.6870 -23.6819 -15.0564  -6.8549  -6.7137  -6.7099
    -0.9571  -0.9053  -0.7817   5.1238   6.0630   6.1013   6.6875   7.0127
     7.0510   9.1875   9.3160   9.4157

          k =-0.5000 0.5000 0.3750 (   668 PWs)   bands (ev):

   -47.2380 -23.6815 -23.6815 -23.6743 -15.0477  -6.7696  -6.6990  -6.6990
    -0.9804  -0.9804  -0.9370   5.0262   6.0520   6.1031   6.8366   7.0535
     7.0535   9.3875   9.3875   9.5800

     highest occupied level (ev):     9.5800

!    total energy              =    -286.39774352 Ry
     estimated scf accuracy    <          9.8E-10 Ry

     The total energy is the sum of the following terms:
     one-electron contribution =     -74.90993575 Ry
     hartree contribution      =      59.60798584 Ry
     xc contribution           =     -66.90957958 Ry
     ewald contribution        =    -204.18621404 Ry

     convergence has been achieved in  14 iterations

     negative rho (up, down):  9.439E-02 0.000E+00

     Forces acting on atoms (cartesian axes, Ry/au):

     atom    1 type  1   force =     0.00000000    0.00000000   -0.00450768
     atom    2 type  2   force =     0.00000000    0.00000000   -0.01962601
     atom    3 type  3   force =     0.00000000    0.00000000    0.02798351
     atom    4 type  3   force =     0.00000000    0.00000000   -0.00192491
     atom    5 type  3   force =     0.00000000    0.00000000   -0.00192491

     Total force =     0.034583     Total SCF correction =     0.000005


     Computing stress (Cartesian axis) and pressure


     negative rho (up, down):  9.439E-02 0.000E+00
          total   stress  (Ry/bohr**3)                   (kbar)     P=    -1135.60
  -0.00772555   0.00000000   0.00000000        -1136.47        0.00        0.00
   0.00000000  -0.00772555   0.00000000            0.00    -1136.47        0.00
   0.00000000   0.00000000  -0.00770795            0.00        0.00    -1133.88


     Writing all to output data dir ./BTO_k8.save/ :
     XML data file, charge density, pseudopotentials, collected wavefunctions
 
     init_run     :      0.33s CPU      0.42s WALL (       1 calls)
     electrons    :     12.78s CPU     14.01s WALL (       1 calls)
     forces       :      0.08s CPU      0.09s WALL (       1 calls)
     stress       :      0.69s CPU      0.70s WALL (       1 calls)

     Called by init_run:
     wfcinit      :      0.22s CPU      0.26s WALL (       1 calls)
     potinit      :      0.01s CPU      0.01s WALL (       1 calls)
     hinit0       :      0.08s CPU      0.11s WALL (       1 calls)

     Called by electrons:
     c_bands      :     11.49s CPU     12.55s WALL (      14 calls)
     sum_band     :      1.05s CPU      1.15s WALL (      14 calls)
     v_of_rho     :      0.01s CPU      0.01s WALL (      15 calls)
     newd         :      0.23s CPU      0.30s WALL (      15 calls)
     mix_rho      :      0.01s CPU      0.01s WALL (      14 calls)

     Called by c_bands:
     init_us_2    :      0.10s CPU      0.10s WALL (    2325 calls)
     init_us_2:cp :      0.09s CPU      0.10s WALL (    2325 calls)
     ccgdiagg     :     10.12s CPU     11.05s WALL (    1050 calls)
     wfcrot       :      1.48s CPU      1.63s WALL (    1050 calls)

     Called by *cgdiagg:
     h_psi        :      5.83s CPU      6.37s WALL (   59031 calls)
     s_psi        :      0.88s CPU      0.96s WALL (  117012 calls)

     Called by h_psi:
     h_psi:calbec :      1.11s CPU      1.22s WALL (   59031 calls)
     vloc_psi     :      3.82s CPU      4.17s WALL (   59031 calls)
     add_vuspsi   :      0.48s CPU      0.52s WALL (   59031 calls)
     hs_1psi      :      5.49s CPU      6.00s WALL (   57981 calls)
     s_1psi       :      1.62s CPU      1.77s WALL (   57981 calls)

     General routines
     calbec       :      2.00s CPU      2.18s WALL (  118437 calls)
     fft          :      0.01s CPU      0.02s WALL (      96 calls)
     ffts         :      0.00s CPU      0.00s WALL (      29 calls)
     fftw         :      3.48s CPU      3.78s WALL (  181212 calls)
     interpolate  :      0.00s CPU      0.00s WALL (      15 calls)
 
     Parallel routines
 
     PWSCF        :     14.19s CPU     15.96s WALL

 
   This run was terminated on:  15:27:55  18Oct2025            

=------------------------------------------------------------------------------=
   JOB DONE.
=------------------------------------------------------------------------------=
TACC:  Shutdown complete. Exiting. 
