TACC:  Starting up job 2477386 
TACC:  Starting parallel tasks... 

     Program PWSCF v.7.3 starts on 18Oct2025 at 22:57: 4 

     This program is part of the open-source Quantum ESPRESSO suite
     for quantum simulation of materials; please cite
         "P. Giannozzi et al., J. Phys.:Condens. Matter 21 395502 (2009);
         "P. Giannozzi et al., J. Phys.:Condens. Matter 29 465901 (2017);
         "P. Giannozzi et al., J. Chem. Phys. 152 154105 (2020);
          URL http://www.quantum-espresso.org", 
     in publications or presentations arising from this work. More details at
     http://www.quantum-espresso.org/quote

     Parallel version (MPI & OpenMP), running on      10 processor cores
     Number of MPI processes:                10
     Threads/MPI process:                     1

     MPI processes distributed on     1 nodes
     186423 MiB available memory on the printing compute node when the environment starts
 
     Waiting for input...
     Reading input from standard input
Warning: card &CELL ignored
Warning: card  CELL_DYNAMICS = 'BFGS', ignored
Warning: card  PRESS=0.D0, ignored
Warning: card / ignored
     Message from routine read_cards :
     DEPRECATED: no units specified in ATOMIC_POSITIONS card
     Message from routine read_cards :
     ATOMIC_POSITIONS: units set to alat

     Current dimensions of program PWSCF are:
     Max number of different atomic species (ntypx) = 10
     Max number of k-points (npk) =  40000
     Max angular momentum in pseudopotentials (lmaxx) =  4
     Message from routine setup:
     using ibrav=0 with symmetry is DISCOURAGED, use correct ibrav instead
 
     R & G space division:  proc/nbgrp/npool/nimage =      10
     Subspace diagonalization in iterative solution of the eigenvalue problem:
     a serial algorithm will be used

 
     Parallelization info
     --------------------
     sticks:   dense  smooth     PW     G-vecs:    dense   smooth      PW
     Min         125      50     20                 2507      633     164
     Max         126      51     21                 2509      634     166
     Sum        1253     503    209                25085     6333    1653
 
     Using Slab Decomposition
 


     bravais-lattice index     =            0
     lattice parameter (alat)  =       6.7000  a.u.
     unit-cell volume          =     132.8997 (a.u.)^3
     number of atoms/cell      =            2
     number of atomic types    =            1
     number of electrons       =         8.00
     number of Kohn-Sham states=            4
     kinetic-energy cutoff     =      50.0000  Ry
     charge density cutoff     =     500.0000  Ry
     scf convergence threshold =      1.0E-08
     mixing beta               =       0.7000
     number of iterations used =            8  plain     mixing
     Exchange-correlation= SLA  PZ   NOGX NOGC
                           (   1   1   0   0   0   0   0)

     celldm(1)=   6.700000  celldm(2)=   0.000000  celldm(3)=   0.000000
     celldm(4)=   0.000000  celldm(5)=   0.000000  celldm(6)=   0.000000

     crystal axes: (cart. coord. in units of alat)
               a(1) = (  -0.545240   0.481107   0.483999 )  
               a(2) = (   0.481107  -0.545240   0.483999 )  
               a(3) = (   0.481107   0.481107  -0.548518 )  

     reciprocal axes: (cart. coord. in units 2 pi/alat)
               b(1) = (  0.149859  1.124188  1.117470 )  
               b(2) = (  1.124188  0.149859  1.117470 )  
               b(3) = (  1.124188  1.124188  0.148963 )  


     PseudoPot. # 1 for C  read from file:
     /scratch/11018/zhc/Assisgnment2/Q2/Diamond/Diamond/C_LDA.UPF
     MD5 check sum: 407c1fe918d93b14b177d5600f28733c
     Pseudo is Ultrasoft + core correction, Zval =  4.0
     Generated by new atomic code, or converted to UPF format
     Using radial grid of  721 points,  4 beta functions with: 
                l(1) =   0
                l(2) =   0
                l(3) =   1
                l(4) =   1
     Q(r) pseudized with  8 coefficients,  rinner =    1.100   1.100   1.100


     atomic species   valence    mass     pseudopotential
     C                 4.00    12.01100     C ( 1.00)

      2 Sym. Ops. (no inversion) found



   Cartesian axes

     site n.     atom                  positions (alat units)
         1        C      tau(   1) = (   0.0000000   0.0000000   0.0000000  )
         2        C      tau(   2) = (   0.2211023   0.2211023   0.2211023  )

     number of k points=    24
                       cart. coord. in units 2pi/alat
        k(    1) = (   0.0000000   0.0000000   0.0000000), wk =   0.0312500
        k(    2) = (   0.2810470   0.2810470   0.0372407), wk =   0.0625000
        k(    3) = (  -0.5620941  -0.5620941  -0.0744815), wk =   0.0312500
        k(    4) = (   0.2810470   0.0374646   0.2793675), wk =   0.1250000
        k(    5) = (   0.5620941   0.3185117   0.3166082), wk =   0.1250000
        k(    6) = (  -0.2810470  -0.5246294   0.2048860), wk =   0.1250000
        k(    7) = (   0.0000000  -0.2435824   0.2421267), wk =   0.1250000
        k(    8) = (  -0.5620941  -0.0749293  -0.5587349), wk =   0.0625000
        k(    9) = (  -0.2810470   0.2061177  -0.5214942), wk =   0.1250000
        k(   10) = (  -1.1241881  -0.6370233  -0.6332164), wk =   0.0625000
        k(   11) = (   0.3185117   0.3185117   0.5587349), wk =   0.0625000
        k(   12) = (   0.5995587   0.5995587   0.5959757), wk =   0.0625000
        k(   13) = (  -0.2435824  -0.2435824   0.4842534), wk =   0.0625000
        k(   14) = (   0.0374646   0.0374646   0.5214942), wk =   0.0625000
        k(   15) = (  -0.5246294   0.2061177  -0.2793675), wk =   0.1250000
        k(   16) = (  -0.2435824   0.4871648  -0.2421267), wk =   0.1250000
        k(   17) = (  -1.0867235  -0.3559763  -0.3538490), wk =   0.1250000
        k(   18) = (  -0.8056764  -0.0749293  -0.3166082), wk =   0.1250000
        k(   19) = (  -0.2435824   0.2435824   0.0000000), wk =   0.0625000
        k(   20) = (   0.0374646   0.5246294   0.0372407), wk =   0.1250000
        k(   21) = (  -0.8056764  -0.3185117  -0.0744815), wk =   0.0625000
        k(   22) = (  -0.6370233  -0.6370233  -1.1174698), wk =   0.0312500
        k(   23) = (  -0.3559763  -0.3559763  -1.0802291), wk =   0.0625000
        k(   24) = (  -1.1991174  -1.1991174  -1.1919513), wk =   0.0312500

     Dense  grid:    25085 G-vectors     FFT dimensions: (  45,  45,  45)

     Smooth grid:     6333 G-vectors     FFT dimensions: (  27,  27,  27)

     Estimated max dynamical RAM per process >       4.29 MB

     Estimated total dynamical RAM >      42.91 MB

     Initial potential from superposition of free atoms

     starting charge       7.9999, renormalised to       8.0000
     Starting wfcs are    8 randomized atomic wfcs

     total cpu time spent up to now is        0.2 secs

     Self-consistent Calculation

     iteration #  1     ecut=    50.00 Ry     beta= 0.70
     CG style diagonalization
     ethr =  1.00E-02,  avg # of iterations =  3.0

     total cpu time spent up to now is        0.3 secs

     total energy              =     -22.79111051 Ry
     estimated scf accuracy    <       0.30503903 Ry

     iteration #  2     ecut=    50.00 Ry     beta= 0.70
     CG style diagonalization
     ethr =  3.81E-03,  avg # of iterations =  4.0

     total cpu time spent up to now is        0.4 secs

     total energy              =     -22.85686618 Ry
     estimated scf accuracy    <       0.01140540 Ry

     iteration #  3     ecut=    50.00 Ry     beta= 0.70
     CG style diagonalization
     ethr =  1.43E-04,  avg # of iterations =  4.2

     total cpu time spent up to now is        0.5 secs

     total energy              =     -22.86134722 Ry
     estimated scf accuracy    <       0.00037150 Ry

     iteration #  4     ecut=    50.00 Ry     beta= 0.70
     CG style diagonalization
     ethr =  4.64E-06,  avg # of iterations =  4.1

     total cpu time spent up to now is        0.5 secs

     total energy              =     -22.86152524 Ry
     estimated scf accuracy    <       0.00001576 Ry

     iteration #  5     ecut=    50.00 Ry     beta= 0.70
     CG style diagonalization
     c_bands:  1 eigenvalues not converged
     c_bands:  1 eigenvalues not converged
     ethr =  1.97E-07,  avg # of iterations =  4.4

     total cpu time spent up to now is        0.6 secs

     total energy              =     -22.86347303 Ry
     estimated scf accuracy    <       0.00051772 Ry

     iteration #  6     ecut=    50.00 Ry     beta= 0.70
     CG style diagonalization
     ethr =  1.97E-07,  avg # of iterations =  3.9

     total cpu time spent up to now is        0.7 secs

     total energy              =     -22.86318705 Ry
     estimated scf accuracy    <       0.00070575 Ry

     iteration #  7     ecut=    50.00 Ry     beta= 0.70
     CG style diagonalization
     ethr =  1.97E-07,  avg # of iterations =  4.9

     total cpu time spent up to now is        0.8 secs

     total energy              =     -22.86319904 Ry
     estimated scf accuracy    <       0.00008984 Ry

     iteration #  8     ecut=    50.00 Ry     beta= 0.70
     CG style diagonalization
     ethr =  1.97E-07,  avg # of iterations =  3.9

     total cpu time spent up to now is        0.9 secs

     total energy              =     -22.86319166 Ry
     estimated scf accuracy    <       0.00002243 Ry

     iteration #  9     ecut=    50.00 Ry     beta= 0.70
     CG style diagonalization
     ethr =  1.97E-07,  avg # of iterations =  3.7

     total cpu time spent up to now is        1.0 secs

     total energy              =     -22.86319339 Ry
     estimated scf accuracy    <       0.00000101 Ry

     iteration # 10     ecut=    50.00 Ry     beta= 0.70
     CG style diagonalization
     ethr =  1.26E-08,  avg # of iterations =  3.8

     total cpu time spent up to now is        1.0 secs

     total energy              =     -22.86319354 Ry
     estimated scf accuracy    <       0.00000039 Ry

     iteration # 11     ecut=    50.00 Ry     beta= 0.70
     CG style diagonalization
     ethr =  4.90E-09,  avg # of iterations =  3.7

     total cpu time spent up to now is        1.1 secs

     total energy              =     -22.86319356 Ry
     estimated scf accuracy    <       0.00000001 Ry

     iteration # 12     ecut=    50.00 Ry     beta= 0.70
     CG style diagonalization
     ethr =  1.59E-10,  avg # of iterations =  4.4

     total cpu time spent up to now is        1.2 secs

     End of self-consistent calculation

          k = 0.0000 0.0000 0.0000 (   791 PWs)   bands (ev):

   -12.2602  -4.1391   1.4606   1.4803

          k = 0.2810 0.2810 0.0372 (   797 PWs)   bands (ev):

   -11.1993  -5.4610   1.8446   2.5512

          k =-0.5621-0.5621-0.0745 (   792 PWs)   bands (ev):

    -8.9533  -7.9048   3.5384   4.8053

          k = 0.2810 0.0375 0.2794 (   798 PWs)   bands (ev):

   -11.2032  -5.4638   1.8687   2.5479

          k = 0.5621 0.3185 0.3166 (   795 PWs)   bands (ev):

    -9.0795  -7.7322   2.9078   4.5635

          k =-0.2810-0.5246 0.2049 (   797 PWs)   bands (ev):

   -10.3422  -5.6821  -0.7255   1.8067

          k = 0.0000-0.2436 0.2421 (   798 PWs)   bands (ev):

   -11.6545  -4.1852  -0.7121   1.0222

          k =-0.5621-0.0749-0.5587 (   790 PWs)   bands (ev):

    -8.9609  -7.9134   3.5437   4.8580

          k =-0.2810 0.2061-0.5215 (   795 PWs)   bands (ev):

   -10.3474  -5.6849  -0.7158   1.8175

          k =-1.1242-0.6370-0.6332 (   798 PWs)   bands (ev):

   -10.8807  -4.2180  -2.6578   0.6157

          k = 0.3185 0.3185 0.5587 (   796 PWs)   bands (ev):

    -9.0873  -7.7306   2.8923   4.5732

          k = 0.5996 0.5996 0.5960 (   788 PWs)   bands (ev):

    -9.9752  -5.8985  -0.2388  -0.2136

          k =-0.2436-0.2436 0.4843 (   793 PWs)   bands (ev):

   -10.9026  -4.2216  -1.9137  -0.4634

          k = 0.0375 0.0375 0.5215 (   796 PWs)   bands (ev):

   -10.6968  -5.4513   0.3242   1.8988

          k =-0.5246 0.2061-0.2794 (   798 PWs)   bands (ev):

   -10.3366  -5.6931  -0.7211   1.7969

          k =-0.2436 0.4872-0.2421 (   797 PWs)   bands (ev):

   -10.8946  -4.2249  -1.9318  -0.4568

          k =-1.0867-0.3560-0.3538 (   782 PWs)   bands (ev):

   -10.0701  -5.4408  -1.0223   1.0869

          k =-0.8057-0.0749-0.3166 (   784 PWs)   bands (ev):

    -8.7213  -7.6419   2.9431   3.2860

          k =-0.2436 0.2436 0.0000 (   797 PWs)   bands (ev):

   -11.6486  -4.1887  -0.7030   0.9970

          k = 0.0375 0.5246 0.0372 (   799 PWs)   bands (ev):

   -10.6820  -5.4572   0.2923   1.8880

          k =-0.8057-0.3185-0.0745 (   786 PWs)   bands (ev):

    -8.7168  -7.6369   2.9234   3.2503

          k =-0.6370-0.6370-1.1175 (   796 PWs)   bands (ev):

   -10.8658  -4.2248  -2.6573   0.5821

          k =-0.3560-0.3560-1.0802 (   782 PWs)   bands (ev):

   -10.0585  -5.4494  -1.0155   1.0485

          k =-1.1991-1.1991-1.1920 (   778 PWs)   bands (ev):

    -8.4711  -7.3595   3.1377   3.1563

     highest occupied level (ev):     4.8580

!    total energy              =     -22.86319361 Ry
     estimated scf accuracy    <          1.1E-09 Ry

     The total energy is the sum of the following terms:
     one-electron contribution =      -3.47938475 Ry
     hartree contribution      =       5.21884253 Ry
     xc contribution           =      -7.08514519 Ry
     ewald contribution        =     -17.51750620 Ry

     convergence has been achieved in  12 iterations

     Forces acting on atoms (cartesian axes, Ry/au):

     atom    1 type  1   force =     0.10865343    0.10865343    0.10886032
     atom    2 type  1   force =    -0.10865343   -0.10865343   -0.10886032

     Total force =     0.266315     Total SCF correction =     0.000012


     Computing stress (Cartesian axis) and pressure

          total   stress  (Ry/bohr**3)                   (kbar)     P=       58.83
   0.00039985   0.00026131   0.00027057           58.82       38.44       39.80
   0.00026131   0.00039985   0.00027057           38.44       58.82       39.80
   0.00027057   0.00027057   0.00040015           39.80       39.80       58.86


     Writing all to output data dir ./diamond_tetragonal_etam0p002.save/ :
     XML data file, charge density, pseudopotentials, collected wavefunctions
 
     init_run     :      0.06s CPU      0.12s WALL (       1 calls)
     electrons    :      0.90s CPU      1.00s WALL (       1 calls)
     forces       :      0.01s CPU      0.01s WALL (       1 calls)
     stress       :      0.02s CPU      0.02s WALL (       1 calls)

     Called by init_run:
     wfcinit      :      0.02s CPU      0.05s WALL (       1 calls)
     potinit      :      0.00s CPU      0.01s WALL (       1 calls)
     hinit0       :      0.02s CPU      0.04s WALL (       1 calls)

     Called by electrons:
     c_bands      :      0.77s CPU      0.83s WALL (      12 calls)
     sum_band     :      0.09s CPU      0.10s WALL (      12 calls)
     v_of_rho     :      0.01s CPU      0.01s WALL (      13 calls)
     newd         :      0.02s CPU      0.03s WALL (      13 calls)
     mix_rho      :      0.01s CPU      0.01s WALL (      12 calls)

     Called by c_bands:
     init_us_2    :      0.01s CPU      0.01s WALL (     648 calls)
     init_us_2:cp :      0.01s CPU      0.01s WALL (     648 calls)
     ccgdiagg     :      0.64s CPU      0.69s WALL (     288 calls)
     wfcrot       :      0.13s CPU      0.16s WALL (     288 calls)

     Called by *cgdiagg:
     h_psi        :      0.45s CPU      0.49s WALL (    3836 calls)
     s_psi        :      0.02s CPU      0.02s WALL (    7384 calls)

     Called by h_psi:
     h_psi:calbec :      0.06s CPU      0.07s WALL (    3836 calls)
     vloc_psi     :      0.35s CPU      0.38s WALL (    3836 calls)
     add_vuspsi   :      0.01s CPU      0.02s WALL (    3836 calls)
     hs_1psi      :      0.39s CPU      0.42s WALL (    3548 calls)
     s_1psi       :      0.07s CPU      0.08s WALL (    3548 calls)

     General routines
     calbec       :      0.10s CPU      0.11s WALL (    7792 calls)
     fft          :      0.01s CPU      0.03s WALL (      84 calls)
     ffts         :      0.00s CPU      0.00s WALL (      25 calls)
     fftw         :      0.32s CPU      0.35s WALL (   10744 calls)
     interpolate  :      0.00s CPU      0.01s WALL (      13 calls)
 
     Parallel routines
 
     PWSCF        :      1.04s CPU      1.43s WALL

 
   This run was terminated on:  22:57: 6  18Oct2025            

=------------------------------------------------------------------------------=
   JOB DONE.
=------------------------------------------------------------------------------=
TACC:  Shutdown complete. Exiting. 
