TACC:  Starting up job 2474961 
TACC:  Starting parallel tasks... 

     Program PWSCF v.7.3 starts on 17Oct2025 at 19:34:42 

     This program is part of the open-source Quantum ESPRESSO suite
     for quantum simulation of materials; please cite
         "P. Giannozzi et al., J. Phys.:Condens. Matter 21 395502 (2009);
         "P. Giannozzi et al., J. Phys.:Condens. Matter 29 465901 (2017);
         "P. Giannozzi et al., J. Chem. Phys. 152 154105 (2020);
          URL http://www.quantum-espresso.org", 
     in publications or presentations arising from this work. More details at
     http://www.quantum-espresso.org/quote

     Parallel version (MPI & OpenMP), running on      10 processor cores
     Number of MPI processes:                10
     Threads/MPI process:                     1

     MPI processes distributed on     1 nodes
     186661 MiB available memory on the printing compute node when the environment starts
 
     Waiting for input...
     Reading input from standard input

     Current dimensions of program PWSCF are:
     Max number of different atomic species (ntypx) = 10
     Max number of k-points (npk) =  40000
     Max angular momentum in pseudopotentials (lmaxx) =  4
 
     R & G space division:  proc/nbgrp/npool/nimage =      10
     Subspace diagonalization in iterative solution of the eigenvalue problem:
     a serial algorithm will be used

 
     Parallelization info
     --------------------
     sticks:   dense  smooth     PW     G-vecs:    dense   smooth      PW
     Min         216      58     18                 6595      918     163
     Max         217      59     19                 6596      920     164
     Sum        2161     583    187                65955     9185    1639
 
     Using Slab Decomposition
 


     bravais-lattice index     =            2
     lattice parameter (alat)  =      10.2000  a.u.
     unit-cell volume          =     265.3020 (a.u.)^3
     number of atoms/cell      =            2
     number of atomic types    =            1
     number of electrons       =         8.00
     number of Kohn-Sham states=            8
     kinetic-energy cutoff     =      40.0000  Ry
     charge density cutoff     =     600.0000  Ry
     scf convergence threshold =      1.0E-08
     mixing beta               =       0.7000
     number of iterations used =            8  plain     mixing
     Exchange-correlation= SLA  PZ   NOGX NOGC
                           (   1   1   0   0   0   0   0)

     celldm(1)=  10.200000  celldm(2)=   0.000000  celldm(3)=   0.000000
     celldm(4)=   0.000000  celldm(5)=   0.000000  celldm(6)=   0.000000

     crystal axes: (cart. coord. in units of alat)
               a(1) = (  -0.500000   0.000000   0.500000 )  
               a(2) = (   0.000000   0.500000   0.500000 )  
               a(3) = (  -0.500000   0.500000   0.000000 )  

     reciprocal axes: (cart. coord. in units 2 pi/alat)
               b(1) = ( -1.000000 -1.000000  1.000000 )  
               b(2) = (  1.000000  1.000000  1.000000 )  
               b(3) = ( -1.000000  1.000000 -1.000000 )  


     PseudoPot. # 1 for Si read from file:
     /scratch/11018/zhc/Assisgnment2/Q1/1A/energy_cutoff_test/Si_LDA.UPF
     MD5 check sum: b5ade7b37ee992b02096e360e546dc2d
     Pseudo is Ultrasoft + core correction, Zval =  4.0
     Generated by new atomic code, or converted to UPF format
     Using radial grid of  899 points,  6 beta functions with: 
                l(1) =   0
                l(2) =   0
                l(3) =   1
                l(4) =   1
                l(5) =   2
                l(6) =   2
     Q(r) pseudized with  8 coefficients,  rinner =    0.900   0.900   0.900
                                                       0.900   0.900

     atomic species   valence    mass     pseudopotential
     Si                4.00    28.08550     Si( 1.00)

     48 Sym. Ops., with inversion, found (24 have fractional translation)



   Cartesian axes

     site n.     atom                  positions (alat units)
         1        Si     tau(   1) = (   0.0000000   0.0000000   0.0000000  )
         2        Si     tau(   2) = (  -0.2500000   0.2500000   0.2500000  )

     number of k points=    72
                       cart. coord. in units 2pi/alat
        k(    1) = (   0.0000000   0.0000000   0.0000000), wk =   0.0011574
        k(    2) = (  -0.0833333   0.0833333  -0.0833333), wk =   0.0092593
        k(    3) = (  -0.1666667   0.1666667  -0.1666667), wk =   0.0092593
        k(    4) = (  -0.2500000   0.2500000  -0.2500000), wk =   0.0092593
        k(    5) = (  -0.3333333   0.3333333  -0.3333333), wk =   0.0092593
        k(    6) = (  -0.4166667   0.4166667  -0.4166667), wk =   0.0092593
        k(    7) = (   0.5000000  -0.5000000   0.5000000), wk =   0.0046296
        k(    8) = (   0.0000000   0.1666667   0.0000000), wk =   0.0069444
        k(    9) = (  -0.0833333   0.2500000  -0.0833333), wk =   0.0277778
        k(   10) = (  -0.1666667   0.3333333  -0.1666667), wk =   0.0277778
        k(   11) = (  -0.2500000   0.4166667  -0.2500000), wk =   0.0277778
        k(   12) = (  -0.3333333   0.5000000  -0.3333333), wk =   0.0277778
        k(   13) = (   0.5833333  -0.4166667   0.5833333), wk =   0.0277778
        k(   14) = (   0.5000000  -0.3333333   0.5000000), wk =   0.0277778
        k(   15) = (   0.4166667  -0.2500000   0.4166667), wk =   0.0277778
        k(   16) = (   0.3333333  -0.1666667   0.3333333), wk =   0.0277778
        k(   17) = (   0.2500000  -0.0833333   0.2500000), wk =   0.0277778
        k(   18) = (   0.1666667  -0.0000000   0.1666667), wk =   0.0138889
        k(   19) = (   0.0000000   0.3333333   0.0000000), wk =   0.0069444
        k(   20) = (  -0.0833333   0.4166667  -0.0833333), wk =   0.0277778
        k(   21) = (  -0.1666667   0.5000000  -0.1666667), wk =   0.0277778
        k(   22) = (  -0.2500000   0.5833333  -0.2500000), wk =   0.0277778
        k(   23) = (   0.6666667  -0.3333333   0.6666667), wk =   0.0277778
        k(   24) = (   0.5833333  -0.2500000   0.5833333), wk =   0.0277778
        k(   25) = (   0.5000000  -0.1666667   0.5000000), wk =   0.0277778
        k(   26) = (   0.4166667  -0.0833333   0.4166667), wk =   0.0277778
        k(   27) = (   0.3333333   0.0000000   0.3333333), wk =   0.0138889
        k(   28) = (   0.0000000   0.5000000   0.0000000), wk =   0.0069444
        k(   29) = (  -0.0833333   0.5833333  -0.0833333), wk =   0.0277778
        k(   30) = (  -0.1666667   0.6666667  -0.1666667), wk =   0.0277778
        k(   31) = (   0.7500000  -0.2500000   0.7500000), wk =   0.0277778
        k(   32) = (   0.6666667  -0.1666667   0.6666667), wk =   0.0277778
        k(   33) = (   0.5833333  -0.0833333   0.5833333), wk =   0.0277778
        k(   34) = (   0.5000000   0.0000000   0.5000000), wk =   0.0138889
        k(   35) = (   0.0000000   0.6666667   0.0000000), wk =   0.0069444
        k(   36) = (  -0.0833333   0.7500000  -0.0833333), wk =   0.0277778
        k(   37) = (   0.8333333  -0.1666667   0.8333333), wk =   0.0277778
        k(   38) = (   0.7500000  -0.0833333   0.7500000), wk =   0.0277778
        k(   39) = (   0.6666667  -0.0000000   0.6666667), wk =   0.0138889
        k(   40) = (   0.0000000   0.8333333   0.0000000), wk =   0.0069444
        k(   41) = (   0.9166667  -0.0833333   0.9166667), wk =   0.0277778
        k(   42) = (   0.8333333   0.0000000   0.8333333), wk =   0.0138889
        k(   43) = (   0.0000000  -1.0000000   0.0000000), wk =   0.0034722
        k(   44) = (  -0.1666667   0.3333333   0.0000000), wk =   0.0277778
        k(   45) = (  -0.2500000   0.4166667  -0.0833333), wk =   0.0555556
        k(   46) = (  -0.3333333   0.5000000  -0.1666667), wk =   0.0555556
        k(   47) = (   0.5833333  -0.4166667   0.7500000), wk =   0.0555556
        k(   48) = (   0.5000000  -0.3333333   0.6666667), wk =   0.0277778
        k(   49) = (  -0.1666667   0.5000000   0.0000000), wk =   0.0277778
        k(   50) = (  -0.2500000   0.5833333  -0.0833333), wk =   0.0555556
        k(   51) = (   0.6666667  -0.3333333   0.8333333), wk =   0.0555556
        k(   52) = (   0.5833333  -0.2500000   0.7500000), wk =   0.0555556
        k(   53) = (   0.5000000  -0.1666667   0.6666667), wk =   0.0555556
        k(   54) = (   0.4166667  -0.0833333   0.5833333), wk =   0.0555556
        k(   55) = (   0.3333333   0.0000000   0.5000000), wk =   0.0277778
        k(   56) = (  -0.1666667   0.6666667  -0.0000000), wk =   0.0277778
        k(   57) = (   0.7500000  -0.2500000   0.9166667), wk =   0.0555556
        k(   58) = (   0.6666667  -0.1666667   0.8333333), wk =   0.0555556
        k(   59) = (   0.5833333  -0.0833333   0.7500000), wk =   0.0555556
        k(   60) = (   0.5000000   0.0000000   0.6666667), wk =   0.0277778
        k(   61) = (   0.8333333  -0.1666667   1.0000000), wk =   0.0277778
        k(   62) = (   0.7500000  -0.0833333   0.9166667), wk =   0.0555556
        k(   63) = (   0.6666667   0.0000000   0.8333333), wk =   0.0277778
        k(   64) = (  -0.1666667  -1.0000000  -0.0000000), wk =   0.0138889
        k(   65) = (   0.6666667  -0.3333333   1.0000000), wk =   0.0277778
        k(   66) = (   0.5833333  -0.2500000   0.9166667), wk =   0.0555556
        k(   67) = (   0.5000000  -0.1666667   0.8333333), wk =   0.0277778
        k(   68) = (   0.6666667  -0.1666667   1.0000000), wk =   0.0277778
        k(   69) = (   0.5833333  -0.0833333   0.9166667), wk =   0.0555556
        k(   70) = (   0.5000000   0.0000000   0.8333333), wk =   0.0277778
        k(   71) = (  -0.3333333  -1.0000000   0.0000000), wk =   0.0138889
        k(   72) = (  -0.5000000  -1.0000000   0.0000000), wk =   0.0069444

     Dense  grid:    65955 G-vectors     FFT dimensions: (  60,  60,  60)

     Smooth grid:     9185 G-vectors     FFT dimensions: (  30,  30,  30)

     Estimated max dynamical RAM per process >      27.45 MB

     Estimated total dynamical RAM >     274.47 MB

     Initial potential from superposition of free atoms

     starting charge       7.9988, renormalised to       8.0000
     Starting wfcs are    8 randomized atomic wfcs

     total cpu time spent up to now is        0.4 secs

     Self-consistent Calculation

     iteration #  1     ecut=    40.00 Ry     beta= 0.70
     CG style diagonalization
     ethr =  1.00E-02,  avg # of iterations =  3.7

     Threshold (ethr) on eigenvalues was too large:
     Diagonalizing with lowered threshold

     CG style diagonalization
     ethr =  7.33E-04,  avg # of iterations =  2.0

     total cpu time spent up to now is        1.3 secs

     total energy              =     -19.25699355 Ry
     estimated scf accuracy    <       0.05933308 Ry

     iteration #  2     ecut=    40.00 Ry     beta= 0.70
     CG style diagonalization
     ethr =  7.42E-04,  avg # of iterations =  3.0

     total cpu time spent up to now is        1.7 secs

     total energy              =     -19.26038161 Ry
     estimated scf accuracy    <       0.00170200 Ry

     iteration #  3     ecut=    40.00 Ry     beta= 0.70
     CG style diagonalization
     ethr =  2.13E-05,  avg # of iterations =  3.8

     total cpu time spent up to now is        2.2 secs

     total energy              =     -19.26059054 Ry
     estimated scf accuracy    <       0.00003849 Ry

     iteration #  4     ecut=    40.00 Ry     beta= 0.70
     CG style diagonalization
     ethr =  4.81E-07,  avg # of iterations =  4.4

     total cpu time spent up to now is        2.8 secs

     total energy              =     -19.26062425 Ry
     estimated scf accuracy    <       0.00000014 Ry

     iteration #  5     ecut=    40.00 Ry     beta= 0.70
     CG style diagonalization
     ethr =  1.72E-09,  avg # of iterations =  4.2

     total cpu time spent up to now is        3.3 secs

     End of self-consistent calculation

          k = 0.0000 0.0000 0.0000 (  1139 PWs)   bands (ev):

    -5.8903   6.1995   6.1995   6.1995   8.7356   8.7357   8.7357   9.5918

          k =-0.0833 0.0833-0.0833 (  1140 PWs)   bands (ev):

    -5.7978   5.3283   6.0525   6.0525   8.7807   8.9511   8.9511  10.2495

          k =-0.1667 0.1667-0.1667 (  1137 PWs)   bands (ev):

    -5.5233   3.7861   5.7407   5.7407   8.5160   9.3920   9.3921  11.6617

          k =-0.2500 0.2500-0.2500 (  1131 PWs)   bands (ev):

    -5.0774   2.2189   5.4281   5.4281   8.1858   9.6830   9.6830  13.1025

          k =-0.3333 0.3333-0.3333 (  1149 PWs)   bands (ev):

    -4.4892   0.7904   5.1858   5.1858   7.9155   9.6724   9.6724  13.9477

          k =-0.4167 0.4167-0.4167 (  1149 PWs)   bands (ev):

    -3.8532  -0.3611   5.0369   5.0369   7.7453   9.5508   9.5508  13.8360

          k = 0.5000-0.5000 0.5000 (  1158 PWs)   bands (ev):

    -3.5073  -0.8806   4.9869   4.9869   7.6876   9.4932   9.4932  13.7463

          k = 0.0000 0.1667 0.0000 (  1147 PWs)   bands (ev):

    -5.7669   5.5052   5.7578   5.7578   8.4434   9.3264   9.3264  10.2293

          k =-0.0833 0.2500-0.0833 (  1149 PWs)   bands (ev):

    -5.5526   4.2517   5.3872   5.5849   8.4602   9.4160   9.8711  11.0986

          k =-0.1667 0.3333-0.1667 (  1133 PWs)   bands (ev):

    -5.1623   2.7279   5.0704   5.2553   8.5895   9.4004  10.2553  11.5512

          k =-0.2500 0.4167-0.2500 (  1132 PWs)   bands (ev):

    -4.6165   1.2696   4.8595   4.8966   8.4487   9.4639  10.2679  12.1211

          k =-0.3333 0.5000-0.3333 (  1134 PWs)   bands (ev):

    -3.9770   0.0172   4.5960   4.7707   8.2838   9.4146  10.0612  13.1697

          k = 0.5833-0.4167 0.5833 (  1136 PWs)   bands (ev):

    -3.4706  -0.7719   4.3872   4.8043   8.2050   9.4087   9.8542  13.9971

          k = 0.5000-0.3333 0.5000 (  1136 PWs)   bands (ev):

    -3.5959  -0.5890   4.2887   4.9511   8.2345   9.5254   9.7415  14.0930

          k = 0.4167-0.2500 0.4167 (  1137 PWs)   bands (ev):

    -4.1940   0.4048   4.3138   5.1951   8.3708   9.7142   9.7427  13.6216

          k = 0.3333-0.1667 0.3333 (  1124 PWs)   bands (ev):

    -4.8145   1.7414   4.4731   5.5099   8.6010   9.6429   9.9100  12.6806

          k = 0.2500-0.0833 0.2500 (  1140 PWs)   bands (ev):

    -5.3118   3.2227   4.7789   5.8439   8.8903   9.3478   9.7070  11.9262

          k = 0.1667-0.0000 0.1667 (  1147 PWs)   bands (ev):

    -5.6445   4.5947   5.3099   6.0821   8.9874   9.1226   9.1318  11.0411

          k = 0.0000 0.3333 0.0000 (  1138 PWs)   bands (ev):

    -5.3986   4.1567   4.9804   4.9804   7.8289  10.4649  10.5430  10.5430

          k =-0.0833 0.4167-0.0833 (  1132 PWs)   bands (ev):

    -5.0662   3.0529   4.6275   4.6413   7.8468  10.0444  10.8611  11.1081

          k =-0.1667 0.5000-0.1667 (  1128 PWs)   bands (ev):

    -4.5696   1.7194   4.1651   4.4207   8.0868  10.2243  10.6839  11.2686

          k =-0.2500 0.5833-0.2500 (  1126 PWs)   bands (ev):

    -3.9495   0.4617   3.7178   4.3373   8.1268  10.4373  11.0777  11.1979

          k = 0.6667-0.3333 0.6667 (  1133 PWs)   bands (ev):

    -3.3501  -0.4945   3.3665   4.3938   8.1592  10.2815  10.7968  12.5863

          k = 0.5833-0.2500 0.5833 (  1138 PWs)   bands (ev):

    -3.2312  -0.6596   3.1470   4.5824   8.3121  10.2257  10.5667  14.1465

          k = 0.5000-0.1667 0.5000 (  1134 PWs)   bands (ev):

    -3.7456   0.1190   3.0858   4.8836   8.5920  10.2738  10.4028  13.4551

          k = 0.4167-0.0833 0.4167 (  1131 PWs)   bands (ev):

    -4.3837   1.2898   3.2268   5.2591   8.9435  10.1819  10.3285  12.2928

          k = 0.3333 0.0000 0.3333 (  1127 PWs)   bands (ev):

    -4.9253   2.4505   3.7222   5.6300   9.2215   9.7396  10.0025  11.8246

          k = 0.0000 0.5000 0.0000 (  1118 PWs)   bands (ev):

    -4.7914   2.6692   4.2729   4.2729   7.2300   9.2383  11.9635  11.9637

          k =-0.0833 0.5833-0.0833 (  1128 PWs)   bands (ev):

    -4.3477   1.7480   3.7927   4.0234   7.3147   8.8767  12.2497  12.4443

          k =-0.1667 0.6667-0.1667 (  1129 PWs)   bands (ev):

    -3.7618   0.7016   3.1416   3.9156   7.5274   9.3666  12.1105  12.3946

          k = 0.7500-0.2500 0.7500 (  1128 PWs)   bands (ev):

    -3.1232  -0.2451   2.5823   3.9562   7.6119  10.5805  11.9416  12.1099

          k = 0.6667-0.1667 0.6667 (  1130 PWs)   bands (ev):

    -2.7879  -0.6731   2.2103   4.1403   7.7965  11.6022  11.8092  12.3599

          k = 0.5833-0.0833 0.5833 (  1132 PWs)   bands (ev):

    -3.1745  -0.1651   2.0841   4.4514   8.1333  11.5114  11.5970  13.3529

          k = 0.5000 0.0000 0.5000 (  1125 PWs)   bands (ev):

    -3.8106   0.6737   2.3502   4.8517   8.5797  10.9809  11.2868  12.3165

          k = 0.0000 0.6667 0.0000 (  1118 PWs)   bands (ev):

    -3.9563   1.1616   3.7380   3.7380   6.8096   8.0705  13.4749  13.4749

          k =-0.0833 0.7500-0.0833 (  1132 PWs)   bands (ev):

    -3.4126   0.3667   3.2321   3.5937   6.9728   7.9457  13.7973  13.8430

          k = 0.8333-0.1667 0.8333 (  1127 PWs)   bands (ev):

    -2.7710  -0.4123   2.4760   3.6007   7.1408   8.8304  13.6563  13.6826

          k = 0.7500-0.0833 0.7500 (  1136 PWs)   bands (ev):

    -2.2873  -0.9154   1.8778   3.7576   7.3209  10.2976  13.3029  13.5084

          k = 0.6667-0.0000 0.6667 (  1141 PWs)   bands (ev):

    -2.5638  -0.6267   1.6695   4.0518   7.6584  11.9370  12.6817  13.6243

          k = 0.0000 0.8333 0.0000 (  1138 PWs)   bands (ev):

    -2.9108  -0.3074   3.4086   3.4086   6.6428   7.2430  15.0411  15.0411

          k = 0.9167-0.0833 0.9167 (  1134 PWs)   bands (ev):

    -2.2868  -1.0042   2.9556   3.3747   6.8427   7.4261  15.2888  15.3844

          k = 0.8333 0.0000 0.8333 (  1136 PWs)   bands (ev):

    -1.8169  -1.4168   2.2556   3.4940   7.0044   8.6563  14.7430  15.2674

          k = 0.0000-1.0000 0.0000 (  1138 PWs)   bands (ev):

    -1.6816  -1.6816   3.2976   3.2976   6.7754   6.7754  16.3292  16.3292

          k =-0.1667 0.3333 0.0000 (  1134 PWs)   bands (ev):

    -5.2795   3.4513   4.5219   5.4834   8.4820   9.7458  10.3433  11.0603

          k =-0.2500 0.4167-0.0833 (  1132 PWs)   bands (ev):

    -4.8357   2.1913   3.9816   5.2029   8.7652   9.7047  10.7460  11.0299

          k =-0.3333 0.5000-0.1667 (  1132 PWs)   bands (ev):

    -4.2495   0.8660   3.7122   4.8685   8.8101   9.5494  10.8024  11.6933

          k = 0.5833-0.4167 0.7500 (  1136 PWs)   bands (ev):

    -3.6126  -0.2466   3.5860   4.6165   8.7607   9.3344  10.7168  12.9242

          k = 0.5000-0.3333 0.6667 (  1128 PWs)   bands (ev):

    -3.2626  -0.7591   3.5512   4.5226   8.7438   9.2390  10.6701  14.2145

          k =-0.1667 0.5000 0.0000 (  1130 PWs)   bands (ev):

    -4.6788   2.2557   3.8136   4.5423   7.9119   9.6484  11.0073  11.8377

          k =-0.2500 0.5833-0.0833 (  1132 PWs)   bands (ev):

    -4.1367   1.1891   3.2654   4.2449   8.2450   9.8703  10.7442  12.2213

          k = 0.6667-0.3333 0.8333 (  1136 PWs)   bands (ev):

    -3.4978   0.1120   2.9050   4.0282   8.3612  10.3624  10.9722  12.1994

          k = 0.5833-0.2500 0.7500 (  1131 PWs)   bands (ev):

    -2.9859  -0.6142   2.6553   4.0097   8.4917  10.0887  12.0836  12.4524

          k = 0.5000-0.1667 0.6667 (  1139 PWs)   bands (ev):

    -3.1258  -0.4215   2.5320   4.1870   8.7506   9.8945  12.0041  12.8304

          k = 0.4167-0.0833 0.5833 (  1133 PWs)   bands (ev):

    -3.7314   0.4779   2.6016   4.5121   9.1264   9.7523  11.4533  11.9466

          k = 0.3333 0.0000 0.5000 (  1128 PWs)   bands (ev):

    -4.3461   1.4746   3.0210   4.9041   9.3642   9.5294  10.8061  11.5233

          k =-0.1667 0.6667-0.0000 (  1133 PWs)   bands (ev):

    -3.8553   0.9834   3.2955   3.7375   7.4977   8.5718  12.2613  13.4215

          k = 0.7500-0.2500 0.9167 (  1129 PWs)   bands (ev):

    -3.2381   0.1368   2.6882   3.5130   7.8295   9.1224  11.9515  13.7906

          k = 0.6667-0.1667 0.8333 (  1135 PWs)   bands (ev):

    -2.6337  -0.5937   2.1517   3.5214   7.9823  10.4336  11.6531  13.7231

          k = 0.5833-0.0833 0.7500 (  1136 PWs)   bands (ev):

    -2.5583  -0.6684   1.8535   3.7249   8.2459  11.2109  12.2202  12.9229

          k = 0.5000 0.0000 0.6667 (  1141 PWs)   bands (ev):

    -3.1091  -0.0668   1.9411   4.0786   8.6508  10.8060  11.6657  13.0223

          k = 0.8333-0.1667 1.0000 (  1137 PWs)   bands (ev):

    -2.8308  -0.3427   3.0072   3.2094   7.3153   7.8193  13.6424  15.0375

          k = 0.7500-0.0833 0.9167 (  1137 PWs)   bands (ev):

    -2.1887  -0.9937   2.3518   3.1638   7.6057   8.7546  13.3145  14.8100

          k = 0.6667 0.0000 0.8333 (  1137 PWs)   bands (ev):

    -2.0242  -1.1132   1.8352   3.3654   7.8486  10.3041  12.8533  13.2364

          k =-0.1667-1.0000-0.0000 (  1134 PWs)   bands (ev):

    -1.6411  -1.6411   2.9719   2.9719   7.4103   7.4103  15.1210  15.1210

          k = 0.6667-0.3333 1.0000 (  1124 PWs)   bands (ev):

    -3.5619   0.5168   2.5400   3.8509   8.9890   9.8239  10.4161  13.2680

          k = 0.5833-0.2500 0.9167 (  1134 PWs)   bands (ev):

    -2.9239  -0.2664   2.1859   3.5027   9.3555   9.9098  10.9161  13.6956

          k = 0.5000-0.1667 0.8333 (  1138 PWs)   bands (ev):

    -2.5527  -0.7079   2.0927   3.3692   9.4697   9.7168  12.2563  12.7081

          k = 0.6667-0.1667 1.0000 (  1126 PWs)   bands (ev):

    -2.6098  -0.4869   2.3360   2.9696   8.8070   9.1985  11.5636  14.5111

          k = 0.5833-0.0833 0.9167 (  1138 PWs)   bands (ev):

    -2.0736  -1.0013   2.0078   2.8107   9.1455  10.4138  11.2909  12.6773

          k = 0.5000 0.0000 0.8333 (  1135 PWs)   bands (ev):

    -2.3086  -0.7696   1.8791   3.0423   9.4506  10.6195  11.1647  12.4232

          k =-0.3333-1.0000 0.0000 (  1138 PWs)   bands (ev):

    -1.5537  -1.5537   2.4613   2.4613   8.8658   8.8658  12.9499  12.9500

          k =-0.5000-1.0000 0.0000 (  1144 PWs)   bands (ev):

    -1.5064  -1.5064   2.2438   2.2438  10.3882  10.3882  11.1894  11.1894

     highest occupied, lowest unoccupied level (ev):     6.1995    6.6428

!    total energy              =     -19.26062483 Ry
     estimated scf accuracy    <          8.1E-10 Ry

     The total energy is the sum of the following terms:
     one-electron contribution =       5.18352938 Ry
     hartree contribution      =       1.09838613 Ry
     xc contribution           =      -8.64278178 Ry
     ewald contribution        =     -16.89975857 Ry

     convergence has been achieved in   5 iterations

     Forces acting on atoms (cartesian axes, Ry/au):

     atom    1 type  1   force =    -0.00000000    0.00000000   -0.00000000
     atom    2 type  1   force =     0.00000000   -0.00000000    0.00000000

     Total force =     0.000000     Total SCF correction =     0.000000


     Computing stress (Cartesian axis) and pressure

          total   stress  (Ry/bohr**3)                   (kbar)     P=        1.46
   0.00000995  -0.00000000  -0.00000000            1.46       -0.00       -0.00
  -0.00000000   0.00000995   0.00000000           -0.00        1.46        0.00
  -0.00000000   0.00000000   0.00000995           -0.00        0.00        1.46


     Writing all to output data dir ./Si_40.save/ :
     XML data file, charge density, pseudopotentials, collected wavefunctions
 
     init_run     :      0.19s CPU      0.26s WALL (       1 calls)
     electrons    :      2.73s CPU      2.98s WALL (       1 calls)
     forces       :      0.05s CPU      0.05s WALL (       1 calls)
     stress       :      0.29s CPU      0.29s WALL (       1 calls)

     Called by init_run:
     wfcinit      :      0.08s CPU      0.10s WALL (       1 calls)
     potinit      :      0.01s CPU      0.01s WALL (       1 calls)
     hinit0       :      0.04s CPU      0.07s WALL (       1 calls)

     Called by electrons:
     c_bands      :      2.28s CPU      2.46s WALL (       6 calls)
     sum_band     :      0.35s CPU      0.38s WALL (       6 calls)
     v_of_rho     :      0.01s CPU      0.01s WALL (       6 calls)
     newd         :      0.10s CPU      0.11s WALL (       6 calls)
     mix_rho      :      0.00s CPU      0.01s WALL (       6 calls)

     Called by c_bands:
     init_us_2    :      0.04s CPU      0.04s WALL (    1080 calls)
     init_us_2:cp :      0.04s CPU      0.04s WALL (    1080 calls)
     ccgdiagg     :      2.00s CPU      2.15s WALL (     432 calls)
     wfcrot       :      0.32s CPU      0.36s WALL (     360 calls)

     Called by *cgdiagg:
     h_psi        :      1.44s CPU      1.55s WALL (   10176 calls)
     s_psi        :      0.10s CPU      0.11s WALL (   19992 calls)

     Called by h_psi:
     h_psi:calbec :      0.17s CPU      0.19s WALL (   10176 calls)
     vloc_psi     :      1.13s CPU      1.22s WALL (   10176 calls)
     add_vuspsi   :      0.05s CPU      0.06s WALL (   10176 calls)
     hs_1psi      :      1.27s CPU      1.37s WALL (    9816 calls)
     s_1psi       :      0.23s CPU      0.25s WALL (    9816 calls)

     General routines
     calbec       :      0.31s CPU      0.33s WALL (   20784 calls)
     fft          :      0.01s CPU      0.02s WALL (      43 calls)
     ffts         :      0.00s CPU      0.00s WALL (      12 calls)
     fftw         :      0.99s CPU      1.06s WALL (   28848 calls)
     interpolate  :      0.00s CPU      0.01s WALL (       6 calls)
 
     Parallel routines
 
     PWSCF        :      3.40s CPU      4.25s WALL

 
   This run was terminated on:  19:34:46  17Oct2025            

=------------------------------------------------------------------------------=
   JOB DONE.
=------------------------------------------------------------------------------=
TACC:  Shutdown complete. Exiting. 
