TACC:  Starting up job 2482951 
TACC:  Starting parallel tasks... 

     Program PWSCF v.7.3 starts on 20Oct2025 at 21:52:48 

     This program is part of the open-source Quantum ESPRESSO suite
     for quantum simulation of materials; please cite
         "P. Giannozzi et al., J. Phys.:Condens. Matter 21 395502 (2009);
         "P. Giannozzi et al., J. Phys.:Condens. Matter 29 465901 (2017);
         "P. Giannozzi et al., J. Chem. Phys. 152 154105 (2020);
          URL http://www.quantum-espresso.org", 
     in publications or presentations arising from this work. More details at
     http://www.quantum-espresso.org/quote

     Parallel version (MPI & OpenMP), running on      10 processor cores
     Number of MPI processes:                10
     Threads/MPI process:                     1

     MPI processes distributed on     1 nodes
     186940 MiB available memory on the printing compute node when the environment starts
 
     Waiting for input...
     Reading input from standard input
Warning: card &CELL ignored
Warning: card  CELL_DYNAMICS = 'BFGS', ignored
Warning: card  PRESS=0.D0, ignored
Warning: card / ignored
     Message from routine read_cards :
     DEPRECATED: no units specified in ATOMIC_POSITIONS card
     Message from routine read_cards :
     ATOMIC_POSITIONS: units set to alat

     Current dimensions of program PWSCF are:
     Max number of different atomic species (ntypx) = 10
     Max number of k-points (npk) =  40000
     Max angular momentum in pseudopotentials (lmaxx) =  4
 
     R & G space division:  proc/nbgrp/npool/nimage =      10
     Subspace diagonalization in iterative solution of the eigenvalue problem:
     a serial algorithm will be used

 
     Parallelization info
     --------------------
     sticks:   dense  smooth     PW     G-vecs:    dense   smooth      PW
     Min         139      36     12                 3401      463      89
     Max         140      37     13                 3402      466      92
     Sum        1393     367    121                34015     4645     893
 
     Using Slab Decomposition
 


     bravais-lattice index     =            2
     lattice parameter (alat)  =       6.6800  a.u.
     unit-cell volume          =      74.5194 (a.u.)^3
     number of atoms/cell      =            2
     number of atomic types    =            1
     number of electrons       =         8.00
     number of Kohn-Sham states=            4
     kinetic-energy cutoff     =      60.0000  Ry
     charge density cutoff     =     900.0000  Ry
     scf convergence threshold =      1.0E-08
     mixing beta               =       0.7000
     number of iterations used =            8  plain     mixing
     Exchange-correlation= SLA  PZ   NOGX NOGC
                           (   1   1   0   0   0   0   0)

     celldm(1)=   6.680000  celldm(2)=   0.000000  celldm(3)=   0.000000
     celldm(4)=   0.000000  celldm(5)=   0.000000  celldm(6)=   0.000000

     crystal axes: (cart. coord. in units of alat)
               a(1) = (  -0.500000   0.000000   0.500000 )  
               a(2) = (   0.000000   0.500000   0.500000 )  
               a(3) = (  -0.500000   0.500000   0.000000 )  

     reciprocal axes: (cart. coord. in units 2 pi/alat)
               b(1) = ( -1.000000 -1.000000  1.000000 )  
               b(2) = (  1.000000  1.000000  1.000000 )  
               b(3) = ( -1.000000  1.000000 -1.000000 )  


     PseudoPot. # 1 for C  read from file:
     /scratch/11018/zhc/Assisgnment2/Q2/Diamond/Diamond/C_LDA.UPF
     MD5 check sum: 407c1fe918d93b14b177d5600f28733c
     Pseudo is Ultrasoft + core correction, Zval =  4.0
     Generated by new atomic code, or converted to UPF format
     Using radial grid of  721 points,  4 beta functions with: 
                l(1) =   0
                l(2) =   0
                l(3) =   1
                l(4) =   1
     Q(r) pseudized with  8 coefficients,  rinner =    1.100   1.100   1.100


     atomic species   valence    mass     pseudopotential
     C                 4.00    12.01100     C ( 1.00)

      6 Sym. Ops. (no inversion) found



   Cartesian axes

     site n.     atom                  positions (alat units)
         1        C      tau(   1) = (   0.0000000   0.0000000   0.0000000  )
         2        C      tau(   2) = (   0.2492943   0.2492943   0.2492943  )

     number of k points=    32
                       cart. coord. in units 2pi/alat
        k(    1) = (   0.0000000   0.0000000   0.0000000), wk =   0.0092593
        k(    2) = (  -0.1666667   0.1666667  -0.1666667), wk =   0.0555556
        k(    3) = (  -0.3333333   0.3333333  -0.3333333), wk =   0.0555556
        k(    4) = (   0.5000000  -0.5000000   0.5000000), wk =   0.0277778
        k(    5) = (   0.0000000   0.3333333   0.0000000), wk =   0.0555556
        k(    6) = (  -0.1666667   0.5000000  -0.1666667), wk =   0.0555556
        k(    7) = (   0.6666667  -0.3333333   0.6666667), wk =   0.0555556
        k(    8) = (   0.5000000  -0.1666667   0.5000000), wk =   0.0555556
        k(    9) = (   0.3333333   0.0000000   0.3333333), wk =   0.0555556
        k(   10) = (   0.0000000   0.6666667   0.0000000), wk =   0.0555556
        k(   11) = (   0.8333333  -0.1666667   0.8333333), wk =   0.0555556
        k(   12) = (   0.6666667  -0.0000000   0.6666667), wk =   0.0555556
        k(   13) = (   0.0000000  -1.0000000   0.0000000), wk =   0.0277778
        k(   14) = (   0.6666667  -0.3333333   1.0000000), wk =   0.1111111
        k(   15) = (   0.5000000  -0.1666667   0.8333333), wk =   0.1111111
        k(   16) = (  -0.3333333  -1.0000000   0.0000000), wk =   0.1111111
        k(   17) = (  -0.1666667  -0.1666667  -0.1666667), wk =   0.0185185
        k(   18) = (  -0.3333333  -0.3333333  -0.3333333), wk =   0.0185185
        k(   19) = (   0.5000000   0.5000000   0.5000000), wk =   0.0092593
        k(   20) = (   0.5000000   0.1666667  -0.1666667), wk =   0.1111111
        k(   21) = (  -0.5000000  -0.1666667  -0.1666667), wk =   0.0555556
        k(   22) = (  -0.3333333  -0.6666667   0.6666667), wk =   0.1111111
        k(   23) = (   0.3333333   0.6666667   0.6666667), wk =   0.0555556
        k(   24) = (  -0.1666667  -0.5000000   0.5000000), wk =   0.1111111
        k(   25) = (   0.1666667   0.5000000   0.5000000), wk =   0.0555556
        k(   26) = (   0.0000000  -0.3333333   0.3333333), wk =   0.0555556
        k(   27) = (  -0.1666667  -0.8333333   0.8333333), wk =   0.1111111
        k(   28) = (   0.1666667   0.8333333   0.8333333), wk =   0.0555556
        k(   29) = (   0.0000000  -0.6666667   0.6666667), wk =   0.0555556
        k(   30) = (  -0.3333333  -0.6666667   1.0000000), wk =   0.1111111
        k(   31) = (   0.1666667   0.5000000   0.8333333), wk =   0.0555556
        k(   32) = (  -0.8333333  -0.1666667   0.5000000), wk =   0.0555556

     Dense  grid:    34015 G-vectors     FFT dimensions: (  45,  45,  45)

     Smooth grid:     4645 G-vectors     FFT dimensions: (  24,  24,  24)

     Estimated max dynamical RAM per process >       5.50 MB

     Estimated total dynamical RAM >      55.01 MB

     Initial potential from superposition of free atoms

     starting charge       7.9999, renormalised to       8.0000
     Starting wfcs are    8 randomized atomic wfcs

     total cpu time spent up to now is        0.2 secs

     Self-consistent Calculation

     iteration #  1     ecut=    60.00 Ry     beta= 0.70
     CG style diagonalization
     ethr =  1.00E-02,  avg # of iterations =  3.0

     total cpu time spent up to now is        0.3 secs

     total energy              =     -23.03982059 Ry
     estimated scf accuracy    <       0.14099240 Ry

     iteration #  2     ecut=    60.00 Ry     beta= 0.70
     CG style diagonalization
     ethr =  1.76E-03,  avg # of iterations =  3.6

     total cpu time spent up to now is        0.4 secs

     total energy              =     -23.05644121 Ry
     estimated scf accuracy    <       0.00144232 Ry

     iteration #  3     ecut=    60.00 Ry     beta= 0.70
     CG style diagonalization
     ethr =  1.80E-05,  avg # of iterations =  4.0

     total cpu time spent up to now is        0.5 secs

     total energy              =     -23.05692916 Ry
     estimated scf accuracy    <       0.00004977 Ry

     iteration #  4     ecut=    60.00 Ry     beta= 0.70
     CG style diagonalization
     ethr =  6.22E-07,  avg # of iterations =  4.1

     total cpu time spent up to now is        0.6 secs

     total energy              =     -23.05694733 Ry
     estimated scf accuracy    <       0.00000257 Ry

     iteration #  5     ecut=    60.00 Ry     beta= 0.70
     CG style diagonalization
     ethr =  3.21E-08,  avg # of iterations =  4.0

     total cpu time spent up to now is        0.7 secs

     total energy              =     -23.05694823 Ry
     estimated scf accuracy    <       0.00000003 Ry

     iteration #  6     ecut=    60.00 Ry     beta= 0.70
     CG style diagonalization
     ethr =  4.29E-10,  avg # of iterations =  4.5

     total cpu time spent up to now is        0.8 secs

     End of self-consistent calculation

          k = 0.0000 0.0000 0.0000 (   561 PWs)   bands (ev):

    -8.0889  13.5032  13.6205  13.6205

          k =-0.1667 0.1667-0.1667 (   576 PWs)   bands (ev):

    -7.3094   9.7995  12.4799  12.5683

          k =-0.3333 0.3333-0.3333 (   589 PWs)   bands (ev):

    -5.0155   4.1072  11.1644  11.2471

          k = 0.5000-0.5000 0.5000 (   580 PWs)   bands (ev):

    -2.1002  -0.0653  10.6766  10.7592

          k = 0.0000 0.3333 0.0000 (   572 PWs)   bands (ev):

    -7.0504  10.9135  10.9578  11.4104

          k =-0.1667 0.5000-0.1667 (   591 PWs)   bands (ev):

    -5.2612   6.3116   9.6704  10.0984

          k = 0.6667-0.3333 0.6667 (   588 PWs)   bands (ev):

    -2.1873   1.3962   8.5062   9.5448

          k = 0.5000-0.1667 0.5000 (   583 PWs)   bands (ev):

    -3.3026   2.9225   7.7994  10.5816

          k = 0.3333 0.0000 0.3333 (   580 PWs)   bands (ev):

    -6.0244   7.8483   8.6619  12.2075

          k = 0.0000 0.6667 0.0000 (   576 PWs)   bands (ev):

    -3.9987   6.4678   8.1220   8.1489

          k = 0.8333-0.1667 0.8333 (   588 PWs)   bands (ev):

    -1.3562   3.4047   5.6898   7.8177

          k = 0.6667-0.0000 0.6667 (   578 PWs)   bands (ev):

    -0.4643   2.6061   3.9351   8.7966

          k = 0.0000-1.0000 0.0000 (   588 PWs)   bands (ev):

     0.7755   0.7933   7.1135   7.1379

          k = 0.6667-0.3333 1.0000 (   583 PWs)   bands (ev):

    -3.0368   4.9189   6.0959   8.6398

          k = 0.5000-0.1667 0.8333 (   584 PWs)   bands (ev):

    -0.3109   1.7161   5.6332   7.4916

          k =-0.3333-1.0000 0.0000 (   596 PWs)   bands (ev):

     1.3679   1.3923   5.5298   5.5577

          k =-0.1667-0.1667-0.1667 (   576 PWs)   bands (ev):

    -7.3096   9.7508  12.5552  12.5552

          k =-0.3333-0.3333-0.3333 (   589 PWs)   bands (ev):

    -5.0155   4.0802  11.2220  11.2220

          k = 0.5000 0.5000 0.5000 (   580 PWs)   bands (ev):

    -2.0836  -0.1036  10.7301  10.7301

          k = 0.5000 0.1667-0.1667 (   591 PWs)   bands (ev):

    -5.2613   6.3033   9.6289  10.1556

          k =-0.5000-0.1667-0.1667 (   591 PWs)   bands (ev):

    -5.2614   6.2708   9.6600  10.1622

          k =-0.3333-0.6667 0.6667 (   588 PWs)   bands (ev):

    -2.1870   1.3938   8.5502   9.5015

          k = 0.3333 0.6667 0.6667 (   588 PWs)   bands (ev):

    -2.1803   1.3637   8.5505   9.5295

          k =-0.1667-0.5000 0.5000 (   583 PWs)   bands (ev):

    -3.3028   2.9253   7.8353  10.5304

          k = 0.1667 0.5000 0.5000 (   583 PWs)   bands (ev):

    -3.3011   2.8967   7.8355  10.5680

          k = 0.0000-0.3333 0.3333 (   580 PWs)   bands (ev):

    -6.0241   7.8919   8.6565  12.1481

          k =-0.1667-0.8333 0.8333 (   588 PWs)   bands (ev):

    -1.3556   3.3873   5.7344   7.7891

          k = 0.1667 0.8333 0.8333 (   588 PWs)   bands (ev):

    -1.3531   3.3679   5.7295   7.8144

          k = 0.0000-0.6667 0.6667 (   578 PWs)   bands (ev):

    -0.4720   2.6305   3.9434   8.7642

          k =-0.3333-0.6667 1.0000 (   583 PWs)   bands (ev):

    -3.0362   4.8848   6.0980   8.6794

          k = 0.1667 0.5000 0.8333 (   584 PWs)   bands (ev):

    -0.2923   1.6691   5.6603   7.4956

          k =-0.8333-0.1667 0.5000 (   584 PWs)   bands (ev):

    -0.3118   1.7138   5.6750   7.4494

     highest occupied level (ev):    13.6205

!    total energy              =     -23.05694826 Ry
     estimated scf accuracy    <          3.7E-10 Ry

     The total energy is the sum of the following terms:
     one-electron contribution =       8.24513859 Ry
     hartree contribution      =       1.89227303 Ry
     xc contribution           =      -7.38939978 Ry
     ewald contribution        =     -25.80496010 Ry

     convergence has been achieved in   6 iterations

     Forces acting on atoms (cartesian axes, Ry/au):

     atom    1 type  1   force =    -0.00377967   -0.00377967   -0.00377967
     atom    2 type  1   force =     0.00377967    0.00377967    0.00377967

     Total force =     0.009258     Total SCF correction =     0.000001


     Computing stress (Cartesian axis) and pressure

          total   stress  (Ry/bohr**3)                   (kbar)     P=       -8.22
  -0.00005588   0.00001015   0.00001015           -8.22        1.49        1.49
   0.00001015  -0.00005588   0.00001015            1.49       -8.22        1.49
   0.00001015   0.00001015  -0.00005588            1.49        1.49       -8.22


     Writing all to output data dir ./Diamond_k6.save/ :
     XML data file, charge density, pseudopotentials, collected wavefunctions
 
     init_run     :      0.08s CPU      0.15s WALL (       1 calls)
     electrons    :      0.48s CPU      0.54s WALL (       1 calls)
     forces       :      0.01s CPU      0.01s WALL (       1 calls)
     stress       :      0.03s CPU      0.03s WALL (       1 calls)

     Called by init_run:
     wfcinit      :      0.03s CPU      0.05s WALL (       1 calls)
     potinit      :      0.01s CPU      0.01s WALL (       1 calls)
     hinit0       :      0.03s CPU      0.05s WALL (       1 calls)

     Called by electrons:
     c_bands      :      0.40s CPU      0.45s WALL (       6 calls)
     sum_band     :      0.05s CPU      0.05s WALL (       6 calls)
     v_of_rho     :      0.01s CPU      0.01s WALL (       7 calls)
     newd         :      0.01s CPU      0.02s WALL (       7 calls)
     mix_rho      :      0.00s CPU      0.01s WALL (       6 calls)

     Called by c_bands:
     init_us_2    :      0.01s CPU      0.01s WALL (     480 calls)
     init_us_2:cp :      0.01s CPU      0.01s WALL (     480 calls)
     ccgdiagg     :      0.35s CPU      0.38s WALL (     192 calls)
     wfcrot       :      0.07s CPU      0.10s WALL (     192 calls)

     Called by *cgdiagg:
     h_psi        :      0.22s CPU      0.25s WALL (    2511 calls)
     s_psi        :      0.01s CPU      0.01s WALL (    4830 calls)

     Called by h_psi:
     h_psi:calbec :      0.04s CPU      0.04s WALL (    2511 calls)
     vloc_psi     :      0.16s CPU      0.18s WALL (    2511 calls)
     add_vuspsi   :      0.01s CPU      0.01s WALL (    2511 calls)
     hs_1psi      :      0.19s CPU      0.21s WALL (    2319 calls)
     s_1psi       :      0.04s CPU      0.05s WALL (    2319 calls)

     General routines
     calbec       :      0.07s CPU      0.08s WALL (    5182 calls)
     fft          :      0.01s CPU      0.03s WALL (      48 calls)
     ffts         :      0.00s CPU      0.00s WALL (      13 calls)
     fftw         :      0.14s CPU      0.15s WALL (    7198 calls)
     interpolate  :      0.00s CPU      0.01s WALL (       7 calls)
 
     Parallel routines
 
     PWSCF        :      0.66s CPU      1.01s WALL

 
   This run was terminated on:  21:52:49  20Oct2025            

=------------------------------------------------------------------------------=
   JOB DONE.
=------------------------------------------------------------------------------=
TACC:  Shutdown complete. Exiting. 
