TACC:  Starting up job 2475503 
TACC:  Starting parallel tasks... 

     Program PWSCF v.7.3 starts on 17Oct2025 at 23:26:39 

     This program is part of the open-source Quantum ESPRESSO suite
     for quantum simulation of materials; please cite
         "P. Giannozzi et al., J. Phys.:Condens. Matter 21 395502 (2009);
         "P. Giannozzi et al., J. Phys.:Condens. Matter 29 465901 (2017);
         "P. Giannozzi et al., J. Chem. Phys. 152 154105 (2020);
          URL http://www.quantum-espresso.org", 
     in publications or presentations arising from this work. More details at
     http://www.quantum-espresso.org/quote

     Parallel version (MPI & OpenMP), running on       4 processor cores
     Number of MPI processes:                 4
     Threads/MPI process:                     1

     MPI processes distributed on     1 nodes
     186267 MiB available memory on the printing compute node when the environment starts
 
     Waiting for input...
     Reading input from standard input
Warning: card &IONS ignored
Warning: card  ION_DYNAMICS='BFGS', ignored
Warning: card / ignored
Warning: card &CELL ignored
Warning: card  CELL_DYNAMICS = 'BFGS', ignored
Warning: card  PRESS=0.D0, ignored
Warning: card / ignored

     Current dimensions of program PWSCF are:
     Max number of different atomic species (ntypx) = 10
     Max number of k-points (npk) =  40000
     Max angular momentum in pseudopotentials (lmaxx) =  4

     Atomic positions and unit cell read from directory:
     ./Si_bands.save/
 
 
     R & G space division:  proc/nbgrp/npool/nimage =       4
     Subspace diagonalization in iterative solution of the eigenvalue problem:
     a serial algorithm will be used

 
     Parallelization info
     --------------------
     sticks:   dense  smooth     PW     G-vecs:    dense   smooth      PW
     Min         267      70     27                 5821      784     186
     Max         268      71     28                 5825      787     189
     Sum        1069     283    109                23289     3143     749
 
     Using Slab Decomposition
 


     bravais-lattice index     =            2
     lattice parameter (alat)  =      10.2000  a.u.
     unit-cell volume          =     265.3020 (a.u.)^3
     number of atoms/cell      =            2
     number of atomic types    =            1
     number of electrons       =         8.00
     number of Kohn-Sham states=            8
     kinetic-energy cutoff     =      20.0000  Ry
     charge density cutoff     =     300.0000  Ry
     Exchange-correlation= SLA  PZ   NOGX NOGC
                           (   1   1   0   0   0   0   0)

     celldm(1)=  10.200000  celldm(2)=   0.000000  celldm(3)=   0.000000
     celldm(4)=   0.000000  celldm(5)=   0.000000  celldm(6)=   0.000000

     crystal axes: (cart. coord. in units of alat)
               a(1) = (  -0.500000   0.000000   0.500000 )  
               a(2) = (   0.000000   0.500000   0.500000 )  
               a(3) = (  -0.500000   0.500000   0.000000 )  

     reciprocal axes: (cart. coord. in units 2 pi/alat)
               b(1) = ( -1.000000 -1.000000  1.000000 )  
               b(2) = (  1.000000  1.000000  1.000000 )  
               b(3) = ( -1.000000  1.000000 -1.000000 )  


     PseudoPot. # 1 for Si read from file:
     /scratch/11018/zhc/Assisgnment2/Q1/1A/band_cal/Si_LDA.UPF
     MD5 check sum: b5ade7b37ee992b02096e360e546dc2d
     Pseudo is Ultrasoft + core correction, Zval =  4.0
     Generated by new atomic code, or converted to UPF format
     Using radial grid of  899 points,  6 beta functions with: 
                l(1) =   0
                l(2) =   0
                l(3) =   1
                l(4) =   1
                l(5) =   2
                l(6) =   2
     Q(r) pseudized with  8 coefficients,  rinner =    0.900   0.900   0.900
                                                       0.900   0.900

     atomic species   valence    mass     pseudopotential
     Si                4.00    28.08550     Si( 1.00)

     48 Sym. Ops., with inversion, found (24 have fractional translation)



   Cartesian axes

     site n.     atom                  positions (alat units)
         1        Si     tau(   1) = (   0.0000000   0.0000000   0.0000000  )
         2        Si     tau(   2) = (  -0.2500000   0.2500000   0.2500000  )

     number of k points=    41
                       cart. coord. in units 2pi/alat
        k(    1) = (  -0.5000000   0.5000000   0.5000000), wk =   0.0487805
        k(    2) = (  -0.4750000   0.4750000   0.4750000), wk =   0.0487805
        k(    3) = (  -0.4500000   0.4500000   0.4500000), wk =   0.0487805
        k(    4) = (  -0.4250000   0.4250000   0.4250000), wk =   0.0487805
        k(    5) = (  -0.4000000   0.4000000   0.4000000), wk =   0.0487805
        k(    6) = (  -0.3750000   0.3750000   0.3750000), wk =   0.0487805
        k(    7) = (  -0.3500000   0.3500000   0.3500000), wk =   0.0487805
        k(    8) = (  -0.3250000   0.3250000   0.3250000), wk =   0.0487805
        k(    9) = (  -0.3000000   0.3000000   0.3000000), wk =   0.0487805
        k(   10) = (  -0.2750000   0.2750000   0.2750000), wk =   0.0487805
        k(   11) = (  -0.2500000   0.2500000   0.2500000), wk =   0.0487805
        k(   12) = (  -0.2250000   0.2250000   0.2250000), wk =   0.0487805
        k(   13) = (  -0.2000000   0.2000000   0.2000000), wk =   0.0487805
        k(   14) = (  -0.1750000   0.1750000   0.1750000), wk =   0.0487805
        k(   15) = (  -0.1500000   0.1500000   0.1500000), wk =   0.0487805
        k(   16) = (  -0.1250000   0.1250000   0.1250000), wk =   0.0487805
        k(   17) = (  -0.1000000   0.1000000   0.1000000), wk =   0.0487805
        k(   18) = (  -0.0750000   0.0750000   0.0750000), wk =   0.0487805
        k(   19) = (  -0.0500000   0.0500000   0.0500000), wk =   0.0487805
        k(   20) = (  -0.0250000   0.0250000   0.0250000), wk =   0.0487805
        k(   21) = (   0.0000000   0.0000000   0.0000000), wk =   0.0487805
        k(   22) = (  -0.0500000  -0.0500000   0.0500000), wk =   0.0487805
        k(   23) = (  -0.1000000  -0.1000000   0.1000000), wk =   0.0487805
        k(   24) = (  -0.1500000  -0.1500000   0.1500000), wk =   0.0487805
        k(   25) = (  -0.2000000  -0.2000000   0.2000000), wk =   0.0487805
        k(   26) = (  -0.2500000  -0.2500000   0.2500000), wk =   0.0487805
        k(   27) = (  -0.3000000  -0.3000000   0.3000000), wk =   0.0487805
        k(   28) = (  -0.3500000  -0.3500000   0.3500000), wk =   0.0487805
        k(   29) = (  -0.4000000  -0.4000000   0.4000000), wk =   0.0487805
        k(   30) = (  -0.4500000  -0.4500000   0.4500000), wk =   0.0487805
        k(   31) = (  -0.5000000  -0.5000000   0.5000000), wk =   0.0487805
        k(   32) = (  -0.5500000  -0.5500000   0.5500000), wk =   0.0487805
        k(   33) = (  -0.6000000  -0.6000000   0.6000000), wk =   0.0487805
        k(   34) = (  -0.6500000  -0.6500000   0.6500000), wk =   0.0487805
        k(   35) = (  -0.7000000  -0.7000000   0.7000000), wk =   0.0487805
        k(   36) = (  -0.7500000  -0.7500000   0.7500000), wk =   0.0487805
        k(   37) = (  -0.8000000  -0.8000000   0.8000000), wk =   0.0487805
        k(   38) = (  -0.8500000  -0.8500000   0.8500000), wk =   0.0487805
        k(   39) = (  -0.9000000  -0.9000000   0.9000000), wk =   0.0487805
        k(   40) = (  -0.9500000  -0.9500000   0.9500000), wk =   0.0487805
        k(   41) = (  -1.0000000  -1.0000000   1.0000000), wk =   0.0487805

     Dense  grid:    23289 G-vectors     FFT dimensions: (  40,  40,  40)

     Smooth grid:     3143 G-vectors     FFT dimensions: (  24,  24,  24)

     Estimated max dynamical RAM per process >      20.01 MB

     Estimated total dynamical RAM >      80.03 MB

     The potential is recalculated from file :
     ./Si_bands.save/charge-density

     Starting wfcs are    8 randomized atomic wfcs

     Band Structure Calculation
     CG style diagonalization

     ethr =  1.25E-10,  avg # of iterations = 18.2

     total cpu time spent up to now is        1.2 secs

     End of band structure calculation

          k =-0.5000 0.5000 0.5000 (   392 PWs)   bands (ev):

    -3.5054  -0.8800   4.9878   4.9878   7.6912   9.4955   9.4955  13.7477

          k =-0.4750 0.4750 0.4750 (   401 PWs)   bands (ev):

    -3.5430  -0.8275   4.9920   4.9920   7.6963   9.5008   9.5008  13.7562

          k =-0.4500 0.4500 0.4500 (   401 PWs)   bands (ev):

    -3.6455  -0.6780   5.0055   5.0055   7.7119   9.5170   9.5170  13.7815

          k =-0.4250 0.4250 0.4250 (   401 PWs)   bands (ev):

    -3.7952  -0.4504   5.0280   5.0280   7.7379   9.5426   9.5426  13.8214

          k =-0.4000 0.4000 0.4000 (   407 PWs)   bands (ev):

    -3.9730  -0.1638   5.0594   5.0594   7.7723   9.5757   9.5757  13.8715

          k =-0.3750 0.3750 0.3750 (   407 PWs)   bands (ev):

    -4.1644   0.1672   5.0998   5.0998   7.8184   9.6134   9.6134  13.9234

          k =-0.3500 0.3500 0.3500 (   401 PWs)   bands (ev):

    -4.3594   0.5324   5.1490   5.1490   7.8752   9.6517   9.6517  13.9569

          k =-0.3250 0.3250 0.3250 (   401 PWs)   bands (ev):

    -4.5517   0.9245   5.2068   5.2068   7.9407   9.6848   9.6848  13.9284

          k =-0.3000 0.3000 0.3000 (   401 PWs)   bands (ev):

    -4.7371   1.3388   5.2731   5.2731   8.0151   9.7062   9.7062  13.7736

          k =-0.2750 0.2750 0.2750 (   395 PWs)   bands (ev):

    -4.9126   1.7719   5.3473   5.3473   8.0978   9.7086   9.7086  13.4810

          k =-0.2500 0.2500 0.2500 (   395 PWs)   bands (ev):

    -5.0763   2.2200   5.4291   5.4291   8.1878   9.6852   9.6852  13.1052

          k =-0.2250 0.2250 0.2250 (   392 PWs)   bands (ev):

    -5.2269   2.6809   5.5174   5.5174   8.2850   9.6313   9.6313  12.6903

          k =-0.2000 0.2000 0.2000 (   386 PWs)   bands (ev):

    -5.3632   3.1513   5.6113   5.6113   8.3848   9.5468   9.5468  12.2567

          k =-0.1750 0.1750 0.1750 (   387 PWs)   bands (ev):

    -5.4849   3.6278   5.7090   5.7090   8.4857   9.4357   9.4357  11.8141

          k =-0.1500 0.1500 0.1500 (   396 PWs)   bands (ev):

    -5.5913   4.1059   5.8079   5.8079   8.5838   9.3058   9.3058  11.3682

          k =-0.1250 0.1250 0.1250 (   390 PWs)   bands (ev):

    -5.6815   4.5796   5.9057   5.9057   8.6747   9.1687   9.1687  10.9302

          k =-0.1000 0.1000 0.1000 (   396 PWs)   bands (ev):

    -5.7561   5.0388   5.9977   5.9977   8.7486   9.0346   9.0346  10.5105

          k =-0.0750 0.0750 0.0750 (   405 PWs)   bands (ev):

    -5.8144   5.4673   6.0790   6.0790   8.7940   8.9147   8.9147  10.1324

          k =-0.0500 0.0500 0.0500 (   405 PWs)   bands (ev):

    -5.8560   5.8373   6.1439   6.1439   8.7975   8.8195   8.8195   9.8336

          k =-0.0250 0.0250 0.0250 (   411 PWs)   bands (ev):

    -5.8810   6.1016   6.1858   6.1858   8.7579   8.7579   8.7618   9.6502

          k = 0.0000 0.0000 0.0000 (   411 PWs)   bands (ev):

    -5.8894   6.2004   6.2004   6.2004   8.7367   8.7367   8.7367   9.5927

          k =-0.0500-0.0500 0.0500 (   405 PWs)   bands (ev):

    -5.8560   5.8373   6.1439   6.1439   8.7975   8.8195   8.8195   9.8336

          k =-0.1000-0.1000 0.1000 (   396 PWs)   bands (ev):

    -5.7561   5.0388   5.9977   5.9977   8.7486   9.0346   9.0346  10.5105

          k =-0.1500-0.1500 0.1500 (   396 PWs)   bands (ev):

    -5.5913   4.1059   5.8079   5.8079   8.5838   9.3058   9.3058  11.3682

          k =-0.2000-0.2000 0.2000 (   386 PWs)   bands (ev):

    -5.3632   3.1513   5.6113   5.6113   8.3848   9.5468   9.5468  12.2567

          k =-0.2500-0.2500 0.2500 (   395 PWs)   bands (ev):

    -5.0763   2.2200   5.4291   5.4291   8.1878   9.6852   9.6852  13.1052

          k =-0.3000-0.3000 0.3000 (   401 PWs)   bands (ev):

    -4.7371   1.3388   5.2731   5.2731   8.0151   9.7062   9.7062  13.7736

          k =-0.3500-0.3500 0.3500 (   401 PWs)   bands (ev):

    -4.3594   0.5324   5.1490   5.1490   7.8752   9.6517   9.6517  13.9569

          k =-0.4000-0.4000 0.4000 (   407 PWs)   bands (ev):

    -3.9730  -0.1638   5.0594   5.0594   7.7723   9.5757   9.5757  13.8715

          k =-0.4500-0.4500 0.4500 (   401 PWs)   bands (ev):

    -3.6455  -0.6780   5.0055   5.0055   7.7119   9.5170   9.5170  13.7815

          k =-0.5000-0.5000 0.5000 (   392 PWs)   bands (ev):

    -3.5054  -0.8800   4.9878   4.9878   7.6912   9.4955   9.4955  13.7477

          k =-0.5500-0.5500 0.5500 (   401 PWs)   bands (ev):

    -3.6455  -0.6780   5.0055   5.0055   7.7119   9.5170   9.5170  13.7815

          k =-0.6000-0.6000 0.6000 (   407 PWs)   bands (ev):

    -3.9730  -0.1638   5.0594   5.0594   7.7723   9.5757   9.5757  13.8715

          k =-0.6500-0.6500 0.6500 (   401 PWs)   bands (ev):

    -4.3594   0.5324   5.1490   5.1490   7.8752   9.6517   9.6517  13.9569

          k =-0.7000-0.7000 0.7000 (   401 PWs)   bands (ev):

    -4.7371   1.3388   5.2731   5.2731   8.0151   9.7062   9.7062  13.7736

          k =-0.7500-0.7500 0.7500 (   395 PWs)   bands (ev):

    -5.0763   2.2200   5.4291   5.4291   8.1878   9.6852   9.6852  13.1052

          k =-0.8000-0.8000 0.8000 (   386 PWs)   bands (ev):

    -5.3632   3.1513   5.6113   5.6113   8.3848   9.5468   9.5468  12.2567

          k =-0.8500-0.8500 0.8500 (   396 PWs)   bands (ev):

    -5.5913   4.1059   5.8079   5.8079   8.5838   9.3058   9.3058  11.3682

          k =-0.9000-0.9000 0.9000 (   396 PWs)   bands (ev):

    -5.7561   5.0388   5.9977   5.9977   8.7486   9.0346   9.0346  10.5105

          k =-0.9500-0.9500 0.9500 (   405 PWs)   bands (ev):

    -5.8560   5.8373   6.1439   6.1439   8.7975   8.8195   8.8195   9.8336

          k =-1.0000-1.0000 1.0000 (   411 PWs)   bands (ev):

    -5.8894   6.2004   6.2004   6.2004   8.7367   8.7367   8.7367   9.5927

     Writing all to output data dir ./Si_bands.save/ :
     XML data file, pseudopotentials, collected wavefunctions
 
     init_run     :      0.10s CPU      0.14s WALL (       1 calls)
     electrons    :      0.87s CPU      0.96s WALL (       1 calls)

     Called by init_run:
     wfcinit      :      0.00s CPU      0.00s WALL (       1 calls)
     potinit      :      0.00s CPU      0.02s WALL (       1 calls)
     hinit0       :      0.06s CPU      0.07s WALL (       1 calls)

     Called by electrons:
     c_bands      :      0.87s CPU      0.96s WALL (       1 calls)
     v_of_rho     :      0.00s CPU      0.00s WALL (       1 calls)
     newd         :      0.01s CPU      0.02s WALL (       1 calls)

     Called by c_bands:
     init_us_2    :      0.00s CPU      0.00s WALL (      41 calls)
     init_us_2:cp :      0.00s CPU      0.00s WALL (      41 calls)
     ccgdiagg     :      0.82s CPU      0.90s WALL (      77 calls)
     wfcrot       :      0.05s CPU      0.05s WALL (      77 calls)

     Called by *cgdiagg:
     h_psi        :      0.47s CPU      0.52s WALL (    5720 calls)
     s_psi        :      0.05s CPU      0.05s WALL (   11363 calls)

     Called by h_psi:
     h_psi:calbec :      0.07s CPU      0.08s WALL (    5720 calls)
     vloc_psi     :      0.34s CPU      0.37s WALL (    5720 calls)
     add_vuspsi   :      0.03s CPU      0.03s WALL (    5720 calls)
     hs_1psi      :      0.50s CPU      0.55s WALL (    5643 calls)
     s_1psi       :      0.11s CPU      0.12s WALL (    5643 calls)

     General routines
     calbec       :      0.11s CPU      0.12s WALL (   11363 calls)
     fft          :      0.00s CPU      0.00s WALL (       6 calls)
     ffts         :      0.00s CPU      0.00s WALL (       1 calls)
     fftw         :      0.22s CPU      0.25s WALL (   12518 calls)
     interpolate  :      0.00s CPU      0.00s WALL (       1 calls)
     davcio       :      0.00s CPU      0.00s WALL (      82 calls)
 
     Parallel routines
 
     PWSCF        :      1.09s CPU      1.47s WALL

 
   This run was terminated on:  23:26:41  17Oct2025            

=------------------------------------------------------------------------------=
   JOB DONE.
=------------------------------------------------------------------------------=
TACC:  Shutdown complete. Exiting. 
