TACC:  Starting up job 2475503 
TACC:  Starting parallel tasks... 

     Program PWSCF v.7.3 starts on 17Oct2025 at 23:26:36 

     This program is part of the open-source Quantum ESPRESSO suite
     for quantum simulation of materials; please cite
         "P. Giannozzi et al., J. Phys.:Condens. Matter 21 395502 (2009);
         "P. Giannozzi et al., J. Phys.:Condens. Matter 29 465901 (2017);
         "P. Giannozzi et al., J. Chem. Phys. 152 154105 (2020);
          URL http://www.quantum-espresso.org", 
     in publications or presentations arising from this work. More details at
     http://www.quantum-espresso.org/quote

     Parallel version (MPI & OpenMP), running on       4 processor cores
     Number of MPI processes:                 4
     Threads/MPI process:                     1

     MPI processes distributed on     1 nodes
     186282 MiB available memory on the printing compute node when the environment starts
 
     Waiting for input...
     Reading input from standard input
Warning: card &CELL ignored
Warning: card  CELL_DYNAMICS = 'BFGS', ignored
Warning: card  PRESS=0.D0, ignored
Warning: card / ignored

     Current dimensions of program PWSCF are:
     Max number of different atomic species (ntypx) = 10
     Max number of k-points (npk) =  40000
     Max angular momentum in pseudopotentials (lmaxx) =  4
 
     R & G space division:  proc/nbgrp/npool/nimage =       4
     Subspace diagonalization in iterative solution of the eigenvalue problem:
     a serial algorithm will be used

 
     Parallelization info
     --------------------
     sticks:   dense  smooth     PW     G-vecs:    dense   smooth      PW
     Min         267      70     24                 5821      784     161
     Max         268      71     25                 5825      787     162
     Sum        1069     283     97                23289     3143     645
 
     Using Slab Decomposition
 


     bravais-lattice index     =            2
     lattice parameter (alat)  =      10.2000  a.u.
     unit-cell volume          =     265.3020 (a.u.)^3
     number of atoms/cell      =            2
     number of atomic types    =            1
     number of electrons       =         8.00
     number of Kohn-Sham states=            4
     kinetic-energy cutoff     =      20.0000  Ry
     charge density cutoff     =     300.0000  Ry
     scf convergence threshold =      1.0E-08
     mixing beta               =       0.7000
     number of iterations used =            8  plain     mixing
     Exchange-correlation= SLA  PZ   NOGX NOGC
                           (   1   1   0   0   0   0   0)

     celldm(1)=  10.200000  celldm(2)=   0.000000  celldm(3)=   0.000000
     celldm(4)=   0.000000  celldm(5)=   0.000000  celldm(6)=   0.000000

     crystal axes: (cart. coord. in units of alat)
               a(1) = (  -0.500000   0.000000   0.500000 )  
               a(2) = (   0.000000   0.500000   0.500000 )  
               a(3) = (  -0.500000   0.500000   0.000000 )  

     reciprocal axes: (cart. coord. in units 2 pi/alat)
               b(1) = ( -1.000000 -1.000000  1.000000 )  
               b(2) = (  1.000000  1.000000  1.000000 )  
               b(3) = ( -1.000000  1.000000 -1.000000 )  


     PseudoPot. # 1 for Si read from file:
     /scratch/11018/zhc/Assisgnment2/Q1/1A/band_cal/Si_LDA.UPF
     MD5 check sum: b5ade7b37ee992b02096e360e546dc2d
     Pseudo is Ultrasoft + core correction, Zval =  4.0
     Generated by new atomic code, or converted to UPF format
     Using radial grid of  899 points,  6 beta functions with: 
                l(1) =   0
                l(2) =   0
                l(3) =   1
                l(4) =   1
                l(5) =   2
                l(6) =   2
     Q(r) pseudized with  8 coefficients,  rinner =    0.900   0.900   0.900
                                                       0.900   0.900

     atomic species   valence    mass     pseudopotential
     Si                4.00    28.08550     Si( 1.00)

     48 Sym. Ops., with inversion, found (24 have fractional translation)



   Cartesian axes

     site n.     atom                  positions (alat units)
         1        Si     tau(   1) = (   0.0000000   0.0000000   0.0000000  )
         2        Si     tau(   2) = (  -0.2500000   0.2500000   0.2500000  )

     number of k points=    72
                       cart. coord. in units 2pi/alat
        k(    1) = (   0.0000000   0.0000000   0.0000000), wk =   0.0011574
        k(    2) = (  -0.0833333   0.0833333  -0.0833333), wk =   0.0092593
        k(    3) = (  -0.1666667   0.1666667  -0.1666667), wk =   0.0092593
        k(    4) = (  -0.2500000   0.2500000  -0.2500000), wk =   0.0092593
        k(    5) = (  -0.3333333   0.3333333  -0.3333333), wk =   0.0092593
        k(    6) = (  -0.4166667   0.4166667  -0.4166667), wk =   0.0092593
        k(    7) = (   0.5000000  -0.5000000   0.5000000), wk =   0.0046296
        k(    8) = (   0.0000000   0.1666667   0.0000000), wk =   0.0069444
        k(    9) = (  -0.0833333   0.2500000  -0.0833333), wk =   0.0277778
        k(   10) = (  -0.1666667   0.3333333  -0.1666667), wk =   0.0277778
        k(   11) = (  -0.2500000   0.4166667  -0.2500000), wk =   0.0277778
        k(   12) = (  -0.3333333   0.5000000  -0.3333333), wk =   0.0277778
        k(   13) = (   0.5833333  -0.4166667   0.5833333), wk =   0.0277778
        k(   14) = (   0.5000000  -0.3333333   0.5000000), wk =   0.0277778
        k(   15) = (   0.4166667  -0.2500000   0.4166667), wk =   0.0277778
        k(   16) = (   0.3333333  -0.1666667   0.3333333), wk =   0.0277778
        k(   17) = (   0.2500000  -0.0833333   0.2500000), wk =   0.0277778
        k(   18) = (   0.1666667  -0.0000000   0.1666667), wk =   0.0138889
        k(   19) = (   0.0000000   0.3333333   0.0000000), wk =   0.0069444
        k(   20) = (  -0.0833333   0.4166667  -0.0833333), wk =   0.0277778
        k(   21) = (  -0.1666667   0.5000000  -0.1666667), wk =   0.0277778
        k(   22) = (  -0.2500000   0.5833333  -0.2500000), wk =   0.0277778
        k(   23) = (   0.6666667  -0.3333333   0.6666667), wk =   0.0277778
        k(   24) = (   0.5833333  -0.2500000   0.5833333), wk =   0.0277778
        k(   25) = (   0.5000000  -0.1666667   0.5000000), wk =   0.0277778
        k(   26) = (   0.4166667  -0.0833333   0.4166667), wk =   0.0277778
        k(   27) = (   0.3333333   0.0000000   0.3333333), wk =   0.0138889
        k(   28) = (   0.0000000   0.5000000   0.0000000), wk =   0.0069444
        k(   29) = (  -0.0833333   0.5833333  -0.0833333), wk =   0.0277778
        k(   30) = (  -0.1666667   0.6666667  -0.1666667), wk =   0.0277778
        k(   31) = (   0.7500000  -0.2500000   0.7500000), wk =   0.0277778
        k(   32) = (   0.6666667  -0.1666667   0.6666667), wk =   0.0277778
        k(   33) = (   0.5833333  -0.0833333   0.5833333), wk =   0.0277778
        k(   34) = (   0.5000000   0.0000000   0.5000000), wk =   0.0138889
        k(   35) = (   0.0000000   0.6666667   0.0000000), wk =   0.0069444
        k(   36) = (  -0.0833333   0.7500000  -0.0833333), wk =   0.0277778
        k(   37) = (   0.8333333  -0.1666667   0.8333333), wk =   0.0277778
        k(   38) = (   0.7500000  -0.0833333   0.7500000), wk =   0.0277778
        k(   39) = (   0.6666667  -0.0000000   0.6666667), wk =   0.0138889
        k(   40) = (   0.0000000   0.8333333   0.0000000), wk =   0.0069444
        k(   41) = (   0.9166667  -0.0833333   0.9166667), wk =   0.0277778
        k(   42) = (   0.8333333   0.0000000   0.8333333), wk =   0.0138889
        k(   43) = (   0.0000000  -1.0000000   0.0000000), wk =   0.0034722
        k(   44) = (  -0.1666667   0.3333333   0.0000000), wk =   0.0277778
        k(   45) = (  -0.2500000   0.4166667  -0.0833333), wk =   0.0555556
        k(   46) = (  -0.3333333   0.5000000  -0.1666667), wk =   0.0555556
        k(   47) = (   0.5833333  -0.4166667   0.7500000), wk =   0.0555556
        k(   48) = (   0.5000000  -0.3333333   0.6666667), wk =   0.0277778
        k(   49) = (  -0.1666667   0.5000000   0.0000000), wk =   0.0277778
        k(   50) = (  -0.2500000   0.5833333  -0.0833333), wk =   0.0555556
        k(   51) = (   0.6666667  -0.3333333   0.8333333), wk =   0.0555556
        k(   52) = (   0.5833333  -0.2500000   0.7500000), wk =   0.0555556
        k(   53) = (   0.5000000  -0.1666667   0.6666667), wk =   0.0555556
        k(   54) = (   0.4166667  -0.0833333   0.5833333), wk =   0.0555556
        k(   55) = (   0.3333333   0.0000000   0.5000000), wk =   0.0277778
        k(   56) = (  -0.1666667   0.6666667  -0.0000000), wk =   0.0277778
        k(   57) = (   0.7500000  -0.2500000   0.9166667), wk =   0.0555556
        k(   58) = (   0.6666667  -0.1666667   0.8333333), wk =   0.0555556
        k(   59) = (   0.5833333  -0.0833333   0.7500000), wk =   0.0555556
        k(   60) = (   0.5000000   0.0000000   0.6666667), wk =   0.0277778
        k(   61) = (   0.8333333  -0.1666667   1.0000000), wk =   0.0277778
        k(   62) = (   0.7500000  -0.0833333   0.9166667), wk =   0.0555556
        k(   63) = (   0.6666667   0.0000000   0.8333333), wk =   0.0277778
        k(   64) = (  -0.1666667  -1.0000000  -0.0000000), wk =   0.0138889
        k(   65) = (   0.6666667  -0.3333333   1.0000000), wk =   0.0277778
        k(   66) = (   0.5833333  -0.2500000   0.9166667), wk =   0.0555556
        k(   67) = (   0.5000000  -0.1666667   0.8333333), wk =   0.0277778
        k(   68) = (   0.6666667  -0.1666667   1.0000000), wk =   0.0277778
        k(   69) = (   0.5833333  -0.0833333   0.9166667), wk =   0.0555556
        k(   70) = (   0.5000000   0.0000000   0.8333333), wk =   0.0277778
        k(   71) = (  -0.3333333  -1.0000000   0.0000000), wk =   0.0138889
        k(   72) = (  -0.5000000  -1.0000000   0.0000000), wk =   0.0069444

     Dense  grid:    23289 G-vectors     FFT dimensions: (  40,  40,  40)

     Smooth grid:     3143 G-vectors     FFT dimensions: (  24,  24,  24)

     Estimated max dynamical RAM per process >      23.23 MB

     Estimated total dynamical RAM >      92.91 MB

     Initial potential from superposition of free atoms

     starting charge       7.9988, renormalised to       8.0000
     Starting wfcs are    8 randomized atomic wfcs

     total cpu time spent up to now is        0.3 secs

     Self-consistent Calculation

     iteration #  1     ecut=    20.00 Ry     beta= 0.70
     CG style diagonalization
     ethr =  1.00E-02,  avg # of iterations =  3.0

     Threshold (ethr) on eigenvalues was too large:
     Diagonalizing with lowered threshold

     CG style diagonalization
     ethr =  7.32E-04,  avg # of iterations =  2.0

     total cpu time spent up to now is        0.7 secs

     total energy              =     -19.25619627 Ry
     estimated scf accuracy    <       0.05937524 Ry

     iteration #  2     ecut=    20.00 Ry     beta= 0.70
     CG style diagonalization
     ethr =  7.42E-04,  avg # of iterations =  3.0

     total cpu time spent up to now is        0.8 secs

     total energy              =     -19.25915847 Ry
     estimated scf accuracy    <       0.00196294 Ry

     iteration #  3     ecut=    20.00 Ry     beta= 0.70
     CG style diagonalization
     ethr =  2.45E-05,  avg # of iterations =  4.0

     total cpu time spent up to now is        1.0 secs

     total energy              =     -19.25970357 Ry
     estimated scf accuracy    <       0.00006791 Ry

     iteration #  4     ecut=    20.00 Ry     beta= 0.70
     CG style diagonalization
     ethr =  8.49E-07,  avg # of iterations =  4.1

     total cpu time spent up to now is        1.2 secs

     total energy              =     -19.25972924 Ry
     estimated scf accuracy    <       0.00001082 Ry

     iteration #  5     ecut=    20.00 Ry     beta= 0.70
     CG style diagonalization
     ethr =  1.35E-07,  avg # of iterations =  3.9

     total cpu time spent up to now is        1.5 secs

     total energy              =     -19.25973111 Ry
     estimated scf accuracy    <       0.00000007 Ry

     iteration #  6     ecut=    20.00 Ry     beta= 0.70
     CG style diagonalization
     ethr =  8.45E-10,  avg # of iterations =  4.9

     total cpu time spent up to now is        1.7 secs

     End of self-consistent calculation

          k = 0.0000 0.0000 0.0000 (   411 PWs)   bands (ev):

    -5.8895   6.2002   6.2002   6.2002

          k =-0.0833 0.0833-0.0833 (   402 PWs)   bands (ev):

    -5.7969   5.3291   6.0534   6.0534

          k =-0.1667 0.1667-0.1667 (   387 PWs)   bands (ev):

    -5.5222   3.7871   5.7419   5.7419

          k =-0.2500 0.2500-0.2500 (   395 PWs)   bands (ev):

    -5.0765   2.2199   5.4289   5.4289

          k =-0.3333 0.3333-0.3333 (   401 PWs)   bands (ev):

    -4.4883   0.7910   5.1864   5.1864

          k =-0.4167 0.4167-0.4167 (   404 PWs)   bands (ev):

    -3.8523  -0.3608   5.0373   5.0373

          k = 0.5000-0.5000 0.5000 (   392 PWs)   bands (ev):

    -3.5056  -0.8801   4.9876   4.9876

          k = 0.0000 0.1667 0.0000 (   399 PWs)   bands (ev):

    -5.7659   5.5062   5.7585   5.7585

          k =-0.0833 0.2500-0.0833 (   390 PWs)   bands (ev):

    -5.5514   4.2527   5.3878   5.5862

          k =-0.1667 0.3333-0.1667 (   390 PWs)   bands (ev):

    -5.1612   2.7292   5.0711   5.2565

          k =-0.2500 0.4167-0.2500 (   399 PWs)   bands (ev):

    -4.6156   1.2704   4.8599   4.8974

          k =-0.3333 0.5000-0.3333 (   406 PWs)   bands (ev):

    -3.9762   0.0177   4.5965   4.7711

          k = 0.5833-0.4167 0.5833 (   401 PWs)   bands (ev):

    -3.4696  -0.7715   4.3880   4.8047

          k = 0.5000-0.3333 0.5000 (   402 PWs)   bands (ev):

    -3.5949  -0.5885   4.2892   4.9516

          k = 0.4167-0.2500 0.4167 (   403 PWs)   bands (ev):

    -4.1932   0.4053   4.3144   5.1957

          k = 0.3333-0.1667 0.3333 (   396 PWs)   bands (ev):

    -4.8135   1.7424   4.4738   5.5107

          k = 0.2500-0.0833 0.2500 (   389 PWs)   bands (ev):

    -5.3107   3.2239   4.7798   5.8451

          k = 0.1667-0.0000 0.1667 (   385 PWs)   bands (ev):

    -5.6433   4.5957   5.3109   6.0836

          k = 0.0000 0.3333 0.0000 (   399 PWs)   bands (ev):

    -5.3978   4.1579   4.9808   4.9808

          k =-0.0833 0.4167-0.0833 (   397 PWs)   bands (ev):

    -5.0653   3.0541   4.6284   4.6417

          k =-0.1667 0.5000-0.1667 (   398 PWs)   bands (ev):

    -4.5688   1.7205   4.1660   4.4211

          k =-0.2500 0.5833-0.2500 (   400 PWs)   bands (ev):

    -3.9486   0.4623   3.7184   4.3377

          k = 0.6667-0.3333 0.6667 (   403 PWs)   bands (ev):

    -3.3492  -0.4940   3.3670   4.3941

          k = 0.5833-0.2500 0.5833 (   398 PWs)   bands (ev):

    -3.2302  -0.6590   3.1476   4.5827

          k = 0.5000-0.1667 0.5000 (   404 PWs)   bands (ev):

    -3.7449   0.1196   3.0863   4.8841

          k = 0.4167-0.0833 0.4167 (   402 PWs)   bands (ev):

    -4.3829   1.2904   3.2274   5.2597

          k = 0.3333 0.0000 0.3333 (   397 PWs)   bands (ev):

    -4.9244   2.4513   3.7229   5.6310

          k = 0.0000 0.5000 0.0000 (   415 PWs)   bands (ev):

    -4.7910   2.6701   4.2730   4.2730

          k =-0.0833 0.5833-0.0833 (   407 PWs)   bands (ev):

    -4.3469   1.7490   3.7931   4.0237

          k =-0.1667 0.6667-0.1667 (   402 PWs)   bands (ev):

    -3.7609   0.7026   3.1421   3.9160

          k = 0.7500-0.2500 0.7500 (   404 PWs)   bands (ev):

    -3.1224  -0.2443   2.5827   3.9563

          k = 0.6667-0.1667 0.6667 (   401 PWs)   bands (ev):

    -2.7869  -0.6723   2.2107   4.1405

          k = 0.5833-0.0833 0.5833 (   401 PWs)   bands (ev):

    -3.1736  -0.1644   2.0845   4.4517

          k = 0.5000 0.0000 0.5000 (   407 PWs)   bands (ev):

    -3.8100   0.6742   2.3505   4.8521

          k = 0.0000 0.6667 0.0000 (   399 PWs)   bands (ev):

    -3.9551   1.1631   3.7383   3.7383

          k =-0.0833 0.7500-0.0833 (   405 PWs)   bands (ev):

    -3.4119   0.3677   3.2324   3.5939

          k = 0.8333-0.1667 0.8333 (   402 PWs)   bands (ev):

    -2.7701  -0.4113   2.4763   3.6009

          k = 0.7500-0.0833 0.7500 (   400 PWs)   bands (ev):

    -2.2863  -0.9143   1.8781   3.7577

          k = 0.6667-0.0000 0.6667 (   403 PWs)   bands (ev):

    -2.5630  -0.6259   1.6697   4.0519

          k = 0.0000 0.8333 0.0000 (   404 PWs)   bands (ev):

    -2.9098  -0.3066   3.4088   3.4088

          k = 0.9167-0.0833 0.9167 (   405 PWs)   bands (ev):

    -2.2860  -1.0032   2.9558   3.3748

          k = 0.8333 0.0000 0.8333 (   405 PWs)   bands (ev):

    -1.8160  -1.4157   2.2558   3.4940

          k = 0.0000-1.0000 0.0000 (   388 PWs)   bands (ev):

    -1.6801  -1.6801   3.2979   3.2979

          k =-0.1667 0.3333 0.0000 (   387 PWs)   bands (ev):

    -5.2784   3.4526   4.5227   5.4846

          k =-0.2500 0.4167-0.0833 (   392 PWs)   bands (ev):

    -4.8346   2.1924   3.9825   5.2037

          k =-0.3333 0.5000-0.1667 (   399 PWs)   bands (ev):

    -4.2485   0.8668   3.7128   4.8691

          k = 0.5833-0.4167 0.7500 (   399 PWs)   bands (ev):

    -3.6116  -0.2460   3.5867   4.6171

          k = 0.5000-0.3333 0.6667 (   396 PWs)   bands (ev):

    -3.2615  -0.7585   3.5520   4.5232

          k =-0.1667 0.5000 0.0000 (   403 PWs)   bands (ev):

    -4.6780   2.2567   3.8141   4.5428

          k =-0.2500 0.5833-0.0833 (   404 PWs)   bands (ev):

    -4.1360   1.1899   3.2658   4.2454

          k = 0.6667-0.3333 0.8333 (   405 PWs)   bands (ev):

    -3.4971   0.1127   2.9055   4.0285

          k = 0.5833-0.2500 0.7500 (   402 PWs)   bands (ev):

    -2.9851  -0.6135   2.6558   4.0101

          k = 0.5000-0.1667 0.6667 (   402 PWs)   bands (ev):

    -3.1251  -0.4209   2.5325   4.1874

          k = 0.4167-0.0833 0.5833 (   404 PWs)   bands (ev):

    -3.7307   0.4785   2.6021   4.5126

          k = 0.3333 0.0000 0.5000 (   400 PWs)   bands (ev):

    -4.3452   1.4753   3.0215   4.9047

          k =-0.1667 0.6667-0.0000 (   407 PWs)   bands (ev):

    -3.8547   0.9844   3.2958   3.7377

          k = 0.7500-0.2500 0.9167 (   405 PWs)   bands (ev):

    -3.2374   0.1377   2.6885   3.5133

          k = 0.6667-0.1667 0.8333 (   401 PWs)   bands (ev):

    -2.6329  -0.5927   2.1520   3.5217

          k = 0.5833-0.0833 0.7500 (   397 PWs)   bands (ev):

    -2.5573  -0.6673   1.8539   3.7252

          k = 0.5000 0.0000 0.6667 (   401 PWs)   bands (ev):

    -3.1083  -0.0661   1.9414   4.0790

          k = 0.8333-0.1667 1.0000 (   406 PWs)   bands (ev):

    -2.8301  -0.3417   3.0075   3.2096

          k = 0.7500-0.0833 0.9167 (   402 PWs)   bands (ev):

    -2.1878  -0.9926   2.3521   3.1640

          k = 0.6667 0.0000 0.8333 (   405 PWs)   bands (ev):

    -2.0235  -1.1121   1.8354   3.3656

          k =-0.1667-1.0000-0.0000 (   406 PWs)   bands (ev):

    -1.6403  -1.6403   2.9721   2.9721

          k = 0.6667-0.3333 1.0000 (   407 PWs)   bands (ev):

    -3.5614   0.5174   2.5404   3.8513

          k = 0.5833-0.2500 0.9167 (   402 PWs)   bands (ev):

    -2.9232  -0.2655   2.1863   3.5031

          k = 0.5000-0.1667 0.8333 (   400 PWs)   bands (ev):

    -2.5518  -0.7068   2.0930   3.3696

          k = 0.6667-0.1667 1.0000 (   400 PWs)   bands (ev):

    -2.6089  -0.4859   2.3363   2.9701

          k = 0.5833-0.0833 0.9167 (   401 PWs)   bands (ev):

    -2.0728  -1.0003   2.0080   2.8110

          k = 0.5000 0.0000 0.8333 (   401 PWs)   bands (ev):

    -2.3079  -0.7685   1.8793   3.0427

          k =-0.3333-1.0000 0.0000 (   398 PWs)   bands (ev):

    -1.5526  -1.5526   2.4616   2.4616

          k =-0.5000-1.0000 0.0000 (   396 PWs)   bands (ev):

    -1.5051  -1.5051   2.2441   2.2441

     highest occupied level (ev):     6.2002

!    total energy              =     -19.25973122 Ry
     estimated scf accuracy    <          3.3E-09 Ry

     The total energy is the sum of the following terms:
     one-electron contribution =       5.18411430 Ry
     hartree contribution      =       1.09815447 Ry
     xc contribution           =      -8.64224142 Ry
     ewald contribution        =     -16.89975857 Ry

     convergence has been achieved in   6 iterations

     Forces acting on atoms (cartesian axes, Ry/au):

     atom    1 type  1   force =    -0.00000000    0.00000000   -0.00000000
     atom    2 type  1   force =     0.00000000   -0.00000000    0.00000000

     Total force =     0.000000     Total SCF correction =     0.000000


     Computing stress (Cartesian axis) and pressure

          total   stress  (Ry/bohr**3)                   (kbar)     P=       -1.82
  -0.00001240  -0.00000000  -0.00000000           -1.82       -0.00       -0.00
  -0.00000000  -0.00001240   0.00000000           -0.00       -1.82        0.00
  -0.00000000   0.00000000  -0.00001240           -0.00        0.00       -1.82


     Writing all to output data dir ./Si_bands.save/ :
     XML data file, charge density, pseudopotentials, collected wavefunctions
 
     init_run     :      0.17s CPU      0.23s WALL (       1 calls)
     electrons    :      1.21s CPU      1.38s WALL (       1 calls)
     forces       :      0.04s CPU      0.04s WALL (       1 calls)
     stress       :      0.18s CPU      0.19s WALL (       1 calls)

     Called by init_run:
     wfcinit      :      0.05s CPU      0.07s WALL (       1 calls)
     potinit      :      0.01s CPU      0.01s WALL (       1 calls)
     hinit0       :      0.07s CPU      0.09s WALL (       1 calls)

     Called by electrons:
     c_bands      :      0.90s CPU      1.02s WALL (       7 calls)
     sum_band     :      0.22s CPU      0.24s WALL (       7 calls)
     v_of_rho     :      0.01s CPU      0.01s WALL (       7 calls)
     newd         :      0.09s CPU      0.10s WALL (       7 calls)
     mix_rho      :      0.00s CPU      0.01s WALL (       7 calls)

     Called by c_bands:
     init_us_2    :      0.04s CPU      0.04s WALL (    1224 calls)
     init_us_2:cp :      0.03s CPU      0.04s WALL (    1224 calls)
     ccgdiagg     :      0.76s CPU      0.86s WALL (     504 calls)
     wfcrot       :      0.15s CPU      0.19s WALL (     432 calls)

     Called by *cgdiagg:
     h_psi        :      0.55s CPU      0.62s WALL (    6171 calls)
     s_psi        :      0.05s CPU      0.06s WALL (   11910 calls)

     Called by h_psi:
     h_psi:calbec :      0.07s CPU      0.09s WALL (    6171 calls)
     vloc_psi     :      0.40s CPU      0.45s WALL (    6171 calls)
     add_vuspsi   :      0.03s CPU      0.03s WALL (    6171 calls)
     hs_1psi      :      0.49s CPU      0.55s WALL (    5739 calls)
     s_1psi       :      0.11s CPU      0.12s WALL (    5739 calls)

     General routines
     calbec       :      0.13s CPU      0.15s WALL (   12774 calls)
     fft          :      0.01s CPU      0.02s WALL (      49 calls)
     ffts         :      0.00s CPU      0.00s WALL (      14 calls)
     fftw         :      0.31s CPU      0.34s WALL (   17526 calls)
     interpolate  :      0.00s CPU      0.00s WALL (       7 calls)
 
     Parallel routines
 
     PWSCF        :      1.69s CPU      2.25s WALL

 
   This run was terminated on:  23:26:38  17Oct2025            

=------------------------------------------------------------------------------=
   JOB DONE.
=------------------------------------------------------------------------------=
TACC:  Shutdown complete. Exiting. 
