TACC:  Starting up job 2560882 
TACC:  Starting parallel tasks... 

     Program PWSCF v.7.3 starts on 18Nov2025 at  0:30:17 

     This program is part of the open-source Quantum ESPRESSO suite
     for quantum simulation of materials; please cite
         "P. Giannozzi et al., J. Phys.:Condens. Matter 21 395502 (2009);
         "P. Giannozzi et al., J. Phys.:Condens. Matter 29 465901 (2017);
         "P. Giannozzi et al., J. Chem. Phys. 152 154105 (2020);
          URL http://www.quantum-espresso.org", 
     in publications or presentations arising from this work. More details at
     http://www.quantum-espresso.org/quote

     Parallel version (MPI & OpenMP), running on      10 processor cores
     Number of MPI processes:                10
     Threads/MPI process:                     1

     MPI processes distributed on     1 nodes
     189445 MiB available memory on the printing compute node when the environment starts
 
     Waiting for input...
     Reading input from standard input
Warning: card &CELL ignored
Warning: card  CELL_DYNAMICS = 'BFGS', ignored
Warning: card  PRESS=0.D0, ignored
Warning: card / ignored

     Current dimensions of program PWSCF are:
     Max number of different atomic species (ntypx) = 10
     Max number of k-points (npk) =  40000
     Max angular momentum in pseudopotentials (lmaxx) =  4
     Message from routine setup:
     using ibrav=0 with symmetry is DISCOURAGED, use correct ibrav instead
 
     R & G space division:  proc/nbgrp/npool/nimage =      10
     Subspace diagonalization in iterative solution of the eigenvalue problem:
     a serial algorithm will be used

 
     Parallelization info
     --------------------
     sticks:   dense  smooth     PW     G-vecs:    dense   smooth      PW
     Min         209      84     25                 7667     1941     321
     Max         210      85     26                 7672     1945     324
     Sum        2093     845    253                76689    19427    3227
 
     Using Slab Decomposition
 


     bravais-lattice index     =            0
     lattice parameter (alat)  =       7.2859  a.u.
     unit-cell volume          =     406.1587 (a.u.)^3
     number of atoms/cell      =            5
     number of atomic types    =            3
     number of electrons       =        44.00
     number of Kohn-Sham states=           22
     kinetic-energy cutoff     =      50.0000  Ry
     charge density cutoff     =     500.0000  Ry
     scf convergence threshold =      1.0E-08
     mixing beta               =       0.7000
     number of iterations used =            8  plain     mixing
     energy convergence thresh.=      1.0E-04
     force convergence thresh. =      1.0E-03
     Exchange-correlation= SLA  PZ   NOGX NOGC
                           (   1   1   0   0   0   0   0)
     nstep                     =           50


     celldm(1)=   7.285879  celldm(2)=   0.000000  celldm(3)=   0.000000
     celldm(4)=   0.000000  celldm(5)=   0.000000  celldm(6)=   0.000000

     crystal axes: (cart. coord. in units of alat)
               a(1) = (   1.000000   0.000000  -0.000778 )  
               a(2) = (   0.000000   0.999222   0.000000 )  
               a(3) = (  -0.000778   0.000000   1.050966 )  

     reciprocal axes: (cart. coord. in units 2 pi/alat)
               b(1) = (  1.000001  0.000000  0.000740 )  
               b(2) = (  0.000000  1.000779  0.000000 )  
               b(3) = (  0.000740  0.000000  0.951507 )  


     PseudoPot. # 1 for Pb read from file:
     /scratch/11018/zhc/assisgnment3/input_files/Pb_LDA.UPF
     MD5 check sum: 062a37469794d955244864f8fe2e5624
     Pseudo is Ultrasoft + core correction, Zval = 14.0
     Generated by new atomic code, or converted to UPF format
     Using radial grid of  899 points,  6 beta functions with: 
                l(1) =   0
                l(2) =   0
                l(3) =   1
                l(4) =   1
                l(5) =   2
                l(6) =   2
     Q(r) pseudized with  6 coefficients,  rinner =    1.000   1.000   1.000
                                                       1.000   1.000

     PseudoPot. # 2 for Ti read from file:
     /scratch/11018/zhc/assisgnment3/input_files/Ti_LDA.UPF
     MD5 check sum: 0d9f225c038fe889ca2a701dcc8d72cb
     Pseudo is Ultrasoft + core correction, Zval = 12.0
     Generated by new atomic code, or converted to UPF format
     Using radial grid of  851 points,  6 beta functions with: 
                l(1) =   0
                l(2) =   0
                l(3) =   1
                l(4) =   1
                l(5) =   2
                l(6) =   2
     Q(r) pseudized with  6 coefficients,  rinner =    1.000   1.000   1.000
                                                       1.000   1.000

     PseudoPot. # 3 for O  read from file:
     /scratch/11018/zhc/assisgnment3/input_files/O_LDA.UPF
     MD5 check sum: 194b818514d2a7dbb603bb78519a4f40
     Pseudo is Ultrasoft + core correction, Zval =  6.0
     Generated by new atomic code, or converted to UPF format
     Using radial grid of  737 points,  5 beta functions with: 
                l(1) =   0
                l(2) =   0
                l(3) =   1
                l(4) =   1
                l(5) =   2
     Q(r) pseudized with  8 coefficients,  rinner =    0.900   0.900   0.900
                                                       0.900   0.900

     atomic species   valence    mass     pseudopotential
     Pb               14.00   207.20000     Pb( 1.00)
     Ti               12.00    47.88000     Ti( 1.00)
     O                 6.00    16.00000     O ( 1.00)

      2 Sym. Ops. (no inversion) found



   Cartesian axes

     site n.     atom                  positions (alat units)
         1        Pb     tau(   1) = (  -0.0007821   0.0000000   1.0564031  )
         2        Ti     tau(   2) = (   0.4995800   0.4996108   0.5666431  )
         3        O      tau(   3) = (   0.4999224   0.4996108   0.1041903  )
         4        O      tau(   4) = (   0.4995240   0.0000000   0.6423122  )
         5        O      tau(   5) = (  -0.0004758   0.4996108   0.6427012  )

     number of k points=    56
                       cart. coord. in units 2pi/alat
        k(    1) = (   0.0000000   0.0000000   0.0000000), wk =   0.0138889
        k(    2) = (   0.0001851   0.0000000   0.2378766), wk =   0.0277778
        k(    3) = (  -0.0003702   0.0000000  -0.4757533), wk =   0.0138889
        k(    4) = (   0.0000000   0.1667965   0.0000000), wk =   0.0277778
        k(    5) = (   0.0001851   0.1667965   0.2378766), wk =   0.0555556
        k(    6) = (  -0.0003702   0.1667965  -0.4757533), wk =   0.0277778
        k(    7) = (   0.0000000   0.3335930   0.0000000), wk =   0.0277778
        k(    8) = (   0.0001851   0.3335930   0.2378766), wk =   0.0555556
        k(    9) = (  -0.0003702   0.3335930  -0.4757533), wk =   0.0277778
        k(   10) = (   0.0000000  -0.5003895   0.0000000), wk =   0.0138889
        k(   11) = (   0.0001851  -0.5003895   0.2378766), wk =   0.0277778
        k(   12) = (  -0.0003702  -0.5003895  -0.4757533), wk =   0.0138889
        k(   13) = (   0.1666668   0.0000000   0.0001234), wk =   0.0277778
        k(   14) = (   0.1668519   0.0000000   0.2380000), wk =   0.0277778
        k(   15) = (   0.1662966   0.0000000  -0.4756299), wk =   0.0277778
        k(   16) = (   0.1664817   0.0000000  -0.2377532), wk =   0.0277778
        k(   17) = (   0.1666668   0.1667965   0.0001234), wk =   0.0555556
        k(   18) = (   0.1668519   0.1667965   0.2380000), wk =   0.0555556
        k(   19) = (   0.1662966   0.1667965  -0.4756299), wk =   0.0555556
        k(   20) = (   0.1664817   0.1667965  -0.2377532), wk =   0.0555556
        k(   21) = (   0.1666668   0.3335930   0.0001234), wk =   0.0555556
        k(   22) = (   0.1668519   0.3335930   0.2380000), wk =   0.0555556
        k(   23) = (   0.1662966   0.3335930  -0.4756299), wk =   0.0555556
        k(   24) = (   0.1664817   0.3335930  -0.2377532), wk =   0.0555556
        k(   25) = (   0.1666668  -0.5003895   0.0001234), wk =   0.0277778
        k(   26) = (   0.1668519  -0.5003895   0.2380000), wk =   0.0277778
        k(   27) = (   0.1662966  -0.5003895  -0.4756299), wk =   0.0277778
        k(   28) = (   0.1664817  -0.5003895  -0.2377532), wk =   0.0277778
        k(   29) = (   0.3333336   0.0000000   0.0002468), wk =   0.0277778
        k(   30) = (   0.3335187   0.0000000   0.2381234), wk =   0.0277778
        k(   31) = (   0.3329634   0.0000000  -0.4755065), wk =   0.0277778
        k(   32) = (   0.3331485   0.0000000  -0.2376298), wk =   0.0277778
        k(   33) = (   0.3333336   0.1667965   0.0002468), wk =   0.0555556
        k(   34) = (   0.3335187   0.1667965   0.2381234), wk =   0.0555556
        k(   35) = (   0.3329634   0.1667965  -0.4755065), wk =   0.0555556
        k(   36) = (   0.3331485   0.1667965  -0.2376298), wk =   0.0555556
        k(   37) = (   0.3333336   0.3335930   0.0002468), wk =   0.0555556
        k(   38) = (   0.3335187   0.3335930   0.2381234), wk =   0.0555556
        k(   39) = (   0.3329634   0.3335930  -0.4755065), wk =   0.0555556
        k(   40) = (   0.3331485   0.3335930  -0.2376298), wk =   0.0555556
        k(   41) = (   0.3333336  -0.5003895   0.0002468), wk =   0.0277778
        k(   42) = (   0.3335187  -0.5003895   0.2381234), wk =   0.0277778
        k(   43) = (   0.3329634  -0.5003895  -0.4755065), wk =   0.0277778
        k(   44) = (   0.3331485  -0.5003895  -0.2376298), wk =   0.0277778
        k(   45) = (  -0.5000004   0.0000000  -0.0003702), wk =   0.0138889
        k(   46) = (  -0.4998153   0.0000000   0.2375064), wk =   0.0277778
        k(   47) = (  -0.5003706   0.0000000  -0.4761234), wk =   0.0138889
        k(   48) = (  -0.5000004   0.1667965  -0.0003702), wk =   0.0277778
        k(   49) = (  -0.4998153   0.1667965   0.2375064), wk =   0.0555556
        k(   50) = (  -0.5003706   0.1667965  -0.4761234), wk =   0.0277778
        k(   51) = (  -0.5000004   0.3335930  -0.0003702), wk =   0.0277778
        k(   52) = (  -0.4998153   0.3335930   0.2375064), wk =   0.0555556
        k(   53) = (  -0.5003706   0.3335930  -0.4761234), wk =   0.0277778
        k(   54) = (  -0.5000004  -0.5003895  -0.0003702), wk =   0.0138889
        k(   55) = (  -0.4998153  -0.5003895   0.2375064), wk =   0.0277778
        k(   56) = (  -0.5003706  -0.5003895  -0.4761234), wk =   0.0138889

     Dense  grid:    76689 G-vectors     FFT dimensions: (  54,  54,  60)

     Smooth grid:    19427 G-vectors     FFT dimensions: (  36,  36,  36)

     Estimated max dynamical RAM per process >      38.64 MB

     Estimated total dynamical RAM >     386.37 MB

     Check: negative core charge=   -0.000004

     Initial potential from superposition of free atoms

     starting charge      42.9982, renormalised to      44.0000

     negative rho (up, down):  1.669E-02 0.000E+00
     Starting wfcs are   31 randomized atomic wfcs

     total cpu time spent up to now is        0.8 secs

     Self-consistent Calculation

     iteration #  1     ecut=    50.00 Ry     beta= 0.70
     CG style diagonalization
     ethr =  1.00E-02,  avg # of iterations =  2.1

     negative rho (up, down):  1.400E-02 0.000E+00

     total cpu time spent up to now is        1.7 secs

     total energy              =    -380.06302265 Ry
     estimated scf accuracy    <       1.02087727 Ry

     iteration #  2     ecut=    50.00 Ry     beta= 0.70
     CG style diagonalization
     ethr =  2.32E-03,  avg # of iterations =  4.8

     negative rho (up, down):  1.451E-02 0.000E+00

     total cpu time spent up to now is        3.4 secs

     total energy              =    -379.75368210 Ry
     estimated scf accuracy    <       3.92558637 Ry

     iteration #  3     ecut=    50.00 Ry     beta= 0.70
     CG style diagonalization
     ethr =  2.32E-03,  avg # of iterations =  4.3

     negative rho (up, down):  1.512E-02 0.000E+00

     total cpu time spent up to now is        4.9 secs

     total energy              =    -380.53679540 Ry
     estimated scf accuracy    <       0.31310919 Ry

     iteration #  4     ecut=    50.00 Ry     beta= 0.70
     CG style diagonalization
     ethr =  7.12E-04,  avg # of iterations =  3.5

     negative rho (up, down):  1.511E-02 0.000E+00

     total cpu time spent up to now is        6.1 secs

     total energy              =    -380.56011751 Ry
     estimated scf accuracy    <       0.04221476 Ry

     iteration #  5     ecut=    50.00 Ry     beta= 0.70
     CG style diagonalization
     ethr =  9.59E-05,  avg # of iterations =  3.9

     negative rho (up, down):  1.512E-02 0.000E+00

     total cpu time spent up to now is        7.5 secs

     total energy              =    -380.57154738 Ry
     estimated scf accuracy    <       0.00787191 Ry

     iteration #  6     ecut=    50.00 Ry     beta= 0.70
     CG style diagonalization
     ethr =  1.79E-05,  avg # of iterations =  3.9

     negative rho (up, down):  1.512E-02 0.000E+00

     total cpu time spent up to now is        8.8 secs

     total energy              =    -380.57362725 Ry
     estimated scf accuracy    <       0.00606219 Ry

     iteration #  7     ecut=    50.00 Ry     beta= 0.70
     CG style diagonalization
     ethr =  1.38E-05,  avg # of iterations =  3.2

     negative rho (up, down):  1.513E-02 0.000E+00

     total cpu time spent up to now is        9.9 secs

     total energy              =    -380.57360905 Ry
     estimated scf accuracy    <       0.00165358 Ry

     iteration #  8     ecut=    50.00 Ry     beta= 0.70
     CG style diagonalization
     ethr =  3.76E-06,  avg # of iterations =  3.7

     negative rho (up, down):  1.516E-02 0.000E+00

     total cpu time spent up to now is       11.2 secs

     total energy              =    -380.57397455 Ry
     estimated scf accuracy    <       0.00000927 Ry

     iteration #  9     ecut=    50.00 Ry     beta= 0.70
     CG style diagonalization
     c_bands:  1 eigenvalues not converged
     c_bands:  1 eigenvalues not converged
     c_bands:  1 eigenvalues not converged
     c_bands:  1 eigenvalues not converged
     c_bands:  1 eigenvalues not converged
     c_bands:  1 eigenvalues not converged
     ethr =  2.11E-08,  avg # of iterations =  7.8

     negative rho (up, down):  1.519E-02 0.000E+00

     total cpu time spent up to now is       13.9 secs

     total energy              =    -380.57403334 Ry
     estimated scf accuracy    <       0.00003546 Ry

     iteration # 10     ecut=    50.00 Ry     beta= 0.70
     CG style diagonalization
     ethr =  2.11E-08,  avg # of iterations =  3.5

     negative rho (up, down):  1.527E-02 0.000E+00

     total cpu time spent up to now is       15.1 secs

     total energy              =    -380.57402817 Ry
     estimated scf accuracy    <       0.00002068 Ry

     iteration # 11     ecut=    50.00 Ry     beta= 0.70
     CG style diagonalization
     ethr =  2.11E-08,  avg # of iterations =  3.8

     negative rho (up, down):  1.531E-02 0.000E+00

     total cpu time spent up to now is       16.5 secs

     total energy              =    -380.57403045 Ry
     estimated scf accuracy    <       0.00000126 Ry

     iteration # 12     ecut=    50.00 Ry     beta= 0.70
     CG style diagonalization
     ethr =  2.86E-09,  avg # of iterations =  5.6

     negative rho (up, down):  1.530E-02 0.000E+00

     total cpu time spent up to now is       18.5 secs

     total energy              =    -380.57403152 Ry
     estimated scf accuracy    <       0.00000107 Ry

     iteration # 13     ecut=    50.00 Ry     beta= 0.70
     CG style diagonalization
     ethr =  2.44E-09,  avg # of iterations =  4.2

     negative rho (up, down):  1.530E-02 0.000E+00

     total cpu time spent up to now is       19.9 secs

     total energy              =    -380.57403186 Ry
     estimated scf accuracy    <       0.00000002 Ry

     iteration # 14     ecut=    50.00 Ry     beta= 0.70
     CG style diagonalization
     c_bands:  1 eigenvalues not converged
     ethr =  5.51E-11,  avg # of iterations = 11.1

     negative rho (up, down):  1.531E-02 0.000E+00

     total cpu time spent up to now is       23.9 secs

     total energy              =    -380.57403218 Ry
     estimated scf accuracy    <       0.00000001 Ry

     iteration # 15     ecut=    50.00 Ry     beta= 0.70
     CG style diagonalization
     ethr =  3.06E-11,  avg # of iterations =  4.4

     negative rho (up, down):  1.531E-02 0.000E+00

     total cpu time spent up to now is       25.5 secs

     End of self-consistent calculation

          k = 0.0000 0.0000 0.0000 (  2421 PWs)   bands (ev):

   -45.1558 -21.8363 -21.7535 -21.7527  -7.1588  -6.0051  -5.7464  -4.3994
    -4.3991  -4.3592  -4.2414  -4.1291   4.8541   6.7435   6.7497   7.1191
     8.7231   8.7246   8.9609   9.3022   9.4535   9.4547

          k = 0.0002 0.0000 0.2379 (  2431 PWs)   bands (ev):

   -45.1555 -21.8597 -21.7526 -21.7517  -6.9514  -5.9434  -5.6766  -4.4171
    -4.4169  -4.3577  -4.2294  -4.2061   3.9905   6.7987   6.8036   7.3186
     8.4693   8.4723   8.8779   9.3892   9.5729   9.5735

          k =-0.0004 0.0000-0.4758 (  2414 PWs)   bands (ev):

   -45.1552 -21.8829 -21.7516 -21.7508  -6.7260  -5.8758  -5.6133  -4.4347
    -4.4345  -4.3562  -4.2890  -4.2189   3.4469   6.6230   6.8331   6.8366
     8.3114   8.3164   8.7990   9.6492   9.6495  10.6665

          k = 0.0000 0.1668 0.0000 (  2419 PWs)   bands (ev):

   -45.1554 -21.8354 -21.7741 -21.7518  -7.0131  -5.9706  -5.7154  -4.4237
    -4.3978  -4.3741  -4.2444  -4.1171   4.3647   6.8121   6.8538   7.1509
     8.6818   8.7447   8.9591   9.0772   9.1822   9.5750

          k = 0.0002 0.1668 0.2379 (  2427 PWs)   bands (ev):

   -45.1551 -21.8586 -21.7730 -21.7509  -6.8221  -5.9250  -5.6399  -4.4222
    -4.4161  -4.3733  -4.2389  -4.1563   3.7570   6.5943   6.9202   7.4017
     8.1379   8.4513   8.7778   9.1736   9.2435   9.9470

          k =-0.0004 0.1668-0.4758 (  2426 PWs)   bands (ev):

   -45.1548 -21.8817 -21.7720 -21.7499  -6.6246  -5.8733  -5.5614  -4.4343
    -4.4186  -4.3724  -4.2437  -4.1912   3.3028   6.2764   6.9607   7.0471
     7.9433   8.3022   8.8441   9.2326   9.3248  10.5873

          k = 0.0000 0.3336 0.0000 (  2422 PWs)   bands (ev):

   -45.1547 -21.8338 -21.8148 -21.7501  -6.6969  -5.8958  -5.6693  -4.4610
    -4.4039  -4.3944  -4.2389  -4.1221   3.7355   6.4388   7.1036   7.1353
     8.3405   8.3677   8.8131   8.8657   9.3019  10.2305

          k = 0.0002 0.3336 0.2379 (  2419 PWs)   bands (ev):

   -45.1543 -21.8565 -21.8137 -21.7491  -6.5722  -5.8537  -5.5724  -4.4277
    -4.4142  -4.4041  -4.2322  -4.0951   3.3705   6.3100   7.0103   7.2353
     7.7711   8.1942   8.3503   8.9186   9.4366  10.3090

          k =-0.0004 0.3336-0.4758 (  2424 PWs)   bands (ev):

   -45.1540 -21.8792 -21.8124 -21.7481  -6.4799  -5.7865  -5.4447  -4.4335
    -4.4045  -4.3866  -4.2682  -4.0413   3.0506   5.9881   6.7714   7.2803
     7.6557   7.8228   8.1345   8.9494   9.8769  10.1342

          k = 0.0000-0.5004 0.0000 (  2432 PWs)   bands (ev):

   -45.1543 -21.8355 -21.8324 -21.7492  -6.5226  -5.8386  -5.6744  -4.4771
    -4.4186  -4.3928  -4.2119  -4.1550   3.5158   6.0529   7.3669   7.3788
     7.8445   7.9870   8.7342   8.9037   9.3327  11.0363

          k = 0.0002-0.5004 0.2379 (  2424 PWs)   bands (ev):

   -45.1539 -21.8552 -21.8340 -21.7482  -6.4641  -5.7627  -5.5662  -4.4401
    -4.4195  -4.4130  -4.1980  -4.0905   3.2190   6.0252   7.0418   7.2807
     7.5841   7.7880   8.4604   8.8968   9.4367  10.5126

          k =-0.0004-0.5004-0.4758 (  2424 PWs)   bands (ev):

   -45.1536 -21.8778 -21.8326 -21.7472  -6.4462  -5.6815  -5.3906  -4.4331
    -4.4204  -4.3954  -4.2534  -3.9789   2.9502   5.8467   6.4590   7.3408
     7.6083   7.8089   7.8356   8.8920   9.8067  10.1739

          k = 0.1667 0.0000 0.0001 (  2419 PWs)   bands (ev):

   -45.1554 -21.8354 -21.7731 -21.7526  -7.0139  -5.9709  -5.7156  -4.4239
    -4.3975  -4.3740  -4.2444  -4.1174   4.3643   6.8091   6.8598   7.1521
     8.6797   8.7467   8.9584   9.0767   9.1828   9.5752

          k = 0.1669 0.0000 0.2380 (  2428 PWs)   bands (ev):

   -45.1551 -21.8587 -21.7720 -21.7517  -6.8225  -5.9247  -5.6402  -4.4225
    -4.4159  -4.3731  -4.2386  -4.1580   3.7552   6.5924   6.9254   7.4045
     8.1398   8.4536   8.7791   9.1676   9.2439   9.9477

          k = 0.1663 0.0000-0.4756 (  2426 PWs)   bands (ev):

   -45.1548 -21.8817 -21.7710 -21.7507  -6.6256  -5.8730  -5.5614  -4.4341
    -4.4187  -4.3723  -4.2433  -4.1925   3.3020   6.2745   6.9638   7.0482
     7.9419   8.3073   8.8456   9.2294   9.3259  10.5885

          k = 0.1665 0.0000-0.2378 (  2426 PWs)   bands (ev):

   -45.1551 -21.8587 -21.7720 -21.7517  -6.8235  -5.9254  -5.6397  -4.4224
    -4.4159  -4.3732  -4.2384  -4.1564   3.7575   6.5911   6.9247   7.4004
     8.1377   8.4549   8.7768   9.1750   9.2443   9.9447

          k = 0.1667 0.1668 0.0001 (  2421 PWs)   bands (ev):

   -45.1550 -21.8346 -21.7732 -21.7721  -6.8706  -5.9355  -5.7067  -4.4297
    -4.4140  -4.3778  -4.2204  -4.1063   4.0328   6.7318   6.9840   7.2082
     8.2041   8.3171   9.0523   9.0909   9.3943   9.8101

          k = 0.1669 0.1668 0.2380 (  2420 PWs)   bands (ev):

   -45.1547 -21.8577 -21.7721 -21.7711  -6.6902  -5.9092  -5.6317  -4.4326
    -4.4090  -4.3718  -4.2099  -4.1227   3.6313   6.5105   6.6193   7.3471
     8.0359   8.0537   8.8572   9.2327   9.4724   9.9192

          k = 0.1663 0.1668-0.4756 (  2443 PWs)   bands (ev):

   -45.1544 -21.8806 -21.7711 -21.7700  -6.5119  -5.8833  -5.5435  -4.4456
    -4.3873  -4.3488  -4.2150  -4.1440   3.2692   6.2930   6.3447   7.0360
     7.9427   7.9790   8.7629   9.3100   9.5311  10.2845

          k = 0.1665 0.1668-0.2378 (  2422 PWs)   bands (ev):

   -45.1547 -21.8576 -21.7721 -21.7711  -6.6912  -5.9099  -5.6312  -4.4326
    -4.4090  -4.3715  -4.2095  -4.1215   3.6343   6.5076   6.6181   7.3438
     8.0332   8.0525   8.8624   9.2365   9.4733   9.9147

          k = 0.1667 0.3336 0.0001 (  2425 PWs)   bands (ev):

   -45.1543 -21.8329 -21.8137 -21.7702  -6.5627  -5.8624  -5.7039  -4.4541
    -4.4029  -4.3620  -4.1955  -4.1115   3.5191   6.4360   6.9823   7.2796
     7.6641   8.2517   8.5579   9.2310   9.4213  10.3107

          k = 0.1669 0.3336 0.2380 (  2425 PWs)   bands (ev):

   -45.1539 -21.8555 -21.8126 -21.7692  -6.4339  -5.8529  -5.6215  -4.4295
    -4.4037  -4.3387  -4.1753  -4.0695   3.3723   6.2593   6.3897   6.9479
     7.3992   8.0931   8.9092   9.1862   9.5287  10.0215

          k = 0.1663 0.3336-0.4756 (  2424 PWs)   bands (ev):

   -45.1536 -21.8782 -21.8114 -21.7682  -6.3444  -5.8298  -5.4987  -4.4271
    -4.3777  -4.2973  -4.1877  -4.0141   3.1845   5.9056   6.3206   6.6466
     6.8872   7.9493   9.0181   9.2342   9.5232   9.9647

          k = 0.1665 0.3336-0.2378 (  2426 PWs)   bands (ev):

   -45.1539 -21.8555 -21.8126 -21.7692  -6.4347  -5.8537  -5.6210  -4.4295
    -4.4035  -4.3384  -4.1744  -4.0690   3.3761   6.2573   6.3865   6.9455
     7.3996   8.0876   8.9111   9.1944   9.5268  10.0175

          k = 0.1667-0.5004 0.0001 (  2420 PWs)   bands (ev):

   -45.1539 -21.8343 -21.8315 -21.7693  -6.3945  -5.8078  -5.7299  -4.4572
    -4.3949  -4.3402  -4.1762  -4.1456   3.3193   6.0716   7.0974   7.3291
     7.6240   7.9746   8.4206   9.2639   9.4186  10.6443

          k = 0.1669-0.5004 0.2380 (  2422 PWs)   bands (ev):

   -45.1536 -21.8543 -21.8329 -21.7683  -6.3245  -5.7722  -5.6445  -4.4276
    -4.3900  -4.3167  -4.1525  -4.0628   3.2540   6.0302   6.2835   6.6959
     7.3601   8.2367   8.6761   9.1955   9.5375   9.9841

          k = 0.1663-0.5004-0.4756 (  2416 PWs)   bands (ev):

   -45.1532 -21.8768 -21.8316 -21.7672  -6.3096  -5.7393  -5.4819  -4.4217
    -4.3456  -4.2941  -4.1706  -3.9525   3.1451   5.7992   6.1509   6.3028
     6.7423   8.0627   8.8848   9.1485   9.1779  10.1829

          k = 0.1665-0.5004-0.2378 (  2424 PWs)   bands (ev):

   -45.1536 -21.8543 -21.8329 -21.7683  -6.3251  -5.7736  -5.6435  -4.4277
    -4.3897  -4.3168  -4.1509  -4.0629   3.2580   6.0294   6.2806   6.6912
     7.3615   8.2315   8.6739   9.2065   9.5341   9.9809

          k = 0.3333 0.0000 0.0002 (  2418 PWs)   bands (ev):

   -45.1547 -21.8338 -21.8134 -21.7509  -6.6993  -5.8968  -5.6698  -4.4612
    -4.4037  -4.3942  -4.2394  -4.1226   3.7356   6.4424   7.1042   7.1412
     8.3391   8.3701   8.8126   8.8656   9.3021  10.2292

          k = 0.3335 0.0000 0.2381 (  2415 PWs)   bands (ev):

   -45.1543 -21.8565 -21.8123 -21.7499  -6.5740  -5.8538  -5.5733  -4.4280
    -4.4140  -4.4038  -4.2320  -4.0977   3.3682   6.3116   7.0144   7.2407
     7.7732   8.1960   8.3526   8.9203   9.4326  10.3099

          k = 0.3330 0.0000-0.4755 (  2424 PWs)   bands (ev):

   -45.1540 -21.8792 -21.8110 -21.7489  -6.4823  -5.7865  -5.4451  -4.4333
    -4.4042  -4.3869  -4.2681  -4.0436   3.0484   5.9874   6.7743   7.2827
     7.6593   7.8248   8.1396   8.9521   9.8721  10.1395

          k = 0.3331 0.0000-0.2376 (  2415 PWs)   bands (ev):

   -45.1543 -21.8565 -21.8123 -21.7499  -6.5754  -5.8545  -5.5723  -4.4280
    -4.4140  -4.4038  -4.2320  -4.0960   3.3702   6.3117   7.0092   7.2394
     7.7728   8.1981   8.3516   8.9205   9.4378  10.3057

          k = 0.3333 0.1668 0.0002 (  2424 PWs)   bands (ev):

   -45.1543 -21.8329 -21.8123 -21.7713  -6.5642  -5.8631  -5.7042  -4.4542
    -4.4029  -4.3620  -4.1958  -4.1117   3.5193   6.4400   6.9834   7.2811
     7.6632   8.2515   8.5578   9.2339   9.4214  10.3089

          k = 0.3335 0.1668 0.2381 (  2424 PWs)   bands (ev):

   -45.1540 -21.8556 -21.8113 -21.7703  -6.4352  -5.8533  -5.6220  -4.4295
    -4.4036  -4.3386  -4.1744  -4.0714   3.3721   6.2600   6.3913   6.9485
     7.4006   8.0921   8.9139   9.1916   9.5252  10.0204

          k = 0.3330 0.1668-0.4755 (  2423 PWs)   bands (ev):

   -45.1536 -21.8782 -21.8100 -21.7692  -6.3459  -5.8301  -5.4989  -4.4272
    -4.3778  -4.2972  -4.1869  -4.0162   3.1830   5.9049   6.3222   6.6472
     6.8911   7.9505   9.0220   9.2384   9.5232   9.9634

          k = 0.3331 0.1668-0.2376 (  2426 PWs)   bands (ev):

   -45.1540 -21.8556 -21.8113 -21.7703  -6.4366  -5.8541  -5.6210  -4.4295
    -4.4037  -4.3385  -4.1744  -4.0698   3.3747   6.2597   6.3887   6.9461
     7.3987   8.0922   8.9155   9.1922   9.5281  10.0160

          k = 0.3333 0.3336 0.0002 (  2433 PWs)   bands (ev):

   -45.1535 -21.8312 -21.8115 -21.8101  -6.2974  -5.7955  -5.7552  -4.4339
    -4.3832  -4.2897  -4.1144  -4.1133   3.1126   6.4232   6.5170   7.3879
     7.5407   7.6876   8.3541   9.0800   9.8972  10.0405

          k = 0.3335 0.3336 0.2381 (  2425 PWs)   bands (ev):

   -45.1532 -21.8535 -21.8106 -21.8092  -6.1587  -5.8436  -5.7109  -4.3916
    -4.3761  -4.2291  -4.0660  -4.0338   3.3002   5.9672   6.0393   6.4196
     7.0626   7.5678   8.9830   9.4874   9.5323   9.9136

          k = 0.3330 0.3336-0.4755 (  2422 PWs)   bands (ev):

   -45.1529 -21.8760 -21.8095 -21.8081  -6.0891  -5.8889  -5.5855  -4.3691
    -4.3497  -4.1631  -4.0159  -3.9548   3.4673   5.5622   5.5824   6.1660
     6.8181   6.9782   8.2279   9.8676   9.8832  10.0466

          k = 0.3331 0.3336-0.2376 (  2423 PWs)   bands (ev):

   -45.1532 -21.8535 -21.8106 -21.8092  -6.1602  -5.8442  -5.7098  -4.3916
    -4.3761  -4.2288  -4.0656  -4.0327   3.3037   5.9657   6.0368   6.4200
     7.0616   7.5651   8.9751   9.4916   9.5357   9.9128

          k = 0.3333-0.5004 0.0002 (  2450 PWs)   bands (ev):

   -45.1531 -21.8320 -21.8298 -21.8090  -6.1769  -5.7710  -5.7513  -4.4254
    -4.3591  -4.2239  -4.1490  -4.0781   2.9254   6.0655   6.5653   7.1991
     7.7309   7.8481   7.9756   9.0480   9.7198  10.1046

          k = 0.3335-0.5004 0.2381 (  2432 PWs)   bands (ev):

   -45.1528 -21.8523 -21.8308 -21.8081  -6.0400  -5.7971  -5.7703  -4.3823
    -4.3472  -4.1338  -4.0663  -4.0017   3.2259   5.8582   6.0120   6.0808
     6.8448   7.6390   8.5090   9.4871   9.5130  10.0725

          k = 0.3330-0.5004-0.4755 (  2420 PWs)   bands (ev):

   -45.1525 -21.8747 -21.8296 -21.8071  -6.0307  -5.8411  -5.6239  -4.3517
    -4.3245  -4.0708  -3.9808  -3.8966   3.6083   5.2926   5.4910   5.9201
     6.5758   6.9946   7.4395   9.9676  10.0436  10.2071

          k = 0.3331-0.5004-0.2376 (  2430 PWs)   bands (ev):

   -45.1528 -21.8523 -21.8308 -21.8081  -6.0417  -5.7984  -5.7683  -4.3823
    -4.3472  -4.1337  -4.0646  -4.0019   3.2296   5.8582   6.0094   6.0802
     6.8449   7.6364   8.4969   9.4895   9.5204  10.0715

          k =-0.5000 0.0000-0.0004 (  2428 PWs)   bands (ev):

   -45.1543 -21.8340 -21.8324 -21.7501  -6.5258  -5.8401  -5.6747  -4.4773
    -4.4182  -4.3926  -4.2134  -4.1548   3.5160   6.0586   7.3713   7.3838
     7.8421   7.9883   8.7342   8.9038   9.3328  11.0330

          k =-0.4998 0.0000 0.2375 (  2425 PWs)   bands (ev):

   -45.1540 -21.8552 -21.8325 -21.7491  -6.4670  -5.7641  -5.5664  -4.4404
    -4.4191  -4.4129  -4.1979  -4.0927   3.2174   6.0301   7.0416   7.2841
     7.5915   7.7881   8.4617   8.8986   9.4366  10.5124

          k =-0.5004 0.0000-0.4761 (  2428 PWs)   bands (ev):

   -45.1536 -21.8778 -21.8310 -21.7480  -6.4486  -5.6825  -5.3910  -4.4329
    -4.4200  -4.3956  -4.2535  -3.9817   2.9472   5.8478   6.4632   7.3438
     7.6077   7.8166   7.8378   8.8950   9.8132  10.1711

          k =-0.5000 0.1668-0.0004 (  2420 PWs)   bands (ev):

   -45.1539 -21.8329 -21.8315 -21.7703  -6.3967  -5.8093  -5.7301  -4.4572
    -4.3949  -4.3402  -4.1774  -4.1451   3.3197   6.0776   7.0999   7.3266
     7.6277   7.9731   8.4208   9.2671   9.4194  10.6409

          k =-0.4998 0.1668 0.2375 (  2425 PWs)   bands (ev):

   -45.1536 -21.8543 -21.8314 -21.7693  -6.3267  -5.7743  -5.6440  -4.4277
    -4.3900  -4.3166  -4.1511  -4.0649   3.2550   6.0346   6.2846   6.6923
     7.3606   8.2348   8.6825   9.2025   9.5358   9.9819

          k =-0.5004 0.1668-0.4761 (  2404 PWs)   bands (ev):

   -45.1532 -21.8768 -21.8300 -21.7683  -6.3111  -5.7406  -5.4822  -4.4218
    -4.3458  -4.2940  -4.1699  -3.9552   3.1426   5.7995   6.1537   6.3064
     6.7432   8.0631   8.8935   9.1515   9.1805  10.1807

          k =-0.5000 0.3336-0.0004 (  2448 PWs)   bands (ev):

   -45.1531 -21.8306 -21.8296 -21.8104  -6.1773  -5.7707  -5.7525  -4.4254
    -4.3591  -4.2249  -4.1480  -4.0784   2.9256   6.0710   6.5608   7.1994
     7.7314   7.8524   7.9721   9.0479   9.7233  10.1019

          k =-0.4998 0.3336 0.2375 (  2430 PWs)   bands (ev):

   -45.1528 -21.8523 -21.8292 -21.8096  -6.0409  -5.7992  -5.7689  -4.3822
    -4.3474  -4.1344  -4.0640  -4.0031   3.2277   5.8593   6.0126   6.0803
     6.8435   7.6375   8.5058   9.4883   9.5170  10.0733

          k =-0.5004 0.3336-0.4761 (  2420 PWs)   bands (ev):

   -45.1525 -21.8747 -21.8280 -21.8085  -6.0300  -5.8428  -5.6239  -4.3515
    -4.3249  -4.0711  -3.9788  -3.8989   3.6073   5.2936   5.4888   5.9229
     6.5790   6.9913   7.4425   9.9703  10.0459  10.2051

          k =-0.5000-0.5004-0.0004 (  2480 PWs)   bands (ev):

   -45.1527 -21.8308 -21.8294 -21.8283  -6.1209  -5.7271  -5.7259  -4.4144
    -4.3108  -4.1708  -4.1695  -4.0270   2.7320   5.9171   6.3941   7.4124
     7.4128   7.9660   7.9709   8.8154   9.2435  10.3641

          k =-0.4998-0.5004 0.2375 (  2426 PWs)   bands (ev):

   -45.1524 -21.8511 -21.8297 -21.8281  -5.9055  -5.8133  -5.8118  -4.3699
    -4.3087  -4.0243  -4.0223  -3.9925   3.1490   5.8739   5.9821   5.9838
     6.4007   7.5789   7.8479   9.5174   9.5181  10.3465

          k =-0.5004-0.5004-0.4761 (  2400 PWs)   bands (ev):

   -45.1521 -21.8735 -21.8286 -21.8270  -5.8886  -5.8868  -5.6834  -4.3253
    -4.3065  -3.9463  -3.8861  -3.8836   3.8244   5.3212   5.3228   5.7558
     6.4074   6.4293   6.6824  10.2168  10.2188  10.3290

     highest occupied level (ev):    11.0363

!    total energy              =    -380.57403218 Ry
     estimated scf accuracy    <          1.5E-09 Ry

     The total energy is the sum of the following terms:
     one-electron contribution =     -79.61128588 Ry
     hartree contribution      =      69.90514236 Ry
     xc contribution           =    -102.68008093 Ry
     ewald contribution        =    -268.18780773 Ry

     convergence has been achieved in  15 iterations

     negative rho (up, down):  1.531E-02 0.000E+00

     Forces acting on atoms (cartesian axes, Ry/au):

     atom    1 type  1   force =     0.00018748    0.00000000    0.00037877
     atom    2 type  2   force =     0.00000815    0.00000000   -0.00023894
     atom    3 type  3   force =    -0.00000159    0.00000000   -0.00003072
     atom    4 type  3   force =    -0.00015017    0.00000000    0.00002789
     atom    5 type  3   force =    -0.00004386    0.00000000   -0.00013700

     Total force =     0.000530     Total SCF correction =     0.000081
     SCF correction compared to forces is large: reduce conv_thr to get better values


     Computing stress (Cartesian axis) and pressure


     negative rho (up, down):  1.531E-02 0.000E+00
          total   stress  (Ry/bohr**3)                   (kbar)     P=        1.55
   0.00000905   0.00000000   0.00000975            1.33        0.00        1.43
   0.00000000   0.00001905   0.00000000            0.00        2.80        0.00
   0.00000975   0.00000000   0.00000351            1.43        0.00        0.52


     BFGS Geometry Optimization
     Energy error            =      0.0E+00 Ry
     Gradient error          =      3.8E-04 Ry/Bohr

     bfgs converged in   1 scf cycles and   0 bfgs steps
     (criteria: energy <  1.0E-04 Ry, force <  1.0E-03 Ry/Bohr)

     End of BFGS Geometry Optimization

     Final energy             =    -380.5740321831 Ry
Begin final coordinates

ATOMIC_POSITIONS (crystal)
Pb               0.0000000000        0.0000000000        1.0051738283
Ti               0.5000000000        0.5000000000        0.5395344294
O                0.5000000000        0.5000000000        0.0995079024
O                0.5000000000        0.0000000000        0.6115340639
O                0.0000000000        0.5000000000        0.6115340639
End final coordinates



     Writing all to output data dir ./pto_T5_etam0p006.save/ :
     XML data file, charge density, pseudopotentials, collected wavefunctions
 
     init_run     :      0.49s CPU      0.58s WALL (       1 calls)
     electrons    :     23.25s CPU     24.67s WALL (       1 calls)
     forces       :      0.14s CPU      0.15s WALL (       1 calls)
     stress       :      1.56s CPU      1.58s WALL (       1 calls)

     Called by init_run:
     wfcinit      :      0.29s CPU      0.32s WALL (       1 calls)
     potinit      :      0.01s CPU      0.01s WALL (       1 calls)
     hinit0       :      0.11s CPU      0.14s WALL (       1 calls)

     Called by electrons:
     c_bands      :     20.60s CPU     21.85s WALL (      15 calls)
     sum_band     :      1.99s CPU      2.07s WALL (      15 calls)
     v_of_rho     :      0.02s CPU      0.03s WALL (      16 calls)
     newd         :      0.65s CPU      0.72s WALL (      16 calls)
     mix_rho      :      0.02s CPU      0.02s WALL (      15 calls)

     Called by c_bands:
     init_us_2    :      0.18s CPU      0.19s WALL (    1848 calls)
     init_us_2:cp :      0.18s CPU      0.19s WALL (    1848 calls)
     ccgdiagg     :     18.34s CPU     19.48s WALL (     840 calls)
     wfcrot       :      2.37s CPU      2.51s WALL (     840 calls)

     Called by *cgdiagg:
     h_psi        :     11.77s CPU     12.48s WALL (   69753 calls)
     s_psi        :      1.97s CPU      2.10s WALL (  138666 calls)

     Called by h_psi:
     h_psi:calbec :      1.82s CPU      1.93s WALL (   69753 calls)
     vloc_psi     :      8.33s CPU      8.83s WALL (   69753 calls)
     add_vuspsi   :      1.08s CPU      1.15s WALL (   69753 calls)
     hs_1psi      :     11.25s CPU     11.94s WALL (   68913 calls)
     s_1psi       :      2.78s CPU      2.94s WALL (   68913 calls)

     General routines
     calbec       :      3.24s CPU      3.44s WALL (  139786 calls)
     fft          :      0.03s CPU      0.04s WALL (     102 calls)
     ffts         :      0.00s CPU      0.00s WALL (      31 calls)
     fftw         :      7.10s CPU      7.49s WALL (  194274 calls)
     interpolate  :      0.01s CPU      0.01s WALL (      16 calls)
 
     Parallel routines
 
     PWSCF        :     25.73s CPU     27.74s WALL

 
   This run was terminated on:   0:30:45  18Nov2025            

=------------------------------------------------------------------------------=
   JOB DONE.
=------------------------------------------------------------------------------=
TACC:  Shutdown complete. Exiting. 
