TACC:  Starting up job 2560862 
TACC:  Starting parallel tasks... 

     Program PWSCF v.7.3 starts on 18Nov2025 at  0:22:16 

     This program is part of the open-source Quantum ESPRESSO suite
     for quantum simulation of materials; please cite
         "P. Giannozzi et al., J. Phys.:Condens. Matter 21 395502 (2009);
         "P. Giannozzi et al., J. Phys.:Condens. Matter 29 465901 (2017);
         "P. Giannozzi et al., J. Chem. Phys. 152 154105 (2020);
          URL http://www.quantum-espresso.org", 
     in publications or presentations arising from this work. More details at
     http://www.quantum-espresso.org/quote

     Parallel version (MPI & OpenMP), running on      10 processor cores
     Number of MPI processes:                10
     Threads/MPI process:                     1

     MPI processes distributed on     1 nodes
     186459 MiB available memory on the printing compute node when the environment starts
 
     Waiting for input...
     Reading input from standard input
Warning: card &CELL ignored
Warning: card  CELL_DYNAMICS = 'BFGS', ignored
Warning: card  PRESS=0.D0, ignored
Warning: card / ignored

     Current dimensions of program PWSCF are:
     Max number of different atomic species (ntypx) = 10
     Max number of k-points (npk) =  40000
     Max angular momentum in pseudopotentials (lmaxx) =  4
     Message from routine setup:
     using ibrav=0 with symmetry is DISCOURAGED, use correct ibrav instead
 
     R & G space division:  proc/nbgrp/npool/nimage =      10
     Subspace diagonalization in iterative solution of the eigenvalue problem:
     a serial algorithm will be used

 
     Parallelization info
     --------------------
     sticks:   dense  smooth     PW     G-vecs:    dense   smooth      PW
     Min         209      84     25                 7681     1944     321
     Max         210      85     26                 7686     1949     324
     Sum        2093     845    253                76835    19471    3231
 
     Using Slab Decomposition
 


     bravais-lattice index     =            0
     lattice parameter (alat)  =       7.2859  a.u.
     unit-cell volume          =     407.0771 (a.u.)^3
     number of atoms/cell      =            5
     number of atomic types    =            3
     number of electrons       =        44.00
     number of Kohn-Sham states=           22
     kinetic-energy cutoff     =      50.0000  Ry
     charge density cutoff     =     500.0000  Ry
     scf convergence threshold =      1.0E-08
     mixing beta               =       0.7000
     number of iterations used =            8  plain     mixing
     energy convergence thresh.=      1.0E-04
     force convergence thresh. =      1.0E-03
     Exchange-correlation= SLA  PZ   NOGX NOGC
                           (   1   1   0   0   0   0   0)
     nstep                     =           50


     celldm(1)=   7.285877  celldm(2)=   0.000000  celldm(3)=   0.000000
     celldm(4)=   0.000000  celldm(5)=   0.000000  celldm(6)=   0.000000

     crystal axes: (cart. coord. in units of alat)
               a(1) = (   1.000000   0.000000   0.000000 )  
               a(2) = (   0.000000   1.000000   0.000000 )  
               a(3) = (   0.000000   0.000000   1.052522 )  

     reciprocal axes: (cart. coord. in units 2 pi/alat)
               b(1) = (  1.000000  0.000000  0.000000 )  
               b(2) = (  0.000000  1.000000  0.000000 )  
               b(3) = (  0.000000  0.000000  0.950099 )  


     PseudoPot. # 1 for Pb read from file:
     /scratch/11018/zhc/assisgnment3/input_files/Pb_LDA.UPF
     MD5 check sum: 062a37469794d955244864f8fe2e5624
     Pseudo is Ultrasoft + core correction, Zval = 14.0
     Generated by new atomic code, or converted to UPF format
     Using radial grid of  899 points,  6 beta functions with: 
                l(1) =   0
                l(2) =   0
                l(3) =   1
                l(4) =   1
                l(5) =   2
                l(6) =   2
     Q(r) pseudized with  6 coefficients,  rinner =    1.000   1.000   1.000
                                                       1.000   1.000

     PseudoPot. # 2 for Ti read from file:
     /scratch/11018/zhc/assisgnment3/input_files/Ti_LDA.UPF
     MD5 check sum: 0d9f225c038fe889ca2a701dcc8d72cb
     Pseudo is Ultrasoft + core correction, Zval = 12.0
     Generated by new atomic code, or converted to UPF format
     Using radial grid of  851 points,  6 beta functions with: 
                l(1) =   0
                l(2) =   0
                l(3) =   1
                l(4) =   1
                l(5) =   2
                l(6) =   2
     Q(r) pseudized with  6 coefficients,  rinner =    1.000   1.000   1.000
                                                       1.000   1.000

     PseudoPot. # 3 for O  read from file:
     /scratch/11018/zhc/assisgnment3/input_files/O_LDA.UPF
     MD5 check sum: 194b818514d2a7dbb603bb78519a4f40
     Pseudo is Ultrasoft + core correction, Zval =  6.0
     Generated by new atomic code, or converted to UPF format
     Using radial grid of  737 points,  5 beta functions with: 
                l(1) =   0
                l(2) =   0
                l(3) =   1
                l(4) =   1
                l(5) =   2
     Q(r) pseudized with  8 coefficients,  rinner =    0.900   0.900   0.900
                                                       0.900   0.900

     atomic species   valence    mass     pseudopotential
     Pb               14.00   207.20000     Pb( 1.00)
     Ti               12.00    47.88000     Ti( 1.00)
     O                 6.00    16.00000     O ( 1.00)

      8 Sym. Ops. (no inversion) found



   Cartesian axes

     site n.     atom                  positions (alat units)
         1        Pb     tau(   1) = (   0.0000000   0.0000000   1.0579677  )
         2        Ti     tau(   2) = (   0.5000000   0.5000000   0.5678719  )
         3        O      tau(   3) = (   0.5000000   0.5000000   0.1047343  )
         4        O      tau(   4) = (   0.5000000   0.0000000   0.6436531  )
         5        O      tau(   5) = (   0.0000000   0.5000000   0.6436531  )

     number of k points=    30
                       cart. coord. in units 2pi/alat
        k(    1) = (   0.0000000   0.0000000   0.0000000), wk =   0.0138889
        k(    2) = (   0.0000000   0.0000000   0.2375247), wk =   0.0277778
        k(    3) = (   0.0000000   0.0000000  -0.4750494), wk =   0.0138889
        k(    4) = (   0.0000000   0.1666667   0.0000000), wk =   0.0555556
        k(    5) = (   0.0000000   0.1666667   0.2375247), wk =   0.1111111
        k(    6) = (   0.0000000   0.1666667  -0.4750494), wk =   0.0555556
        k(    7) = (   0.0000000   0.3333333   0.0000000), wk =   0.0555556
        k(    8) = (   0.0000000   0.3333333   0.2375247), wk =   0.1111111
        k(    9) = (   0.0000000   0.3333333  -0.4750494), wk =   0.0555556
        k(   10) = (   0.0000000  -0.5000000   0.0000000), wk =   0.0277778
        k(   11) = (   0.0000000  -0.5000000   0.2375247), wk =   0.0555556
        k(   12) = (   0.0000000  -0.5000000  -0.4750494), wk =   0.0277778
        k(   13) = (   0.1666667   0.1666667   0.0000000), wk =   0.0555556
        k(   14) = (   0.1666667   0.1666667   0.2375247), wk =   0.1111111
        k(   15) = (   0.1666667   0.1666667  -0.4750494), wk =   0.0555556
        k(   16) = (   0.1666667   0.3333333   0.0000000), wk =   0.1111111
        k(   17) = (   0.1666667   0.3333333   0.2375247), wk =   0.2222222
        k(   18) = (   0.1666667   0.3333333  -0.4750494), wk =   0.1111111
        k(   19) = (   0.1666667  -0.5000000   0.0000000), wk =   0.0555556
        k(   20) = (   0.1666667  -0.5000000   0.2375247), wk =   0.1111111
        k(   21) = (   0.1666667  -0.5000000  -0.4750494), wk =   0.0555556
        k(   22) = (   0.3333333   0.3333333   0.0000000), wk =   0.0555556
        k(   23) = (   0.3333333   0.3333333   0.2375247), wk =   0.1111111
        k(   24) = (   0.3333333   0.3333333  -0.4750494), wk =   0.0555556
        k(   25) = (   0.3333333  -0.5000000   0.0000000), wk =   0.0555556
        k(   26) = (   0.3333333  -0.5000000   0.2375247), wk =   0.1111111
        k(   27) = (   0.3333333  -0.5000000  -0.4750494), wk =   0.0555556
        k(   28) = (  -0.5000000  -0.5000000   0.0000000), wk =   0.0138889
        k(   29) = (  -0.5000000  -0.5000000   0.2375247), wk =   0.0277778
        k(   30) = (  -0.5000000  -0.5000000  -0.4750494), wk =   0.0138889

     Dense  grid:    76835 G-vectors     FFT dimensions: (  54,  54,  60)

     Smooth grid:    19471 G-vectors     FFT dimensions: (  36,  36,  36)

     Estimated max dynamical RAM per process >      36.58 MB

     Estimated total dynamical RAM >     365.75 MB

     Check: negative core charge=   -0.000004

     Initial potential from superposition of free atoms

     starting charge      42.9982, renormalised to      44.0000

     negative rho (up, down):  1.669E-02 0.000E+00
     Starting wfcs are   31 randomized atomic wfcs

     total cpu time spent up to now is        0.7 secs

     Self-consistent Calculation

     iteration #  1     ecut=    50.00 Ry     beta= 0.70
     CG style diagonalization
     ethr =  1.00E-02,  avg # of iterations =  2.1

     negative rho (up, down):  1.400E-02 0.000E+00

     total cpu time spent up to now is        1.2 secs

     total energy              =    -380.06369322 Ry
     estimated scf accuracy    <       1.02007182 Ry

     iteration #  2     ecut=    50.00 Ry     beta= 0.70
     CG style diagonalization
     ethr =  2.32E-03,  avg # of iterations =  4.8

     negative rho (up, down):  1.450E-02 0.000E+00

     total cpu time spent up to now is        2.2 secs

     total energy              =    -379.74833554 Ry
     estimated scf accuracy    <       3.95529678 Ry

     iteration #  3     ecut=    50.00 Ry     beta= 0.70
     CG style diagonalization
     ethr =  2.32E-03,  avg # of iterations =  4.3

     negative rho (up, down):  1.512E-02 0.000E+00

     total cpu time spent up to now is        3.0 secs

     total energy              =    -380.53687256 Ry
     estimated scf accuracy    <       0.31749443 Ry

     iteration #  4     ecut=    50.00 Ry     beta= 0.70
     CG style diagonalization
     ethr =  7.22E-04,  avg # of iterations =  3.4

     negative rho (up, down):  1.511E-02 0.000E+00

     total cpu time spent up to now is        3.7 secs

     total energy              =    -380.55959837 Ry
     estimated scf accuracy    <       0.04456699 Ry

     iteration #  5     ecut=    50.00 Ry     beta= 0.70
     CG style diagonalization
     ethr =  1.01E-04,  avg # of iterations =  3.8

     negative rho (up, down):  1.511E-02 0.000E+00

     total cpu time spent up to now is        4.5 secs

     total energy              =    -380.57141825 Ry
     estimated scf accuracy    <       0.00793202 Ry

     iteration #  6     ecut=    50.00 Ry     beta= 0.70
     CG style diagonalization
     ethr =  1.80E-05,  avg # of iterations =  3.9

     negative rho (up, down):  1.512E-02 0.000E+00

     total cpu time spent up to now is        5.2 secs

     total energy              =    -380.57362813 Ry
     estimated scf accuracy    <       0.00655450 Ry

     iteration #  7     ecut=    50.00 Ry     beta= 0.70
     CG style diagonalization
     ethr =  1.49E-05,  avg # of iterations =  3.2

     negative rho (up, down):  1.513E-02 0.000E+00

     total cpu time spent up to now is        5.9 secs

     total energy              =    -380.57359303 Ry
     estimated scf accuracy    <       0.00179531 Ry

     iteration #  8     ecut=    50.00 Ry     beta= 0.70
     CG style diagonalization
     ethr =  4.08E-06,  avg # of iterations =  3.6

     negative rho (up, down):  1.515E-02 0.000E+00

     total cpu time spent up to now is        6.6 secs

     total energy              =    -380.57398364 Ry
     estimated scf accuracy    <       0.00001005 Ry

     iteration #  9     ecut=    50.00 Ry     beta= 0.70
     CG style diagonalization
     c_bands:  1 eigenvalues not converged
     ethr =  2.28E-08,  avg # of iterations =  7.7

     negative rho (up, down):  1.519E-02 0.000E+00

     total cpu time spent up to now is        8.1 secs

     total energy              =    -380.57404639 Ry
     estimated scf accuracy    <       0.00003603 Ry

     iteration # 10     ecut=    50.00 Ry     beta= 0.70
     CG style diagonalization
     ethr =  2.28E-08,  avg # of iterations =  3.4

     negative rho (up, down):  1.530E-02 0.000E+00

     total cpu time spent up to now is        8.7 secs

     total energy              =    -380.57403891 Ry
     estimated scf accuracy    <       0.00002099 Ry

     iteration # 11     ecut=    50.00 Ry     beta= 0.70
     CG style diagonalization
     ethr =  2.28E-08,  avg # of iterations =  4.2

     negative rho (up, down):  1.529E-02 0.000E+00

     total cpu time spent up to now is        9.6 secs

     total energy              =    -380.57404380 Ry
     estimated scf accuracy    <       0.00000197 Ry

     iteration # 12     ecut=    50.00 Ry     beta= 0.70
     CG style diagonalization
     ethr =  4.48E-09,  avg # of iterations =  4.4

     negative rho (up, down):  1.530E-02 0.000E+00

     total cpu time spent up to now is       10.4 secs

     total energy              =    -380.57404461 Ry
     estimated scf accuracy    <       0.00000006 Ry

     iteration # 13     ecut=    50.00 Ry     beta= 0.70
     CG style diagonalization
     c_bands:  1 eigenvalues not converged
     ethr =  1.31E-10,  avg # of iterations = 10.5

     negative rho (up, down):  1.530E-02 0.000E+00

     total cpu time spent up to now is       12.5 secs

     total energy              =    -380.57404523 Ry
     estimated scf accuracy    <       0.00000011 Ry

     iteration # 14     ecut=    50.00 Ry     beta= 0.70
     CG style diagonalization
     ethr =  1.31E-10,  avg # of iterations =  3.7

     negative rho (up, down):  1.530E-02 0.000E+00

     total cpu time spent up to now is       13.2 secs

     total energy              =    -380.57404523 Ry
     estimated scf accuracy    <       0.00000003 Ry

     iteration # 15     ecut=    50.00 Ry     beta= 0.70
     CG style diagonalization
     ethr =  7.46E-11,  avg # of iterations =  4.5

     negative rho (up, down):  1.530E-02 0.000E+00

     total cpu time spent up to now is       14.1 secs

     total energy              =    -380.57404524 Ry
     estimated scf accuracy    <       0.00000002 Ry

     iteration # 16     ecut=    50.00 Ry     beta= 0.70
     CG style diagonalization
     ethr =  4.60E-11,  avg # of iterations =  3.9

     negative rho (up, down):  1.530E-02 0.000E+00

     total cpu time spent up to now is       14.8 secs

     End of self-consistent calculation

          k = 0.0000 0.0000 0.0000 (  2421 PWs)   bands (ev):

   -45.2009 -21.8776 -21.7969 -21.7969  -7.1831  -6.0339  -5.7752  -4.4391
    -4.4391  -4.3990  -4.2805  -4.1709   4.8114   6.7196   6.7196   7.0848
     8.6933   8.6933   8.9273   9.2663   9.4217   9.4217

          k = 0.0000 0.0000 0.2375 (  2445 PWs)   bands (ev):

   -45.2006 -21.9005 -21.7960 -21.7960  -6.9776  -5.9727  -5.7070  -4.4566
    -4.4566  -4.3975  -4.2691  -4.2471   3.9555   6.7746   6.7746   7.2865
     8.4414   8.4414   8.8449   9.3501   9.5394   9.5394

          k = 0.0000 0.0000-0.4750 (  2434 PWs)   bands (ev):

   -45.2003 -21.9233 -21.7951 -21.7951  -6.7541  -5.9058  -5.6455  -4.4739
    -4.4739  -4.3961  -4.3292  -4.2594   3.4154   6.5990   6.8092   6.8092
     8.2840   8.2840   8.7667   9.6149   9.6149  10.6181

          k = 0.0000 0.1667 0.0000 (  2423 PWs)   bands (ev):

   -45.2005 -21.8767 -21.8173 -21.7961  -7.0382  -5.9999  -5.7443  -4.4634
    -4.4375  -4.4138  -4.2837  -4.1590   4.3271   6.7786   6.8296   7.1175
     8.6491   8.7162   8.9278   9.0439   9.1479   9.5392

          k = 0.0000 0.1667 0.2375 (  2434 PWs)   bands (ev):

   -45.2002 -21.8995 -21.8163 -21.7952  -6.8491  -5.9546  -5.6702  -4.4619
    -4.4556  -4.4130  -4.2785  -4.1979   3.7233   6.5650   6.8956   7.3686
     8.1095   8.4243   8.7455   9.1401   9.2097   9.9071

          k = 0.0000 0.1667-0.4750 (  2426 PWs)   bands (ev):

   -45.1999 -21.9221 -21.8152 -21.7942  -6.6535  -5.9033  -5.5937  -4.4735
    -4.4582  -4.4121  -4.2839  -4.2325   3.2718   6.2518   6.9361   7.0192
     7.9137   8.2757   8.8119   9.1996   9.2907  10.5418

          k = 0.0000 0.3333 0.0000 (  2430 PWs)   bands (ev):

   -45.1998 -21.8752 -21.8575 -21.7944  -6.7239  -5.9260  -5.6981  -4.5004
    -4.4434  -4.4342  -4.2788  -4.1637   3.7021   6.4082   7.0716   7.1108
     8.3068   8.3384   8.7811   8.8344   9.2656  10.1921

          k = 0.0000 0.3333 0.2375 (  2427 PWs)   bands (ev):

   -45.1994 -21.8974 -21.8564 -21.7934  -6.6009  -5.8840  -5.6027  -4.4675
    -4.4536  -4.4435  -4.2724  -4.1372   3.3387   6.2803   6.9807   7.2096
     7.7433   8.1677   8.3202   8.8862   9.4006  10.2694

          k = 0.0000 0.3333-0.4750 (  2434 PWs)   bands (ev):

   -45.1991 -21.9196 -21.8552 -21.7924  -6.5095  -5.8173  -5.4773  -4.4726
    -4.4439  -4.4269  -4.3085  -4.0842   3.0204   5.9625   6.7436   7.2543
     7.6299   7.7951   8.1087   8.9166   9.8430  10.0928

          k = 0.0000-0.5000 0.0000 (  2436 PWs)   bands (ev):

   -45.1994 -21.8780 -21.8738 -21.7935  -6.5507  -5.8694  -5.7028  -4.5164
    -4.4579  -4.4326  -4.2526  -4.1960   3.4833   6.0249   7.3399   7.3536
     7.8076   7.9556   8.7025   8.8733   9.2965  10.9939

          k = 0.0000-0.5000 0.2375 (  2430 PWs)   bands (ev):

   -45.1991 -21.8961 -21.8766 -21.7925  -6.4934  -5.7941  -5.5959  -4.4800
    -4.4588  -4.4525  -4.2387  -4.1327   3.1877   5.9968   7.0125   7.2548
     7.5594   7.7594   8.4295   8.8657   9.3993  10.4750

          k = 0.0000-0.5000-0.4750 (  2432 PWs)   bands (ev):

   -45.1987 -21.9182 -21.8751 -21.7915  -6.4757  -5.7134  -5.4231  -4.4722
    -4.4597  -4.4358  -4.2938  -4.0226   2.9200   5.8199   6.4347   7.3156
     7.5818   7.7823   7.8082   8.8605   9.7700  10.1377

          k = 0.1667 0.1667 0.0000 (  2441 PWs)   bands (ev):

   -45.2002 -21.8759 -21.8165 -21.8161  -6.8957  -5.9649  -5.7355  -4.4691
    -4.4537  -4.4175  -4.2598  -4.1479   3.9985   6.7034   6.9509   7.1736
     8.1737   8.2866   9.0193   9.0560   9.3627   9.7746

          k = 0.1667 0.1667 0.2375 (  2423 PWs)   bands (ev):

   -45.1998 -21.8985 -21.8155 -21.8152  -6.7177  -5.9393  -5.6618  -4.4721
    -4.4487  -4.4114  -4.2495  -4.1635   3.6003   6.4830   6.5906   7.3130
     8.0035   8.0214   8.8297   9.2016   9.4411   9.8772

          k = 0.1667 0.1667-0.4750 (  2444 PWs)   bands (ev):

   -45.1995 -21.9210 -21.8144 -21.8142  -6.5405  -5.9135  -5.5759  -4.4849
    -4.4271  -4.3888  -4.2551  -4.1850   3.2390   6.2691   6.3209   7.0067
     7.9120   7.9465   8.7339   9.2772   9.4995  10.2407

          k = 0.1667 0.3333 0.0000 (  2426 PWs)   bands (ev):

   -45.1994 -21.8743 -21.8564 -21.8145  -6.5895  -5.8929  -5.7331  -4.4934
    -4.4427  -4.4017  -4.2352  -4.1529   3.4884   6.4064   6.9526   7.2472
     7.6324   8.2218   8.5237   9.1997   9.3866  10.2719

          k = 0.1667 0.3333 0.2375 (  2430 PWs)   bands (ev):

   -45.1991 -21.8964 -21.8554 -21.8135  -6.4630  -5.8838  -5.6517  -4.4691
    -4.4433  -4.3783  -4.2148  -4.1113   3.3433   6.2301   6.3633   6.9172
     7.3695   8.0584   8.8793   9.1595   9.4934   9.9811

          k = 0.1667 0.3333-0.4750 (  2426 PWs)   bands (ev):

   -45.1987 -21.9186 -21.8542 -21.8125  -6.3741  -5.8606  -5.5313  -4.4666
    -4.4177  -4.3375  -4.2276  -4.0569   3.1544   5.8810   6.2953   6.6225
     6.8587   7.9164   8.9911   9.2046   9.4858   9.9287

          k = 0.1667-0.5000 0.0000 (  2428 PWs)   bands (ev):

   -45.1990 -21.8768 -21.8729 -21.8135  -6.4223  -5.8389  -5.7589  -4.4964
    -4.4347  -4.3797  -4.2166  -4.1863   3.2897   6.0436   7.0701   7.2951
     7.5939   7.9390   8.3913   9.2347   9.3822  10.6005

          k = 0.1667-0.5000 0.2375 (  2432 PWs)   bands (ev):

   -45.1987 -21.8952 -21.8755 -21.8126  -6.3541  -5.8044  -5.6739  -4.4673
    -4.4297  -4.3561  -4.1924  -4.1049   3.2258   6.0016   6.2584   6.6654
     7.3307   8.2020   8.6447   9.1703   9.4998   9.9461

          k = 0.1667-0.5000-0.4750 (  2420 PWs)   bands (ev):

   -45.1984 -21.9172 -21.8741 -21.8116  -6.3392  -5.7712  -5.5146  -4.4613
    -4.3862  -4.3335  -4.2110  -3.9961   3.1149   5.7735   6.1272   6.2766
     6.7183   8.0293   8.8540   9.1208   9.1461  10.1461

          k = 0.3333 0.3333 0.0000 (  2438 PWs)   bands (ev):

   -45.1986 -21.8726 -21.8543 -21.8541  -6.3238  -5.8264  -5.7851  -4.4732
    -4.4229  -4.3296  -4.1551  -4.1529   3.0858   6.3907   6.4863   7.3560
     7.5078   7.6591   8.3209   9.0424   9.8653   9.9988

          k = 0.3333 0.3333 0.2375 (  2428 PWs)   bands (ev):

   -45.1983 -21.8944 -21.8534 -21.8533  -6.1883  -5.8746  -5.7408  -4.4315
    -4.4159  -4.2690  -4.1058  -4.0749   3.2736   5.9413   6.0129   6.3876
     7.0314   7.5358   8.9391   9.4549   9.5004   9.8812

          k = 0.3333 0.3333-0.4750 (  2432 PWs)   bands (ev):

   -45.1980 -21.9164 -21.8523 -21.8523  -6.1191  -5.9194  -5.6181  -4.4089
    -4.3901  -4.2033  -4.0569  -3.9969   3.4378   5.5403   5.5590   6.1379
     6.7902   6.9465   8.1936   9.8344   9.8507  10.0127

          k = 0.3333-0.5000 0.0000 (  2462 PWs)   bands (ev):

   -45.1982 -21.8745 -21.8712 -21.8532  -6.2034  -5.8016  -5.7831  -4.4647
    -4.3989  -4.2645  -4.1892  -4.1175   2.9004   6.0368   6.5316   7.1693
     7.7021   7.8178   7.9404   9.0107   9.6775  10.0694

          k = 0.3333-0.5000 0.2375 (  2436 PWs)   bands (ev):

   -45.1979 -21.8932 -21.8733 -21.8523  -6.0702  -5.8295  -5.7996  -4.4222
    -4.3872  -4.1741  -4.1060  -4.0431   3.2009   5.8345   5.9829   6.0522
     6.8134   7.6081   8.4633   9.4533   9.4825  10.0403

          k = 0.3333-0.5000-0.4750 (  2420 PWs)   bands (ev):

   -45.1976 -21.9152 -21.8722 -21.8513  -6.0604  -5.8728  -5.6566  -4.3918
    -4.3652  -4.1108  -4.0217  -3.9400   3.5786   5.2709   5.4684   5.8910
     6.5506   6.9642   7.4069   9.9356  10.0125  10.1705

          k =-0.5000-0.5000 0.0000 (  2480 PWs)   bands (ev):

   -45.1979 -21.8733 -21.8733 -21.8698  -6.1470  -5.7581  -5.7581  -4.4537
    -4.3510  -4.2105  -4.2105  -4.0661   2.7088   5.8854   6.3629   7.3845
     7.3845   7.9360   7.9360   8.7775   9.1938  10.3311

          k =-0.5000-0.5000 0.2375 (  2432 PWs)   bands (ev):

   -45.1975 -21.8920 -21.8723 -21.8723  -5.9347  -5.8437  -5.8437  -4.4099
    -4.3488  -4.0648  -4.0648  -4.0318   3.1241   5.8421   5.9595   5.9595
     6.3695   7.5497   7.8059   9.4821   9.4821  10.3138

          k =-0.5000-0.5000-0.4750 (  2400 PWs)   bands (ev):

   -45.1972 -21.9140 -21.8712 -21.8712  -5.9184  -5.9184  -5.7161  -4.3660
    -4.3467  -3.9861  -3.9275  -3.9275   3.7962   5.3014   5.3014   5.7249
     6.3761   6.3947   6.6595  10.1823  10.1823  10.2965

     highest occupied level (ev):    10.9939

!    total energy              =    -380.57404524 Ry
     estimated scf accuracy    <          5.7E-10 Ry

     The total energy is the sum of the following terms:
     one-electron contribution =     -79.91528611 Ry
     hartree contribution      =      69.99436718 Ry
     xc contribution           =    -102.67147396 Ry
     ewald contribution        =    -267.98165236 Ry

     convergence has been achieved in  16 iterations

     negative rho (up, down):  1.530E-02 0.000E+00

     Forces acting on atoms (cartesian axes, Ry/au):

     atom    1 type  1   force =     0.00000000    0.00000000   -0.00012907
     atom    2 type  2   force =     0.00000000    0.00000000   -0.00169735
     atom    3 type  3   force =     0.00000000    0.00000000    0.00187170
     atom    4 type  3   force =     0.00000000    0.00000000   -0.00002264
     atom    5 type  3   force =     0.00000000    0.00000000   -0.00002264

     Total force =     0.002530     Total SCF correction =     0.000082


     Computing stress (Cartesian axis) and pressure


     negative rho (up, down):  1.530E-02 0.000E+00
          total   stress  (Ry/bohr**3)                   (kbar)     P=       -2.91
  -0.00001176   0.00000000   0.00000000           -1.73        0.00        0.00
   0.00000000  -0.00001176   0.00000000            0.00       -1.73        0.00
   0.00000000   0.00000000  -0.00003578            0.00        0.00       -5.26


     BFGS Geometry Optimization
     Energy error            =      0.0E+00 Ry
     Gradient error          =      1.9E-03 Ry/Bohr

     number of scf cycles    =   1
     number of bfgs steps    =   0

     energy             new  =    -380.5740452442 Ry

     new trust radius        =       0.0018717024 bohr
     new conv_thr            =       0.0000000100 Ry


ATOMIC_POSITIONS (crystal)
Pb               0.0000000000        0.0000000000        1.0051569969
Ti               0.5000000000        0.5000000000        0.5393130898
O                0.5000000000        0.5000000000        0.0997519777
O                0.5000000000        0.0000000000        0.6115311117
O                0.0000000000        0.5000000000        0.6115311117



     Writing config-only to output data dir ./pto_T3_eta0p006.save/ :
     XML data file
     NEW-OLD atomic charge density approx. for the potential

     Check: negative core charge=   -0.000004

     negative rho (up, down):  1.530E-02 0.000E+00

     total cpu time spent up to now is       16.0 secs

     Self-consistent Calculation

     iteration #  1     ecut=    50.00 Ry     beta= 0.70
     CG style diagonalization
     ethr =  1.00E-06,  avg # of iterations =  2.8

     Threshold (ethr) on eigenvalues was too large:
     Diagonalizing with lowered threshold

     CG style diagonalization
     c_bands:  2 eigenvalues not converged
     c_bands:  1 eigenvalues not converged
     c_bands:  1 eigenvalues not converged
     c_bands:  1 eigenvalues not converged
     c_bands:  2 eigenvalues not converged
     c_bands:  1 eigenvalues not converged
     c_bands:  1 eigenvalues not converged
     ethr =  5.80E-09,  avg # of iterations =  5.7

     negative rho (up, down):  1.530E-02 0.000E+00

     total cpu time spent up to now is       17.8 secs

     total energy              =    -380.57404791 Ry
     estimated scf accuracy    <       0.00000312 Ry

     iteration #  2     ecut=    50.00 Ry     beta= 0.70
     CG style diagonalization
     ethr =  7.09E-09,  avg # of iterations =  4.6

     negative rho (up, down):  1.530E-02 0.000E+00

     total cpu time spent up to now is       18.7 secs

     total energy              =    -380.57404748 Ry
     estimated scf accuracy    <       0.00000902 Ry

     iteration #  3     ecut=    50.00 Ry     beta= 0.70
     CG style diagonalization
     ethr =  7.09E-09,  avg # of iterations =  4.2

     negative rho (up, down):  1.530E-02 0.000E+00

     total cpu time spent up to now is       19.5 secs

     total energy              =    -380.57404922 Ry
     estimated scf accuracy    <       0.00000062 Ry

     iteration #  4     ecut=    50.00 Ry     beta= 0.70
     CG style diagonalization
     ethr =  1.41E-09,  avg # of iterations =  3.7

     negative rho (up, down):  1.530E-02 0.000E+00

     total cpu time spent up to now is       20.2 secs

     total energy              =    -380.57404939 Ry
     estimated scf accuracy    <       0.00000007 Ry

     iteration #  5     ecut=    50.00 Ry     beta= 0.70
     CG style diagonalization
     ethr =  1.52E-10,  avg # of iterations =  4.3

     negative rho (up, down):  1.530E-02 0.000E+00

     total cpu time spent up to now is       21.1 secs

     End of self-consistent calculation

          k = 0.0000 0.0000 0.0000 (  2421 PWs)   bands (ev):

   -45.1968 -21.8763 -21.7927 -21.7927  -7.1823  -6.0324  -5.7764  -4.4396
    -4.4396  -4.3998  -4.2813  -4.1712   4.8104   6.7203   6.7203   7.0870
     8.6852   8.6852   8.9275   9.2599   9.4232   9.4232

          k = 0.0000 0.0000 0.2375 (  2445 PWs)   bands (ev):

   -45.1965 -21.8992 -21.7918 -21.7918  -6.9763  -5.9712  -5.7084  -4.4571
    -4.4571  -4.3983  -4.2700  -4.2475   3.9536   6.7739   6.7739   7.2879
     8.4366   8.4366   8.8450   9.3480   9.5405   9.5405

          k = 0.0000 0.0000-0.4750 (  2434 PWs)   bands (ev):

   -45.1962 -21.9220 -21.7908 -21.7908  -6.7523  -5.9041  -5.6475  -4.4744
    -4.4744  -4.3968  -4.3296  -4.2603   3.4125   6.6005   6.8069   6.8069
     8.2821   8.2821   8.7667   9.6160   9.6160  10.6186

          k = 0.0000 0.1667 0.0000 (  2423 PWs)   bands (ev):

   -45.1964 -21.8754 -21.8130 -21.7918  -7.0375  -5.9985  -5.7455  -4.4640
    -4.4380  -4.4146  -4.2844  -4.1592   4.3266   6.7792   6.8304   7.1179
     8.6458   8.7084   8.9269   9.0450   9.1460   9.5364

          k = 0.0000 0.1667 0.2375 (  2434 PWs)   bands (ev):

   -45.1961 -21.8982 -21.8120 -21.7909  -6.8479  -5.9532  -5.6718  -4.4625
    -4.4561  -4.4137  -4.2793  -4.1982   3.7220   6.5642   6.8951   7.3696
     8.1073   8.4199   8.7459   9.1381   9.2103   9.9069

          k = 0.0000 0.1667-0.4750 (  2426 PWs)   bands (ev):

   -45.1958 -21.9208 -21.8110 -21.7899  -6.6517  -5.9018  -5.5957  -4.4740
    -4.4588  -4.4129  -4.2847  -4.2328   3.2696   6.2502   6.9339   7.0206
     7.9129   8.2739   8.8134   9.1976   9.2917  10.5425

          k = 0.0000 0.3333 0.0000 (  2430 PWs)   bands (ev):

   -45.1957 -21.8738 -21.8533 -21.7901  -6.7232  -5.9249  -5.6995  -4.5009
    -4.4441  -4.4347  -4.2793  -4.1640   3.7018   6.4096   7.0715   7.1120
     8.3072   8.3395   8.7814   8.8259   9.2617  10.1901

          k = 0.0000 0.3333 0.2375 (  2427 PWs)   bands (ev):

   -45.1953 -21.8961 -21.8522 -21.7891  -6.5997  -5.8830  -5.6044  -4.4681
    -4.4541  -4.4443  -4.2729  -4.1375   3.3381   6.2806   6.9809   7.2097
     7.7437   8.1662   8.3203   8.8832   9.3990  10.2683

          k = 0.0000 0.3333-0.4750 (  2434 PWs)   bands (ev):

   -45.1950 -21.9183 -21.8509 -21.7882  -6.5080  -5.8162  -5.4795  -4.4731
    -4.4447  -4.4274  -4.3091  -4.0843   3.0195   5.9605   6.7456   7.2524
     7.6302   7.7969   8.1082   8.9160   9.8386  10.0943

          k = 0.0000-0.5000 0.0000 (  2436 PWs)   bands (ev):

   -45.1953 -21.8737 -21.8725 -21.7892  -6.5499  -5.8684  -5.7043  -4.5169
    -4.4586  -4.4331  -4.2529  -4.1965   3.4829   6.0274   7.3385   7.3555
     7.8095   7.9565   8.7028   8.8644   9.2924  10.9920

          k = 0.0000-0.5000 0.2375 (  2430 PWs)   bands (ev):

   -45.1950 -21.8948 -21.8723 -21.7882  -6.4921  -5.7931  -5.5980  -4.4804
    -4.4595  -4.4530  -4.2393  -4.1329   3.1872   5.9988   7.0122   7.2546
     7.5613   7.7573   8.4297   8.8612   9.3987  10.4727

          k = 0.0000-0.5000-0.4750 (  2432 PWs)   bands (ev):

   -45.1946 -21.9169 -21.8709 -21.7873  -6.4742  -5.7124  -5.4255  -4.4727
    -4.4604  -4.4363  -4.2944  -4.0227   2.9195   5.8193   6.4355   7.3161
     7.5782   7.7844   7.8103   8.8588   9.7694  10.1344

          k = 0.1667 0.1667 0.0000 (  2441 PWs)   bands (ev):

   -45.1960 -21.8746 -21.8123 -21.8119  -6.8951  -5.9636  -5.7367  -4.4697
    -4.4543  -4.4182  -4.2605  -4.1482   3.9983   6.7046   6.9518   7.1728
     8.1679   8.2869   9.0197   9.0522   9.3642   9.7696

          k = 0.1667 0.1667 0.2375 (  2423 PWs)   bands (ev):

   -45.1957 -21.8972 -21.8112 -21.8109  -6.7167  -5.9379  -5.6634  -4.4727
    -4.4492  -4.4121  -4.2503  -4.1637   3.5993   6.4824   6.5904   7.3130
     8.0021   8.0221   8.8253   9.2013   9.4414   9.8768

          k = 0.1667 0.1667-0.4750 (  2444 PWs)   bands (ev):

   -45.1954 -21.9197 -21.8101 -21.8100  -6.5389  -5.9121  -5.5780  -4.4855
    -4.4278  -4.3893  -4.2560  -4.1852   3.2372   6.2672   6.3198   7.0085
     7.9117   7.9473   8.7308   9.2771   9.4994  10.2414

          k = 0.1667 0.3333 0.0000 (  2426 PWs)   bands (ev):

   -45.1953 -21.8729 -21.8522 -21.8102  -6.5891  -5.8917  -5.7342  -4.4939
    -4.4432  -4.4024  -4.2358  -4.1532   3.4884   6.4082   6.9520   7.2484
     7.6324   8.2159   8.5248   9.1985   9.3860  10.2690

          k = 0.1667 0.3333 0.2375 (  2430 PWs)   bands (ev):

   -45.1950 -21.8951 -21.8511 -21.8092  -6.4620  -5.8827  -5.6533  -4.4697
    -4.4438  -4.3790  -4.2155  -4.1116   3.3429   6.2301   6.3632   6.9179
     7.3693   8.0586   8.8785   9.1575   9.4923   9.9799

          k = 0.1667 0.3333-0.4750 (  2426 PWs)   bands (ev):

   -45.1946 -21.9173 -21.8500 -21.8082  -6.3727  -5.8595  -5.5334  -4.4673
    -4.4183  -4.3382  -4.2282  -4.0571   3.1536   5.8791   6.2957   6.6230
     6.8604   7.9178   8.9874   9.2057   9.4853   9.9269

          k = 0.1667-0.5000 0.0000 (  2428 PWs)   bands (ev):

   -45.1949 -21.8726 -21.8716 -21.8093  -6.4219  -5.8380  -5.7600  -4.4969
    -4.4352  -4.3806  -4.2170  -4.1868   3.2896   6.0461   7.0681   7.2968
     7.5958   7.9404   8.3835   9.2350   9.3803  10.5993

          k = 0.1667-0.5000 0.2375 (  2432 PWs)   bands (ev):

   -45.1946 -21.8939 -21.8712 -21.8083  -6.3531  -5.8035  -5.6758  -4.4679
    -4.4302  -4.3571  -4.1928  -4.1052   3.2255   6.0034   6.2587   6.6647
     7.3304   8.2018   8.6455   9.1668   9.5001   9.9435

          k = 0.1667-0.5000-0.4750 (  2420 PWs)   bands (ev):

   -45.1943 -21.9160 -21.8699 -21.8073  -6.3379  -5.7703  -5.5167  -4.4619
    -4.3867  -4.3346  -4.2113  -3.9963   3.1146   5.7723   6.1283   6.2776
     6.7186   8.0311   8.8535   9.1175   9.1470  10.1435

          k = 0.3333 0.3333 0.0000 (  2438 PWs)   bands (ev):

   -45.1945 -21.8712 -21.8501 -21.8500  -6.3242  -5.8253  -5.7855  -4.4736
    -4.4236  -4.3302  -4.1554  -4.1538   3.0862   6.3918   6.4893   7.3539
     7.5083   7.6532   8.3242   9.0414   9.8663   9.9973

          k = 0.3333 0.3333 0.2375 (  2428 PWs)   bands (ev):

   -45.1942 -21.8931 -21.8492 -21.8490  -6.1878  -5.8736  -5.7421  -4.4320
    -4.4166  -4.2697  -4.1067  -4.0751   3.2737   5.9408   6.0126   6.3887
     7.0333   7.5359   8.9386   9.4537   9.4974   9.8819

          k = 0.3333 0.3333-0.4750 (  2432 PWs)   bands (ev):

   -45.1939 -21.9151 -21.8481 -21.8480  -6.1180  -5.9184  -5.6200  -4.4096
    -4.3906  -4.2043  -4.0575  -3.9971   3.4375   5.5393   5.5594   6.1382
     6.7911   6.9496   8.1927   9.8313   9.8520  10.0104

          k = 0.3333-0.5000 0.0000 (  2462 PWs)   bands (ev):

   -45.1941 -21.8702 -21.8698 -21.8489  -6.2045  -5.8013  -5.7822  -4.4652
    -4.3996  -4.2650  -4.1895  -4.1186   2.9008   6.0389   6.5346   7.1659
     7.6972   7.8196   7.9413   9.0106   9.6771  10.0708

          k = 0.3333-0.5000 0.2375 (  2436 PWs)   bands (ev):

   -45.1938 -21.8919 -21.8691 -21.8481  -6.0700  -5.8286  -5.8006  -4.4227
    -4.3879  -4.1751  -4.1063  -4.0437   3.2013   5.8339   5.9836   6.0530
     6.8154   7.6079   8.4635   9.4513   9.4801  10.0414

          k = 0.3333-0.5000-0.4750 (  2420 PWs)   bands (ev):

   -45.1935 -21.9139 -21.8679 -21.8471  -6.0594  -5.8720  -5.6583  -4.3924
    -4.3658  -4.1122  -4.0219  -3.9403   3.5788   5.2713   5.4669   5.8926
     6.5522   6.9663   7.4061   9.9327  10.0140  10.1679

          k =-0.5000-0.5000 0.0000 (  2480 PWs)   bands (ev):

   -45.1937 -21.8691 -21.8691 -21.8685  -6.1488  -5.7572  -5.7572  -4.4542
    -4.3517  -4.2107  -4.2107  -4.0675   2.7094   5.8872   6.3670   7.3802
     7.3802   7.9373   7.9373   8.7772   9.1950  10.3326

          k =-0.5000-0.5000 0.2375 (  2432 PWs)   bands (ev):

   -45.1934 -21.8907 -21.8680 -21.8680  -5.9365  -5.8429  -5.8429  -4.4104
    -4.3496  -4.0649  -4.0649  -4.0334   3.1248   5.8440   5.9582   5.9582
     6.3736   7.5495   7.8063   9.4802   9.4802  10.3152

          k =-0.5000-0.5000-0.4750 (  2400 PWs)   bands (ev):

   -45.1931 -21.9127 -21.8669 -21.8669  -5.9176  -5.9176  -5.7177  -4.3665
    -4.3474  -3.9879  -3.9276  -3.9276   3.7973   5.3005   5.3005   5.7267
     6.3802   6.3944   6.6595  10.1799  10.1799  10.2980

     highest occupied level (ev):    10.9920

!    total energy              =    -380.57404942 Ry
     estimated scf accuracy    <          6.6E-09 Ry

     The total energy is the sum of the following terms:
     one-electron contribution =     -79.92912640 Ry
     hartree contribution      =      70.00249956 Ry
     xc contribution           =    -102.67243161 Ry
     ewald contribution        =    -267.97499097 Ry

     convergence has been achieved in   5 iterations

     negative rho (up, down):  1.530E-02 0.000E+00

     Forces acting on atoms (cartesian axes, Ry/au):

     atom    1 type  1   force =     0.00000000    0.00000000   -0.00041954
     atom    2 type  2   force =     0.00000000    0.00000000   -0.00054519
     atom    3 type  3   force =     0.00000000    0.00000000    0.00076572
     atom    4 type  3   force =     0.00000000    0.00000000    0.00009950
     atom    5 type  3   force =     0.00000000    0.00000000    0.00009950

     Total force =     0.001039     Total SCF correction =     0.000312
     SCF correction compared to forces is large: reduce conv_thr to get better values


     Computing stress (Cartesian axis) and pressure


     negative rho (up, down):  1.530E-02 0.000E+00
          total   stress  (Ry/bohr**3)                   (kbar)     P=       -2.31
  -0.00001095   0.00000000   0.00000000           -1.61        0.00        0.00
   0.00000000  -0.00001095   0.00000000            0.00       -1.61        0.00
   0.00000000   0.00000000  -0.00002529            0.00        0.00       -3.72

     Energy error            =      4.2E-06 Ry
     Gradient error          =      7.7E-04 Ry/Bohr

     bfgs converged in   2 scf cycles and   1 bfgs steps
     (criteria: energy <  1.0E-04 Ry, force <  1.0E-03 Ry/Bohr)

     End of BFGS Geometry Optimization

     Final energy             =    -380.5740494244 Ry

     File ./pto_T3_eta0p006.bfgs deleted, as requested
Begin final coordinates

ATOMIC_POSITIONS (crystal)
Pb               0.0000000000        0.0000000000        1.0051569969
Ti               0.5000000000        0.5000000000        0.5393130898
O                0.5000000000        0.5000000000        0.0997519777
O                0.5000000000        0.0000000000        0.6115311117
O                0.0000000000        0.5000000000        0.6115311117
End final coordinates



     Writing all to output data dir ./pto_T3_eta0p006.save/ :
     XML data file, charge density, pseudopotentials, collected wavefunctions
 
     init_run     :      0.38s CPU      0.46s WALL (       1 calls)
     electrons    :     18.09s CPU     19.24s WALL (       2 calls)
     update_pot   :      0.00s CPU      0.00s WALL (       1 calls)
     forces       :      0.20s CPU      0.21s WALL (       2 calls)
     stress       :      1.90s CPU      1.92s WALL (       2 calls)

     Called by init_run:
     wfcinit      :      0.15s CPU      0.18s WALL (       1 calls)
     potinit      :      0.01s CPU      0.01s WALL (       1 calls)
     hinit0       :      0.11s CPU      0.14s WALL (       1 calls)

     Called by electrons:
     c_bands      :     15.13s CPU     16.05s WALL (      22 calls)
     sum_band     :      2.03s CPU      2.12s WALL (      22 calls)
     v_of_rho     :      0.03s CPU      0.04s WALL (      23 calls)
     newd         :      0.93s CPU      1.05s WALL (      23 calls)
     mix_rho      :      0.03s CPU      0.03s WALL (      22 calls)

     Called by c_bands:
     init_us_2    :      0.14s CPU      0.15s WALL (    1470 calls)
     init_us_2:cp :      0.14s CPU      0.15s WALL (    1470 calls)
     ccgdiagg     :     13.47s CPU     14.32s WALL (     660 calls)
     wfcrot       :      1.68s CPU      1.78s WALL (     600 calls)

     Called by *cgdiagg:
     h_psi        :      8.62s CPU      9.13s WALL (   51955 calls)
     s_psi        :      1.34s CPU      1.42s WALL (  103310 calls)

     Called by h_psi:
     h_psi:calbec :      1.32s CPU      1.41s WALL (   51955 calls)
     vloc_psi     :      6.14s CPU      6.50s WALL (   51955 calls)
     add_vuspsi   :      0.74s CPU      0.79s WALL (   51955 calls)
     hs_1psi      :      8.23s CPU      8.74s WALL (   51355 calls)
     s_1psi       :      1.99s CPU      2.11s WALL (   51355 calls)

     General routines
     calbec       :      2.39s CPU      2.53s WALL (  104270 calls)
     fft          :      0.04s CPU      0.06s WALL (     152 calls)
     ffts         :      0.00s CPU      0.00s WALL (      45 calls)
     fftw         :      5.24s CPU      5.54s WALL (  144170 calls)
     interpolate  :      0.01s CPU      0.01s WALL (      23 calls)
 
     Parallel routines
 
     PWSCF        :     20.84s CPU     22.50s WALL

 
   This run was terminated on:   0:22:39  18Nov2025            

=------------------------------------------------------------------------------=
   JOB DONE.
=------------------------------------------------------------------------------=
TACC:  Shutdown complete. Exiting. 
