TACC:  Starting up job 2406173 
TACC:  Starting parallel tasks... 

     Program PWSCF v.7.3 starts on 23Sep2025 at 23:51: 5 

     This program is part of the open-source Quantum ESPRESSO suite
     for quantum simulation of materials; please cite
         "P. Giannozzi et al., J. Phys.:Condens. Matter 21 395502 (2009);
         "P. Giannozzi et al., J. Phys.:Condens. Matter 29 465901 (2017);
         "P. Giannozzi et al., J. Chem. Phys. 152 154105 (2020);
          URL http://www.quantum-espresso.org", 
     in publications or presentations arising from this work. More details at
     http://www.quantum-espresso.org/quote

     Parallel version (MPI & OpenMP), running on      10 processor cores
     Number of MPI processes:                10
     Threads/MPI process:                     1

     MPI processes distributed on     1 nodes
     183974 MiB available memory on the printing compute node when the environment starts
 
     Waiting for input...
     Reading input from standard input
Warning: card &CELL ignored
Warning: card  CELL_DYNAMICS = 'BFGS', ignored
Warning: card  PRESS=0.D0, ignored
Warning: card / ignored
     Message from routine read_cards :
     DEPRECATED: no units specified in ATOMIC_POSITIONS card
     Message from routine read_cards :
     ATOMIC_POSITIONS: units set to alat

     Current dimensions of program PWSCF are:
     Max number of different atomic species (ntypx) = 10
     Max number of k-points (npk) =  40000
     Max angular momentum in pseudopotentials (lmaxx) =  4
 
     R & G space division:  proc/nbgrp/npool/nimage =      10
     Subspace diagonalization in iterative solution of the eigenvalue problem:
     a serial algorithm will be used

 
     Parallelization info
     --------------------
     sticks:   dense  smooth     PW     G-vecs:    dense   smooth      PW
     Min         276     110     33                10992     2782     455
     Max         277     112     34                10995     2785     456
     Sum        2769    1109    333               109931    27825    4553
 
     Using Slab Decomposition
 


     bravais-lattice index     =            1
     lattice parameter (alat)  =       7.0563  a.u.
     unit-cell volume          =     351.3458 (a.u.)^3
     number of atoms/cell      =            5
     number of atomic types    =            3
     number of electrons       =        40.00
     number of Kohn-Sham states=           20
     kinetic-energy cutoff     =      70.0000  Ry
     charge density cutoff     =     700.0000  Ry
     scf convergence threshold =      1.0E-08
     mixing beta               =       0.7000
     number of iterations used =            8  plain     mixing
     Exchange-correlation= SLA  PZ   NOGX NOGC
                           (   1   1   0   0   0   0   0)

     celldm(1)=   7.056319  celldm(2)=   0.000000  celldm(3)=   0.000000
     celldm(4)=   0.000000  celldm(5)=   0.000000  celldm(6)=   0.000000

     crystal axes: (cart. coord. in units of alat)
               a(1) = (   1.000000   0.000000   0.000000 )  
               a(2) = (   0.000000   1.000000   0.000000 )  
               a(3) = (   0.000000   0.000000   1.000000 )  

     reciprocal axes: (cart. coord. in units 2 pi/alat)
               b(1) = (  1.000000  0.000000  0.000000 )  
               b(2) = (  0.000000  1.000000  0.000000 )  
               b(3) = (  0.000000  0.000000  1.000000 )  


     PseudoPot. # 1 for Ca read from file:
     /scratch/11018/zhc/assisgnment1/CaTiO3/Ca_LDA.UPF
     MD5 check sum: d2d4e7693e10d071152e9eeb7dd009f3
     Pseudo is Ultrasoft + core correction, Zval = 10.0
     Generated by new atomic code, or converted to UPF format
     Using radial grid of  845 points,  6 beta functions with: 
                l(1) =   0
                l(2) =   0
                l(3) =   1
                l(4) =   1
                l(5) =   2
                l(6) =   2
     Q(r) pseudized with  8 coefficients,  rinner =    1.500   1.500   1.500
                                                       1.500   1.500

     PseudoPot. # 2 for Ti read from file:
     /scratch/11018/zhc/assisgnment1/CaTiO3/Ti_LDA.UPF
     MD5 check sum: 0d9f225c038fe889ca2a701dcc8d72cb
     Pseudo is Ultrasoft + core correction, Zval = 12.0
     Generated by new atomic code, or converted to UPF format
     Using radial grid of  851 points,  6 beta functions with: 
                l(1) =   0
                l(2) =   0
                l(3) =   1
                l(4) =   1
                l(5) =   2
                l(6) =   2
     Q(r) pseudized with  6 coefficients,  rinner =    1.000   1.000   1.000
                                                       1.000   1.000

     PseudoPot. # 3 for O  read from file:
     /scratch/11018/zhc/assisgnment1/CaTiO3/O_LDA.UPF
     MD5 check sum: 194b818514d2a7dbb603bb78519a4f40
     Pseudo is Ultrasoft + core correction, Zval =  6.0
     Generated by new atomic code, or converted to UPF format
     Using radial grid of  737 points,  5 beta functions with: 
                l(1) =   0
                l(2) =   0
                l(3) =   1
                l(4) =   1
                l(5) =   2
     Q(r) pseudized with  8 coefficients,  rinner =    0.900   0.900   0.900
                                                       0.900   0.900

     atomic species   valence    mass     pseudopotential
     Ca               10.00    40.07800     Ca( 1.00)
     Ti               12.00    47.88000     Ti( 1.00)
     O                 6.00    16.00000     O ( 1.00)

     48 Sym. Ops., with inversion, found



   Cartesian axes

     site n.     atom                  positions (alat units)
         1        Ca     tau(   1) = (   0.0000000   0.0000000   0.0000000  )
         2        Ti     tau(   2) = (   0.5000000   0.5000000   0.5000000  )
         3        O      tau(   3) = (   0.5000000   0.5000000   0.0000000  )
         4        O      tau(   4) = (   0.5000000   0.0000000   0.5000000  )
         5        O      tau(   5) = (   0.0000000   0.5000000   0.5000000  )

     number of k points=    20
                       cart. coord. in units 2pi/alat
        k(    1) = (   0.0000000   0.0000000   0.0000000), wk =   0.0092593
        k(    2) = (   0.0000000   0.0000000   0.1666667), wk =   0.0555556
        k(    3) = (   0.0000000   0.0000000   0.3333333), wk =   0.0555556
        k(    4) = (   0.0000000   0.0000000  -0.5000000), wk =   0.0277778
        k(    5) = (   0.0000000   0.1666667   0.1666667), wk =   0.1111111
        k(    6) = (   0.0000000   0.1666667   0.3333333), wk =   0.2222222
        k(    7) = (   0.0000000   0.1666667  -0.5000000), wk =   0.1111111
        k(    8) = (   0.0000000   0.3333333   0.3333333), wk =   0.1111111
        k(    9) = (   0.0000000   0.3333333  -0.5000000), wk =   0.1111111
        k(   10) = (   0.0000000  -0.5000000  -0.5000000), wk =   0.0277778
        k(   11) = (   0.1666667   0.1666667   0.1666667), wk =   0.0740741
        k(   12) = (   0.1666667   0.1666667   0.3333333), wk =   0.2222222
        k(   13) = (   0.1666667   0.1666667  -0.5000000), wk =   0.1111111
        k(   14) = (   0.1666667   0.3333333   0.3333333), wk =   0.2222222
        k(   15) = (   0.1666667   0.3333333  -0.5000000), wk =   0.2222222
        k(   16) = (   0.1666667  -0.5000000  -0.5000000), wk =   0.0555556
        k(   17) = (   0.3333333   0.3333333   0.3333333), wk =   0.0740741
        k(   18) = (   0.3333333   0.3333333  -0.5000000), wk =   0.1111111
        k(   19) = (   0.3333333  -0.5000000  -0.5000000), wk =   0.0555556
        k(   20) = (  -0.5000000  -0.5000000  -0.5000000), wk =   0.0092593

     Dense  grid:   109931 G-vectors     FFT dimensions: (  60,  60,  60)

     Smooth grid:    27825 G-vectors     FFT dimensions: (  40,  40,  40)

     Estimated max dynamical RAM per process >      49.37 MB

     Estimated total dynamical RAM >     493.72 MB

     Check: negative core charge=   -0.000003

     Initial potential from superposition of free atoms

     starting charge      38.9952, renormalised to      40.0000

     negative rho (up, down):  7.717E-04 0.000E+00
     Starting wfcs are   32 randomized atomic wfcs

     total cpu time spent up to now is        0.9 secs

     Self-consistent Calculation

     iteration #  1     ecut=    70.00 Ry     beta= 0.70
     CG style diagonalization
     ethr =  1.00E-02,  avg # of iterations =  2.1

     negative rho (up, down):  1.181E-03 0.000E+00

     total cpu time spent up to now is        1.4 secs

     total energy              =    -291.31368995 Ry
     estimated scf accuracy    <       0.83060063 Ry

     iteration #  2     ecut=    70.00 Ry     beta= 0.70
     CG style diagonalization
     ethr =  2.08E-03,  avg # of iterations =  4.9

     negative rho (up, down):  5.737E-04 0.000E+00

     total cpu time spent up to now is        2.2 secs

     total energy              =    -290.98095763 Ry
     estimated scf accuracy    <       3.84857862 Ry

     iteration #  3     ecut=    70.00 Ry     beta= 0.70
     CG style diagonalization
     ethr =  2.08E-03,  avg # of iterations =  4.3

     negative rho (up, down):  7.275E-04 0.000E+00

     total cpu time spent up to now is        2.9 secs

     total energy              =    -291.73631423 Ry
     estimated scf accuracy    <       0.12021481 Ry

     iteration #  4     ecut=    70.00 Ry     beta= 0.70
     CG style diagonalization
     ethr =  3.01E-04,  avg # of iterations =  3.7

     negative rho (up, down):  8.300E-04 0.000E+00

     total cpu time spent up to now is        3.5 secs

     total energy              =    -291.74720696 Ry
     estimated scf accuracy    <       0.02121441 Ry

     iteration #  5     ecut=    70.00 Ry     beta= 0.70
     CG style diagonalization
     ethr =  5.30E-05,  avg # of iterations =  3.6

     negative rho (up, down):  8.539E-04 0.000E+00

     total cpu time spent up to now is        4.1 secs

     total energy              =    -291.75281460 Ry
     estimated scf accuracy    <       0.00033151 Ry

     iteration #  6     ecut=    70.00 Ry     beta= 0.70
     CG style diagonalization
     ethr =  8.29E-07,  avg # of iterations =  4.4

     negative rho (up, down):  8.414E-04 0.000E+00

     total cpu time spent up to now is        4.8 secs

     total energy              =    -291.75308538 Ry
     estimated scf accuracy    <       0.00041406 Ry

     iteration #  7     ecut=    70.00 Ry     beta= 0.70
     CG style diagonalization
     ethr =  8.29E-07,  avg # of iterations =  3.4

     negative rho (up, down):  8.352E-04 0.000E+00

     total cpu time spent up to now is        5.4 secs

     total energy              =    -291.75310180 Ry
     estimated scf accuracy    <       0.00005953 Ry

     iteration #  8     ecut=    70.00 Ry     beta= 0.70
     CG style diagonalization
     ethr =  1.49E-07,  avg # of iterations =  3.7

     negative rho (up, down):  8.342E-04 0.000E+00

     total cpu time spent up to now is        6.0 secs

     total energy              =    -291.75311717 Ry
     estimated scf accuracy    <       0.00000052 Ry

     iteration #  9     ecut=    70.00 Ry     beta= 0.70
     CG style diagonalization
     ethr =  1.30E-09,  avg # of iterations =  4.7

     negative rho (up, down):  8.346E-04 0.000E+00

     total cpu time spent up to now is        6.7 secs

     total energy              =    -291.75311840 Ry
     estimated scf accuracy    <       0.00000059 Ry

     iteration # 10     ecut=    70.00 Ry     beta= 0.70
     CG style diagonalization
     ethr =  1.30E-09,  avg # of iterations =  3.5

     negative rho (up, down):  8.346E-04 0.000E+00

     total cpu time spent up to now is        7.3 secs

     total energy              =    -291.75311848 Ry
     estimated scf accuracy    <       0.00000002 Ry

     iteration # 11     ecut=    70.00 Ry     beta= 0.70
     CG style diagonalization
     ethr =  3.93E-11,  avg # of iterations =  4.3

     negative rho (up, down):  8.346E-04 0.000E+00

     total cpu time spent up to now is        8.0 secs

     End of self-consistent calculation

          k = 0.0000 0.0000 0.0000 (  3431 PWs)   bands (ev):

   -44.8706 -28.0396 -21.5786 -21.5786 -21.5786  -9.2633  -9.2633  -9.2633
    -7.3007  -6.0616  -6.0616   7.1885   7.1885   7.1885   9.0548   9.0548
     9.0548  10.0690  10.0690  10.0690

          k = 0.0000 0.0000 0.1667 (  3483 PWs)   bands (ev):

   -44.8700 -28.0369 -21.6112 -21.5769 -21.5769  -9.4022  -9.2587  -9.2587
    -7.0504  -6.0469  -5.9215   6.8408   7.1770   7.1770   8.6370   8.6370
     8.7716   9.1358   9.9226   9.9226

          k = 0.0000 0.0000 0.3333 (  3499 PWs)   bands (ev):

   -44.8687 -28.0316 -21.6752 -21.5736 -21.5736  -9.6340  -9.2496  -9.2496
    -6.5752  -6.0173  -5.6256   6.0569   7.2041   7.2041   7.8523   7.9177
     7.9177   8.2876   9.7893   9.7893

          k = 0.0000 0.0000-0.5000 (  3514 PWs)   bands (ev):

   -44.8681 -28.0289 -21.7067 -21.5719 -21.5719  -9.7350  -9.2450  -9.2450
    -6.3486  -6.0024  -5.4587   5.5976   7.3715   7.3715   7.3963   7.4601
     7.4601   8.0747   9.7443   9.7443

          k = 0.0000 0.1667 0.1667 (  3489 PWs)   bands (ev):

   -44.8693 -28.0341 -21.6104 -21.6091 -21.5753  -9.4244  -9.3285  -9.2538
    -6.8458  -5.9759  -5.8454   6.5728   7.0404   7.1578   7.8753   8.3498
     9.0068   9.0156   9.3885   9.6817

          k = 0.0000 0.1667 0.3333 (  3481 PWs)   bands (ev):

   -44.8681 -28.0285 -21.6744 -21.6070 -21.5720  -9.5894  -9.3235  -9.2438
    -6.4697  -5.9149  -5.5653   5.9646   6.5537   7.1621   7.2155   7.7662
     8.1327   9.0195   9.2307   9.4648

          k = 0.0000 0.1667-0.5000 (  3478 PWs)   bands (ev):

   -44.8675 -28.0257 -21.7062 -21.6056 -21.5703  -9.6748  -9.3095  -9.2388
    -6.3139  -5.8763  -5.3863   5.5942   6.1520   7.1099   7.3076   7.3577
     7.8665   9.0348   9.0845   9.4025

          k = 0.0000 0.3333 0.3333 (  3479 PWs)   bands (ev):

   -44.8669 -28.0223 -21.6735 -21.6722 -21.5688  -9.5223  -9.4415  -9.2322
    -6.3875  -5.5874  -5.4054   5.4453   6.2030   6.2148   7.0988   7.4250
     8.2045   8.4201   9.0957   9.8776

          k = 0.0000 0.3333-0.5000 (  3462 PWs)   bands (ev):

   -44.8663 -28.0192 -21.7052 -21.6721 -21.5672  -9.5532  -9.4325  -9.2264
    -6.3872  -5.4404  -5.2455   5.1853   5.5847   6.1774   7.1559   7.1628
     8.1347   8.3903   8.9810  10.0400

          k = 0.0000-0.5000-0.5000 (  3468 PWs)   bands (ev):

   -44.8657 -28.0160 -21.7047 -21.7047 -21.5656  -9.4913  -9.4913  -9.2201
    -6.4439  -5.1766  -5.1766   4.8358   5.5121   5.6619   7.0698   7.0698
     8.2682   8.2682   8.8410  10.3328

          k = 0.1667 0.1667 0.1667 (  3488 PWs)   bands (ev):

   -44.8687 -28.0312 -21.6086 -21.6086 -21.6077  -9.4319  -9.3172  -9.3172
    -6.6600  -5.8475  -5.8475   6.3435   6.9730   6.9730   7.7529   7.7529
     8.5788   9.3338   9.3338   9.3721

          k = 0.1667 0.1667 0.3333 (  3483 PWs)   bands (ev):

   -44.8675 -28.0255 -21.6733 -21.6057 -21.6050  -9.5506  -9.3274  -9.2943
    -6.3150  -5.8522  -5.5390   5.8753   6.4925   6.6688   6.9777   7.3679
     8.3310   9.0364   9.2469   9.3589

          k = 0.1667 0.1667-0.5000 (  3458 PWs)   bands (ev):

   -44.8669 -28.0226 -21.7053 -21.6046 -21.6032  -9.6234  -9.3139  -9.2827
    -6.1653  -5.8547  -5.3432   5.5942   6.0278   6.4697   6.7885   7.3184
     8.4177   8.8489   9.2129   9.2484

          k = 0.1667 0.3333 0.3333 (  3477 PWs)   bands (ev):

   -44.8663 -28.0194 -21.6714 -21.6708 -21.6021  -9.4923  -9.4212  -9.2849
    -6.1622  -5.5837  -5.4370   5.4935   6.1915   6.2010   6.5836   6.7518
     7.9033   9.0931   9.1362   9.9063

          k = 0.1667 0.3333-0.5000 (  3470 PWs)   bands (ev):

   -44.8657 -28.0164 -21.7034 -21.6700 -21.6004  -9.5203  -9.4145  -9.2744
    -6.1504  -5.4865  -5.2610   5.3022   5.5928   6.1515   6.3899   6.6639
     7.9260   9.0370   9.1142  10.0646

          k = 0.1667-0.5000-0.5000 (  3468 PWs)   bands (ev):

   -44.8651 -28.0133 -21.7025 -21.7025 -21.5987  -9.4681  -9.4681  -9.2648
    -6.1971  -5.2216  -5.2216   4.9962   5.5317   5.6673   6.4123   6.4123
     7.9098   9.0779   9.0779  10.3622

          k = 0.3333 0.3333 0.3333 (  3464 PWs)   bands (ev):

   -44.8651 -28.0136 -21.6683 -21.6672 -21.6672  -9.4414  -9.3796  -9.3796
    -5.7459  -5.5016  -5.5016   5.4976   5.9518   5.9518   6.3093   6.3093
     6.4906   9.7015   9.7015  10.0678

          k = 0.3333 0.3333-0.5000 (  3452 PWs)   bands (ev):

   -44.8645 -28.0107 -21.6998 -21.6666 -21.6651  -9.4540  -9.3879  -9.3582
    -5.6772  -5.5346  -5.2948   5.4683   5.6065   5.7305   5.8886   6.2881
     6.4524   9.7991   9.9176  10.1918

          k = 0.3333-0.5000-0.5000 (  3476 PWs)   bands (ev):

   -44.8639 -28.0078 -21.6981 -21.6981 -21.6638  -9.4205  -9.4205  -9.3527
    -5.6582  -5.3131  -5.3131   5.3255   5.5678   5.6782   5.7366   5.7366
     6.3439  10.0588  10.0588  10.4224

          k =-0.5000-0.5000-0.5000 (  3448 PWs)   bands (ev):

   -44.8633 -28.0051 -21.6958 -21.6958 -21.6958  -9.3959  -9.3959  -9.3959
    -5.3596  -5.3596  -5.3596   5.4951   5.4951   5.4951   5.5328   5.6836
     5.6836  10.4533  10.4533  10.4533

     highest occupied level (ev):    10.4533

!    total energy              =    -291.75311849 Ry
     estimated scf accuracy    <          1.1E-09 Ry

     The total energy is the sum of the following terms:
     one-electron contribution =     -79.92490332 Ry
     hartree contribution      =      62.07304430 Ry
     xc contribution           =     -51.66521936 Ry
     ewald contribution        =    -222.23604012 Ry

     convergence has been achieved in  11 iterations

     negative rho (up, down):  8.346E-04 0.000E+00

     Forces acting on atoms (cartesian axes, Ry/au):

     atom    1 type  1   force =     0.00000000    0.00000000    0.00000000
     atom    2 type  2   force =     0.00000000    0.00000000    0.00000000
     atom    3 type  3   force =     0.00000000    0.00000000    0.00000000
     atom    4 type  3   force =     0.00000000    0.00000000    0.00000000
     atom    5 type  3   force =     0.00000000    0.00000000    0.00000000

     Total force =     0.000000     Total SCF correction =     0.000000


     Computing stress (Cartesian axis) and pressure


     negative rho (up, down):  8.346E-04 0.000E+00
          total   stress  (Ry/bohr**3)                   (kbar)     P=      135.94
   0.00092412   0.00000000   0.00000000          135.94        0.00        0.00
   0.00000000   0.00092412   0.00000000            0.00      135.94        0.00
   0.00000000   0.00000000   0.00092412            0.00        0.00      135.94


     Writing all to output data dir ./CTO_CELLDM_2.save/ :
     XML data file, charge density, pseudopotentials, collected wavefunctions
 
     init_run     :      0.43s CPU      0.52s WALL (       1 calls)
     electrons    :      6.58s CPU      7.11s WALL (       1 calls)
     forces       :      0.12s CPU      0.12s WALL (       1 calls)
     stress       :      0.95s CPU      0.97s WALL (       1 calls)

     Called by init_run:
     wfcinit      :      0.14s CPU      0.16s WALL (       1 calls)
     potinit      :      0.01s CPU      0.02s WALL (       1 calls)
     hinit0       :      0.12s CPU      0.15s WALL (       1 calls)

     Called by electrons:
     c_bands      :      4.85s CPU      5.11s WALL (      11 calls)
     sum_band     :      1.11s CPU      1.19s WALL (      11 calls)
     v_of_rho     :      0.02s CPU      0.02s WALL (      12 calls)
     newd         :      0.63s CPU      0.80s WALL (      12 calls)
     mix_rho      :      0.02s CPU      0.02s WALL (      11 calls)

     Called by c_bands:
     init_us_2    :      0.07s CPU      0.07s WALL (     500 calls)
     init_us_2:cp :      0.07s CPU      0.07s WALL (     500 calls)
     ccgdiagg     :      4.18s CPU      4.40s WALL (     220 calls)
     wfcrot       :      0.74s CPU      0.79s WALL (     220 calls)

     Called by *cgdiagg:
     h_psi        :      2.98s CPU      3.14s WALL (   13257 calls)
     s_psi        :      0.45s CPU      0.47s WALL (   26294 calls)

     Called by h_psi:
     h_psi:calbec :      0.44s CPU      0.46s WALL (   13257 calls)
     vloc_psi     :      2.18s CPU      2.29s WALL (   13257 calls)
     add_vuspsi   :      0.25s CPU      0.26s WALL (   13257 calls)
     hs_1psi      :      2.66s CPU      2.80s WALL (   13037 calls)
     s_1psi       :      0.62s CPU      0.65s WALL (   13037 calls)

     General routines
     calbec       :      0.79s CPU      0.84s WALL (   26614 calls)
     fft          :      0.02s CPU      0.04s WALL (      78 calls)
     ffts         :      0.00s CPU      0.00s WALL (      23 calls)
     fftw         :      1.91s CPU      2.00s WALL (   39754 calls)
     interpolate  :      0.01s CPU      0.01s WALL (      12 calls)
 
     Parallel routines
 
     PWSCF        :      8.29s CPU      9.68s WALL

 
   This run was terminated on:  23:51:15  23Sep2025            

=------------------------------------------------------------------------------=
   JOB DONE.
=------------------------------------------------------------------------------=
TACC:  Shutdown complete. Exiting. 
