TACC:  Starting up job 2406362 
TACC:  Starting parallel tasks... 

     Program PWSCF v.7.3 starts on 24Sep2025 at  0:38:56 

     This program is part of the open-source Quantum ESPRESSO suite
     for quantum simulation of materials; please cite
         "P. Giannozzi et al., J. Phys.:Condens. Matter 21 395502 (2009);
         "P. Giannozzi et al., J. Phys.:Condens. Matter 29 465901 (2017);
         "P. Giannozzi et al., J. Chem. Phys. 152 154105 (2020);
          URL http://www.quantum-espresso.org", 
     in publications or presentations arising from this work. More details at
     http://www.quantum-espresso.org/quote

     Parallel version (MPI & OpenMP), running on      10 processor cores
     Number of MPI processes:                10
     Threads/MPI process:                     1

     MPI processes distributed on     1 nodes
     184860 MiB available memory on the printing compute node when the environment starts
 
     Waiting for input...
     Reading input from standard input
Warning: card &CELL ignored
Warning: card  CELL_DYNAMICS = 'BFGS', ignored
Warning: card  PRESS=0.D0, ignored
Warning: card / ignored
     Message from routine read_cards :
     DEPRECATED: no units specified in ATOMIC_POSITIONS card
     Message from routine read_cards :
     ATOMIC_POSITIONS: units set to alat

     Current dimensions of program PWSCF are:
     Max number of different atomic species (ntypx) = 10
     Max number of k-points (npk) =  40000
     Max angular momentum in pseudopotentials (lmaxx) =  4
 
     R & G space division:  proc/nbgrp/npool/nimage =      10
     Subspace diagonalization in iterative solution of the eigenvalue problem:
     a serial algorithm will be used

 
     Parallelization info
     --------------------
     sticks:   dense  smooth     PW     G-vecs:    dense   smooth      PW
     Min         434     174     49                21548     5452     837
     Max         435     175     50                21551     5457     840
     Sum        4349    1741    497               215503    54531    8385
 
     Using Slab Decomposition
 


     bravais-lattice index     =            1
     lattice parameter (alat)  =       7.3907  a.u.
     unit-cell volume          =     403.7050 (a.u.)^3
     number of atoms/cell      =            5
     number of atomic types    =            3
     number of electrons       =        40.00
     number of Kohn-Sham states=           20
     kinetic-energy cutoff     =     100.0000  Ry
     charge density cutoff     =    1000.0000  Ry
     scf convergence threshold =      1.0E-08
     mixing beta               =       0.7000
     number of iterations used =            8  plain     mixing
     Exchange-correlation= SLA  PZ   NOGX NOGC
                           (   1   1   0   0   0   0   0)

     celldm(1)=   7.390742  celldm(2)=   0.000000  celldm(3)=   0.000000
     celldm(4)=   0.000000  celldm(5)=   0.000000  celldm(6)=   0.000000

     crystal axes: (cart. coord. in units of alat)
               a(1) = (   1.000000   0.000000   0.000000 )  
               a(2) = (   0.000000   1.000000   0.000000 )  
               a(3) = (   0.000000   0.000000   1.000000 )  

     reciprocal axes: (cart. coord. in units 2 pi/alat)
               b(1) = (  1.000000  0.000000  0.000000 )  
               b(2) = (  0.000000  1.000000  0.000000 )  
               b(3) = (  0.000000  0.000000  1.000000 )  


     PseudoPot. # 1 for Ca read from file:
     /scratch/11018/zhc/assisgnment1/CaTiO3/Ca_LDA.UPF
     MD5 check sum: d2d4e7693e10d071152e9eeb7dd009f3
     Pseudo is Ultrasoft + core correction, Zval = 10.0
     Generated by new atomic code, or converted to UPF format
     Using radial grid of  845 points,  6 beta functions with: 
                l(1) =   0
                l(2) =   0
                l(3) =   1
                l(4) =   1
                l(5) =   2
                l(6) =   2
     Q(r) pseudized with  8 coefficients,  rinner =    1.500   1.500   1.500
                                                       1.500   1.500

     PseudoPot. # 2 for Ti read from file:
     /scratch/11018/zhc/assisgnment1/CaTiO3/Ti_LDA.UPF
     MD5 check sum: 0d9f225c038fe889ca2a701dcc8d72cb
     Pseudo is Ultrasoft + core correction, Zval = 12.0
     Generated by new atomic code, or converted to UPF format
     Using radial grid of  851 points,  6 beta functions with: 
                l(1) =   0
                l(2) =   0
                l(3) =   1
                l(4) =   1
                l(5) =   2
                l(6) =   2
     Q(r) pseudized with  6 coefficients,  rinner =    1.000   1.000   1.000
                                                       1.000   1.000

     PseudoPot. # 3 for O  read from file:
     /scratch/11018/zhc/assisgnment1/CaTiO3/O_LDA.UPF
     MD5 check sum: 194b818514d2a7dbb603bb78519a4f40
     Pseudo is Ultrasoft + core correction, Zval =  6.0
     Generated by new atomic code, or converted to UPF format
     Using radial grid of  737 points,  5 beta functions with: 
                l(1) =   0
                l(2) =   0
                l(3) =   1
                l(4) =   1
                l(5) =   2
     Q(r) pseudized with  8 coefficients,  rinner =    0.900   0.900   0.900
                                                       0.900   0.900

     atomic species   valence    mass     pseudopotential
     Ca               10.00    40.07800     Ca( 1.00)
     Ti               12.00    47.88000     Ti( 1.00)
     O                 6.00    16.00000     O ( 1.00)

     48 Sym. Ops., with inversion, found



   Cartesian axes

     site n.     atom                  positions (alat units)
         1        Ca     tau(   1) = (   0.0000000   0.0000000   0.0000000  )
         2        Ti     tau(   2) = (   0.5000000   0.5000000   0.5000000  )
         3        O      tau(   3) = (   0.5000000   0.5000000   0.0000000  )
         4        O      tau(   4) = (   0.5000000   0.0000000   0.5000000  )
         5        O      tau(   5) = (   0.0000000   0.5000000   0.5000000  )

     number of k points=    20
                       cart. coord. in units 2pi/alat
        k(    1) = (   0.0000000   0.0000000   0.0000000), wk =   0.0092593
        k(    2) = (   0.0000000   0.0000000   0.1666667), wk =   0.0555556
        k(    3) = (   0.0000000   0.0000000   0.3333333), wk =   0.0555556
        k(    4) = (   0.0000000   0.0000000  -0.5000000), wk =   0.0277778
        k(    5) = (   0.0000000   0.1666667   0.1666667), wk =   0.1111111
        k(    6) = (   0.0000000   0.1666667   0.3333333), wk =   0.2222222
        k(    7) = (   0.0000000   0.1666667  -0.5000000), wk =   0.1111111
        k(    8) = (   0.0000000   0.3333333   0.3333333), wk =   0.1111111
        k(    9) = (   0.0000000   0.3333333  -0.5000000), wk =   0.1111111
        k(   10) = (   0.0000000  -0.5000000  -0.5000000), wk =   0.0277778
        k(   11) = (   0.1666667   0.1666667   0.1666667), wk =   0.0740741
        k(   12) = (   0.1666667   0.1666667   0.3333333), wk =   0.2222222
        k(   13) = (   0.1666667   0.1666667  -0.5000000), wk =   0.1111111
        k(   14) = (   0.1666667   0.3333333   0.3333333), wk =   0.2222222
        k(   15) = (   0.1666667   0.3333333  -0.5000000), wk =   0.2222222
        k(   16) = (   0.1666667  -0.5000000  -0.5000000), wk =   0.0555556
        k(   17) = (   0.3333333   0.3333333   0.3333333), wk =   0.0740741
        k(   18) = (   0.3333333   0.3333333  -0.5000000), wk =   0.1111111
        k(   19) = (   0.3333333  -0.5000000  -0.5000000), wk =   0.0555556
        k(   20) = (  -0.5000000  -0.5000000  -0.5000000), wk =   0.0092593

     Dense  grid:   215503 G-vectors     FFT dimensions: (  75,  75,  75)

     Smooth grid:    54531 G-vectors     FFT dimensions: (  48,  48,  48)

     Estimated max dynamical RAM per process >      92.09 MB

     Estimated total dynamical RAM >     920.93 MB

     Check: negative core charge=   -0.000001

     Initial potential from superposition of free atoms

     starting charge      38.9952, renormalised to      40.0000

     negative rho (up, down):  8.622E-04 0.000E+00
     Starting wfcs are   32 randomized atomic wfcs

     total cpu time spent up to now is        1.3 secs

     Self-consistent Calculation

     iteration #  1     ecut=   100.00 Ry     beta= 0.70
     CG style diagonalization
     ethr =  1.00E-02,  avg # of iterations =  2.2

     negative rho (up, down):  1.131E-03 0.000E+00

     total cpu time spent up to now is        2.1 secs

     total energy              =    -291.29635205 Ry
     estimated scf accuracy    <       0.82820654 Ry

     iteration #  2     ecut=   100.00 Ry     beta= 0.70
     CG style diagonalization
     ethr =  2.07E-03,  avg # of iterations =  5.2

     negative rho (up, down):  6.407E-04 0.000E+00

     total cpu time spent up to now is        3.4 secs

     total energy              =    -290.48005406 Ry
     estimated scf accuracy    <       7.47601220 Ry

     iteration #  3     ecut=   100.00 Ry     beta= 0.70
     CG style diagonalization
     ethr =  2.07E-03,  avg # of iterations =  4.6

     negative rho (up, down):  7.433E-04 0.000E+00

     total cpu time spent up to now is        4.6 secs

     total energy              =    -291.72230559 Ry
     estimated scf accuracy    <       0.18735784 Ry

     iteration #  4     ecut=   100.00 Ry     beta= 0.70
     CG style diagonalization
     ethr =  4.68E-04,  avg # of iterations =  3.6

     negative rho (up, down):  8.127E-04 0.000E+00

     total cpu time spent up to now is        5.5 secs

     total energy              =    -291.73754808 Ry
     estimated scf accuracy    <       0.06308988 Ry

     iteration #  5     ecut=   100.00 Ry     beta= 0.70
     CG style diagonalization
     ethr =  1.58E-04,  avg # of iterations =  3.5

     negative rho (up, down):  8.557E-04 0.000E+00

     total cpu time spent up to now is        6.4 secs

     total energy              =    -291.74637233 Ry
     estimated scf accuracy    <       0.00291274 Ry

     iteration #  6     ecut=   100.00 Ry     beta= 0.70
     CG style diagonalization
     ethr =  7.28E-06,  avg # of iterations =  4.1

     negative rho (up, down):  8.612E-04 0.000E+00

     total cpu time spent up to now is        7.5 secs

     total energy              =    -291.74815727 Ry
     estimated scf accuracy    <       0.00036279 Ry

     iteration #  7     ecut=   100.00 Ry     beta= 0.70
     CG style diagonalization
     ethr =  9.07E-07,  avg # of iterations =  3.5

     negative rho (up, down):  8.571E-04 0.000E+00

     total cpu time spent up to now is        8.5 secs

     total energy              =    -291.74818169 Ry
     estimated scf accuracy    <       0.00021364 Ry

     iteration #  8     ecut=   100.00 Ry     beta= 0.70
     CG style diagonalization
     ethr =  5.34E-07,  avg # of iterations =  3.5

     negative rho (up, down):  8.564E-04 0.000E+00

     total cpu time spent up to now is        9.4 secs

     total energy              =    -291.74821450 Ry
     estimated scf accuracy    <       0.00000515 Ry

     iteration #  9     ecut=   100.00 Ry     beta= 0.70
     CG style diagonalization
     ethr =  1.29E-08,  avg # of iterations =  4.1

     negative rho (up, down):  8.560E-04 0.000E+00

     total cpu time spent up to now is       10.5 secs

     total energy              =    -291.74821838 Ry
     estimated scf accuracy    <       0.00000008 Ry

     iteration # 10     ecut=   100.00 Ry     beta= 0.70
     CG style diagonalization
     ethr =  2.12E-10,  avg # of iterations =  5.3

     negative rho (up, down):  8.562E-04 0.000E+00

     total cpu time spent up to now is       11.8 secs

     total energy              =    -291.74821878 Ry
     estimated scf accuracy    <       0.00000047 Ry

     iteration # 11     ecut=   100.00 Ry     beta= 0.70
     CG style diagonalization
     ethr =  2.12E-10,  avg # of iterations =  4.4

     negative rho (up, down):  8.562E-04 0.000E+00

     total cpu time spent up to now is       12.9 secs

     End of self-consistent calculation

          k = 0.0000 0.0000 0.0000 (  6859 PWs)   bands (ev):

   -47.3885 -30.4363 -23.9704 -23.9704 -23.9704 -11.6287 -11.6287 -11.6287
    -8.6834  -7.5853  -7.5853   5.4154   5.4154   5.4154   7.3454   7.3454
     7.3454   8.0184   8.0184   8.0184

          k = 0.0000 0.0000 0.1667 (  6851 PWs)   bands (ev):

   -47.3882 -30.4349 -23.9874 -23.9696 -23.9696 -11.6854 -11.6261 -11.6261
    -8.5310  -7.5756  -7.5144   5.1135   5.4333   5.4333   6.9871   6.9871
     7.1250   7.2265   7.8919   7.8919

          k = 0.0000 0.0000 0.3333 (  6796 PWs)   bands (ev):

   -47.3877 -30.4322 -24.0210 -23.9680 -23.9680 -11.7915 -11.6209 -11.6209
    -8.2222  -7.5560  -7.3659   4.4640   5.5216   5.5216   6.1525   6.3369
     6.3369   6.7407   7.7786   7.7786

          k = 0.0000 0.0000-0.5000 (  6848 PWs)   bands (ev):

   -47.3874 -30.4308 -24.0377 -23.9672 -23.9672 -11.8416 -11.6183 -11.6183
    -8.0665  -7.5462  -7.2856   4.1055   5.6775   5.6775   5.7652   5.9464
     5.9464   6.5694   7.7388   7.7388

          k = 0.0000 0.1667 0.1667 (  6805 PWs)   bands (ev):

   -47.3880 -30.4335 -23.9868 -23.9865 -23.9688 -11.6927 -11.6607 -11.6234
    -8.3932  -7.5384  -7.4742   4.9417   5.2862   5.4475   6.2710   6.7590
     7.1333   7.2553   7.5528   7.6612

          k = 0.0000 0.1667 0.3333 (  6813 PWs)   bands (ev):

   -47.3874 -30.4307 -24.0205 -23.9853 -23.9673 -11.7747 -11.6579 -11.6179
    -8.1218  -7.5067  -7.3328   4.4190   5.0411   5.5245   5.5309   6.2350
     6.4769   7.2054   7.4569   7.4636

          k = 0.0000 0.1667-0.5000 (  6812 PWs)   bands (ev):

   -47.3871 -30.4293 -24.0372 -23.9845 -23.9665 -11.8185 -11.6518 -11.6152
    -7.9934  -7.4911  -7.2458   4.0998   4.7922   5.3881   5.6772   5.8743
     6.2582   7.1968   7.3632   7.3988

          k = 0.0000 0.3333 0.3333 (  6814 PWs)   bands (ev):

   -47.3869 -30.4277 -24.0196 -24.0192 -23.9658 -11.7503 -11.7208 -11.6119
    -7.9740  -7.3573  -7.2459   4.1307   4.5914   4.6559   5.5611   5.9737
     6.5433   6.7123   7.0516   8.0211

          k = 0.0000 0.3333-0.5000 (  6830 PWs)   bands (ev):

   -47.3866 -30.4263 -24.0363 -24.0189 -23.9650 -11.7723 -11.7173 -11.6088
    -7.9304  -7.2766  -7.1669   3.9761   4.0625   4.5935   5.6734   5.7357
     6.4703   6.6907   6.9170   8.1578

          k = 0.0000-0.5000-0.5000 (  6784 PWs)   bands (ev):

   -47.3863 -30.4248 -24.0359 -24.0359 -23.9642 -11.7493 -11.7493 -11.6056
    -7.9281  -7.1278  -7.1278   3.6813   3.9292   4.2597   5.6691   5.6691
     6.5733   6.5733   6.7289   8.4023

          k = 0.1667 0.1667 0.1667 (  6820 PWs)   bands (ev):

   -47.3877 -30.4321 -23.9860 -23.9860 -23.9858 -11.6961 -11.6553 -11.6553
    -8.2610  -7.4725  -7.4725   4.7871   5.2759   5.2759   6.1817   6.1817
     6.6155   7.4854   7.4854   7.6094

          k = 0.1667 0.1667 0.3333 (  6812 PWs)   bands (ev):

   -47.3871 -30.4292 -24.0198 -23.9846 -23.9843 -11.7597 -11.6594 -11.6446
    -8.0040  -7.4691  -7.3172   4.3743   4.9560   5.1960   5.4143   5.6716
     6.4689   7.2444   7.4331   7.6072

          k = 0.1667 0.1667-0.5000 (  6852 PWs)   bands (ev):

   -47.3869 -30.4278 -24.0366 -23.9840 -23.9835 -11.7982 -11.6535 -11.6393
    -7.8844  -7.4675  -7.2210   4.0972   4.6814   5.0943   5.2071   5.5607
     6.5308   7.0957   7.4107   7.5223

          k = 0.1667 0.3333 0.3333 (  6808 PWs)   bands (ev):

   -47.3866 -30.4263 -24.0186 -24.0185 -23.9829 -11.7380 -11.7110 -11.6399
    -7.8224  -7.3478  -7.2592   4.1516   4.6321   4.6544   5.0805   5.3295
     6.0086   7.3296   7.3678   8.0482

          k = 0.1667 0.3333-0.5000 (  6802 PWs)   bands (ev):

   -47.3863 -30.4249 -24.0355 -24.0179 -23.9821 -11.7578 -11.7083 -11.6348
    -7.7702  -7.2950  -7.1722   4.0662   4.0673   4.5895   5.0119   5.1978
     6.0086   7.2864   7.3550   8.1796

          k = 0.1667-0.5000-0.5000 (  6808 PWs)   bands (ev):

   -47.3860 -30.4234 -24.0349 -24.0349 -23.9813 -11.7377 -11.7377 -11.6300
    -7.7609  -7.1482  -7.1482   3.8020   3.9393   4.2640   5.0325   5.0325
     5.9568   7.3220   7.3220   8.4252

          k = 0.3333 0.3333 0.3333 (  6839 PWs)   bands (ev):

   -47.3860 -30.4235 -24.0172 -24.0168 -24.0168 -11.7175 -11.6912 -11.6912
    -7.5407  -7.2862  -7.2862   4.1241   4.5716   4.5716   4.7288   4.7922
     4.7922   7.8642   7.8642   8.1824

          k = 0.3333 0.3333-0.5000 (  6824 PWs)   bands (ev):

   -47.3858 -30.4221 -24.0338 -24.0163 -24.0159 -11.7288 -11.6950 -11.6812
    -7.4593  -7.2998  -7.1834   4.0501   4.1896   4.4072   4.4725   4.7357
     4.8154   7.9528   8.0423   8.2856

          k = 0.3333-0.5000-0.5000 (  6840 PWs)   bands (ev):

   -47.3855 -30.4207 -24.0329 -24.0329 -24.0152 -11.7141 -11.7141 -11.6783
    -7.4031  -7.1895  -7.1895   3.9277   4.0510   4.2727   4.4043   4.4043
     4.7176   8.1674   8.1674   8.4720

          k =-0.5000-0.5000-0.5000 (  6776 PWs)   bands (ev):

   -47.3852 -30.4194 -24.0320 -24.0320 -24.0320 -11.7022 -11.7022 -11.7022
    -7.2103  -7.2103  -7.2103   3.8157   4.1797   4.1797   4.1797   4.2770
     4.2770   8.4959   8.4959   8.4959

     highest occupied level (ev):     8.4959

!    total energy              =    -291.74821885 Ry
     estimated scf accuracy    <          3.8E-09 Ry

     The total energy is the sum of the following terms:
     one-electron contribution =     -94.64824268 Ry
     hartree contribution      =      66.24503931 Ry
     xc contribution           =     -51.16490693 Ry
     ewald contribution        =    -212.18010855 Ry

     convergence has been achieved in  11 iterations

     negative rho (up, down):  8.562E-04 0.000E+00

     Forces acting on atoms (cartesian axes, Ry/au):

     atom    1 type  1   force =     0.00000000    0.00000000    0.00000000
     atom    2 type  2   force =     0.00000000    0.00000000    0.00000000
     atom    3 type  3   force =     0.00000000    0.00000000    0.00000000
     atom    4 type  3   force =     0.00000000    0.00000000    0.00000000
     atom    5 type  3   force =     0.00000000    0.00000000    0.00000000

     Total force =     0.000000     Total SCF correction =     0.000000


     Computing stress (Cartesian axis) and pressure


     negative rho (up, down):  8.562E-04 0.000E+00
          total   stress  (Ry/bohr**3)                   (kbar)     P=     -139.56
  -0.00094869   0.00000000   0.00000000         -139.56        0.00        0.00
   0.00000000  -0.00094869   0.00000000            0.00     -139.56        0.00
   0.00000000   0.00000000  -0.00094869            0.00        0.00     -139.56


     Writing all to output data dir ./CTO_CELLDM_7.save/ :
     XML data file, charge density, pseudopotentials, collected wavefunctions
 
     init_run     :      0.52s CPU      0.64s WALL (       1 calls)
     electrons    :     10.80s CPU     11.95s WALL (       1 calls)
     forces       :      0.22s CPU      0.25s WALL (       1 calls)
     stress       :      1.77s CPU      1.83s WALL (       1 calls)

     Called by init_run:
     wfcinit      :      0.19s CPU      0.23s WALL (       1 calls)
     potinit      :      0.02s CPU      0.03s WALL (       1 calls)
     hinit0       :      0.15s CPU      0.18s WALL (       1 calls)

     Called by electrons:
     c_bands      :      7.57s CPU      7.89s WALL (      11 calls)
     sum_band     :      2.04s CPU      2.20s WALL (      11 calls)
     v_of_rho     :      0.04s CPU      0.04s WALL (      12 calls)
     newd         :      1.20s CPU      1.56s WALL (      12 calls)
     mix_rho      :      0.03s CPU      0.03s WALL (      11 calls)

     Called by c_bands:
     init_us_2    :      0.13s CPU      0.14s WALL (     500 calls)
     init_us_2:cp :      0.13s CPU      0.14s WALL (     500 calls)
     ccgdiagg     :      6.56s CPU      6.83s WALL (     220 calls)
     wfcrot       :      1.09s CPU      1.15s WALL (     220 calls)

     Called by *cgdiagg:
     h_psi        :      4.77s CPU      4.97s WALL (   13860 calls)
     s_psi        :      0.87s CPU      0.91s WALL (   27500 calls)

     Called by h_psi:
     h_psi:calbec :      0.82s CPU      0.86s WALL (   13860 calls)
     vloc_psi     :      3.33s CPU      3.46s WALL (   13860 calls)
     add_vuspsi   :      0.49s CPU      0.51s WALL (   13860 calls)
     hs_1psi      :      4.37s CPU      4.55s WALL (   13640 calls)
     s_1psi       :      1.04s CPU      1.08s WALL (   13640 calls)

     General routines
     calbec       :      1.41s CPU      1.47s WALL (   27820 calls)
     fft          :      0.06s CPU      0.08s WALL (      78 calls)
     ffts         :      0.00s CPU      0.01s WALL (      23 calls)
     fftw         :      2.58s CPU      2.68s WALL (   40960 calls)
     interpolate  :      0.01s CPU      0.02s WALL (      12 calls)
 
     Parallel routines
 
     PWSCF        :     13.53s CPU     17.15s WALL

 
   This run was terminated on:   0:39:13  24Sep2025            

=------------------------------------------------------------------------------=
   JOB DONE.
=------------------------------------------------------------------------------=
TACC:  Shutdown complete. Exiting. 
