TACC:  Starting up job 2403598 
TACC:  Starting parallel tasks... 

     Program PWSCF v.7.3 starts on 23Sep2025 at 13:29:45 

     This program is part of the open-source Quantum ESPRESSO suite
     for quantum simulation of materials; please cite
         "P. Giannozzi et al., J. Phys.:Condens. Matter 21 395502 (2009);
         "P. Giannozzi et al., J. Phys.:Condens. Matter 29 465901 (2017);
         "P. Giannozzi et al., J. Chem. Phys. 152 154105 (2020);
          URL http://www.quantum-espresso.org", 
     in publications or presentations arising from this work. More details at
     http://www.quantum-espresso.org/quote

     Parallel version (MPI & OpenMP), running on      10 processor cores
     Number of MPI processes:                10
     Threads/MPI process:                     1

     MPI processes distributed on     1 nodes
     187158 MiB available memory on the printing compute node when the environment starts
 
     Waiting for input...
     Reading input from standard input
Warning: card &CELL ignored
Warning: card  CELL_DYNAMICS = 'BFGS', ignored
Warning: card  PRESS=0.D0, ignored
Warning: card / ignored
     Message from routine read_cards :
     DEPRECATED: no units specified in ATOMIC_POSITIONS card
     Message from routine read_cards :
     ATOMIC_POSITIONS: units set to alat

     Current dimensions of program PWSCF are:
     Max number of different atomic species (ntypx) = 10
     Max number of k-points (npk) =  40000
     Max angular momentum in pseudopotentials (lmaxx) =  4
 
     R & G space division:  proc/nbgrp/npool/nimage =      10
     Subspace diagonalization in iterative solution of the eigenvalue problem:
     a serial algorithm will be used

 
     Parallelization info
     --------------------
     sticks:   dense  smooth     PW     G-vecs:    dense   smooth      PW
     Min         430     173     49                21291     5381     837
     Max         431     175     50                21292     5382     840
     Sum        4309    1733    497               212911    53811    8385
 
     Using Slab Decomposition
 


     bravais-lattice index     =            1
     lattice parameter (alat)  =       7.3573  a.u.
     unit-cell volume          =     398.2496 (a.u.)^3
     number of atoms/cell      =            5
     number of atomic types    =            3
     number of electrons       =        40.00
     number of Kohn-Sham states=           20
     kinetic-energy cutoff     =     100.0000  Ry
     charge density cutoff     =    1000.0000  Ry
     scf convergence threshold =      1.0E-08
     mixing beta               =       0.7000
     number of iterations used =            8  plain     mixing
     Exchange-correlation= SLA  PZ   NOGX NOGC
                           (   1   1   0   0   0   0   0)

     celldm(1)=   7.357300  celldm(2)=   0.000000  celldm(3)=   0.000000
     celldm(4)=   0.000000  celldm(5)=   0.000000  celldm(6)=   0.000000

     crystal axes: (cart. coord. in units of alat)
               a(1) = (   1.000000   0.000000   0.000000 )  
               a(2) = (   0.000000   1.000000   0.000000 )  
               a(3) = (   0.000000   0.000000   1.000000 )  

     reciprocal axes: (cart. coord. in units 2 pi/alat)
               b(1) = (  1.000000  0.000000  0.000000 )  
               b(2) = (  0.000000  1.000000  0.000000 )  
               b(3) = (  0.000000  0.000000  1.000000 )  


     PseudoPot. # 1 for Ca read from file:
     /scratch/11018/zhc/assisgnment1/CaTiO3/Ca_LDA.UPF
     MD5 check sum: d2d4e7693e10d071152e9eeb7dd009f3
     Pseudo is Ultrasoft + core correction, Zval = 10.0
     Generated by new atomic code, or converted to UPF format
     Using radial grid of  845 points,  6 beta functions with: 
                l(1) =   0
                l(2) =   0
                l(3) =   1
                l(4) =   1
                l(5) =   2
                l(6) =   2
     Q(r) pseudized with  8 coefficients,  rinner =    1.500   1.500   1.500
                                                       1.500   1.500

     PseudoPot. # 2 for Ti read from file:
     /scratch/11018/zhc/assisgnment1/CaTiO3/Ti_LDA.UPF
     MD5 check sum: 0d9f225c038fe889ca2a701dcc8d72cb
     Pseudo is Ultrasoft + core correction, Zval = 12.0
     Generated by new atomic code, or converted to UPF format
     Using radial grid of  851 points,  6 beta functions with: 
                l(1) =   0
                l(2) =   0
                l(3) =   1
                l(4) =   1
                l(5) =   2
                l(6) =   2
     Q(r) pseudized with  6 coefficients,  rinner =    1.000   1.000   1.000
                                                       1.000   1.000

     PseudoPot. # 3 for O  read from file:
     /scratch/11018/zhc/assisgnment1/CaTiO3/O_LDA.UPF
     MD5 check sum: 194b818514d2a7dbb603bb78519a4f40
     Pseudo is Ultrasoft + core correction, Zval =  6.0
     Generated by new atomic code, or converted to UPF format
     Using radial grid of  737 points,  5 beta functions with: 
                l(1) =   0
                l(2) =   0
                l(3) =   1
                l(4) =   1
                l(5) =   2
     Q(r) pseudized with  8 coefficients,  rinner =    0.900   0.900   0.900
                                                       0.900   0.900

     atomic species   valence    mass     pseudopotential
     Ca               10.00    40.07800     Ca( 1.00)
     Ti               12.00    47.88000     Ti( 1.00)
     O                 6.00    16.00000     O ( 1.00)

      8 Sym. Ops. (no inversion) found



   Cartesian axes

     site n.     atom                  positions (alat units)
         1        Ca     tau(   1) = (   0.0000000   0.0000000   0.0500000  )
         2        Ti     tau(   2) = (   0.5000000   0.5000000   0.5000000  )
         3        O      tau(   3) = (   0.5000000   0.5000000   0.0000000  )
         4        O      tau(   4) = (   0.5000000   0.0000000   0.5000000  )
         5        O      tau(   5) = (   0.0000000   0.5000000   0.5000000  )

     number of k points=    75
                       cart. coord. in units 2pi/alat
        k(    1) = (   0.0000000   0.0000000   0.0000000), wk =   0.0039062
        k(    2) = (   0.0000000   0.0000000   0.1250000), wk =   0.0078125
        k(    3) = (   0.0000000   0.0000000   0.2500000), wk =   0.0078125
        k(    4) = (   0.0000000   0.0000000   0.3750000), wk =   0.0078125
        k(    5) = (   0.0000000   0.0000000  -0.5000000), wk =   0.0039062
        k(    6) = (   0.0000000   0.1250000   0.1250000), wk =   0.0312500
        k(    7) = (   0.0000000   0.1250000   0.2500000), wk =   0.0312500
        k(    8) = (   0.0000000   0.1250000   0.3750000), wk =   0.0312500
        k(    9) = (   0.0000000   0.1250000  -0.5000000), wk =   0.0156250
        k(   10) = (   0.0000000   0.2500000   0.2500000), wk =   0.0312500
        k(   11) = (   0.0000000   0.2500000   0.3750000), wk =   0.0312500
        k(   12) = (   0.0000000   0.2500000  -0.5000000), wk =   0.0156250
        k(   13) = (   0.0000000   0.3750000   0.3750000), wk =   0.0312500
        k(   14) = (   0.0000000   0.3750000  -0.5000000), wk =   0.0156250
        k(   15) = (   0.0000000  -0.5000000  -0.5000000), wk =   0.0078125
        k(   16) = (   0.1250000   0.1250000   0.1250000), wk =   0.0312500
        k(   17) = (   0.1250000   0.1250000   0.2500000), wk =   0.0312500
        k(   18) = (   0.1250000   0.1250000   0.3750000), wk =   0.0312500
        k(   19) = (   0.1250000   0.1250000  -0.5000000), wk =   0.0156250
        k(   20) = (   0.1250000   0.2500000   0.2500000), wk =   0.0625000
        k(   21) = (   0.1250000   0.2500000   0.3750000), wk =   0.0625000
        k(   22) = (   0.1250000   0.2500000  -0.5000000), wk =   0.0312500
        k(   23) = (   0.1250000   0.3750000   0.3750000), wk =   0.0625000
        k(   24) = (   0.1250000   0.3750000  -0.5000000), wk =   0.0312500
        k(   25) = (   0.1250000  -0.5000000  -0.5000000), wk =   0.0156250
        k(   26) = (   0.2500000   0.2500000   0.2500000), wk =   0.0312500
        k(   27) = (   0.2500000   0.2500000   0.3750000), wk =   0.0312500
        k(   28) = (   0.2500000   0.2500000  -0.5000000), wk =   0.0156250
        k(   29) = (   0.2500000   0.3750000   0.3750000), wk =   0.0625000
        k(   30) = (   0.2500000   0.3750000  -0.5000000), wk =   0.0312500
        k(   31) = (   0.2500000  -0.5000000  -0.5000000), wk =   0.0156250
        k(   32) = (   0.3750000   0.3750000   0.3750000), wk =   0.0312500
        k(   33) = (   0.3750000   0.3750000  -0.5000000), wk =   0.0156250
        k(   34) = (   0.3750000  -0.5000000  -0.5000000), wk =   0.0156250
        k(   35) = (  -0.5000000  -0.5000000  -0.5000000), wk =   0.0039062
        k(   36) = (   0.1250000   0.0000000   0.0000000), wk =   0.0156250
        k(   37) = (   0.2500000   0.0000000   0.0000000), wk =   0.0156250
        k(   38) = (   0.3750000   0.0000000   0.0000000), wk =   0.0156250
        k(   39) = (  -0.5000000   0.0000000   0.0000000), wk =   0.0078125
        k(   40) = (   0.1250000  -0.1250000   0.0000000), wk =   0.0156250
        k(   41) = (   0.2500000  -0.1250000   0.0000000), wk =   0.0312500
        k(   42) = (   0.0000000   0.2500000   0.1250000), wk =   0.0312500
        k(   43) = (   0.3750000  -0.1250000   0.0000000), wk =   0.0312500
        k(   44) = (   0.0000000   0.3750000   0.1250000), wk =   0.0312500
        k(   45) = (  -0.5000000  -0.1250000   0.0000000), wk =   0.0156250
        k(   46) = (   0.0000000  -0.5000000   0.1250000), wk =   0.0156250
        k(   47) = (   0.2500000  -0.2500000   0.0000000), wk =   0.0156250
        k(   48) = (   0.3750000  -0.2500000   0.0000000), wk =   0.0312500
        k(   49) = (   0.0000000   0.3750000   0.2500000), wk =   0.0312500
        k(   50) = (  -0.5000000  -0.2500000   0.0000000), wk =   0.0156250
        k(   51) = (   0.0000000  -0.5000000   0.2500000), wk =   0.0156250
        k(   52) = (   0.3750000  -0.3750000   0.0000000), wk =   0.0156250
        k(   53) = (  -0.5000000  -0.3750000   0.0000000), wk =   0.0156250
        k(   54) = (   0.0000000  -0.5000000   0.3750000), wk =   0.0156250
        k(   55) = (  -0.5000000   0.5000000   0.0000000), wk =   0.0039062
        k(   56) = (   0.2500000  -0.1250000   0.1250000), wk =   0.0625000
        k(   57) = (   0.3750000  -0.1250000   0.1250000), wk =   0.0625000
        k(   58) = (  -0.5000000  -0.1250000   0.1250000), wk =   0.0312500
        k(   59) = (   0.2500000  -0.2500000   0.1250000), wk =   0.0312500
        k(   60) = (   0.3750000  -0.2500000   0.1250000), wk =   0.0625000
        k(   61) = (  -0.1250000   0.3750000   0.2500000), wk =   0.0625000
        k(   62) = (  -0.5000000  -0.2500000   0.1250000), wk =   0.0312500
        k(   63) = (  -0.1250000  -0.5000000   0.2500000), wk =   0.0312500
        k(   64) = (   0.3750000  -0.3750000   0.1250000), wk =   0.0312500
        k(   65) = (  -0.5000000  -0.3750000   0.1250000), wk =   0.0312500
        k(   66) = (  -0.1250000  -0.5000000   0.3750000), wk =   0.0312500
        k(   67) = (  -0.5000000   0.5000000   0.1250000), wk =   0.0078125
        k(   68) = (   0.3750000  -0.2500000   0.2500000), wk =   0.0625000
        k(   69) = (  -0.5000000  -0.2500000   0.2500000), wk =   0.0312500
        k(   70) = (   0.3750000  -0.3750000   0.2500000), wk =   0.0312500
        k(   71) = (  -0.5000000  -0.3750000   0.2500000), wk =   0.0312500
        k(   72) = (  -0.2500000  -0.5000000   0.3750000), wk =   0.0312500
        k(   73) = (  -0.5000000   0.5000000   0.2500000), wk =   0.0078125
        k(   74) = (  -0.5000000  -0.3750000   0.3750000), wk =   0.0312500
        k(   75) = (  -0.5000000   0.5000000   0.3750000), wk =   0.0078125

     Dense  grid:   212911 G-vectors     FFT dimensions: (  75,  75,  75)

     Smooth grid:    53811 G-vectors     FFT dimensions: (  48,  48,  48)

     Estimated max dynamical RAM per process >     102.39 MB

     Estimated total dynamical RAM >    1023.88 MB

     Check: negative core charge=   -0.000001

     Initial potential from superposition of free atoms

     starting charge      38.9952, renormalised to      40.0000

     negative rho (up, down):  8.541E-04 0.000E+00
     Starting wfcs are   32 randomized atomic wfcs

     total cpu time spent up to now is        1.4 secs

     Self-consistent Calculation

     iteration #  1     ecut=   100.00 Ry     beta= 0.70
     CG style diagonalization
     ethr =  1.00E-02,  avg # of iterations =  2.2

     negative rho (up, down):  1.119E-03 0.000E+00

     total cpu time spent up to now is        3.6 secs

     total energy              =    -291.29559796 Ry
     estimated scf accuracy    <       0.83512909 Ry

     iteration #  2     ecut=   100.00 Ry     beta= 0.70
     CG style diagonalization
     ethr =  2.09E-03,  avg # of iterations =  5.3

     negative rho (up, down):  6.404E-04 0.000E+00

     total cpu time spent up to now is        7.8 secs

     total energy              =    -290.52156198 Ry
     estimated scf accuracy    <       7.20041001 Ry

     iteration #  3     ecut=   100.00 Ry     beta= 0.70
     CG style diagonalization
     ethr =  2.09E-03,  avg # of iterations =  4.7

     negative rho (up, down):  7.390E-04 0.000E+00

     total cpu time spent up to now is       11.5 secs

     total energy              =    -291.72528531 Ry
     estimated scf accuracy    <       0.18069523 Ry

     iteration #  4     ecut=   100.00 Ry     beta= 0.70
     CG style diagonalization
     ethr =  4.52E-04,  avg # of iterations =  3.6

     negative rho (up, down):  8.144E-04 0.000E+00

     total cpu time spent up to now is       14.3 secs

     total energy              =    -291.74162056 Ry
     estimated scf accuracy    <       0.06119972 Ry

     iteration #  5     ecut=   100.00 Ry     beta= 0.70
     CG style diagonalization
     ethr =  1.53E-04,  avg # of iterations =  3.6

     negative rho (up, down):  8.441E-04 0.000E+00

     total cpu time spent up to now is       17.1 secs

     total energy              =    -291.75130808 Ry
     estimated scf accuracy    <       0.00221220 Ry

     iteration #  6     ecut=   100.00 Ry     beta= 0.70
     CG style diagonalization
     ethr =  5.53E-06,  avg # of iterations =  4.2

     negative rho (up, down):  8.611E-04 0.000E+00

     total cpu time spent up to now is       20.4 secs

     total energy              =    -291.75283207 Ry
     estimated scf accuracy    <       0.00017082 Ry

     iteration #  7     ecut=   100.00 Ry     beta= 0.70
     CG style diagonalization
     ethr =  4.27E-07,  avg # of iterations =  4.5

     negative rho (up, down):  8.541E-04 0.000E+00

     total cpu time spent up to now is       23.9 secs

     total energy              =    -291.75285539 Ry
     estimated scf accuracy    <       0.00061871 Ry

     iteration #  8     ecut=   100.00 Ry     beta= 0.70
     CG style diagonalization
     ethr =  4.27E-07,  avg # of iterations =  3.9

     negative rho (up, down):  8.518E-04 0.000E+00

     total cpu time spent up to now is       27.0 secs

     total energy              =    -291.75287996 Ry
     estimated scf accuracy    <       0.00008963 Ry

     iteration #  9     ecut=   100.00 Ry     beta= 0.70
     CG style diagonalization
     ethr =  2.24E-07,  avg # of iterations =  3.6

     negative rho (up, down):  8.508E-04 0.000E+00

     total cpu time spent up to now is       29.8 secs

     total energy              =    -291.75289178 Ry
     estimated scf accuracy    <       0.00000348 Ry

     iteration # 10     ecut=   100.00 Ry     beta= 0.70
     CG style diagonalization
     ethr =  8.71E-09,  avg # of iterations =  4.4

     negative rho (up, down):  8.508E-04 0.000E+00

     total cpu time spent up to now is       33.3 secs

     total energy              =    -291.75289417 Ry
     estimated scf accuracy    <       0.00000042 Ry

     iteration # 11     ecut=   100.00 Ry     beta= 0.70
     CG style diagonalization
     ethr =  1.06E-09,  avg # of iterations =  3.8

     negative rho (up, down):  8.511E-04 0.000E+00

     total cpu time spent up to now is       36.2 secs

     total energy              =    -291.75289434 Ry
     estimated scf accuracy    <       0.00000032 Ry

     iteration # 12     ecut=   100.00 Ry     beta= 0.70
     CG style diagonalization
     ethr =  8.03E-10,  avg # of iterations =  3.6

     negative rho (up, down):  8.511E-04 0.000E+00

     total cpu time spent up to now is       39.1 secs

     total energy              =    -291.75289441 Ry
     estimated scf accuracy    <       0.00000002 Ry

     iteration # 13     ecut=   100.00 Ry     beta= 0.70
     CG style diagonalization
     ethr =  5.10E-11,  avg # of iterations =  3.7

     negative rho (up, down):  8.510E-04 0.000E+00

     total cpu time spent up to now is       42.0 secs

     End of self-consistent calculation

          k = 0.0000 0.0000 0.0000 (  6763 PWs)   bands (ev):

   -47.1747 -30.1515 -23.7706 -23.7706 -23.7619 -11.3743 -11.3524 -11.3524
    -8.5677  -7.4905  -7.4407   5.5455   5.5502   5.5502   7.4446   7.4508
     7.4508   8.1752   8.1752   8.1906

          k = 0.0000 0.0000 0.1250 (  6751 PWs)   bands (ev):

   -47.1745 -30.1506 -23.7724 -23.7701 -23.7701 -11.4108 -11.3508 -11.3508
    -8.4756  -7.4847  -7.3959   5.3726   5.5581   5.5581   7.2470   7.2470
     7.3151   7.6876   8.0785   8.0785

          k = 0.0000 0.0000 0.2500 (  6743 PWs)   bands (ev):

   -47.1741 -30.1485 -23.7978 -23.7689 -23.7689 -11.4944 -11.3469 -11.3469
    -8.2525  -7.4705  -7.2842   4.9356   5.5937   5.5937   6.7768   6.7816
     6.7816   7.0304   7.9630   7.9630

          k = 0.0000 0.0000 0.3750 (  6704 PWs)   bands (ev):

   -47.1737 -30.1465 -23.8230 -23.7677 -23.7677 -11.5729 -11.3429 -11.3429
    -8.0290  -7.4563  -7.1644   4.4522   5.6835   5.6835   6.1203   6.3291
     6.3291   6.7761   7.8946   7.8946

          k = 0.0000 0.0000-0.5000 (  6696 PWs)   bands (ev):

   -47.1735 -30.1456 -23.8334 -23.7672 -23.7672 -11.6041 -11.3413 -11.3413
    -7.9370  -7.4503  -7.1109   4.2361   5.7855   5.7855   5.9004   6.0919
     6.0919   6.6779   7.8714   7.8714

          k = 0.0000 0.1250 0.1250 (  6735 PWs)   bands (ev):

   -47.1743 -30.1497 -23.7808 -23.7720 -23.7696 -11.4146 -11.3778 -11.3491
    -8.3868  -7.4539  -7.3786   5.2588   5.4916   5.5649   6.8091   7.0829
     7.4506   7.5594   7.7947   7.9530

          k = 0.0000 0.1250 0.2500 (  6740 PWs)   bands (ev):

   -47.1739 -30.1476 -23.7975 -23.7796 -23.7684 -11.4873 -11.3740 -11.3451
    -8.1784  -7.4395  -7.2682   4.8827   5.4209   5.5969   6.1854   6.6923
     6.8919   7.4355   7.6320   7.7793

          k = 0.0000 0.1250 0.3750 (  6719 PWs)   bands (ev):

   -47.1735 -30.1455 -23.8227 -23.7785 -23.7672 -11.5594 -11.3669 -11.3410
    -7.9734  -7.4251  -7.1440   4.4401   5.2887   5.6814   5.7317   6.2767
     6.4702   7.3104   7.5362   7.6881

          k = 0.0000 0.1250-0.5000 (  6728 PWs)   bands (ev):

   -47.1733 -30.1446 -23.8331 -23.7781 -23.7667 -11.5883 -11.3638 -11.3394
    -7.8911  -7.4185  -7.0871   4.2343   5.1781   5.6340   5.7824   6.0487
     6.3366   7.2388   7.5111   7.6596

          k = 0.0000 0.2500 0.2500 (  6715 PWs)   bands (ev):

   -47.1735 -30.1454 -23.8054 -23.7966 -23.7672 -11.4815 -11.4264 -11.3409
    -8.0099  -7.3630  -7.2130   4.6497   5.1424   5.5129   5.6183   6.4375
     6.8429   7.0543   7.4998   7.8747

          k = 0.0000 0.2500 0.3750 (  6722 PWs)   bands (ev):

   -47.1731 -30.1432 -23.8220 -23.8045 -23.7660 -11.5275 -11.4230 -11.3365
    -7.8731  -7.3101  -7.0917   4.3506   4.7131   5.1591   5.6827   6.1364
     6.5945   6.9904   7.3241   7.9760

          k = 0.0000 0.2500-0.5000 (  6726 PWs)   bands (ev):

   -47.1729 -30.1423 -23.8325 -23.8041 -23.7656 -11.5503 -11.4172 -11.3347
    -7.8266  -7.2862  -7.0288   4.2247   4.4423   5.1246   5.7719   5.9474
     6.5012   6.9896   7.2717   7.9846

          k = 0.0000 0.3750 0.3750 (  6722 PWs)   bands (ev):

   -47.1727 -30.1409 -23.8302 -23.8213 -23.7649 -11.5019 -11.4713 -11.3319
    -7.8228  -7.1333  -7.0364   4.0710   4.4233   4.6114   5.7113   5.9557
     6.6560   6.7758   7.0699   8.3419

          k = 0.0000 0.3750-0.5000 (  6712 PWs)   bands (ev):

   -47.1725 -30.1400 -23.8319 -23.8299 -23.7644 -11.5122 -11.4694 -11.3300
    -7.8140  -7.0866  -6.9704   3.9544   4.1720   4.5338   5.7561   5.8496
     6.6519   6.7477   6.9801   8.4421

          k = 0.0000-0.5000-0.5000 (  6728 PWs)   bands (ev):

   -47.1723 -30.1390 -23.8406 -23.8316 -23.7639 -11.4941 -11.4930 -11.3281
    -7.8175  -6.9888  -6.9473   3.7851   4.0564   4.3689   5.7474   5.8101
     6.6866   6.7150   6.8778   8.5825

          k = 0.1250 0.1250 0.1250 (  6766 PWs)   bands (ev):

   -47.1742 -30.1488 -23.7804 -23.7802 -23.7715 -11.4184 -11.3763 -11.3719
    -8.3017  -7.4151  -7.3722   5.1465   5.4900   5.4935   6.7044   6.7089
     7.2716   7.6032   7.7560   7.7789

          k = 0.1250 0.1250 0.2500 (  6755 PWs)   bands (ev):

   -47.1737 -30.1467 -23.7971 -23.7792 -23.7791 -11.4808 -11.3760 -11.3654
    -8.1027  -7.4081  -7.2590   4.8254   5.3593   5.4911   6.1515   6.2005
     6.9637   7.4856   7.5949   7.6759

          k = 0.1250 0.1250 0.3750 (  6713 PWs)   bands (ev):

   -47.1733 -30.1446 -23.8224 -23.7781 -23.7779 -11.5469 -11.3690 -11.3588
    -7.9090  -7.4012  -7.1293   4.4280   5.1758   5.4753   5.6208   5.8660
     6.9326   7.2351   7.4569   7.6096

          k = 0.1250 0.1250-0.5000 (  6714 PWs)   bands (ev):

   -47.1731 -30.1437 -23.8328 -23.7777 -23.7774 -11.5738 -11.3658 -11.3561
    -7.8318  -7.3983  -7.0686   4.2334   5.0518   5.4547   5.4978   5.7649
     6.9666   7.1065   7.3813   7.5894

          k = 0.1250 0.2500 0.2500 (  6710 PWs)   bands (ev):

   -47.1733 -30.1445 -23.8050 -23.7961 -23.7780 -11.4751 -11.4210 -11.3626
    -7.9295  -7.3346  -7.2173   4.6116   5.1346   5.3951   5.5565   6.0106
     6.5469   7.4064   7.5023   7.8949

          k = 0.1250 0.2500 0.3750 (  6729 PWs)   bands (ev):

   -47.1729 -30.1423 -23.8216 -23.8040 -23.7768 -11.5173 -11.4183 -11.3561
    -7.7879  -7.3033  -7.0905   4.3476   4.7320   5.1352   5.3829   5.7010
     6.5252   7.2501   7.4124   7.9922

          k = 0.1250 0.2500-0.5000 (  6730 PWs)   bands (ev):

   -47.1727 -30.1414 -23.8321 -23.8036 -23.7764 -11.5386 -11.4130 -11.3533
    -7.7394  -7.2900  -7.0234   4.2261   4.4719   5.0895   5.3524   5.5965
     6.5685   7.1456   7.3999   7.9998

          k = 0.1250 0.3750 0.3750 (  6740 PWs)   bands (ev):

   -47.1725 -30.1400 -23.8297 -23.8208 -23.7757 -11.4936 -11.4643 -11.3497
    -7.7260  -7.1361  -7.0467   4.1110   4.4394   4.6131   5.3396   5.5103
     6.4091   7.2280   7.2827   8.3500

          k = 0.1250 0.3750-0.5000 (  6726 PWs)   bands (ev):

   -47.1723 -30.1391 -23.8313 -23.8294 -23.7752 -11.5035 -11.4626 -11.3470
    -7.7153  -7.0979  -6.9780   4.0175   4.1755   4.5357   5.3614   5.3948
     6.4139   7.2016   7.2432   8.4510

          k = 0.1250-0.5000-0.5000 (  6732 PWs)   bands (ev):

   -47.1721 -30.1381 -23.8400 -23.8310 -23.7747 -11.4864 -11.4855 -11.3444
    -7.7171  -7.0006  -6.9597   3.8578   4.0614   4.3715   5.3196   5.3653
     6.3981   7.1809   7.2291   8.5925

          k = 0.2500 0.2500 0.2500 (  6698 PWs)   bands (ev):

   -47.1729 -30.1422 -23.8039 -23.8039 -23.7950 -11.4659 -11.4087 -11.4076
    -7.7434  -7.2542  -7.2229   4.4788   5.0756   5.0805   5.5269   5.5297
     5.7526   7.6337   7.6800   8.0103

          k = 0.2500 0.2500 0.3750 (  6729 PWs)   bands (ev):

   -47.1725 -30.1400 -23.8205 -23.8029 -23.8026 -11.4933 -11.4128 -11.3966
    -7.5985  -7.2640  -7.0845   4.3096   4.7323   4.9127   4.9938   5.3324
     5.6954   7.6567   7.7640   8.1157

          k = 0.2500 0.2500-0.5000 (  6718 PWs)   bands (ev):

   -47.1723 -30.1391 -23.8310 -23.8026 -23.8020 -11.5105 -11.4090 -11.3915
    -7.5508  -7.2681  -7.0098   4.2233   4.4551   4.8145   4.9106   5.3058
     5.7227   7.6610   7.7781   8.1279

          k = 0.2500 0.3750 0.3750 (  6739 PWs)   bands (ev):

   -47.1721 -30.1378 -23.8285 -23.8194 -23.8015 -11.4740 -11.4471 -11.3918
    -7.4847  -7.1411  -7.0709   4.1830   4.4921   4.6113   4.8359   4.9596
     5.4510   7.8080   7.8916   8.3777

          k = 0.2500 0.3750-0.5000 (  6716 PWs)   bands (ev):

   -47.1719 -30.1369 -23.8299 -23.8280 -23.8010 -11.4823 -11.4462 -11.3878
    -7.4676  -7.1249  -6.9958   4.1623   4.1852   4.5330   4.7753   4.8998
     5.4409   7.8334   7.9257   8.4764

          k = 0.2500-0.5000-0.5000 (  6720 PWs)   bands (ev):

   -47.1717 -30.1360 -23.8386 -23.8295 -23.8005 -11.4676 -11.4671 -11.3835
    -7.4635  -7.0296  -6.9900   4.0370   4.0661   4.3778   4.7689   4.8025
     5.4163   7.8892   7.9472   8.6172

          k = 0.3750 0.3750 0.3750 (  6728 PWs)   bands (ev):

   -47.1716 -30.1356 -23.8273 -23.8271 -23.8181 -11.4563 -11.4335 -11.4278
    -7.2560  -7.1200  -7.0919   4.1774   4.5121   4.5292   4.5302   4.6696
     4.6887   8.2064   8.2548   8.4464

          k = 0.3750 0.3750-0.5000 (  6734 PWs)   bands (ev):

   -47.1715 -30.1347 -23.8286 -23.8267 -23.8265 -11.4608 -11.4313 -11.4265
    -7.2242  -7.1307  -7.0133   4.1292   4.2927   4.4275   4.4613   4.6290
     4.6449   8.2581   8.3889   8.5375

          k = 0.3750-0.5000-0.5000 (  6736 PWs)   bands (ev):

   -47.1713 -30.1338 -23.8372 -23.8280 -23.8261 -11.4487 -11.4485 -11.4221
    -7.1914  -7.0591  -7.0208   4.0243   4.2219   4.3838   4.4030   4.4299
     4.6108   8.4074   8.4660   8.6422

          k =-0.5000-0.5000-0.5000 (  6776 PWs)   bands (ev):

   -47.1711 -30.1330 -23.8366 -23.8366 -23.8274 -11.4409 -11.4409 -11.4379
    -7.0714  -7.0714  -7.0346   3.9321   4.2766   4.3005   4.3005   4.3704
     4.3914   8.5959   8.6514   8.6514

          k = 0.1250 0.0000 0.0000 (  6751 PWs)   bands (ev):

   -47.1745 -30.1506 -23.7812 -23.7701 -23.7614 -11.3955 -11.3670 -11.3508
    -8.4734  -7.4624  -7.4193   5.3705   5.5556   5.5583   7.2338   7.2393
     7.3289   7.6770   8.0930   8.1030

          k = 0.2500 0.0000 0.0000 (  6743 PWs)   bands (ev):

   -47.1741 -30.1485 -23.8067 -23.7689 -23.7602 -11.4821 -11.3620 -11.3470
    -8.2440  -7.4407  -7.3196   4.9191   5.5953   5.5965   6.7537   6.7542
     6.7872   7.0697   7.9935   7.9973

          k = 0.3750 0.0000 0.0000 (  6704 PWs)   bands (ev):

   -47.1737 -30.1464 -23.8320 -23.7676 -23.7591 -11.5644 -11.3558 -11.3432
    -8.0121  -7.4286  -7.2043   4.4234   5.6923   5.7008   6.1211   6.2902
     6.3041   6.8358   7.9323   7.9328

          k =-0.5000 0.0000 0.0000 (  6696 PWs)   bands (ev):

   -47.1735 -30.1455 -23.8424 -23.7671 -23.7586 -11.5971 -11.3532 -11.3416
    -7.9159  -7.4239  -7.1533   4.2033   5.8228   5.8494   5.8987   6.0234
     6.0243   6.7460   7.9103   7.9111

          k = 0.1250-0.1250 0.0000 (  6735 PWs)   bands (ev):

   -47.1743 -30.1497 -23.7809 -23.7806 -23.7609 -11.4047 -11.3746 -11.3632
    -8.3845  -7.4179  -7.4159   5.2513   5.4937   5.5645   6.8032   7.0864
     7.4580   7.5762   7.7722   7.9722

          k = 0.2500-0.1250 0.0000 (  6740 PWs)   bands (ev):

   -47.1739 -30.1476 -23.8064 -23.7796 -23.7597 -11.4758 -11.3765 -11.3571
    -8.1691  -7.4087  -7.3051   4.8628   5.4123   5.6032   6.1836   6.6935
     6.9224   7.4240   7.6418   7.8120

          k = 0.0000 0.2500 0.1250 (  6740 PWs)   bands (ev):

   -47.1739 -30.1476 -23.8064 -23.7709 -23.7684 -11.4768 -11.3865 -11.3452
    -8.1722  -7.4159  -7.2958   4.8690   5.4189   5.5983   6.2045   6.6726
     6.8699   7.4557   7.6597   7.8003

          k = 0.3750-0.1250 0.0000 (  6719 PWs)   bands (ev):

   -47.1735 -30.1454 -23.8318 -23.7785 -23.7586 -11.5513 -11.3700 -11.3505
    -7.9546  -7.4001  -7.1830   4.4095   5.2576   5.6984   5.7583   6.2668
     6.5088   7.2809   7.5765   7.7260

          k = 0.0000 0.3750 0.1250 (  6719 PWs)   bands (ev):

   -47.1735 -30.1455 -23.8317 -23.7698 -23.7672 -11.5517 -11.3781 -11.3413
    -7.9602  -7.3966  -7.1820   4.4116   5.2784   5.6897   5.7796   6.2427
     6.4487   7.3366   7.5738   7.7187

          k =-0.5000-0.1250 0.0000 (  6728 PWs)   bands (ev):

   -47.1733 -30.1445 -23.8422 -23.7780 -23.7581 -11.5817 -11.3672 -11.3478
    -7.8673  -7.3961  -7.1278   4.1999   5.1441   5.6575   5.8460   6.0017
     6.3766   7.2097   7.5564   7.6986

          k = 0.0000-0.5000 0.1250 (  6728 PWs)   bands (ev):

   -47.1733 -30.1446 -23.8422 -23.7694 -23.7667 -11.5820 -11.3743 -11.3397
    -7.8749  -7.3885  -7.1289   4.2008   5.1684   5.6907   5.8224   5.9812
     6.3130   7.2695   7.5498   7.6929

          k = 0.2500-0.2500 0.0000 (  6715 PWs)   bands (ev):

   -47.1735 -30.1453 -23.8058 -23.8051 -23.7586 -11.4740 -11.4256 -11.3517
    -7.9971  -7.3451  -7.2406   4.6276   5.1371   5.4697   5.6585   6.4520
     6.8883   7.0881   7.5252   7.8077

          k = 0.3750-0.2500 0.0000 (  6722 PWs)   bands (ev):

   -47.1731 -30.1431 -23.8311 -23.8046 -23.7574 -11.5202 -11.4253 -11.3456
    -7.8481  -7.2943  -7.1274   4.3204   4.6829   5.1639   5.7137   6.1432
     6.6273   7.0422   7.3593   7.9111

          k = 0.0000 0.3750 0.2500 (  6722 PWs)   bands (ev):

   -47.1731 -30.1432 -23.8310 -23.7957 -23.7660 -11.5219 -11.4302 -11.3366
    -7.8683  -7.2820  -7.1229   4.3327   4.6923   5.2026   5.6890   6.1165
     6.5730   7.0233   7.3395   7.9857

          k =-0.5000-0.2500 0.0000 (  6726 PWs)   bands (ev):

   -47.1729 -30.1421 -23.8416 -23.8042 -23.7569 -11.5445 -11.4195 -11.3430
    -7.7967  -7.2722  -7.0669   4.1864   4.4204   5.1299   5.8314   5.9257
     6.5332   7.0433   7.3098   7.9212

          k = 0.0000-0.5000 0.2500 (  6726 PWs)   bands (ev):

   -47.1729 -30.1423 -23.8415 -23.7953 -23.7655 -11.5456 -11.4242 -11.3349
    -7.8208  -7.2480  -7.0705   4.1901   4.4383   5.1701   5.8196   5.8819
     6.4803   7.0267   7.2916   7.9973

          k = 0.3750-0.3750 0.0000 (  6722 PWs)   bands (ev):

   -47.1726 -30.1407 -23.8306 -23.8303 -23.7563 -11.4958 -11.4733 -11.3400
    -7.7919  -7.1361  -7.0590   4.0545   4.3983   4.5955   5.7409   5.9729
     6.6956   6.8079   7.1027   8.2660

          k =-0.5000-0.3750 0.0000 (  6712 PWs)   bands (ev):

   -47.1725 -30.1397 -23.8411 -23.8301 -23.7558 -11.5075 -11.4711 -11.3376
    -7.7803  -7.0776  -7.0069   3.9430   4.1308   4.5310   5.8113   5.8381
     6.6733   6.7971   7.0181   8.3670

          k = 0.0000-0.5000 0.3750 (  6712 PWs)   bands (ev):

   -47.1725 -30.1400 -23.8408 -23.8210 -23.7644 -11.5092 -11.4731 -11.3300
    -7.8131  -7.0447  -7.0126   3.9538   4.1448   4.5631   5.7861   5.8138
     6.6264   6.7790   6.9863   8.4457

          k =-0.5000 0.5000 0.0000 (  6728 PWs)   bands (ev):

   -47.1723 -30.1387 -23.8408 -23.8408 -23.7553 -11.4922 -11.4922 -11.3353
    -7.7828  -6.9822  -6.9822   3.7770   4.0263   4.3529   5.8008   5.8008
     6.7327   6.7327   6.9159   8.5043

          k = 0.2500-0.1250 0.1250 (  6755 PWs)   bands (ev):

   -47.1737 -30.1467 -23.8060 -23.7791 -23.7704 -11.4709 -11.3864 -11.3669
    -8.0960  -7.3814  -7.2904   4.8092   5.3588   5.4872   6.1431   6.2223
     6.9768   7.4697   7.5968   7.7112

          k = 0.3750-0.1250 0.1250 (  6713 PWs)   bands (ev):

   -47.1733 -30.1445 -23.8314 -23.7780 -23.7693 -11.5395 -11.3795 -11.3594
    -7.8938  -7.3750  -7.1669   4.3978   5.1545   5.4657   5.6512   5.8989
     6.9282   7.2396   7.4563   7.6573

          k =-0.5000-0.1250 0.1250 (  6714 PWs)   bands (ev):

   -47.1731 -30.1436 -23.8419 -23.7775 -23.7689 -11.5677 -11.3760 -11.3562
    -7.8127  -7.3727  -7.1088   4.1983   5.0256   5.4407   5.5407   5.8034
     6.9368   7.1370   7.3834   7.6378

          k = 0.2500-0.2500 0.1250 (  6710 PWs)   bands (ev):

   -47.1733 -30.1444 -23.8052 -23.8048 -23.7693 -11.4688 -11.4207 -11.3711
    -7.9195  -7.3152  -7.2446   4.5938   5.1308   5.3879   5.5556   6.0207
     6.5846   7.4380   7.5224   7.8410

          k = 0.3750-0.2500 0.1250 (  6729 PWs)   bands (ev):

   -47.1729 -30.1422 -23.8306 -23.8041 -23.7681 -11.5106 -11.4215 -11.3631
    -7.7650  -7.2867  -7.1258   4.3174   4.7023   5.1452   5.3888   5.7324
     6.5670   7.2583   7.4652   7.9339

          k =-0.1250 0.3750 0.2500 (  6729 PWs)   bands (ev):

   -47.1729 -30.1422 -23.8306 -23.7952 -23.7768 -11.5118 -11.4258 -11.3558
    -7.7820  -7.2752  -7.1226   4.3274   4.7131   5.1757   5.3616   5.7228
     6.5375   7.2049   7.4612   7.9996

          k =-0.5000-0.2500 0.1250 (  6730 PWs)   bands (ev):

   -47.1727 -30.1412 -23.8412 -23.8037 -23.7677 -11.5332 -11.4162 -11.3596
    -7.7112  -7.2757  -7.0611   4.1874   4.4486   5.1022   5.3502   5.6399
     6.6115   7.1523   7.4552   7.9414

          k =-0.1250-0.5000 0.2500 (  6730 PWs)   bands (ev):

   -47.1727 -30.1413 -23.8411 -23.7948 -23.7763 -11.5340 -11.4204 -11.3530
    -7.7322  -7.2546  -7.0636   4.1901   4.4665   5.1347   5.3169   5.6326
     6.5871   7.0969   7.4505   8.0097

          k = 0.3750-0.3750 0.1250 (  6740 PWs)   bands (ev):

   -47.1725 -30.1398 -23.8300 -23.8297 -23.7670 -11.4880 -11.4665 -11.3563
    -7.6955  -7.1395  -7.0694   4.0930   4.4163   4.5973   5.3646   5.5261
     6.4495   7.2851   7.2886   8.2780

          k =-0.5000-0.3750 0.1250 (  6726 PWs)   bands (ev):

   -47.1723 -30.1389 -23.8405 -23.8295 -23.7665 -11.4990 -11.4648 -11.3533
    -7.6814  -7.0903  -7.0143   4.0041   4.1356   4.5334   5.3589   5.4393
     6.4555   7.2113   7.2969   8.3790

          k =-0.1250-0.5000 0.3750 (  6726 PWs)   bands (ev):

   -47.1723 -30.1391 -23.8403 -23.8204 -23.7752 -11.5003 -11.4665 -11.3470
    -7.7143  -7.0573  -7.0190   4.0166   4.1481   4.5649   5.3181   5.4391
     6.4182   7.1556   7.2904   8.4540

          k =-0.5000 0.5000 0.1250 (  6732 PWs)   bands (ev):

   -47.1721 -30.1379 -23.8402 -23.8402 -23.7660 -11.4848 -11.4848 -11.3505
    -7.6818  -6.9951  -6.9951   3.8478   4.0329   4.3554   5.3625   5.3625
     6.4380   7.2357   7.2357   8.5174

          k = 0.3750-0.2500 0.2500 (  6729 PWs)   bands (ev):

   -47.1725 -30.1400 -23.8295 -23.8028 -23.7939 -11.4881 -11.4218 -11.3946
    -7.5861  -7.2410  -7.1180   4.2869   4.7086   4.9042   5.0151   5.3508
     5.7234   7.7071   7.7357   8.0984

          k =-0.5000-0.2500 0.2500 (  6718 PWs)   bands (ev):

   -47.1723 -30.1391 -23.8401 -23.8024 -23.7934 -11.5061 -11.4183 -11.3890
    -7.5343  -7.2441  -7.0476   4.1853   4.4376   4.8061   4.9426   5.3256
     5.7523   7.7239   7.7426   8.1079

          k = 0.3750-0.3750 0.2500 (  6739 PWs)   bands (ev):

   -47.1721 -30.1377 -23.8285 -23.8285 -23.7926 -11.4695 -11.4501 -11.3950
    -7.4577  -7.1423  -7.0946   4.1658   4.4716   4.5974   4.8517   4.9692
     5.4879   7.8550   7.8982   8.3220

          k =-0.5000-0.3750 0.2500 (  6716 PWs)   bands (ev):

   -47.1719 -30.1368 -23.8391 -23.8281 -23.7921 -11.4783 -11.4496 -11.3906
    -7.4341  -7.1187  -7.0325   4.1414   4.1519   4.5334   4.7743   4.9311
     5.4790   7.8959   7.9236   8.4141

          k =-0.2500-0.5000 0.3750 (  6716 PWs)   bands (ev):

   -47.1719 -30.1369 -23.8390 -23.8190 -23.8010 -11.4789 -11.4509 -11.3871
    -7.4657  -7.0871  -7.0347   4.1500   4.1680   4.5610   4.7455   4.9323
     5.4442   7.8674   7.8944   8.4769

          k =-0.5000 0.5000 0.2500 (  6720 PWs)   bands (ev):

   -47.1717 -30.1359 -23.8387 -23.8387 -23.7915 -11.4668 -11.4668 -11.3869
    -7.4270  -7.0265  -7.0265   4.0219   4.0420   4.3616   4.8016   4.8016
     5.4537   7.9489   7.9489   8.5495

          k =-0.5000-0.3750 0.3750 (  6734 PWs)   bands (ev):

   -47.1715 -30.1347 -23.8378 -23.8267 -23.8175 -11.4574 -11.4400 -11.4219
    -7.2097  -7.1065  -7.0512   4.1085   4.2754   4.4179   4.4739   4.6418
     4.6712   8.3193   8.3498   8.5155

          k =-0.5000 0.5000 0.3750 (  6736 PWs)   bands (ev):

   -47.1713 -30.1338 -23.8372 -23.8372 -23.8169 -11.4485 -11.4485 -11.4230
    -7.1540  -7.0582  -7.0582   4.0097   4.2009   4.3678   4.4290   4.4290
     4.6411   8.4659   8.4659   8.5822

     highest occupied level (ev):     8.6514

!    total energy              =    -291.75289441 Ry
     estimated scf accuracy    <          6.9E-09 Ry

     The total energy is the sum of the following terms:
     one-electron contribution =     -94.04740623 Ry
     hartree contribution      =      66.23810511 Ry
     xc contribution           =     -51.22367694 Ry
     ewald contribution        =    -212.71991636 Ry

     convergence has been achieved in  13 iterations

     negative rho (up, down):  8.510E-04 0.000E+00

     Forces acting on atoms (cartesian axes, Ry/au):

     atom    1 type  1   force =     0.00000000    0.00000000   -0.00155866
     atom    2 type  2   force =     0.00000000    0.00000000    0.01671638
     atom    3 type  3   force =     0.00000000    0.00000000    0.00789939
     atom    4 type  3   force =     0.00000000    0.00000000   -0.01152856
     atom    5 type  3   force =     0.00000000    0.00000000   -0.01152856

     Total force =     0.024700     Total SCF correction =     0.000048


     Computing stress (Cartesian axis) and pressure


     negative rho (up, down):  8.510E-04 0.000E+00
          total   stress  (Ry/bohr**3)                   (kbar)     P=     -113.61
  -0.00077334   0.00000000   0.00000000         -113.76        0.00        0.00
   0.00000000  -0.00077334   0.00000000            0.00     -113.76        0.00
   0.00000000   0.00000000  -0.00077021            0.00        0.00     -113.30


     Writing all to output data dir ./CTO_DIS_K8.save/ :
     XML data file, charge density, pseudopotentials, collected wavefunctions
 
     init_run     :      1.02s CPU      1.16s WALL (       1 calls)
     electrons    :     38.93s CPU     40.62s WALL (       1 calls)
     forces       :      0.40s CPU      0.43s WALL (       1 calls)
     stress       :      4.88s CPU      4.95s WALL (       1 calls)

     Called by init_run:
     wfcinit      :      0.72s CPU      0.76s WALL (       1 calls)
     potinit      :      0.02s CPU      0.02s WALL (       1 calls)
     hinit0       :      0.15s CPU      0.18s WALL (       1 calls)

     Called by electrons:
     c_bands      :     33.03s CPU     34.28s WALL (      13 calls)
     sum_band     :      4.40s CPU      4.60s WALL (      13 calls)
     v_of_rho     :      0.05s CPU      0.05s WALL (      14 calls)
     newd         :      1.48s CPU      1.71s WALL (      14 calls)
     mix_rho      :      0.04s CPU      0.04s WALL (      13 calls)

     Called by c_bands:
     init_us_2    :      0.56s CPU      0.58s WALL (    2175 calls)
     init_us_2:cp :      0.55s CPU      0.58s WALL (    2175 calls)
     ccgdiagg     :     28.50s CPU     29.61s WALL (     975 calls)
     wfcrot       :      4.76s CPU      4.92s WALL (     975 calls)

     Called by *cgdiagg:
     h_psi        :     20.63s CPU     21.40s WALL (   59575 calls)
     s_psi        :      3.70s CPU      3.84s WALL (  118175 calls)

     Called by h_psi:
     h_psi:calbec :      3.54s CPU      3.67s WALL (   59575 calls)
     vloc_psi     :     14.44s CPU     14.98s WALL (   59575 calls)
     add_vuspsi   :      2.09s CPU      2.17s WALL (   59575 calls)
     hs_1psi      :     18.77s CPU     19.49s WALL (   58600 calls)
     s_1psi       :      4.50s CPU      4.66s WALL (   58600 calls)

     General routines
     calbec       :      6.06s CPU      6.30s WALL (  119525 calls)
     fft          :      0.07s CPU      0.09s WALL (      90 calls)
     ffts         :      0.00s CPU      0.01s WALL (      27 calls)
     fftw         :     11.32s CPU     11.73s WALL (  177500 calls)
     interpolate  :      0.01s CPU      0.02s WALL (      14 calls)
 
     Parallel routines
 
     PWSCF        :     45.60s CPU     48.63s WALL

 
   This run was terminated on:  13:30:34  23Sep2025            

=------------------------------------------------------------------------------=
   JOB DONE.
=------------------------------------------------------------------------------=
TACC:  Shutdown complete. Exiting. 
