TACC:  Starting up job 2553095 
TACC:  Starting parallel tasks... 

     Program PWSCF v.7.3 starts on 15Nov2025 at  2:37:33 

     This program is part of the open-source Quantum ESPRESSO suite
     for quantum simulation of materials; please cite
         "P. Giannozzi et al., J. Phys.:Condens. Matter 21 395502 (2009);
         "P. Giannozzi et al., J. Phys.:Condens. Matter 29 465901 (2017);
         "P. Giannozzi et al., J. Chem. Phys. 152 154105 (2020);
          URL http://www.quantum-espresso.org", 
     in publications or presentations arising from this work. More details at
     http://www.quantum-espresso.org/quote

     Parallel version (MPI & OpenMP), running on      10 processor cores
     Number of MPI processes:                10
     Threads/MPI process:                     1

     MPI processes distributed on     1 nodes
     186462 MiB available memory on the printing compute node when the environment starts
 
     Waiting for input...
     Reading input from standard input
Warning: card &CELL ignored
Warning: card  CELL_DYNAMICS = 'BFGS', ignored
Warning: card  PRESS=0.D0, ignored
Warning: card / ignored

     Current dimensions of program PWSCF are:
     Max number of different atomic species (ntypx) = 10
     Max number of k-points (npk) =  40000
     Max angular momentum in pseudopotentials (lmaxx) =  4
     Message from routine setup:
     using ibrav=0 with symmetry is DISCOURAGED, use correct ibrav instead
 
     R & G space division:  proc/nbgrp/npool/nimage =      10
     Subspace diagonalization in iterative solution of the eigenvalue problem:
     a serial algorithm will be used

 
     Parallelization info
     --------------------
     sticks:   dense  smooth     PW     G-vecs:    dense   smooth      PW
     Min         216      86     25                 7944     2004     325
     Max         217      87     27                 7947     2007     327
     Sum        2161     869    261                79447    20063    3255
 
     Using Slab Decomposition
 


     bravais-lattice index     =            0
     lattice parameter (alat)  =       7.3699  a.u.
     unit-cell volume          =     420.8329 (a.u.)^3
     number of atoms/cell      =            5
     number of atomic types    =            3
     number of electrons       =        44.00
     number of Kohn-Sham states=           22
     kinetic-energy cutoff     =      50.0000  Ry
     charge density cutoff     =     500.0000  Ry
     scf convergence threshold =      1.0E-08
     mixing beta               =       0.7000
     number of iterations used =            8  plain     mixing
     energy convergence thresh.=      1.0E-04
     force convergence thresh. =      1.0E-03
     Exchange-correlation= SLA  PZ   NOGX NOGC
                           (   1   1   0   0   0   0   0)
     nstep                     =           50


     celldm(1)=   7.369932  celldm(2)=   0.000000  celldm(3)=   0.000000
     celldm(4)=   0.000000  celldm(5)=   0.000000  celldm(6)=   0.000000

     crystal axes: (cart. coord. in units of alat)
               a(1) = (   1.000000   0.000000   0.000000 )  
               a(2) = (   0.000000   1.000000   0.000000 )  
               a(3) = (   0.000000   0.000000   1.051282 )  

     reciprocal axes: (cart. coord. in units 2 pi/alat)
               b(1) = (  1.000000  0.000000  0.000000 )  
               b(2) = (  0.000000  1.000000  0.000000 )  
               b(3) = (  0.000000  0.000000  0.951220 )  


     PseudoPot. # 1 for Pb read from file:
     /scratch/11018/zhc/assisgnment3/input_files/Pb_LDA.UPF
     MD5 check sum: 062a37469794d955244864f8fe2e5624
     Pseudo is Ultrasoft + core correction, Zval = 14.0
     Generated by new atomic code, or converted to UPF format
     Using radial grid of  899 points,  6 beta functions with: 
                l(1) =   0
                l(2) =   0
                l(3) =   1
                l(4) =   1
                l(5) =   2
                l(6) =   2
     Q(r) pseudized with  6 coefficients,  rinner =    1.000   1.000   1.000
                                                       1.000   1.000

     PseudoPot. # 2 for Ti read from file:
     /scratch/11018/zhc/assisgnment3/input_files/Ti_LDA.UPF
     MD5 check sum: 0d9f225c038fe889ca2a701dcc8d72cb
     Pseudo is Ultrasoft + core correction, Zval = 12.0
     Generated by new atomic code, or converted to UPF format
     Using radial grid of  851 points,  6 beta functions with: 
                l(1) =   0
                l(2) =   0
                l(3) =   1
                l(4) =   1
                l(5) =   2
                l(6) =   2
     Q(r) pseudized with  6 coefficients,  rinner =    1.000   1.000   1.000
                                                       1.000   1.000

     PseudoPot. # 3 for O  read from file:
     /scratch/11018/zhc/assisgnment3/input_files/O_LDA.UPF
     MD5 check sum: 194b818514d2a7dbb603bb78519a4f40
     Pseudo is Ultrasoft + core correction, Zval =  6.0
     Generated by new atomic code, or converted to UPF format
     Using radial grid of  737 points,  5 beta functions with: 
                l(1) =   0
                l(2) =   0
                l(3) =   1
                l(4) =   1
                l(5) =   2
     Q(r) pseudized with  8 coefficients,  rinner =    0.900   0.900   0.900
                                                       0.900   0.900

     atomic species   valence    mass     pseudopotential
     Pb               14.00   207.20000     Pb( 1.00)
     Ti               12.00    47.88000     Ti( 1.00)
     O                 6.00    16.00000     O ( 1.00)

      8 Sym. Ops. (no inversion) found



   Cartesian axes

     site n.     atom                  positions (alat units)
         1        Pb     tau(   1) = (   0.0000000   0.0000000   1.0580339  )
         2        Ti     tau(   2) = (   0.5000000   0.5000000   0.5681377  )
         3        O      tau(   3) = (   0.5000000   0.5000000   0.1036357  )
         4        O      tau(   4) = (   0.5000000   0.0000000   0.6422586  )
         5        O      tau(   5) = (   0.0000000   0.5000000   0.6422586  )

     number of k points=   126

     Number of k-points >= 100: set verbosity='high' to print them.

     Dense  grid:    79447 G-vectors     FFT dimensions: (  54,  54,  60)

     Smooth grid:    20063 G-vectors     FFT dimensions: (  36,  36,  36)

     Estimated max dynamical RAM per process >      45.69 MB

     Estimated total dynamical RAM >     456.87 MB

     Check: negative core charge=   -0.000004

     Initial potential from superposition of free atoms

     starting charge      42.9982, renormalised to      44.0000

     negative rho (up, down):  1.690E-02 0.000E+00
     Starting wfcs are   31 randomized atomic wfcs

     total cpu time spent up to now is        1.2 secs

     Self-consistent Calculation

     iteration #  1     ecut=    50.00 Ry     beta= 0.70
     CG style diagonalization
     ethr =  1.00E-02,  avg # of iterations =  2.1

     negative rho (up, down):  1.407E-02 0.000E+00

     total cpu time spent up to now is        3.2 secs

     total energy              =    -380.04675111 Ry
     estimated scf accuracy    <       1.03406079 Ry

     iteration #  2     ecut=    50.00 Ry     beta= 0.70
     CG style diagonalization
     ethr =  2.35E-03,  avg # of iterations =  5.0

     negative rho (up, down):  1.454E-02 0.000E+00

     total cpu time spent up to now is        7.1 secs

     total energy              =    -379.54245673 Ry
     estimated scf accuracy    <       5.20176510 Ry

     iteration #  3     ecut=    50.00 Ry     beta= 0.70
     CG style diagonalization
     ethr =  2.35E-03,  avg # of iterations =  4.5

     negative rho (up, down):  1.525E-02 0.000E+00

     total cpu time spent up to now is       10.5 secs

     total energy              =    -380.53287314 Ry
     estimated scf accuracy    <       0.36591639 Ry

     iteration #  4     ecut=    50.00 Ry     beta= 0.70
     CG style diagonalization
     ethr =  8.32E-04,  avg # of iterations =  3.4

     negative rho (up, down):  1.523E-02 0.000E+00

     total cpu time spent up to now is       13.1 secs

     total energy              =    -380.55279760 Ry
     estimated scf accuracy    <       0.07291810 Ry

     iteration #  5     ecut=    50.00 Ry     beta= 0.70
     CG style diagonalization
     ethr =  1.66E-04,  avg # of iterations =  3.7

     negative rho (up, down):  1.524E-02 0.000E+00

     total cpu time spent up to now is       15.9 secs

     total energy              =    -380.56665604 Ry
     estimated scf accuracy    <       0.00793533 Ry

     iteration #  6     ecut=    50.00 Ry     beta= 0.70
     CG style diagonalization
     ethr =  1.80E-05,  avg # of iterations =  4.2

     negative rho (up, down):  1.524E-02 0.000E+00

     total cpu time spent up to now is       19.1 secs

     total energy              =    -380.57095789 Ry
     estimated scf accuracy    <       0.00650127 Ry

     iteration #  7     ecut=    50.00 Ry     beta= 0.70
     CG style diagonalization
     ethr =  1.48E-05,  avg # of iterations =  3.2

     negative rho (up, down):  1.525E-02 0.000E+00

     total cpu time spent up to now is       21.4 secs

     total energy              =    -380.57057612 Ry
     estimated scf accuracy    <       0.00265225 Ry

     iteration #  8     ecut=    50.00 Ry     beta= 0.70
     CG style diagonalization
     ethr =  6.03E-06,  avg # of iterations =  3.6

     negative rho (up, down):  1.527E-02 0.000E+00

     total cpu time spent up to now is       24.1 secs

     total energy              =    -380.57104615 Ry
     estimated scf accuracy    <       0.00001402 Ry

     iteration #  9     ecut=    50.00 Ry     beta= 0.70
     CG style diagonalization
     c_bands:  2 eigenvalues not converged
     c_bands:  1 eigenvalues not converged
     c_bands:  1 eigenvalues not converged
     ethr =  3.19E-08,  avg # of iterations =  7.6

     negative rho (up, down):  1.531E-02 0.000E+00

     total cpu time spent up to now is       30.2 secs

     total energy              =    -380.57111022 Ry
     estimated scf accuracy    <       0.00001658 Ry

     iteration # 10     ecut=    50.00 Ry     beta= 0.70
     CG style diagonalization
     ethr =  3.19E-08,  avg # of iterations =  3.3

     negative rho (up, down):  1.540E-02 0.000E+00

     total cpu time spent up to now is       32.7 secs

     total energy              =    -380.57110779 Ry
     estimated scf accuracy    <       0.00000737 Ry

     iteration # 11     ecut=    50.00 Ry     beta= 0.70
     CG style diagonalization
     ethr =  1.67E-08,  avg # of iterations =  4.2

     negative rho (up, down):  1.539E-02 0.000E+00

     total cpu time spent up to now is       35.9 secs

     total energy              =    -380.57111030 Ry
     estimated scf accuracy    <       0.00000427 Ry

     iteration # 12     ecut=    50.00 Ry     beta= 0.70
     CG style diagonalization
     ethr =  9.70E-09,  avg # of iterations =  3.9

     negative rho (up, down):  1.540E-02 0.000E+00

     total cpu time spent up to now is       38.9 secs

     total energy              =    -380.57111133 Ry
     estimated scf accuracy    <       0.00000004 Ry

     iteration # 13     ecut=    50.00 Ry     beta= 0.70
     CG style diagonalization
     c_bands:  1 eigenvalues not converged
     c_bands:  1 eigenvalues not converged
     c_bands:  1 eigenvalues not converged
     c_bands:  1 eigenvalues not converged
     c_bands:  1 eigenvalues not converged
     c_bands:  1 eigenvalues not converged
     c_bands:  1 eigenvalues not converged
     c_bands:  1 eigenvalues not converged
     c_bands:  1 eigenvalues not converged
     c_bands:  1 eigenvalues not converged
     c_bands:  1 eigenvalues not converged
     c_bands:  1 eigenvalues not converged
     c_bands:  3 eigenvalues not converged
     c_bands:  1 eigenvalues not converged
     c_bands:  2 eigenvalues not converged
     c_bands:  1 eigenvalues not converged
     c_bands:  1 eigenvalues not converged
     c_bands:  1 eigenvalues not converged
     c_bands:  1 eigenvalues not converged
     c_bands:  1 eigenvalues not converged
     c_bands:  1 eigenvalues not converged
     c_bands:  1 eigenvalues not converged
     c_bands:  2 eigenvalues not converged
     c_bands:  1 eigenvalues not converged
     c_bands:  1 eigenvalues not converged
     c_bands:  2 eigenvalues not converged
     c_bands:  1 eigenvalues not converged
     c_bands:  2 eigenvalues not converged
     c_bands:  1 eigenvalues not converged
     c_bands:  1 eigenvalues not converged
     c_bands:  1 eigenvalues not converged
     c_bands:  1 eigenvalues not converged
     c_bands:  1 eigenvalues not converged
     c_bands:  1 eigenvalues not converged
     c_bands:  1 eigenvalues not converged
     c_bands:  2 eigenvalues not converged
     c_bands:  1 eigenvalues not converged
     c_bands:  1 eigenvalues not converged
     c_bands:  1 eigenvalues not converged
     c_bands:  1 eigenvalues not converged
     ethr =  9.52E-11,  avg # of iterations = 13.1

     negative rho (up, down):  1.540E-02 0.000E+00

     total cpu time spent up to now is       49.5 secs

     total energy              =    -380.57111239 Ry
     estimated scf accuracy    <       0.00000003 Ry

     iteration # 14     ecut=    50.00 Ry     beta= 0.70
     CG style diagonalization
     ethr =  7.29E-11,  avg # of iterations =  3.9

     negative rho (up, down):  1.541E-02 0.000E+00

     total cpu time spent up to now is       52.5 secs

     total energy              =    -380.57111239 Ry
     estimated scf accuracy    <       0.00000001 Ry

     iteration # 15     ecut=    50.00 Ry     beta= 0.70
     CG style diagonalization
     ethr =  2.39E-11,  avg # of iterations =  4.7

     negative rho (up, down):  1.541E-02 0.000E+00

     total cpu time spent up to now is       56.1 secs

     End of self-consistent calculation

     Number of k-points >= 100: set verbosity='high' to print the bands.

     highest occupied level (ev):    10.2784

!    total energy              =    -380.57111239 Ry
     estimated scf accuracy    <          1.4E-09 Ry

     The total energy is the sum of the following terms:
     one-electron contribution =     -84.08377215 Ry
     hartree contribution      =      71.16875634 Ry
     xc contribution           =    -102.54193713 Ry
     ewald contribution        =    -265.11415945 Ry

     convergence has been achieved in  15 iterations

     negative rho (up, down):  1.541E-02 0.000E+00

     Forces acting on atoms (cartesian axes, Ry/au):

     atom    1 type  1   force =     0.00000000    0.00000000   -0.00781201
     atom    2 type  2   force =     0.00000000    0.00000000   -0.01198950
     atom    3 type  3   force =     0.00000000    0.00000000    0.02000925
     atom    4 type  3   force =     0.00000000    0.00000000   -0.00010387
     atom    5 type  3   force =     0.00000000    0.00000000   -0.00010387

     Total force =     0.024600     Total SCF correction =     0.000093


     Computing stress (Cartesian axis) and pressure


     negative rho (up, down):  1.541E-02 0.000E+00
          total   stress  (Ry/bohr**3)                   (kbar)     P=      -65.62
  -0.00043287   0.00000000   0.00000000          -63.68        0.00        0.00
   0.00000000  -0.00043287   0.00000000            0.00      -63.68        0.00
   0.00000000   0.00000000  -0.00047258            0.00        0.00      -69.52


     BFGS Geometry Optimization
     Energy error            =      0.0E+00 Ry
     Gradient error          =      2.0E-02 Ry/Bohr

     number of scf cycles    =   1
     number of bfgs steps    =   0

     energy             new  =    -380.5711123908 Ry

     new trust radius        =       0.0200092517 bohr
     new conv_thr            =       0.0000000100 Ry


ATOMIC_POSITIONS (crystal)
Pb               0.0000000000        0.0000000000        1.0054142302
Ti               0.5000000000        0.5000000000        0.5388762412
O                0.5000000000        0.5000000000        0.1011628473
O                0.5000000000        0.0000000000        0.6109154847
O                0.0000000000        0.5000000000        0.6109154847



     Writing config-only to output data dir ./pto_k11.save/ :
     XML data file
     NEW-OLD atomic charge density approx. for the potential

     Check: negative core charge=   -0.000004

     negative rho (up, down):  1.527E-02 0.000E+00

     total cpu time spent up to now is       59.9 secs

     Self-consistent Calculation

     iteration #  1     ecut=    50.00 Ry     beta= 0.70
     CG style diagonalization
     c_bands:  1 eigenvalues not converged
     c_bands:  1 eigenvalues not converged
     c_bands:  1 eigenvalues not converged
     c_bands:  2 eigenvalues not converged
     c_bands:  1 eigenvalues not converged
     c_bands:  1 eigenvalues not converged
     c_bands:  1 eigenvalues not converged
     c_bands:  1 eigenvalues not converged
     c_bands:  1 eigenvalues not converged
     c_bands:  1 eigenvalues not converged
     c_bands:  1 eigenvalues not converged
     c_bands:  1 eigenvalues not converged
     c_bands:  1 eigenvalues not converged
     c_bands:  2 eigenvalues not converged
     c_bands:  2 eigenvalues not converged
     c_bands:  1 eigenvalues not converged
     c_bands:  2 eigenvalues not converged
     c_bands:  1 eigenvalues not converged
     c_bands:  1 eigenvalues not converged
     c_bands:  1 eigenvalues not converged
     c_bands:  1 eigenvalues not converged
     c_bands:  1 eigenvalues not converged
     c_bands:  1 eigenvalues not converged
     c_bands:  1 eigenvalues not converged
     c_bands:  1 eigenvalues not converged
     c_bands:  1 eigenvalues not converged
     c_bands:  1 eigenvalues not converged
     c_bands:  1 eigenvalues not converged
     c_bands:  1 eigenvalues not converged
     c_bands:  1 eigenvalues not converged
     ethr =  1.00E-06,  avg # of iterations =  7.2

     negative rho (up, down):  1.525E-02 0.000E+00

     total cpu time spent up to now is       66.1 secs

     total energy              =    -380.57146719 Ry
     estimated scf accuracy    <       0.00023184 Ry

     iteration #  2     ecut=    50.00 Ry     beta= 0.70
     CG style diagonalization
     ethr =  5.27E-07,  avg # of iterations =  4.8

     negative rho (up, down):  1.526E-02 0.000E+00

     total cpu time spent up to now is       69.8 secs

     total energy              =    -380.57144154 Ry
     estimated scf accuracy    <       0.00068513 Ry

     iteration #  3     ecut=    50.00 Ry     beta= 0.70
     CG style diagonalization
     ethr =  5.27E-07,  avg # of iterations =  4.3

     negative rho (up, down):  1.526E-02 0.000E+00

     total cpu time spent up to now is       73.1 secs

     total energy              =    -380.57157545 Ry
     estimated scf accuracy    <       0.00005055 Ry

     iteration #  4     ecut=    50.00 Ry     beta= 0.70
     CG style diagonalization
     ethr =  1.15E-07,  avg # of iterations =  3.8

     negative rho (up, down):  1.525E-02 0.000E+00

     total cpu time spent up to now is       76.0 secs

     total energy              =    -380.57158884 Ry
     estimated scf accuracy    <       0.00000552 Ry

     iteration #  5     ecut=    50.00 Ry     beta= 0.70
     CG style diagonalization
     ethr =  1.25E-08,  avg # of iterations =  4.4

     negative rho (up, down):  1.525E-02 0.000E+00

     total cpu time spent up to now is       79.4 secs

     total energy              =    -380.57159201 Ry
     estimated scf accuracy    <       0.00000064 Ry

     iteration #  6     ecut=    50.00 Ry     beta= 0.70
     CG style diagonalization
     ethr =  1.45E-09,  avg # of iterations =  4.6

     negative rho (up, down):  1.525E-02 0.000E+00

     total cpu time spent up to now is       82.9 secs

     total energy              =    -380.57159236 Ry
     estimated scf accuracy    <       0.00000030 Ry

     iteration #  7     ecut=    50.00 Ry     beta= 0.70
     CG style diagonalization
     ethr =  6.77E-10,  avg # of iterations =  4.0

     negative rho (up, down):  1.525E-02 0.000E+00

     total cpu time spent up to now is       86.0 secs

     total energy              =    -380.57159244 Ry
     estimated scf accuracy    <       0.00000007 Ry

     iteration #  8     ecut=    50.00 Ry     beta= 0.70
     CG style diagonalization
     ethr =  1.70E-10,  avg # of iterations =  4.4

     negative rho (up, down):  1.525E-02 0.000E+00

     total cpu time spent up to now is       89.4 secs

     End of self-consistent calculation

     Number of k-points >= 100: set verbosity='high' to print the bands.

     highest occupied level (ev):    10.2664

!    total energy              =    -380.57159247 Ry
     estimated scf accuracy    <          4.2E-09 Ry

     The total energy is the sum of the following terms:
     one-electron contribution =     -84.29750444 Ry
     hartree contribution      =      71.28469902 Ry
     xc contribution           =    -102.55157475 Ry
     ewald contribution        =    -265.00721231 Ry

     convergence has been achieved in   8 iterations

     negative rho (up, down):  1.525E-02 0.000E+00

     Forces acting on atoms (cartesian axes, Ry/au):

     atom    1 type  1   force =     0.00000000    0.00000000   -0.00854217
     atom    2 type  2   force =     0.00000000    0.00000000   -0.00494164
     atom    3 type  3   force =     0.00000000    0.00000000    0.01124466
     atom    4 type  3   force =     0.00000000    0.00000000    0.00111958
     atom    5 type  3   force =     0.00000000    0.00000000    0.00111958

     Total force =     0.015045     Total SCF correction =     0.000103


     Computing stress (Cartesian axis) and pressure


     negative rho (up, down):  1.525E-02 0.000E+00
          total   stress  (Ry/bohr**3)                   (kbar)     P=      -60.41
  -0.00042177   0.00000000   0.00000000          -62.05        0.00        0.00
   0.00000000  -0.00042177   0.00000000            0.00      -62.05        0.00
   0.00000000   0.00000000  -0.00038838            0.00        0.00      -57.13

     Energy error            =      4.8E-04 Ry
     Gradient error          =      1.1E-02 Ry/Bohr

     number of scf cycles    =   2
     number of bfgs steps    =   1

     energy             old  =    -380.5711123908 Ry
     energy             new  =    -380.5715924680 Ry

     CASE: energy            _new < energy            _old

     new trust radius        =       0.0220101768 bohr
     new conv_thr            =       0.0000000005 Ry


ATOMIC_POSITIONS (crystal)
Pb               0.0000000000        0.0000000000        1.0034018172
Ti               0.5000000000        0.5000000000        0.5375648025
O                0.5000000000        0.5000000000        0.1040036483
O                0.5000000000        0.0000000000        0.6111570100
O                0.0000000000        0.5000000000        0.6111570100



     Writing config-only to output data dir ./pto_k11.save/ :
     XML data file
     NEW-OLD atomic charge density approx. for the potential

     Check: negative core charge=   -0.000004

     negative rho (up, down):  1.515E-02 0.000E+00

     total cpu time spent up to now is       93.1 secs

     Self-consistent Calculation

     iteration #  1     ecut=    50.00 Ry     beta= 0.70
     CG style diagonalization
     c_bands:  1 eigenvalues not converged
     c_bands:  1 eigenvalues not converged
     c_bands:  2 eigenvalues not converged
     c_bands:  1 eigenvalues not converged
     c_bands:  1 eigenvalues not converged
     c_bands:  1 eigenvalues not converged
     c_bands:  1 eigenvalues not converged
     c_bands:  1 eigenvalues not converged
     c_bands:  1 eigenvalues not converged
     c_bands:  1 eigenvalues not converged
     c_bands:  1 eigenvalues not converged
     c_bands:  2 eigenvalues not converged
     c_bands:  1 eigenvalues not converged
     c_bands:  1 eigenvalues not converged
     c_bands:  1 eigenvalues not converged
     c_bands:  1 eigenvalues not converged
     c_bands:  1 eigenvalues not converged
     ethr =  1.00E-06,  avg # of iterations =  7.4

     negative rho (up, down):  1.511E-02 0.000E+00

     total cpu time spent up to now is       99.5 secs

     total energy              =    -380.57176580 Ry
     estimated scf accuracy    <       0.00023199 Ry

     iteration #  2     ecut=    50.00 Ry     beta= 0.70
     CG style diagonalization
     ethr =  5.27E-07,  avg # of iterations =  4.7

     negative rho (up, down):  1.512E-02 0.000E+00

     total cpu time spent up to now is      103.2 secs

     total energy              =    -380.57173767 Ry
     estimated scf accuracy    <       0.00066359 Ry

     iteration #  3     ecut=    50.00 Ry     beta= 0.70
     CG style diagonalization
     ethr =  5.27E-07,  avg # of iterations =  4.3

     negative rho (up, down):  1.511E-02 0.000E+00

     total cpu time spent up to now is      106.4 secs

     total energy              =    -380.57186923 Ry
     estimated scf accuracy    <       0.00005293 Ry

     iteration #  4     ecut=    50.00 Ry     beta= 0.70
     CG style diagonalization
     ethr =  1.20E-07,  avg # of iterations =  3.8

     negative rho (up, down):  1.511E-02 0.000E+00

     total cpu time spent up to now is      109.3 secs

     total energy              =    -380.57188260 Ry
     estimated scf accuracy    <       0.00000641 Ry

     iteration #  5     ecut=    50.00 Ry     beta= 0.70
     CG style diagonalization
     ethr =  1.46E-08,  avg # of iterations =  4.2

     negative rho (up, down):  1.511E-02 0.000E+00

     total cpu time spent up to now is      112.5 secs

     total energy              =    -380.57188605 Ry
     estimated scf accuracy    <       0.00000072 Ry

     iteration #  6     ecut=    50.00 Ry     beta= 0.70
     CG style diagonalization
     ethr =  1.63E-09,  avg # of iterations =  4.6

     negative rho (up, down):  1.511E-02 0.000E+00

     total cpu time spent up to now is      116.1 secs

     total energy              =    -380.57188647 Ry
     estimated scf accuracy    <       0.00000028 Ry

     iteration #  7     ecut=    50.00 Ry     beta= 0.70
     CG style diagonalization
     ethr =  6.44E-10,  avg # of iterations =  4.2

     negative rho (up, down):  1.511E-02 0.000E+00

     total cpu time spent up to now is      119.3 secs

     total energy              =    -380.57188656 Ry
     estimated scf accuracy    <       0.00000005 Ry

     iteration #  8     ecut=    50.00 Ry     beta= 0.70
     CG style diagonalization
     ethr =  1.25E-10,  avg # of iterations =  5.0

     negative rho (up, down):  1.511E-02 0.000E+00

     total cpu time spent up to now is      123.2 secs

     total energy              =    -380.57188660 Ry
     estimated scf accuracy    <          3.0E-09 Ry

     iteration #  9     ecut=    50.00 Ry     beta= 0.70
     CG style diagonalization
     c_bands:  1 eigenvalues not converged
     ethr =  6.81E-12,  avg # of iterations =  7.8

     negative rho (up, down):  1.511E-02 0.000E+00

     total cpu time spent up to now is      129.5 secs

     End of self-consistent calculation

     Number of k-points >= 100: set verbosity='high' to print the bands.

     highest occupied level (ev):    10.2581

!    total energy              =    -380.57188662 Ry
     estimated scf accuracy    <          3.5E-10 Ry

     The total energy is the sum of the following terms:
     one-electron contribution =     -84.63089030 Ry
     hartree contribution      =      71.46035965 Ry
     xc contribution           =    -102.56356410 Ry
     ewald contribution        =    -264.83779186 Ry

     convergence has been achieved in   9 iterations

     negative rho (up, down):  1.511E-02 0.000E+00

     Forces acting on atoms (cartesian axes, Ry/au):

     atom    1 type  1   force =     0.00000000    0.00000000   -0.00847692
     atom    2 type  2   force =     0.00000000    0.00000000    0.00264526
     atom    3 type  3   force =     0.00000000    0.00000000    0.00136249
     atom    4 type  3   force =     0.00000000    0.00000000    0.00223459
     atom    5 type  3   force =     0.00000000    0.00000000    0.00223459

     Total force =     0.009524     Total SCF correction =     0.000079


     Computing stress (Cartesian axis) and pressure


     negative rho (up, down):  1.511E-02 0.000E+00
          total   stress  (Ry/bohr**3)                   (kbar)     P=      -54.13
  -0.00040595   0.00000000   0.00000000          -59.72        0.00        0.00
   0.00000000  -0.00040595   0.00000000            0.00      -59.72        0.00
   0.00000000   0.00000000  -0.00029199            0.00        0.00      -42.95

     Energy error            =      2.9E-04 Ry
     Gradient error          =      8.5E-03 Ry/Bohr

     number of scf cycles    =   3
     number of bfgs steps    =   2

     energy             old  =    -380.5715924680 Ry
     energy             new  =    -380.5718866157 Ry

     CASE: energy            _new < energy            _old

     new trust radius        =       0.0192343542 bohr
     new conv_thr            =       0.0000000003 Ry


ATOMIC_POSITIONS (crystal)
Pb               0.0000000000        0.0000000000        1.0009192850
Ti               0.5000000000        0.5000000000        0.5372905368
O                0.5000000000        0.5000000000        0.1057651002
O                0.5000000000        0.0000000000        0.6116546830
O                0.0000000000        0.5000000000        0.6116546830



     Writing config-only to output data dir ./pto_k11.save/ :
     XML data file
     NEW-OLD atomic charge density approx. for the potential

     Check: negative core charge=   -0.000004

     negative rho (up, down):  1.493E-02 0.000E+00

     total cpu time spent up to now is      133.2 secs

     Self-consistent Calculation

     iteration #  1     ecut=    50.00 Ry     beta= 0.70
     CG style diagonalization
     ethr =  1.00E-06,  avg # of iterations =  5.9

     negative rho (up, down):  1.490E-02 0.000E+00

     total cpu time spent up to now is      138.3 secs

     total energy              =    -380.57199091 Ry
     estimated scf accuracy    <       0.00005878 Ry

     iteration #  2     ecut=    50.00 Ry     beta= 0.70
     CG style diagonalization
     ethr =  1.34E-07,  avg # of iterations =  4.9

     negative rho (up, down):  1.490E-02 0.000E+00

     total cpu time spent up to now is      142.1 secs

     total energy              =    -380.57199560 Ry
     estimated scf accuracy    <       0.00014718 Ry

     iteration #  3     ecut=    50.00 Ry     beta= 0.70
     CG style diagonalization
     ethr =  1.34E-07,  avg # of iterations =  4.3

     negative rho (up, down):  1.490E-02 0.000E+00

     total cpu time spent up to now is      145.4 secs

     total energy              =    -380.57202604 Ry
     estimated scf accuracy    <       0.00001635 Ry

     iteration #  4     ecut=    50.00 Ry     beta= 0.70
     CG style diagonalization
     ethr =  3.72E-08,  avg # of iterations =  3.7

     negative rho (up, down):  1.489E-02 0.000E+00

     total cpu time spent up to now is      148.2 secs

     total energy              =    -380.57202974 Ry
     estimated scf accuracy    <       0.00000232 Ry

     iteration #  5     ecut=    50.00 Ry     beta= 0.70
     CG style diagonalization
     ethr =  5.26E-09,  avg # of iterations =  4.1

     negative rho (up, down):  1.489E-02 0.000E+00

     total cpu time spent up to now is      151.3 secs

     total energy              =    -380.57203083 Ry
     estimated scf accuracy    <       0.00000010 Ry

     iteration #  6     ecut=    50.00 Ry     beta= 0.70
     CG style diagonalization
     ethr =  2.17E-10,  avg # of iterations =  6.1

     negative rho (up, down):  1.489E-02 0.000E+00

     total cpu time spent up to now is      156.1 secs

     total energy              =    -380.57203102 Ry
     estimated scf accuracy    <       0.00000017 Ry

     iteration #  7     ecut=    50.00 Ry     beta= 0.70
     CG style diagonalization
     ethr =  2.17E-10,  avg # of iterations =  3.9

     negative rho (up, down):  1.489E-02 0.000E+00

     total cpu time spent up to now is      159.1 secs

     total energy              =    -380.57203103 Ry
     estimated scf accuracy    <       0.00000003 Ry

     iteration #  8     ecut=    50.00 Ry     beta= 0.70
     CG style diagonalization
     ethr =  7.26E-11,  avg # of iterations =  4.3

     negative rho (up, down):  1.489E-02 0.000E+00

     total cpu time spent up to now is      162.4 secs

     total energy              =    -380.57203104 Ry
     estimated scf accuracy    <          3.5E-09 Ry

     iteration #  9     ecut=    50.00 Ry     beta= 0.70
     CG style diagonalization
     ethr =  7.98E-12,  avg # of iterations =  6.1

     negative rho (up, down):  1.489E-02 0.000E+00

     total cpu time spent up to now is      167.3 secs

     total energy              =    -380.57203105 Ry
     estimated scf accuracy    <          3.3E-10 Ry

     iteration # 10     ecut=    50.00 Ry     beta= 0.70
     CG style diagonalization
     c_bands:  1 eigenvalues not converged
     ethr =  7.60E-13,  avg # of iterations =  6.8

     negative rho (up, down):  1.489E-02 0.000E+00

     total cpu time spent up to now is      172.7 secs

     End of self-consistent calculation

     Number of k-points >= 100: set verbosity='high' to print the bands.

     highest occupied level (ev):    10.2605

!    total energy              =    -380.57203105 Ry
     estimated scf accuracy    <          1.1E-10 Ry

     The total energy is the sum of the following terms:
     one-electron contribution =     -84.95133650 Ry
     hartree contribution      =      71.62410771 Ry
     xc contribution           =    -102.57209967 Ry
     ewald contribution        =    -264.67270258 Ry

     convergence has been achieved in  10 iterations

     negative rho (up, down):  1.489E-02 0.000E+00

     Forces acting on atoms (cartesian axes, Ry/au):

     atom    1 type  1   force =     0.00000000    0.00000000   -0.00708060
     atom    2 type  2   force =     0.00000000    0.00000000    0.00537680
     atom    3 type  3   force =     0.00000000    0.00000000   -0.00361199
     atom    4 type  3   force =     0.00000000    0.00000000    0.00265789
     atom    5 type  3   force =     0.00000000    0.00000000    0.00265789

     Total force =     0.010306     Total SCF correction =     0.000011


     Computing stress (Cartesian axis) and pressure


     negative rho (up, down):  1.489E-02 0.000E+00
          total   stress  (Ry/bohr**3)                   (kbar)     P=      -49.70
  -0.00038943   0.00000000   0.00000000          -57.29        0.00        0.00
   0.00000000  -0.00038943   0.00000000            0.00      -57.29        0.00
   0.00000000   0.00000000  -0.00023479            0.00        0.00      -34.54

     Energy error            =      1.4E-04 Ry
     Gradient error          =      7.1E-03 Ry/Bohr

     number of scf cycles    =   4
     number of bfgs steps    =   3

     energy             old  =    -380.5718866157 Ry
     energy             new  =    -380.5720310502 Ry

     CASE: energy            _new < energy            _old

     new trust radius        =       0.0333072738 bohr
     new conv_thr            =       0.0000000001 Ry


ATOMIC_POSITIONS (crystal)
Pb               0.0000000000        0.0000000000        0.9966203947
Ti               0.5000000000        0.5000000000        0.5377254823
O                0.5000000000        0.5000000000        0.1074708756
O                0.5000000000        0.0000000000        0.6127337677
O                0.0000000000        0.5000000000        0.6127337677



     Writing config-only to output data dir ./pto_k11.save/ :
     XML data file
     NEW-OLD atomic charge density approx. for the potential

     Check: negative core charge=   -0.000004

     negative rho (up, down):  1.529E-02 0.000E+00

     total cpu time spent up to now is      176.4 secs

     Self-consistent Calculation

     iteration #  1     ecut=    50.00 Ry     beta= 0.70
     CG style diagonalization
     c_bands:  1 eigenvalues not converged
     c_bands:  1 eigenvalues not converged
     c_bands:  1 eigenvalues not converged
     c_bands:  1 eigenvalues not converged
     c_bands:  1 eigenvalues not converged
     c_bands:  1 eigenvalues not converged
     c_bands:  2 eigenvalues not converged
     c_bands:  1 eigenvalues not converged
     c_bands:  1 eigenvalues not converged
     c_bands:  1 eigenvalues not converged
     ethr =  1.00E-06,  avg # of iterations =  6.9

     negative rho (up, down):  1.523E-02 0.000E+00

     total cpu time spent up to now is      182.5 secs

     total energy              =    -380.57217376 Ry
     estimated scf accuracy    <       0.00005097 Ry

     iteration #  2     ecut=    50.00 Ry     beta= 0.70
     CG style diagonalization
     ethr =  1.16E-07,  avg # of iterations =  4.6

     negative rho (up, down):  1.522E-02 0.000E+00

     total cpu time spent up to now is      186.1 secs

     total energy              =    -380.57218470 Ry
     estimated scf accuracy    <       0.00004010 Ry

     iteration #  3     ecut=    50.00 Ry     beta= 0.70
     CG style diagonalization
     ethr =  9.11E-08,  avg # of iterations =  4.2

     negative rho (up, down):  1.521E-02 0.000E+00

     total cpu time spent up to now is      189.3 secs

     total energy              =    -380.57219567 Ry
     estimated scf accuracy    <       0.00002942 Ry

     iteration #  4     ecut=    50.00 Ry     beta= 0.70
     CG style diagonalization
     ethr =  6.69E-08,  avg # of iterations =  3.6

     negative rho (up, down):  1.521E-02 0.000E+00

     total cpu time spent up to now is      192.0 secs

     total energy              =    -380.57220043 Ry
     estimated scf accuracy    <       0.00000049 Ry

     iteration #  5     ecut=    50.00 Ry     beta= 0.70
     CG style diagonalization
     ethr =  1.12E-09,  avg # of iterations =  5.9

     negative rho (up, down):  1.521E-02 0.000E+00

     total cpu time spent up to now is      196.6 secs

     total energy              =    -380.57220147 Ry
     estimated scf accuracy    <       0.00000041 Ry

     iteration #  6     ecut=    50.00 Ry     beta= 0.70
     CG style diagonalization
     ethr =  9.24E-10,  avg # of iterations =  3.6

     negative rho (up, down):  1.521E-02 0.000E+00

     total cpu time spent up to now is      199.3 secs

     total energy              =    -380.57220151 Ry
     estimated scf accuracy    <       0.00000008 Ry

     iteration #  7     ecut=    50.00 Ry     beta= 0.70
     CG style diagonalization
     ethr =  1.86E-10,  avg # of iterations =  4.7

     negative rho (up, down):  1.521E-02 0.000E+00

     total cpu time spent up to now is      203.0 secs

     total energy              =    -380.57220156 Ry
     estimated scf accuracy    <          5.3E-09 Ry

     iteration #  8     ecut=    50.00 Ry     beta= 0.70
     CG style diagonalization
     c_bands:  1 eigenvalues not converged
     ethr =  1.21E-11,  avg # of iterations =  7.3

     negative rho (up, down):  1.521E-02 0.000E+00

     total cpu time spent up to now is      208.8 secs

     total energy              =    -380.57220157 Ry
     estimated scf accuracy    <          3.9E-09 Ry

     iteration #  9     ecut=    50.00 Ry     beta= 0.70
     CG style diagonalization
     ethr =  8.77E-12,  avg # of iterations =  4.1

     negative rho (up, down):  1.521E-02 0.000E+00

     total cpu time spent up to now is      212.1 secs

     total energy              =    -380.57220157 Ry
     estimated scf accuracy    <          3.2E-10 Ry

     iteration # 10     ecut=    50.00 Ry     beta= 0.70
     CG style diagonalization
     ethr =  7.24E-13,  avg # of iterations =  7.0

     negative rho (up, down):  1.521E-02 0.000E+00

     total cpu time spent up to now is      217.7 secs

     End of self-consistent calculation

     Number of k-points >= 100: set verbosity='high' to print the bands.

     highest occupied level (ev):    10.2747

!    total energy              =    -380.57220158 Ry
     estimated scf accuracy    <          6.4E-11 Ry

     The total energy is the sum of the following terms:
     one-electron contribution =     -85.44099237 Ry
     hartree contribution      =      71.86918274 Ry
     xc contribution           =    -102.58207702 Ry
     ewald contribution        =    -264.41831492 Ry

     convergence has been achieved in  10 iterations

     negative rho (up, down):  1.521E-02 0.000E+00

     Forces acting on atoms (cartesian axes, Ry/au):

     atom    1 type  1   force =     0.00000000    0.00000000   -0.00340143
     atom    2 type  2   force =     0.00000000    0.00000000    0.00455649
     atom    3 type  3   force =     0.00000000    0.00000000   -0.00606274
     atom    4 type  3   force =     0.00000000    0.00000000    0.00245384
     atom    5 type  3   force =     0.00000000    0.00000000    0.00245384

     Total force =     0.009007     Total SCF correction =     0.000037


     Computing stress (Cartesian axis) and pressure


     negative rho (up, down):  1.521E-02 0.000E+00
          total   stress  (Ry/bohr**3)                   (kbar)     P=      -44.72
  -0.00036314   0.00000000   0.00000000          -53.42        0.00        0.00
   0.00000000  -0.00036314   0.00000000            0.00      -53.42        0.00
   0.00000000   0.00000000  -0.00018570            0.00        0.00      -27.32

     Energy error            =      1.7E-04 Ry
     Gradient error          =      6.1E-03 Ry/Bohr

     number of scf cycles    =   5
     number of bfgs steps    =   4

     energy             old  =    -380.5720310502 Ry
     energy             new  =    -380.5722015754 Ry

     CASE: energy            _new < energy            _old

     new trust radius        =       0.0213518479 bohr
     new conv_thr            =       0.0000000002 Ry


ATOMIC_POSITIONS (crystal)
Pb               0.0000000000        0.0000000000        0.9938645627
Ti               0.5000000000        0.5000000000        0.5384337465
O                0.5000000000        0.5000000000        0.1076579684
O                0.5000000000        0.0000000000        0.6136640052
O                0.0000000000        0.5000000000        0.6136640052



     Writing config-only to output data dir ./pto_k11.save/ :
     XML data file
     NEW-OLD atomic charge density approx. for the potential

     Check: negative core charge=   -0.000004

     negative rho (up, down):  1.557E-02 0.000E+00

     total cpu time spent up to now is      221.4 secs

     Self-consistent Calculation

     iteration #  1     ecut=    50.00 Ry     beta= 0.70
     CG style diagonalization
     c_bands:  1 eigenvalues not converged
     c_bands:  1 eigenvalues not converged
     c_bands:  1 eigenvalues not converged
     c_bands:  1 eigenvalues not converged
     c_bands:  1 eigenvalues not converged
     c_bands:  1 eigenvalues not converged
     c_bands:  1 eigenvalues not converged
     c_bands:  1 eigenvalues not converged
     c_bands:  1 eigenvalues not converged
     c_bands:  1 eigenvalues not converged
     c_bands:  1 eigenvalues not converged
     c_bands:  1 eigenvalues not converged
     c_bands:  1 eigenvalues not converged
     ethr =  1.00E-06,  avg # of iterations =  6.2

     Threshold (ethr) on eigenvalues was too large:
     Diagonalizing with lowered threshold

     CG style diagonalization
     c_bands:  1 eigenvalues not converged
     c_bands:  1 eigenvalues not converged
     c_bands:  1 eigenvalues not converged
     c_bands:  1 eigenvalues not converged
     c_bands:  1 eigenvalues not converged
     c_bands:  1 eigenvalues not converged
     c_bands:  1 eigenvalues not converged
     c_bands:  2 eigenvalues not converged
     c_bands:  1 eigenvalues not converged
     c_bands:  1 eigenvalues not converged
     c_bands:  1 eigenvalues not converged
     c_bands:  2 eigenvalues not converged
     c_bands:  1 eigenvalues not converged
     c_bands:  1 eigenvalues not converged
     c_bands:  1 eigenvalues not converged
     c_bands:  1 eigenvalues not converged
     c_bands:  1 eigenvalues not converged
     c_bands:  1 eigenvalues not converged
     c_bands:  1 eigenvalues not converged
     c_bands:  1 eigenvalues not converged
     c_bands:  1 eigenvalues not converged
     c_bands:  1 eigenvalues not converged
     c_bands:  1 eigenvalues not converged
     c_bands:  1 eigenvalues not converged
     c_bands:  2 eigenvalues not converged
     c_bands:  1 eigenvalues not converged
     c_bands:  2 eigenvalues not converged
     c_bands:  1 eigenvalues not converged
     c_bands:  1 eigenvalues not converged
     c_bands:  2 eigenvalues not converged
     c_bands:  1 eigenvalues not converged
     c_bands:  1 eigenvalues not converged
     c_bands:  1 eigenvalues not converged
     c_bands:  1 eigenvalues not converged
     c_bands:  2 eigenvalues not converged
     c_bands:  1 eigenvalues not converged
     c_bands:  3 eigenvalues not converged
     c_bands:  2 eigenvalues not converged
     c_bands:  1 eigenvalues not converged
     c_bands:  2 eigenvalues not converged
     c_bands:  1 eigenvalues not converged
     c_bands:  1 eigenvalues not converged
     c_bands:  1 eigenvalues not converged
     c_bands:  1 eigenvalues not converged
     c_bands:  1 eigenvalues not converged
     ethr =  7.90E-08,  avg # of iterations =  6.1

     negative rho (up, down):  1.554E-02 0.000E+00

     total cpu time spent up to now is      232.1 secs

     total energy              =    -380.57226328 Ry
     estimated scf accuracy    <       0.00003321 Ry

     iteration #  2     ecut=    50.00 Ry     beta= 0.70
     CG style diagonalization
     ethr =  7.55E-08,  avg # of iterations =  4.6

     negative rho (up, down):  1.552E-02 0.000E+00

     total cpu time spent up to now is      235.6 secs

     total energy              =    -380.57226417 Ry
     estimated scf accuracy    <       0.00004267 Ry

     iteration #  3     ecut=    50.00 Ry     beta= 0.70
     CG style diagonalization
     ethr =  7.55E-08,  avg # of iterations =  4.1

     negative rho (up, down):  1.552E-02 0.000E+00

     total cpu time spent up to now is      238.8 secs

     total energy              =    -380.57227403 Ry
     estimated scf accuracy    <       0.00001277 Ry

     iteration #  4     ecut=    50.00 Ry     beta= 0.70
     CG style diagonalization
     ethr =  2.90E-08,  avg # of iterations =  3.6

     negative rho (up, down):  1.551E-02 0.000E+00

     total cpu time spent up to now is      241.5 secs

     total energy              =    -380.57227640 Ry
     estimated scf accuracy    <       0.00000119 Ry

     iteration #  5     ecut=    50.00 Ry     beta= 0.70
     CG style diagonalization
     ethr =  2.71E-09,  avg # of iterations =  4.1

     negative rho (up, down):  1.551E-02 0.000E+00

     total cpu time spent up to now is      244.7 secs

     total energy              =    -380.57227698 Ry
     estimated scf accuracy    <       0.00000029 Ry

     iteration #  6     ecut=    50.00 Ry     beta= 0.70
     CG style diagonalization
     ethr =  6.52E-10,  avg # of iterations =  4.1

     negative rho (up, down):  1.551E-02 0.000E+00

     total cpu time spent up to now is      247.8 secs

     total energy              =    -380.57227708 Ry
     estimated scf accuracy    <       0.00000005 Ry

     iteration #  7     ecut=    50.00 Ry     beta= 0.70
     CG style diagonalization
     ethr =  1.07E-10,  avg # of iterations =  5.1

     negative rho (up, down):  1.551E-02 0.000E+00

     total cpu time spent up to now is      251.8 secs

     total energy              =    -380.57227712 Ry
     estimated scf accuracy    <          4.4E-09 Ry

     iteration #  8     ecut=    50.00 Ry     beta= 0.70
     CG style diagonalization
     ethr =  1.00E-11,  avg # of iterations =  6.2

     negative rho (up, down):  1.551E-02 0.000E+00

     total cpu time spent up to now is      256.7 secs

     total energy              =    -380.57227713 Ry
     estimated scf accuracy    <          4.0E-10 Ry

     iteration #  9     ecut=    50.00 Ry     beta= 0.70
     CG style diagonalization
     ethr =  9.16E-13,  avg # of iterations =  7.5

     negative rho (up, down):  1.551E-02 0.000E+00

     total cpu time spent up to now is      262.7 secs

     End of self-consistent calculation

     Number of k-points >= 100: set verbosity='high' to print the bands.

     highest occupied level (ev):    10.2902

!    total energy              =    -380.57227713 Ry
     estimated scf accuracy    <          6.9E-11 Ry

     The total energy is the sum of the following terms:
     one-electron contribution =     -85.71459557 Ry
     hartree contribution      =      72.00256211 Ry
     xc contribution           =    -102.58546153 Ry
     ewald contribution        =    -264.27478214 Ry

     convergence has been achieved in   9 iterations

     negative rho (up, down):  1.551E-02 0.000E+00

     Forces acting on atoms (cartesian axes, Ry/au):

     atom    1 type  1   force =     0.00000000    0.00000000   -0.00030986
     atom    2 type  2   force =     0.00000000    0.00000000    0.00065261
     atom    3 type  3   force =     0.00000000    0.00000000   -0.00349407
     atom    4 type  3   force =     0.00000000    0.00000000    0.00157566
     atom    5 type  3   force =     0.00000000    0.00000000    0.00157566

     Total force =     0.004207     Total SCF correction =     0.000027


     Computing stress (Cartesian axis) and pressure


     negative rho (up, down):  1.551E-02 0.000E+00
          total   stress  (Ry/bohr**3)                   (kbar)     P=      -43.24
  -0.00034795   0.00000000   0.00000000          -51.19        0.00        0.00
   0.00000000  -0.00034795   0.00000000            0.00      -51.19        0.00
   0.00000000   0.00000000  -0.00018595            0.00        0.00      -27.35

     Energy error            =      7.6E-05 Ry
     Gradient error          =      3.5E-03 Ry/Bohr

     number of scf cycles    =   6
     number of bfgs steps    =   5

     energy             old  =    -380.5722015754 Ry
     energy             new  =    -380.5722771297 Ry

     CASE: energy            _new < energy            _old

     new trust radius        =       0.0039734675 bohr
     new conv_thr            =            1.0E-10 Ry


ATOMIC_POSITIONS (crystal)
Pb               0.0000000000        0.0000000000        0.9935225010
Ti               0.5000000000        0.5000000000        0.5385885141
O                0.5000000000        0.5000000000        0.1071451224
O                0.5000000000        0.0000000000        0.6140140752
O                0.0000000000        0.5000000000        0.6140140752



     Writing config-only to output data dir ./pto_k11.save/ :
     XML data file
     NEW-OLD atomic charge density approx. for the potential

     Check: negative core charge=   -0.000004

     negative rho (up, down):  1.555E-02 0.000E+00

     total cpu time spent up to now is      266.4 secs

     Self-consistent Calculation

     iteration #  1     ecut=    50.00 Ry     beta= 0.70
     CG style diagonalization
     ethr =  1.00E-06,  avg # of iterations =  3.2

     Threshold (ethr) on eigenvalues was too large:
     Diagonalizing with lowered threshold

     CG style diagonalization
     c_bands:  2 eigenvalues not converged
     c_bands:  1 eigenvalues not converged
     c_bands:  1 eigenvalues not converged
     c_bands:  2 eigenvalues not converged
     c_bands:  1 eigenvalues not converged
     c_bands:  2 eigenvalues not converged
     c_bands:  1 eigenvalues not converged
     c_bands:  1 eigenvalues not converged
     c_bands:  2 eigenvalues not converged
     c_bands:  1 eigenvalues not converged
     c_bands:  1 eigenvalues not converged
     c_bands:  2 eigenvalues not converged
     c_bands:  2 eigenvalues not converged
     c_bands:  2 eigenvalues not converged
     c_bands:  2 eigenvalues not converged
     c_bands:  3 eigenvalues not converged
     c_bands:  1 eigenvalues not converged
     c_bands:  1 eigenvalues not converged
     c_bands:  2 eigenvalues not converged
     c_bands:  1 eigenvalues not converged
     c_bands:  1 eigenvalues not converged
     c_bands:  2 eigenvalues not converged
     c_bands:  2 eigenvalues not converged
     c_bands:  1 eigenvalues not converged
     c_bands:  1 eigenvalues not converged
     c_bands:  1 eigenvalues not converged
     c_bands:  1 eigenvalues not converged
     c_bands:  3 eigenvalues not converged
     c_bands:  1 eigenvalues not converged
     c_bands:  1 eigenvalues not converged
     c_bands:  1 eigenvalues not converged
     c_bands:  1 eigenvalues not converged
     c_bands:  1 eigenvalues not converged
     c_bands:  1 eigenvalues not converged
     c_bands:  1 eigenvalues not converged
     c_bands:  3 eigenvalues not converged
     c_bands:  1 eigenvalues not converged
     c_bands:  1 eigenvalues not converged
     c_bands:  1 eigenvalues not converged
     c_bands:  1 eigenvalues not converged
     c_bands:  2 eigenvalues not converged
     c_bands:  1 eigenvalues not converged
     c_bands:  1 eigenvalues not converged
     ethr =  2.77E-08,  avg # of iterations =  6.7

     negative rho (up, down):  1.555E-02 0.000E+00

     total cpu time spent up to now is      275.0 secs

     total energy              =    -380.57228531 Ry
     estimated scf accuracy    <       0.00001240 Ry

     iteration #  2     ecut=    50.00 Ry     beta= 0.70
     CG style diagonalization
     ethr =  2.82E-08,  avg # of iterations =  4.8

     negative rho (up, down):  1.555E-02 0.000E+00

     total cpu time spent up to now is      278.7 secs

     total energy              =    -380.57228359 Ry
     estimated scf accuracy    <       0.00004159 Ry

     iteration #  3     ecut=    50.00 Ry     beta= 0.70
     CG style diagonalization
     ethr =  2.82E-08,  avg # of iterations =  4.3

     negative rho (up, down):  1.555E-02 0.000E+00

     total cpu time spent up to now is      282.0 secs

     total energy              =    -380.57229137 Ry
     estimated scf accuracy    <       0.00000242 Ry

     iteration #  4     ecut=    50.00 Ry     beta= 0.70
     CG style diagonalization
     ethr =  5.51E-09,  avg # of iterations =  3.7

     negative rho (up, down):  1.555E-02 0.000E+00

     total cpu time spent up to now is      284.9 secs

     total energy              =    -380.57229200 Ry
     estimated scf accuracy    <       0.00000023 Ry

     iteration #  5     ecut=    50.00 Ry     beta= 0.70
     CG style diagonalization
     ethr =  5.26E-10,  avg # of iterations =  4.2

     negative rho (up, down):  1.555E-02 0.000E+00

     total cpu time spent up to now is      288.1 secs

     total energy              =    -380.57229212 Ry
     estimated scf accuracy    <       0.00000004 Ry

     iteration #  6     ecut=    50.00 Ry     beta= 0.70
     CG style diagonalization
     ethr =  9.32E-11,  avg # of iterations =  4.3

     negative rho (up, down):  1.555E-02 0.000E+00

     total cpu time spent up to now is      291.4 secs

     total energy              =    -380.57229214 Ry
     estimated scf accuracy    <          9.8E-09 Ry

     iteration #  7     ecut=    50.00 Ry     beta= 0.70
     CG style diagonalization
     ethr =  2.23E-11,  avg # of iterations =  4.3

     negative rho (up, down):  1.555E-02 0.000E+00

     total cpu time spent up to now is      294.6 secs

     total energy              =    -380.57229214 Ry
     estimated scf accuracy    <          1.4E-09 Ry

     iteration #  8     ecut=    50.00 Ry     beta= 0.70
     CG style diagonalization
     ethr =  3.11E-12,  avg # of iterations =  5.3

     negative rho (up, down):  1.555E-02 0.000E+00

     total cpu time spent up to now is      298.8 secs

     total energy              =    -380.57229215 Ry
     estimated scf accuracy    <          1.5E-10 Ry

     iteration #  9     ecut=    50.00 Ry     beta= 0.70
     CG style diagonalization
     ethr =  3.33E-13,  avg # of iterations =  6.4

     negative rho (up, down):  1.555E-02 0.000E+00

     total cpu time spent up to now is      303.9 secs

     End of self-consistent calculation

     Number of k-points >= 100: set verbosity='high' to print the bands.

     highest occupied level (ev):    10.2949

!    total energy              =    -380.57229215 Ry
     estimated scf accuracy    <          1.1E-11 Ry

     The total energy is the sum of the following terms:
     one-electron contribution =     -85.72283247 Ry
     hartree contribution      =      72.00482024 Ry
     xc contribution           =    -102.58439317 Ry
     ewald contribution        =    -264.26988674 Ry

     convergence has been achieved in   9 iterations

     negative rho (up, down):  1.555E-02 0.000E+00

     Forces acting on atoms (cartesian axes, Ry/au):

     atom    1 type  1   force =     0.00000000    0.00000000    0.00030497
     atom    2 type  2   force =     0.00000000    0.00000000   -0.00110499
     atom    3 type  3   force =     0.00000000    0.00000000   -0.00107423
     atom    4 type  3   force =     0.00000000    0.00000000    0.00093713
     atom    5 type  3   force =     0.00000000    0.00000000    0.00093713

     Total force =     0.002055     Total SCF correction =     0.000005


     Computing stress (Cartesian axis) and pressure


     negative rho (up, down):  1.555E-02 0.000E+00
          total   stress  (Ry/bohr**3)                   (kbar)     P=      -43.96
  -0.00034803   0.00000000   0.00000000          -51.20        0.00        0.00
   0.00000000  -0.00034803   0.00000000            0.00      -51.20        0.00
   0.00000000   0.00000000  -0.00020042            0.00        0.00      -29.48

     Energy error            =      1.5E-05 Ry
     Gradient error          =      1.1E-03 Ry/Bohr

     number of scf cycles    =   7
     number of bfgs steps    =   6

     energy             old  =    -380.5722771297 Ry
     energy             new  =    -380.5722921454 Ry

     CASE: energy            _new < energy            _old

     new trust radius        =       0.0029992048 bohr
     new conv_thr            =            1.0E-10 Ry


ATOMIC_POSITIONS (crystal)
Pb               0.0000000000        0.0000000000        0.9935954460
Ti               0.5000000000        0.5000000000        0.5384448508
O                0.5000000000        0.5000000000        0.1067580222
O                0.5000000000        0.0000000000        0.6142429845
O                0.0000000000        0.5000000000        0.6142429845



     Writing config-only to output data dir ./pto_k11.save/ :
     XML data file
     NEW-OLD atomic charge density approx. for the potential

     Check: negative core charge=   -0.000004

     negative rho (up, down):  1.554E-02 0.000E+00

     total cpu time spent up to now is      307.6 secs

     Self-consistent Calculation

     iteration #  1     ecut=    50.00 Ry     beta= 0.70
     CG style diagonalization
     ethr =  1.00E-06,  avg # of iterations =  2.9

     Threshold (ethr) on eigenvalues was too large:
     Diagonalizing with lowered threshold

     CG style diagonalization
     c_bands:  1 eigenvalues not converged
     c_bands:  1 eigenvalues not converged
     c_bands:  2 eigenvalues not converged
     c_bands:  1 eigenvalues not converged
     c_bands:  1 eigenvalues not converged
     c_bands:  1 eigenvalues not converged
     c_bands:  1 eigenvalues not converged
     c_bands:  2 eigenvalues not converged
     c_bands:  2 eigenvalues not converged
     c_bands:  2 eigenvalues not converged
     c_bands:  2 eigenvalues not converged
     c_bands:  1 eigenvalues not converged
     c_bands:  1 eigenvalues not converged
     c_bands:  2 eigenvalues not converged
     c_bands:  2 eigenvalues not converged
     c_bands:  1 eigenvalues not converged
     c_bands:  1 eigenvalues not converged
     c_bands:  1 eigenvalues not converged
     c_bands:  2 eigenvalues not converged
     c_bands:  1 eigenvalues not converged
     c_bands:  1 eigenvalues not converged
     c_bands:  3 eigenvalues not converged
     c_bands:  3 eigenvalues not converged
     c_bands:  2 eigenvalues not converged
     c_bands:  2 eigenvalues not converged
     c_bands:  1 eigenvalues not converged
     c_bands:  1 eigenvalues not converged
     c_bands:  1 eigenvalues not converged
     c_bands:  2 eigenvalues not converged
     c_bands:  3 eigenvalues not converged
     c_bands:  2 eigenvalues not converged
     c_bands:  1 eigenvalues not converged
     c_bands:  3 eigenvalues not converged
     c_bands:  1 eigenvalues not converged
     c_bands:  1 eigenvalues not converged
     c_bands:  1 eigenvalues not converged
     c_bands:  2 eigenvalues not converged
     c_bands:  1 eigenvalues not converged
     c_bands:  1 eigenvalues not converged
     c_bands:  1 eigenvalues not converged
     c_bands:  1 eigenvalues not converged
     c_bands:  1 eigenvalues not converged
     c_bands:  1 eigenvalues not converged
     c_bands:  2 eigenvalues not converged
     c_bands:  1 eigenvalues not converged
     c_bands:  1 eigenvalues not converged
     c_bands:  1 eigenvalues not converged
     c_bands:  1 eigenvalues not converged
     c_bands:  1 eigenvalues not converged
     c_bands:  1 eigenvalues not converged
     c_bands:  1 eigenvalues not converged
     ethr =  3.33E-09,  avg # of iterations =  7.6

     negative rho (up, down):  1.554E-02 0.000E+00

     total cpu time spent up to now is      316.7 secs

     total energy              =    -380.57229672 Ry
     estimated scf accuracy    <       0.00000314 Ry

     iteration #  2     ecut=    50.00 Ry     beta= 0.70
     CG style diagonalization
     ethr =  7.13E-09,  avg # of iterations =  4.7

     negative rho (up, down):  1.554E-02 0.000E+00

     total cpu time spent up to now is      320.3 secs

     total energy              =    -380.57229601 Ry
     estimated scf accuracy    <       0.00001225 Ry

     iteration #  3     ecut=    50.00 Ry     beta= 0.70
     CG style diagonalization
     ethr =  7.13E-09,  avg # of iterations =  4.3

     negative rho (up, down):  1.554E-02 0.000E+00

     total cpu time spent up to now is      323.6 secs

     total energy              =    -380.57229820 Ry
     estimated scf accuracy    <       0.00000046 Ry

     iteration #  4     ecut=    50.00 Ry     beta= 0.70
     CG style diagonalization
     ethr =  1.04E-09,  avg # of iterations =  3.8

     negative rho (up, down):  1.554E-02 0.000E+00

     total cpu time spent up to now is      326.5 secs

     total energy              =    -380.57229832 Ry
     estimated scf accuracy    <       0.00000006 Ry

     iteration #  5     ecut=    50.00 Ry     beta= 0.70
     CG style diagonalization
     ethr =  1.26E-10,  avg # of iterations =  4.3

     negative rho (up, down):  1.554E-02 0.000E+00

     total cpu time spent up to now is      329.8 secs

     total energy              =    -380.57229835 Ry
     estimated scf accuracy    <       0.00000001 Ry

     iteration #  6     ecut=    50.00 Ry     beta= 0.70
     CG style diagonalization
     ethr =  2.46E-11,  avg # of iterations =  4.0

     negative rho (up, down):  1.554E-02 0.000E+00

     total cpu time spent up to now is      332.8 secs

     total energy              =    -380.57229835 Ry
     estimated scf accuracy    <          1.5E-09 Ry

     iteration #  7     ecut=    50.00 Ry     beta= 0.70
     CG style diagonalization
     ethr =  3.32E-12,  avg # of iterations =  4.8

     negative rho (up, down):  1.554E-02 0.000E+00

     total cpu time spent up to now is      336.5 secs

     total energy              =    -380.57229836 Ry
     estimated scf accuracy    <          2.6E-10 Ry

     iteration #  8     ecut=    50.00 Ry     beta= 0.70
     CG style diagonalization
     ethr =  5.88E-13,  avg # of iterations =  5.3

     negative rho (up, down):  1.554E-02 0.000E+00

     total cpu time spent up to now is      340.7 secs

     End of self-consistent calculation

     Number of k-points >= 100: set verbosity='high' to print the bands.

     highest occupied level (ev):    10.2958

!    total energy              =    -380.57229836 Ry
     estimated scf accuracy    <          8.9E-12 Ry

     The total energy is the sum of the following terms:
     one-electron contribution =     -85.69976778 Ry
     hartree contribution      =      71.99294898 Ry
     xc contribution           =    -102.58357360 Ry
     ewald contribution        =    -264.28190596 Ry

     convergence has been achieved in   8 iterations

     negative rho (up, down):  1.554E-02 0.000E+00

     Forces acting on atoms (cartesian axes, Ry/au):

     atom    1 type  1   force =     0.00000000    0.00000000    0.00024841
     atom    2 type  2   force =     0.00000000    0.00000000   -0.00128177
     atom    3 type  3   force =     0.00000000    0.00000000    0.00008439
     atom    4 type  3   force =     0.00000000    0.00000000    0.00047448
     atom    5 type  3   force =     0.00000000    0.00000000    0.00047448

     Total force =     0.001470     Total SCF correction =     0.000011


     Computing stress (Cartesian axis) and pressure


     negative rho (up, down):  1.554E-02 0.000E+00
          total   stress  (Ry/bohr**3)                   (kbar)     P=      -44.47
  -0.00035018   0.00000000   0.00000000          -51.51        0.00        0.00
   0.00000000  -0.00035018   0.00000000            0.00      -51.51        0.00
   0.00000000   0.00000000  -0.00020659            0.00        0.00      -30.39

     Energy error            =      6.2E-06 Ry
     Gradient error          =      1.3E-03 Ry/Bohr

     number of scf cycles    =   8
     number of bfgs steps    =   7

     energy             old  =    -380.5722921454 Ry
     energy             new  =    -380.5722983558 Ry

     CASE: energy            _new < energy            _old

     new trust radius        =       0.0020351862 bohr
     new conv_thr            =            1.0E-10 Ry


ATOMIC_POSITIONS (crystal)
Pb               0.0000000000        0.0000000000        0.9936243255
Ti               0.5000000000        0.5000000000        0.5381821741
O                0.5000000000        0.5000000000        0.1065585107
O                0.5000000000        0.0000000000        0.6144596388
O                0.0000000000        0.5000000000        0.6144596388



     Writing config-only to output data dir ./pto_k11.save/ :
     XML data file
     NEW-OLD atomic charge density approx. for the potential

     Check: negative core charge=   -0.000004

     negative rho (up, down):  1.553E-02 0.000E+00

     total cpu time spent up to now is      344.4 secs

     Self-consistent Calculation

     iteration #  1     ecut=    50.00 Ry     beta= 0.70
     CG style diagonalization
     ethr =  1.00E-06,  avg # of iterations =  3.0

     Threshold (ethr) on eigenvalues was too large:
     Diagonalizing with lowered threshold

     CG style diagonalization
     c_bands:  1 eigenvalues not converged
     c_bands:  2 eigenvalues not converged
     c_bands:  1 eigenvalues not converged
     c_bands:  1 eigenvalues not converged
     c_bands:  2 eigenvalues not converged
     c_bands:  1 eigenvalues not converged
     c_bands:  1 eigenvalues not converged
     c_bands:  1 eigenvalues not converged
     c_bands:  1 eigenvalues not converged
     c_bands:  1 eigenvalues not converged
     c_bands:  2 eigenvalues not converged
     c_bands:  1 eigenvalues not converged
     c_bands:  5 eigenvalues not converged
     c_bands:  2 eigenvalues not converged
     c_bands:  2 eigenvalues not converged
     c_bands:  2 eigenvalues not converged
     c_bands:  2 eigenvalues not converged
     c_bands:  2 eigenvalues not converged
     c_bands:  4 eigenvalues not converged
     c_bands:  5 eigenvalues not converged
     c_bands:  3 eigenvalues not converged
     c_bands:  1 eigenvalues not converged
     c_bands:  2 eigenvalues not converged
     c_bands:  2 eigenvalues not converged
     c_bands:  2 eigenvalues not converged
     c_bands:  3 eigenvalues not converged
     c_bands:  2 eigenvalues not converged
     c_bands:  3 eigenvalues not converged
     c_bands:  3 eigenvalues not converged
     c_bands:  2 eigenvalues not converged
     c_bands:  2 eigenvalues not converged
     c_bands:  2 eigenvalues not converged
     c_bands:  1 eigenvalues not converged
     c_bands:  1 eigenvalues not converged
     c_bands:  2 eigenvalues not converged
     c_bands:  1 eigenvalues not converged
     c_bands:  1 eigenvalues not converged
     c_bands:  1 eigenvalues not converged
     c_bands:  1 eigenvalues not converged
     c_bands:  1 eigenvalues not converged
     c_bands:  1 eigenvalues not converged
     c_bands:  3 eigenvalues not converged
     c_bands:  3 eigenvalues not converged
     c_bands:  1 eigenvalues not converged
     c_bands:  3 eigenvalues not converged
     c_bands:  1 eigenvalues not converged
     c_bands:  1 eigenvalues not converged
     c_bands:  1 eigenvalues not converged
     c_bands:  1 eigenvalues not converged
     c_bands:  3 eigenvalues not converged
     c_bands:  2 eigenvalues not converged
     c_bands:  1 eigenvalues not converged
     c_bands:  1 eigenvalues not converged
     c_bands:  1 eigenvalues not converged
     c_bands:  1 eigenvalues not converged
     c_bands:  2 eigenvalues not converged
     c_bands:  1 eigenvalues not converged
     c_bands:  3 eigenvalues not converged
     c_bands:  2 eigenvalues not converged
     c_bands:  2 eigenvalues not converged
     c_bands:  2 eigenvalues not converged
     c_bands:  2 eigenvalues not converged
     c_bands:  1 eigenvalues not converged
     c_bands:  1 eigenvalues not converged
     c_bands:  1 eigenvalues not converged
     c_bands:  2 eigenvalues not converged
     c_bands:  1 eigenvalues not converged
     c_bands:  1 eigenvalues not converged
     c_bands:  1 eigenvalues not converged
     c_bands:  1 eigenvalues not converged
     c_bands:  1 eigenvalues not converged
     c_bands:  1 eigenvalues not converged
     c_bands:  3 eigenvalues not converged
     c_bands:  1 eigenvalues not converged
     c_bands:  1 eigenvalues not converged
     c_bands:  2 eigenvalues not converged
     c_bands:  2 eigenvalues not converged
     ethr =  1.63E-09,  avg # of iterations =  8.3

     negative rho (up, down):  1.553E-02 0.000E+00

     total cpu time spent up to now is      354.2 secs

     total energy              =    -380.57230064 Ry
     estimated scf accuracy    <       0.00000086 Ry

     iteration #  2     ecut=    50.00 Ry     beta= 0.70
     CG style diagonalization
     ethr =  1.94E-09,  avg # of iterations =  4.4

     negative rho (up, down):  1.553E-02 0.000E+00

     total cpu time spent up to now is      357.7 secs

     total energy              =    -380.57230051 Ry
     estimated scf accuracy    <       0.00000230 Ry

     iteration #  3     ecut=    50.00 Ry     beta= 0.70
     CG style diagonalization
     ethr =  1.94E-09,  avg # of iterations =  4.1

     negative rho (up, down):  1.553E-02 0.000E+00

     total cpu time spent up to now is      360.8 secs

     total energy              =    -380.57230098 Ry
     estimated scf accuracy    <       0.00000016 Ry

     iteration #  4     ecut=    50.00 Ry     beta= 0.70
     CG style diagonalization
     ethr =  3.71E-10,  avg # of iterations =  3.6

     negative rho (up, down):  1.553E-02 0.000E+00

     total cpu time spent up to now is      363.6 secs

     total energy              =    -380.57230101 Ry
     estimated scf accuracy    <          8.6E-09 Ry

     iteration #  5     ecut=    50.00 Ry     beta= 0.70
     CG style diagonalization
     ethr =  1.95E-11,  avg # of iterations =  5.1

     negative rho (up, down):  1.553E-02 0.000E+00

     total cpu time spent up to now is      367.5 secs

     total energy              =    -380.57230102 Ry
     estimated scf accuracy    <          4.2E-09 Ry

     iteration #  6     ecut=    50.00 Ry     beta= 0.70
     CG style diagonalization
     ethr =  9.53E-12,  avg # of iterations =  3.9

     negative rho (up, down):  1.553E-02 0.000E+00

     total cpu time spent up to now is      370.4 secs

     total energy              =    -380.57230102 Ry
     estimated scf accuracy    <          8.6E-10 Ry

     iteration #  7     ecut=    50.00 Ry     beta= 0.70
     CG style diagonalization
     ethr =  1.96E-12,  avg # of iterations =  4.6

     negative rho (up, down):  1.553E-02 0.000E+00

     total cpu time spent up to now is      374.0 secs

     total energy              =    -380.57230102 Ry
     estimated scf accuracy    <          4.3E-10 Ry

     iteration #  8     ecut=    50.00 Ry     beta= 0.70
     CG style diagonalization
     ethr =  9.81E-13,  avg # of iterations =  4.2

     negative rho (up, down):  1.553E-02 0.000E+00

     total cpu time spent up to now is      377.2 secs

     End of self-consistent calculation

     Number of k-points >= 100: set verbosity='high' to print the bands.

     highest occupied level (ev):    10.2956

!    total energy              =    -380.57230102 Ry
     estimated scf accuracy    <          1.2E-11 Ry

     The total energy is the sum of the following terms:
     one-electron contribution =     -85.69208563 Ry
     hartree contribution      =      71.98954820 Ry
     xc contribution           =    -102.58352969 Ry
     ewald contribution        =    -264.28623390 Ry

     convergence has been achieved in   8 iterations

     negative rho (up, down):  1.553E-02 0.000E+00

     Forces acting on atoms (cartesian axes, Ry/au):

     atom    1 type  1   force =     0.00000000    0.00000000    0.00009582
     atom    2 type  2   force =     0.00000000    0.00000000   -0.00071200
     atom    3 type  3   force =     0.00000000    0.00000000    0.00040466
     atom    4 type  3   force =     0.00000000    0.00000000    0.00010576
     atom    5 type  3   force =     0.00000000    0.00000000    0.00010576

     Total force =     0.000838     Total SCF correction =     0.000007


     Computing stress (Cartesian axis) and pressure


     negative rho (up, down):  1.553E-02 0.000E+00
          total   stress  (Ry/bohr**3)                   (kbar)     P=      -44.56
  -0.00035165   0.00000000   0.00000000          -51.73        0.00        0.00
   0.00000000  -0.00035165   0.00000000            0.00      -51.73        0.00
   0.00000000   0.00000000  -0.00020540            0.00        0.00      -30.22

     Energy error            =      2.7E-06 Ry
     Gradient error          =      7.1E-04 Ry/Bohr

     bfgs converged in   9 scf cycles and   8 bfgs steps
     (criteria: energy <  1.0E-04 Ry, force <  1.0E-03 Ry/Bohr)

     End of BFGS Geometry Optimization

     Final energy             =    -380.5723010190 Ry

     File ./pto_k11.bfgs deleted, as requested
Begin final coordinates

ATOMIC_POSITIONS (crystal)
Pb               0.0000000000        0.0000000000        0.9936243255
Ti               0.5000000000        0.5000000000        0.5381821741
O                0.5000000000        0.5000000000        0.1065585107
O                0.5000000000        0.0000000000        0.6144596388
O                0.0000000000        0.5000000000        0.6144596388
End final coordinates



     Writing all to output data dir ./pto_k11.save/ :
     XML data file, charge density, pseudopotentials, collected wavefunctions
 
     init_run     :      0.87s CPU      0.97s WALL (       1 calls)
     electrons    :    326.29s CPU    346.32s WALL (       9 calls)
     update_pot   :      0.03s CPU      0.03s WALL (       8 calls)
     forces       :      2.26s CPU      2.36s WALL (       9 calls)
     stress       :     30.10s CPU     30.29s WALL (       9 calls)

     Called by init_run:
     wfcinit      :      0.65s CPU      0.70s WALL (       1 calls)
     potinit      :      0.01s CPU      0.01s WALL (       1 calls)
     hinit0       :      0.11s CPU      0.14s WALL (       1 calls)

     Called by electrons:
     c_bands      :    300.59s CPU    319.17s WALL (      90 calls)
     sum_band     :     21.72s CPU     22.69s WALL (      90 calls)
     v_of_rho     :      0.14s CPU      0.14s WALL (      95 calls)
     newd         :      4.04s CPU      4.38s WALL (      95 calls)
     mix_rho      :      0.09s CPU      0.10s WALL (      90 calls)

     Called by c_bands:
     init_us_2    :      2.54s CPU      2.65s WALL (   25074 calls)
     init_us_2:cp :      2.49s CPU      2.60s WALL (   25074 calls)
     ccgdiagg     :    272.14s CPU    289.33s WALL (   11340 calls)
     wfcrot       :     27.14s CPU     28.43s WALL (    9828 calls)

     Called by *cgdiagg:
     h_psi        :    167.16s CPU    177.36s WALL ( 1008491 calls)
     s_psi        :     29.67s CPU     31.64s WALL ( 2007154 calls)

     Called by h_psi:
     h_psi:calbec :     26.39s CPU     28.02s WALL ( 1008491 calls)
     vloc_psi     :    116.58s CPU    123.69s WALL ( 1008491 calls)
     add_vuspsi   :     16.00s CPU     17.04s WALL ( 1008491 calls)
     hs_1psi      :    166.36s CPU    176.79s WALL (  998663 calls)
     s_1psi       :     41.45s CPU     44.00s WALL (  998663 calls)

     General routines
     calbec       :     47.71s CPU     50.72s WALL ( 2024164 calls)
     fft          :      0.17s CPU      0.19s WALL (     636 calls)
     ffts         :      0.01s CPU      0.01s WALL (     185 calls)
     fftw         :     98.73s CPU    104.48s WALL ( 2681506 calls)
     interpolate  :      0.03s CPU      0.04s WALL (      95 calls)
 
     Parallel routines
 
     PWSCF        :   6m 0.38s CPU   6m21.94s WALL

 
   This run was terminated on:   2:43:55  15Nov2025            

=------------------------------------------------------------------------------=
   JOB DONE.
=------------------------------------------------------------------------------=
TACC:  Shutdown complete. Exiting. 
