TACC:  Starting up job 2409237 
TACC:  Starting parallel tasks... 

     Program PWSCF v.7.3 starts on 24Sep2025 at 14:47:27 

     This program is part of the open-source Quantum ESPRESSO suite
     for quantum simulation of materials; please cite
         "P. Giannozzi et al., J. Phys.:Condens. Matter 21 395502 (2009);
         "P. Giannozzi et al., J. Phys.:Condens. Matter 29 465901 (2017);
         "P. Giannozzi et al., J. Chem. Phys. 152 154105 (2020);
          URL http://www.quantum-espresso.org", 
     in publications or presentations arising from this work. More details at
     http://www.quantum-espresso.org/quote

     Parallel version (MPI & OpenMP), running on      10 processor cores
     Number of MPI processes:                10
     Threads/MPI process:                     1

     MPI processes distributed on     1 nodes
     189426 MiB available memory on the printing compute node when the environment starts
 
     Waiting for input...
     Reading input from standard input
Warning: card &CELL ignored
Warning: card  CELL_DYNAMICS = 'BFGS', ignored
Warning: card  PRESS=0.D0, ignored
Warning: card / ignored
     Message from routine read_cards :
     DEPRECATED: no units specified in ATOMIC_POSITIONS card
     Message from routine read_cards :
     ATOMIC_POSITIONS: units set to alat

     Current dimensions of program PWSCF are:
     Max number of different atomic species (ntypx) = 10
     Max number of k-points (npk) =  40000
     Max angular momentum in pseudopotentials (lmaxx) =  4
 
     R & G space division:  proc/nbgrp/npool/nimage =      10
     Subspace diagonalization in iterative solution of the eigenvalue problem:
     a serial algorithm will be used

 
     Parallelization info
     --------------------
     sticks:   dense  smooth     PW     G-vecs:    dense   smooth      PW
     Min         428     172     49                21076     5335     828
     Max         429     173     52                21079     5336     829
     Sum        4281    1725    497               210769    53355    8289
 
     Using Slab Decomposition
 


     bravais-lattice index     =            1
     lattice parameter (alat)  =       7.3342  a.u.
     unit-cell volume          =     394.5036 (a.u.)^3
     number of atoms/cell      =            5
     number of atomic types    =            3
     number of electrons       =        40.00
     number of Kohn-Sham states=           20
     kinetic-energy cutoff     =     100.0000  Ry
     charge density cutoff     =    1000.0000  Ry
     scf convergence threshold =      1.0E-08
     mixing beta               =       0.7000
     number of iterations used =            8  plain     mixing
     Exchange-correlation= SLA  PZ   NOGX NOGC
                           (   1   1   0   0   0   0   0)

     celldm(1)=   7.334159  celldm(2)=   0.000000  celldm(3)=   0.000000
     celldm(4)=   0.000000  celldm(5)=   0.000000  celldm(6)=   0.000000

     crystal axes: (cart. coord. in units of alat)
               a(1) = (   1.000000   0.000000   0.000000 )  
               a(2) = (   0.000000   1.000000   0.000000 )  
               a(3) = (   0.000000   0.000000   1.000000 )  

     reciprocal axes: (cart. coord. in units 2 pi/alat)
               b(1) = (  1.000000  0.000000  0.000000 )  
               b(2) = (  0.000000  1.000000  0.000000 )  
               b(3) = (  0.000000  0.000000  1.000000 )  


     PseudoPot. # 1 for Ca read from file:
     /scratch/11018/zhc/assisgnment1/CaTiO3/Ca_LDA.UPF
     MD5 check sum: d2d4e7693e10d071152e9eeb7dd009f3
     Pseudo is Ultrasoft + core correction, Zval = 10.0
     Generated by new atomic code, or converted to UPF format
     Using radial grid of  845 points,  6 beta functions with: 
                l(1) =   0
                l(2) =   0
                l(3) =   1
                l(4) =   1
                l(5) =   2
                l(6) =   2
     Q(r) pseudized with  8 coefficients,  rinner =    1.500   1.500   1.500
                                                       1.500   1.500

     PseudoPot. # 2 for Ti read from file:
     /scratch/11018/zhc/assisgnment1/CaTiO3/Ti_LDA.UPF
     MD5 check sum: 0d9f225c038fe889ca2a701dcc8d72cb
     Pseudo is Ultrasoft + core correction, Zval = 12.0
     Generated by new atomic code, or converted to UPF format
     Using radial grid of  851 points,  6 beta functions with: 
                l(1) =   0
                l(2) =   0
                l(3) =   1
                l(4) =   1
                l(5) =   2
                l(6) =   2
     Q(r) pseudized with  6 coefficients,  rinner =    1.000   1.000   1.000
                                                       1.000   1.000

     PseudoPot. # 3 for O  read from file:
     /scratch/11018/zhc/assisgnment1/CaTiO3/O_LDA.UPF
     MD5 check sum: 194b818514d2a7dbb603bb78519a4f40
     Pseudo is Ultrasoft + core correction, Zval =  6.0
     Generated by new atomic code, or converted to UPF format
     Using radial grid of  737 points,  5 beta functions with: 
                l(1) =   0
                l(2) =   0
                l(3) =   1
                l(4) =   1
                l(5) =   2
     Q(r) pseudized with  8 coefficients,  rinner =    0.900   0.900   0.900
                                                       0.900   0.900

     atomic species   valence    mass     pseudopotential
     Ca               10.00    40.07800     Ca( 1.00)
     Ti               12.00    47.88000     Ti( 1.00)
     O                 6.00    16.00000     O ( 1.00)

     48 Sym. Ops., with inversion, found



   Cartesian axes

     site n.     atom                  positions (alat units)
         1        Ca     tau(   1) = (   0.0000000   0.0000000   0.0000000  )
         2        Ti     tau(   2) = (   0.5000000   0.5000000   0.5000000  )
         3        O      tau(   3) = (   0.5000000   0.5000000   0.0000000  )
         4        O      tau(   4) = (   0.5000000   0.0000000   0.5000000  )
         5        O      tau(   5) = (   0.0000000   0.5000000   0.5000000  )

     number of k points=    20
                       cart. coord. in units 2pi/alat
        k(    1) = (   0.0000000   0.0000000   0.0000000), wk =   0.0092593
        k(    2) = (   0.0000000   0.0000000   0.1666667), wk =   0.0555556
        k(    3) = (   0.0000000   0.0000000   0.3333333), wk =   0.0555556
        k(    4) = (   0.0000000   0.0000000  -0.5000000), wk =   0.0277778
        k(    5) = (   0.0000000   0.1666667   0.1666667), wk =   0.1111111
        k(    6) = (   0.0000000   0.1666667   0.3333333), wk =   0.2222222
        k(    7) = (   0.0000000   0.1666667  -0.5000000), wk =   0.1111111
        k(    8) = (   0.0000000   0.3333333   0.3333333), wk =   0.1111111
        k(    9) = (   0.0000000   0.3333333  -0.5000000), wk =   0.1111111
        k(   10) = (   0.0000000  -0.5000000  -0.5000000), wk =   0.0277778
        k(   11) = (   0.1666667   0.1666667   0.1666667), wk =   0.0740741
        k(   12) = (   0.1666667   0.1666667   0.3333333), wk =   0.2222222
        k(   13) = (   0.1666667   0.1666667  -0.5000000), wk =   0.1111111
        k(   14) = (   0.1666667   0.3333333   0.3333333), wk =   0.2222222
        k(   15) = (   0.1666667   0.3333333  -0.5000000), wk =   0.2222222
        k(   16) = (   0.1666667  -0.5000000  -0.5000000), wk =   0.0555556
        k(   17) = (   0.3333333   0.3333333   0.3333333), wk =   0.0740741
        k(   18) = (   0.3333333   0.3333333  -0.5000000), wk =   0.1111111
        k(   19) = (   0.3333333  -0.5000000  -0.5000000), wk =   0.0555556
        k(   20) = (  -0.5000000  -0.5000000  -0.5000000), wk =   0.0092593

     Dense  grid:   210769 G-vectors     FFT dimensions: (  75,  75,  75)

     Smooth grid:    53355 G-vectors     FFT dimensions: (  48,  48,  48)

     Estimated max dynamical RAM per process >      90.31 MB

     Estimated total dynamical RAM >     903.06 MB

     Check: negative core charge=   -0.000001

     Initial potential from superposition of free atoms

     starting charge      38.9952, renormalised to      40.0000

     negative rho (up, down):  8.475E-04 0.000E+00
     Starting wfcs are   32 randomized atomic wfcs

     total cpu time spent up to now is        0.9 secs

     Self-consistent Calculation

     iteration #  1     ecut=   100.00 Ry     beta= 0.70
     CG style diagonalization
     ethr =  1.00E-02,  avg # of iterations =  2.2

     negative rho (up, down):  1.110E-03 0.000E+00

     total cpu time spent up to now is        1.7 secs

     total energy              =    -291.30224672 Ry
     estimated scf accuracy    <       0.83174695 Ry

     iteration #  2     ecut=   100.00 Ry     beta= 0.70
     CG style diagonalization
     ethr =  2.08E-03,  avg # of iterations =  5.1

     negative rho (up, down):  6.456E-04 0.000E+00

     total cpu time spent up to now is        3.0 secs

     total energy              =    -290.60181707 Ry
     estimated scf accuracy    <       6.57130273 Ry

     iteration #  3     ecut=   100.00 Ry     beta= 0.70
     CG style diagonalization
     ethr =  2.08E-03,  avg # of iterations =  4.5

     negative rho (up, down):  7.423E-04 0.000E+00

     total cpu time spent up to now is        4.1 secs

     total energy              =    -291.73247557 Ry
     estimated scf accuracy    <       0.16878045 Ry

     iteration #  4     ecut=   100.00 Ry     beta= 0.70
     CG style diagonalization
     ethr =  4.22E-04,  avg # of iterations =  3.6

     negative rho (up, down):  8.179E-04 0.000E+00

     total cpu time spent up to now is        5.0 secs

     total energy              =    -291.74530124 Ry
     estimated scf accuracy    <       0.05442552 Ry

     iteration #  5     ecut=   100.00 Ry     beta= 0.70
     CG style diagonalization
     ethr =  1.36E-04,  avg # of iterations =  3.5

     negative rho (up, down):  8.561E-04 0.000E+00

     total cpu time spent up to now is        5.9 secs

     total energy              =    -291.75434189 Ry
     estimated scf accuracy    <       0.00140358 Ry

     iteration #  6     ecut=   100.00 Ry     beta= 0.70
     CG style diagonalization
     ethr =  3.51E-06,  avg # of iterations =  4.4

     negative rho (up, down):  8.550E-04 0.000E+00

     total cpu time spent up to now is        7.1 secs

     total energy              =    -291.75577770 Ry
     estimated scf accuracy    <       0.00062074 Ry

     iteration #  7     ecut=   100.00 Ry     beta= 0.70
     CG style diagonalization
     ethr =  1.55E-06,  avg # of iterations =  3.3

     negative rho (up, down):  8.501E-04 0.000E+00

     total cpu time spent up to now is        7.9 secs

     total energy              =    -291.75578526 Ry
     estimated scf accuracy    <       0.00023486 Ry

     iteration #  8     ecut=   100.00 Ry     beta= 0.70
     CG style diagonalization
     ethr =  5.87E-07,  avg # of iterations =  3.5

     negative rho (up, down):  8.487E-04 0.000E+00

     total cpu time spent up to now is        8.9 secs

     total energy              =    -291.75582827 Ry
     estimated scf accuracy    <       0.00000320 Ry

     iteration #  9     ecut=   100.00 Ry     beta= 0.70
     CG style diagonalization
     ethr =  8.00E-09,  avg # of iterations =  4.6

     negative rho (up, down):  8.485E-04 0.000E+00

     total cpu time spent up to now is       10.0 secs

     total energy              =    -291.75583268 Ry
     estimated scf accuracy    <       0.00000078 Ry

     iteration # 10     ecut=   100.00 Ry     beta= 0.70
     CG style diagonalization
     ethr =  1.94E-09,  avg # of iterations =  3.5

     negative rho (up, down):  8.487E-04 0.000E+00

     total cpu time spent up to now is       10.9 secs

     total energy              =    -291.75583273 Ry
     estimated scf accuracy    <       0.00000024 Ry

     iteration # 11     ecut=   100.00 Ry     beta= 0.70
     CG style diagonalization
     ethr =  6.09E-10,  avg # of iterations =  3.6

     negative rho (up, down):  8.487E-04 0.000E+00

     total cpu time spent up to now is       11.8 secs

     End of self-consistent calculation

          k = 0.0000 0.0000 0.0000 (  6667 PWs)   bands (ev):

   -46.9899 -30.0524 -23.5897 -23.5897 -23.5897 -11.2497 -11.2497 -11.2497
    -8.4698  -7.3452  -7.3452   5.6880   5.6880   5.6880   7.6140   7.6140
     7.6140   8.3353   8.3353   8.3353

          k = 0.0000 0.0000 0.1667 (  6679 PWs)   bands (ev):

   -46.9896 -30.0508 -23.6086 -23.5888 -23.5888 -11.3152 -11.2469 -11.2469
    -8.3057  -7.3348  -7.2652   5.3790   5.7023   5.7023   7.2467   7.2467
     7.3842   7.5225   8.2052   8.2052

          k = 0.0000 0.0000 0.3333 (  6676 PWs)   bands (ev):

   -46.9890 -30.0478 -23.6462 -23.5870 -23.5870 -11.4366 -11.2411 -11.2411
    -7.9750  -7.3138  -7.0972   4.7096   5.7836   5.7836   6.4168   6.5848
     6.5848   6.9849   8.0880   8.0880

          k = 0.0000 0.0000-0.5000 (  6696 PWs)   bands (ev):

   -46.9886 -30.0462 -23.6648 -23.5861 -23.5861 -11.4933 -11.2383 -11.2383
    -7.8095  -7.3032  -7.0055   4.3371   5.9420   5.9420   6.0186   6.1836
     6.1836   6.8072   8.0470   8.0470

          k = 0.0000 0.1667 0.1667 (  6675 PWs)   bands (ev):

   -46.9893 -30.0493 -23.6081 -23.6076 -23.5879 -11.3242 -11.2857 -11.2438
    -8.1589  -7.2931  -7.2203   5.1947   5.5556   5.7123   6.5234   7.0096
     7.4215   7.5327   7.8374   7.9723

          k = 0.0000 0.1667 0.3333 (  6670 PWs)   bands (ev):

   -46.9886 -30.0461 -23.6456 -23.6063 -23.5861 -11.4167 -11.2827 -11.2378
    -7.8723  -7.2579  -7.0605   4.6596   5.2772   5.7806   5.7908   6.4759
     6.7349   7.4882   7.7389   7.7646

          k = 0.0000 0.1667-0.5000 (  6654 PWs)   bands (ev):

   -46.9883 -30.0445 -23.6643 -23.6055 -23.5852 -11.4660 -11.2757 -11.2347
    -7.7384  -7.2402  -6.9615   4.3320   5.0050   5.6549   5.9336   6.1071
     6.5096   7.4811   7.6332   7.7052

          k = 0.0000 0.3333 0.3333 (  6670 PWs)   bands (ev):

   -46.9880 -30.0428 -23.6446 -23.6442 -23.5844 -11.3878 -11.3528 -11.2310
    -7.7290  -7.0865  -6.9640   4.3403   4.8372   4.8955   5.8035   6.2025
     6.8024   6.9787   7.3634   8.3123

          k = 0.0000 0.3333-0.5000 (  6658 PWs)   bands (ev):

   -46.9877 -30.0411 -23.6633 -23.6438 -23.5835 -11.4115 -11.3486 -11.2276
    -7.6903  -6.9965  -6.8744   4.1652   4.3004   4.8363   5.9084   5.9605
     6.7298   6.9557   7.2313   8.4530

          k = 0.0000-0.5000-0.5000 (  6632 PWs)   bands (ev):

   -46.9874 -30.0394 -23.6628 -23.6628 -23.5827 -11.3842 -11.3842 -11.2240
    -7.6956  -6.8313  -6.8313   3.8619   4.1732   4.4789   5.8900   5.8900
     6.8372   6.8372   7.0521   8.7052

          k = 0.1667 0.1667 0.1667 (  6700 PWs)   bands (ev):

   -46.9890 -30.0477 -23.6071 -23.6071 -23.6068 -11.3281 -11.2796 -11.2796
    -8.0190  -7.2190  -7.2190   5.0297   5.5390   5.5390   6.4264   6.4264
     6.9160   7.7731   7.7731   7.8863

          k = 0.1667 0.1667 0.3333 (  6654 PWs)   bands (ev):

   -46.9883 -30.0445 -23.6449 -23.6055 -23.6052 -11.3991 -11.2845 -11.2675
    -7.7489  -7.2164  -7.0436   4.6097   5.1935   5.4297   5.6600   5.9303
     6.7526   7.5235   7.7157   7.8827

          k = 0.1667 0.1667-0.5000 (  6642 PWs)   bands (ev):

   -46.9880 -30.0429 -23.6636 -23.6048 -23.6043 -11.4422 -11.2777 -11.2614
    -7.6246  -7.2151  -6.9342   4.3301   4.8921   5.3093   5.4556   5.8326
     6.8179   7.3695   7.6914   7.7940

          k = 0.1667 0.3333 0.3333 (  6664 PWs)   bands (ev):

   -46.9877 -30.0412 -23.6436 -23.6434 -23.6036 -11.3735 -11.3416 -11.2622
    -7.5669  -7.0773  -6.9795   4.3657   4.8733   4.8927   5.3121   5.5520
     6.2978   7.6051   7.6446   8.3397

          k = 0.1667 0.3333-0.5000 (  6652 PWs)   bands (ev):

   -46.9874 -30.0395 -23.6624 -23.6428 -23.6027 -11.3948 -11.3385 -11.2564
    -7.5192  -7.0183  -6.8809   4.2592   4.3061   4.8304   5.2273   5.4266
     6.3010   7.5605   7.6303   8.4753

          k = 0.1667-0.5000-0.5000 (  6656 PWs)   bands (ev):

   -46.9871 -30.0379 -23.6617 -23.6617 -23.6018 -11.3711 -11.3711 -11.2510
    -7.5171  -6.8548  -6.8548   3.9882   4.1851   4.4834   5.2482   5.2482
     6.2554   7.5968   7.5968   8.7290

          k = 0.3333 0.3333 0.3333 (  6665 PWs)   bands (ev):

   -46.9871 -30.0380 -23.6419 -23.6414 -23.6414 -11.3496 -11.3191 -11.3191
    -7.2672  -7.0111  -7.0111   4.3444   4.7889   4.7889   4.9913   5.0247
     5.0247   8.1523   8.1523   8.4782

          k = 0.3333 0.3333-0.5000 (  6672 PWs)   bands (ev):

   -46.9868 -30.0364 -23.6604 -23.6410 -23.6404 -11.3613 -11.3235 -11.3077
    -7.1863  -7.0270  -6.8949   4.2960   4.3886   4.6125   4.6962   4.9765
     5.0578   8.2425   8.3362   8.5846

          k = 0.3333-0.5000-0.5000 (  6668 PWs)   bands (ev):

   -46.9865 -30.0348 -23.6595 -23.6595 -23.6396 -11.3444 -11.3444 -11.3044
    -7.1338  -6.9023  -6.9023   4.1826   4.2486   4.4923   4.6109   4.6109
     4.9655   8.4640   8.4640   8.7778

          k =-0.5000-0.5000-0.5000 (  6704 PWs)   bands (ev):

   -46.9862 -30.0333 -23.6584 -23.6584 -23.6584 -11.3309 -11.3309 -11.3309
    -6.9263  -6.9263  -6.9263   4.0777   4.3830   4.3830   4.3830   4.4968
     4.4968   8.8027   8.8027   8.8027

     highest occupied level (ev):     8.8027

!    total energy              =    -291.75583279 Ry
     estimated scf accuracy    <          1.2E-09 Ry

     The total energy is the sum of the following terms:
     one-electron contribution =     -92.23807673 Ry
     hartree contribution      =      65.54192150 Ry
     xc contribution           =     -51.24259768 Ry
     ewald contribution        =    -213.81707988 Ry

     convergence has been achieved in  11 iterations

     negative rho (up, down):  8.487E-04 0.000E+00

     Forces acting on atoms (cartesian axes, Ry/au):

     atom    1 type  1   force =     0.00000000    0.00000000    0.00000000
     atom    2 type  2   force =     0.00000000    0.00000000    0.00000000
     atom    3 type  3   force =     0.00000000    0.00000000    0.00000000
     atom    4 type  3   force =     0.00000000    0.00000000    0.00000000
     atom    5 type  3   force =     0.00000000    0.00000000    0.00000000

     Total force =     0.000000     Total SCF correction =     0.000000


     Computing stress (Cartesian axis) and pressure


     negative rho (up, down):  8.487E-04 0.000E+00
          total   stress  (Ry/bohr**3)                   (kbar)     P=     -104.60
  -0.00071105   0.00000000   0.00000000         -104.60        0.00        0.00
   0.00000000  -0.00071105   0.00000000            0.00     -104.60        0.00
   0.00000000   0.00000000  -0.00071105            0.00        0.00     -104.60


     Writing all to output data dir ./CTO_module_14.save/ :
     XML data file, charge density, pseudopotentials, collected wavefunctions
 
     init_run     :      0.51s CPU      0.63s WALL (       1 calls)
     electrons    :     10.38s CPU     10.95s WALL (       1 calls)
     forces       :      0.22s CPU      0.23s WALL (       1 calls)
     stress       :      1.75s CPU      1.79s WALL (       1 calls)

     Called by init_run:
     wfcinit      :      0.20s CPU      0.23s WALL (       1 calls)
     potinit      :      0.01s CPU      0.02s WALL (       1 calls)
     hinit0       :      0.15s CPU      0.18s WALL (       1 calls)

     Called by electrons:
     c_bands      :      7.12s CPU      7.38s WALL (      11 calls)
     sum_band     :      1.98s CPU      2.10s WALL (      11 calls)
     v_of_rho     :      0.04s CPU      0.04s WALL (      12 calls)
     newd         :      1.29s CPU      1.47s WALL (      12 calls)
     mix_rho      :      0.03s CPU      0.03s WALL (      11 calls)

     Called by c_bands:
     init_us_2    :      0.13s CPU      0.13s WALL (     500 calls)
     init_us_2:cp :      0.12s CPU      0.13s WALL (     500 calls)
     ccgdiagg     :      6.10s CPU      6.32s WALL (     220 calls)
     wfcrot       :      1.10s CPU      1.17s WALL (     220 calls)

     Called by *cgdiagg:
     h_psi        :      4.57s CPU      4.73s WALL (   13002 calls)
     s_psi        :      0.70s CPU      0.73s WALL (   25784 calls)

     Called by h_psi:
     h_psi:calbec :      0.76s CPU      0.80s WALL (   13002 calls)
     vloc_psi     :      3.27s CPU      3.38s WALL (   13002 calls)
     add_vuspsi   :      0.42s CPU      0.43s WALL (   13002 calls)
     hs_1psi      :      4.05s CPU      4.20s WALL (   12782 calls)
     s_1psi       :      0.91s CPU      0.94s WALL (   12782 calls)

     General routines
     calbec       :      1.31s CPU      1.37s WALL (   26104 calls)
     fft          :      0.06s CPU      0.08s WALL (      78 calls)
     ffts         :      0.00s CPU      0.01s WALL (      23 calls)
     fftw         :      2.57s CPU      2.66s WALL (   39244 calls)
     interpolate  :      0.01s CPU      0.01s WALL (      12 calls)
 
     Parallel routines
 
     PWSCF        :     13.09s CPU     14.28s WALL

 
   This run was terminated on:  14:47:41  24Sep2025            

=------------------------------------------------------------------------------=
   JOB DONE.
=------------------------------------------------------------------------------=
TACC:  Shutdown complete. Exiting. 
