TACC:  Starting up job 2482471 
TACC:  Starting parallel tasks... 

     Program PWSCF v.7.3 starts on 20Oct2025 at 18:38:15 

     This program is part of the open-source Quantum ESPRESSO suite
     for quantum simulation of materials; please cite
         "P. Giannozzi et al., J. Phys.:Condens. Matter 21 395502 (2009);
         "P. Giannozzi et al., J. Phys.:Condens. Matter 29 465901 (2017);
         "P. Giannozzi et al., J. Chem. Phys. 152 154105 (2020);
          URL http://www.quantum-espresso.org", 
     in publications or presentations arising from this work. More details at
     http://www.quantum-espresso.org/quote

     Parallel version (MPI & OpenMP), running on      10 processor cores
     Number of MPI processes:                10
     Threads/MPI process:                     1

     MPI processes distributed on     1 nodes
     188031 MiB available memory on the printing compute node when the environment starts
 
     Waiting for input...
     Reading input from standard input
Warning: card &CELL ignored
Warning: card  CELL_DYNAMICS = 'BFGS', ignored
Warning: card  PRESS=0.D0, ignored
Warning: card / ignored
     Message from routine read_cards :
     DEPRECATED: no units specified in ATOMIC_POSITIONS card
     Message from routine read_cards :
     ATOMIC_POSITIONS: units set to alat

     Current dimensions of program PWSCF are:
     Max number of different atomic species (ntypx) = 10
     Max number of k-points (npk) =  40000
     Max angular momentum in pseudopotentials (lmaxx) =  4
     Message from routine setup:
     using ibrav=0 with symmetry is DISCOURAGED, use correct ibrav instead
 
     R & G space division:  proc/nbgrp/npool/nimage =      10
     Subspace diagonalization in iterative solution of the eigenvalue problem:
     a serial algorithm will be used

 
     Parallelization info
     --------------------
     sticks:   dense  smooth     PW     G-vecs:    dense   smooth      PW
     Min         125      49     18                 2809      708     159
     Max         126      51     19                 2813      709     161
     Sum        1255     499    181                28107     7083    1601
 
     Using Slab Decomposition
 


     bravais-lattice index     =            0
     lattice parameter (alat)  =       6.6800  a.u.
     unit-cell volume          =     149.0387 (a.u.)^3
     number of atoms/cell      =            2
     number of atomic types    =            1
     number of electrons       =         8.00
     number of Kohn-Sham states=            4
     kinetic-energy cutoff     =      50.0000  Ry
     charge density cutoff     =     500.0000  Ry
     scf convergence threshold =      1.0E-08
     mixing beta               =       0.7000
     number of iterations used =            8  plain     mixing
     Exchange-correlation= SLA  PZ   NOGX NOGC
                           (   1   1   0   0   0   0   0)

     celldm(1)=   6.680000  celldm(2)=   0.000000  celldm(3)=   0.000000
     celldm(4)=   0.000000  celldm(5)=   0.000000  celldm(6)=   0.000000

     crystal axes: (cart. coord. in units of alat)
               a(1) = (  -0.500500   0.500500   0.500000 )  
               a(2) = (   0.500500  -0.500500   0.500000 )  
               a(3) = (   0.499500   0.499500  -0.500000 )  

     reciprocal axes: (cart. coord. in units 2 pi/alat)
               b(1) = (  0.001000  1.000001  1.000000 )  
               b(2) = (  1.000001  0.001000  1.000000 )  
               b(3) = (  1.001001  1.001001  0.000000 )  


     PseudoPot. # 1 for C  read from file:
     /scratch/11018/zhc/Assisgnment2/Q2/Diamond/Diamond/C_LDA.UPF
     MD5 check sum: 407c1fe918d93b14b177d5600f28733c
     Pseudo is Ultrasoft + core correction, Zval =  4.0
     Generated by new atomic code, or converted to UPF format
     Using radial grid of  721 points,  4 beta functions with: 
                l(1) =   0
                l(2) =   0
                l(3) =   1
                l(4) =   1
     Q(r) pseudized with  8 coefficients,  rinner =    1.100   1.100   1.100


     atomic species   valence    mass     pseudopotential
     C                 4.00    12.01100     C ( 1.00)

      2 Sym. Ops. (no inversion) found



   Cartesian axes

     site n.     atom                  positions (alat units)
         1        C      tau(   1) = (   0.0000000   0.0000000   0.0000000  )
         2        C      tau(   2) = (   0.2492943   0.2492943   0.2492943  )

     number of k points=    24
                       cart. coord. in units 2pi/alat
        k(    1) = (   0.0000000   0.0000000   0.0000000), wk =   0.0312500
        k(    2) = (   0.2502503   0.2502503   0.0000000), wk =   0.0625000
        k(    3) = (  -0.5005005  -0.5005005   0.0000000), wk =   0.0312500
        k(    4) = (   0.2500003   0.0002500   0.2500000), wk =   0.1250000
        k(    5) = (   0.5002505   0.2505003   0.2500000), wk =   0.1250000
        k(    6) = (  -0.5000005  -0.0005000  -0.5000000), wk =   0.0625000
        k(    7) = (  -0.2497502   0.2497502  -0.5000000), wk =   0.1250000
        k(    8) = (   0.2502503   0.2502503   0.5000000), wk =   0.0625000
        k(    9) = (   0.5005005   0.5005005   0.5000000), wk =   0.0625000
        k(   10) = (   0.0000000   0.0000000   0.5000000), wk =   0.0625000
        k(   11) = (  -0.4997505   0.2495002  -0.2500000), wk =   0.1250000
        k(   12) = (  -1.0002510  -0.2510003  -0.2500000), wk =   0.1250000
        k(   13) = (  -0.2497502   0.2497502   0.0000000), wk =   0.0625000
        k(   14) = (   0.0005000   0.5000005   0.0000000), wk =   0.1250000
        k(   15) = (  -0.7502508  -0.2507503   0.0000000), wk =   0.0625000
        k(   16) = (  -0.5005005  -0.5005005  -1.0000000), wk =   0.0312500
        k(   17) = (  -0.2502503  -0.2502503  -1.0000000), wk =   0.0625000
        k(   18) = (  -1.0010010  -1.0010010  -1.0000000), wk =   0.0312500
        k(   19) = (   0.0002500   0.2500003  -0.2500000), wk =   0.1250000
        k(   20) = (   0.2505003   0.5002505  -0.2500000), wk =   0.1250000
        k(   21) = (  -0.0005000  -0.5000005   0.5000000), wk =   0.0625000
        k(   22) = (   0.2502503   0.2502503  -0.5000000), wk =   0.0625000
        k(   23) = (   0.2495002  -0.4997505   0.2500000), wk =   0.1250000
        k(   24) = (  -0.2510003  -1.0002510   0.2500000), wk =   0.1250000

     Dense  grid:    28107 G-vectors     FFT dimensions: (  45,  45,  45)

     Smooth grid:     7083 G-vectors     FFT dimensions: (  27,  27,  25)

     Estimated max dynamical RAM per process >       4.66 MB

     Estimated total dynamical RAM >      46.62 MB

     Initial potential from superposition of free atoms

     starting charge       7.9999, renormalised to       8.0000
     Starting wfcs are    8 randomized atomic wfcs

     total cpu time spent up to now is        0.2 secs

     Self-consistent Calculation

     iteration #  1     ecut=    50.00 Ry     beta= 0.70
     CG style diagonalization
     ethr =  1.00E-02,  avg # of iterations =  2.8

     Threshold (ethr) on eigenvalues was too large:
     Diagonalizing with lowered threshold

     CG style diagonalization
     ethr =  5.14E-04,  avg # of iterations =  2.0

     total cpu time spent up to now is        0.3 secs

     total energy              =     -22.63987966 Ry
     estimated scf accuracy    <       0.03985074 Ry

     iteration #  2     ecut=    50.00 Ry     beta= 0.70
     CG style diagonalization
     ethr =  4.98E-04,  avg # of iterations =  3.7

     total cpu time spent up to now is        0.4 secs

     total energy              =     -22.64394591 Ry
     estimated scf accuracy    <       0.00102498 Ry

     iteration #  3     ecut=    50.00 Ry     beta= 0.70
     CG style diagonalization
     ethr =  1.28E-05,  avg # of iterations =  3.5

     total cpu time spent up to now is        0.5 secs

     total energy              =     -22.64406380 Ry
     estimated scf accuracy    <       0.00004367 Ry

     iteration #  4     ecut=    50.00 Ry     beta= 0.70
     CG style diagonalization
     ethr =  5.46E-07,  avg # of iterations =  4.2

     total cpu time spent up to now is        0.6 secs

     total energy              =     -22.64408319 Ry
     estimated scf accuracy    <       0.00000536 Ry

     iteration #  5     ecut=    50.00 Ry     beta= 0.70
     CG style diagonalization
     ethr =  6.70E-08,  avg # of iterations =  3.9

     total cpu time spent up to now is        0.6 secs

     total energy              =     -22.64408420 Ry
     estimated scf accuracy    <       0.00000232 Ry

     iteration #  6     ecut=    50.00 Ry     beta= 0.70
     CG style diagonalization
     ethr =  2.89E-08,  avg # of iterations =  3.2

     total cpu time spent up to now is        0.7 secs

     total energy              =     -22.64408427 Ry
     estimated scf accuracy    <       0.00000109 Ry

     iteration #  7     ecut=    50.00 Ry     beta= 0.70
     CG style diagonalization
     c_bands:  1 eigenvalues not converged
     ethr =  1.36E-08,  avg # of iterations =  4.6

     total cpu time spent up to now is        0.8 secs

     total energy              =     -22.64408446 Ry
     estimated scf accuracy    <       0.00000648 Ry

     iteration #  8     ecut=    50.00 Ry     beta= 0.70
     CG style diagonalization
     ethr =  1.36E-08,  avg # of iterations =  3.1

     total cpu time spent up to now is        0.9 secs

     total energy              =     -22.64408384 Ry
     estimated scf accuracy    <       0.00000387 Ry

     iteration #  9     ecut=    50.00 Ry     beta= 0.70
     CG style diagonalization
     ethr =  1.36E-08,  avg # of iterations =  3.9

     total cpu time spent up to now is        0.9 secs

     total energy              =     -22.64408440 Ry
     estimated scf accuracy    <       0.00000139 Ry

     iteration # 10     ecut=    50.00 Ry     beta= 0.70
     CG style diagonalization
     ethr =  1.36E-08,  avg # of iterations =  3.0

     total cpu time spent up to now is        1.0 secs

     total energy              =     -22.64408411 Ry
     estimated scf accuracy    <       0.00000118 Ry

     iteration # 11     ecut=    50.00 Ry     beta= 0.70
     CG style diagonalization
     ethr =  1.36E-08,  avg # of iterations =  3.5

     total cpu time spent up to now is        1.1 secs

     total energy              =     -22.64408429 Ry
     estimated scf accuracy    <       0.00000133 Ry

     iteration # 12     ecut=    50.00 Ry     beta= 0.70
     CG style diagonalization
     ethr =  1.36E-08,  avg # of iterations =  3.0

     total cpu time spent up to now is        1.1 secs

     total energy              =     -22.64408429 Ry
     estimated scf accuracy    <       0.00000072 Ry

     iteration # 13     ecut=    50.00 Ry     beta= 0.70
     CG style diagonalization
     ethr =  8.94E-09,  avg # of iterations =  3.0

     total cpu time spent up to now is        1.2 secs

     total energy              =     -22.64408425 Ry
     estimated scf accuracy    <       0.00000061 Ry

     iteration # 14     ecut=    50.00 Ry     beta= 0.70
     CG style diagonalization
     ethr =  7.57E-09,  avg # of iterations =  3.0

     total cpu time spent up to now is        1.2 secs

     total energy              =     -22.64408427 Ry
     estimated scf accuracy    <       0.00000041 Ry

     iteration # 15     ecut=    50.00 Ry     beta= 0.70
     CG style diagonalization
     ethr =  5.13E-09,  avg # of iterations =  3.0

     total cpu time spent up to now is        1.3 secs

     total energy              =     -22.64408424 Ry
     estimated scf accuracy    <       0.00000042 Ry

     iteration # 16     ecut=    50.00 Ry     beta= 0.70
     CG style diagonalization
     ethr =  5.13E-09,  avg # of iterations =  3.1

     total cpu time spent up to now is        1.4 secs

     total energy              =     -22.64408433 Ry
     estimated scf accuracy    <       0.00000004 Ry

     iteration # 17     ecut=    50.00 Ry     beta= 0.70
     CG style diagonalization
     ethr =  4.56E-10,  avg # of iterations =  3.4

     total cpu time spent up to now is        1.4 secs

     total energy              =     -22.64408439 Ry
     estimated scf accuracy    <       0.00000003 Ry

     iteration # 18     ecut=    50.00 Ry     beta= 0.70
     CG style diagonalization
     ethr =  3.68E-10,  avg # of iterations =  3.1

     total cpu time spent up to now is        1.5 secs

     total energy              =     -22.64408439 Ry
     estimated scf accuracy    <       0.00000016 Ry

     iteration # 19     ecut=    50.00 Ry     beta= 0.70
     CG style diagonalization
     ethr =  3.68E-10,  avg # of iterations =  3.0

     total cpu time spent up to now is        1.5 secs

     total energy              =     -22.64408439 Ry
     estimated scf accuracy    <       0.00000015 Ry

     iteration # 20     ecut=    50.00 Ry     beta= 0.70
     CG style diagonalization
     ethr =  3.68E-10,  avg # of iterations =  3.0

     total cpu time spent up to now is        1.6 secs

     total energy              =     -22.64408432 Ry
     estimated scf accuracy    <       0.00000012 Ry

     iteration # 21     ecut=    50.00 Ry     beta= 0.70
     CG style diagonalization
     ethr =  3.68E-10,  avg # of iterations =  3.7

     total cpu time spent up to now is        1.7 secs

     End of self-consistent calculation

          k = 0.0000 0.0000 0.0000 (   935 PWs)   bands (ev):

   -11.4251  -2.9133   3.1656   3.1735

          k = 0.2503 0.2503 0.0000 (   889 PWs)   bands (ev):

   -10.4487  -4.6362   2.8751   3.7268

          k =-0.5005-0.5005 0.0000 (   882 PWs)   bands (ev):

    -7.8283  -7.8226   3.3824   3.4143

          k = 0.2500 0.0003 0.2500 (   889 PWs)   bands (ev):

   -10.4505  -4.6400   2.8772   3.7313

          k = 0.5003 0.2505 0.2500 (   892 PWs)   bands (ev):

    -8.4462  -7.0576   1.8811   4.3354

          k =-0.5000-0.0005-0.5000 (   882 PWs)   bands (ev):

    -7.8339  -7.8275   3.3969   3.4213

          k =-0.2498 0.2498-0.5000 (   892 PWs)   bands (ev):

    -9.2242  -5.1929  -0.3902   2.7604

          k = 0.2503 0.2503 0.5000 (   892 PWs)   bands (ev):

    -8.4474  -7.0621   1.8785   4.3491

          k = 0.5005 0.5005 0.5000 (   868 PWs)   bands (ev):

    -8.6517  -5.6696   0.1421   0.1433

          k = 0.0000 0.0000 0.5000 (   900 PWs)   bands (ev):

    -9.7363  -4.6359   0.9261   2.8666

          k =-0.4998 0.2495-0.2500 (   892 PWs)   bands (ev):

    -9.2275  -5.1929  -0.3954   2.7739

          k =-1.0003-0.2510-0.2500 (   882 PWs)   bands (ev):

    -8.7989  -4.6507  -0.8182   1.8062

          k =-0.2498 0.2498 0.0000 (   889 PWs)   bands (ev):

   -10.6338  -3.0605   0.4024   2.5838

          k = 0.0005 0.5000 0.0000 (   900 PWs)   bands (ev):

    -9.7373  -4.6324   0.9271   2.8631

          k =-0.7503-0.2508 0.0000 (   882 PWs)   bands (ev):

    -7.4031  -7.3968   2.2213   2.2327

          k =-0.5005-0.5005-1.0000 (   882 PWs)   bands (ev):

    -9.5359  -3.2080  -2.0835   2.0693

          k =-0.2503-0.2503-1.0000 (   882 PWs)   bands (ev):

    -8.8031  -4.6507  -0.8169   1.8103

          k =-1.0010-1.0010-1.0000 (   856 PWs)   bands (ev):

    -6.9422  -6.9353   2.7869   2.7979

          k = 0.0003 0.2500-0.2500 (   889 PWs)   bands (ev):

   -10.6314  -3.0599   0.4068   2.5735

          k = 0.2505 0.5003-0.2500 (   892 PWs)   bands (ev):

    -9.2213  -5.1897  -0.3969   2.7620

          k =-0.0005-0.5000 0.5000 (   882 PWs)   bands (ev):

    -9.5293  -3.2070  -2.0828   2.0557

          k = 0.2503 0.2503-0.5000 (   892 PWs)   bands (ev):

    -9.5722  -3.2130  -1.1599   0.6255

          k = 0.2495-0.4998 0.2500 (   892 PWs)   bands (ev):

    -9.5759  -3.2136  -1.1529   0.6226

          k =-0.2510-1.0003 0.2500 (   882 PWs)   bands (ev):

    -7.4064  -7.3992   2.2255   2.2326

     highest occupied level (ev):     4.3491

!    total energy              =     -22.64408433 Ry
     estimated scf accuracy    <          8.3E-09 Ry

     The total energy is the sum of the following terms:
     one-electron contribution =      -0.14563323 Ry
     hartree contribution      =       3.41428067 Ry
     xc contribution           =      -6.56781172 Ry
     ewald contribution        =     -19.34492004 Ry

     convergence has been achieved in  21 iterations

     Forces acting on atoms (cartesian axes, Ry/au):

     atom    1 type  1   force =     0.01025729    0.01025729    0.01017800
     atom    2 type  1   force =    -0.01025729   -0.01025729   -0.01017800

     Total force =     0.025061     Total SCF correction =     0.000004


     Computing stress (Cartesian axis) and pressure

          total   stress  (Ry/bohr**3)                   (kbar)     P=     -655.82
  -0.00445536  -0.00519614  -0.00520558         -655.41     -764.38     -765.77
  -0.00519614  -0.00445536  -0.00520558         -764.38     -655.41     -765.77
  -0.00520558  -0.00520558  -0.00446386         -765.77     -765.77     -656.66


     Writing all to output data dir ./diamond_trigonal_etam0p002.save/ :
     XML data file, charge density, pseudopotentials, collected wavefunctions
 
     init_run     :      0.05s CPU      0.13s WALL (       1 calls)
     electrons    :      1.35s CPU      1.47s WALL (       1 calls)
     forces       :      0.01s CPU      0.01s WALL (       1 calls)
     stress       :      0.03s CPU      0.03s WALL (       1 calls)

     Called by init_run:
     wfcinit      :      0.02s CPU      0.05s WALL (       1 calls)
     potinit      :      0.00s CPU      0.01s WALL (       1 calls)
     hinit0       :      0.02s CPU      0.04s WALL (       1 calls)

     Called by electrons:
     c_bands      :      1.10s CPU      1.20s WALL (      22 calls)
     sum_band     :      0.17s CPU      0.18s WALL (      22 calls)
     v_of_rho     :      0.02s CPU      0.02s WALL (      22 calls)
     newd         :      0.03s CPU      0.04s WALL (      22 calls)
     mix_rho      :      0.02s CPU      0.02s WALL (      22 calls)

     Called by c_bands:
     init_us_2    :      0.02s CPU      0.02s WALL (    1128 calls)
     init_us_2:cp :      0.02s CPU      0.02s WALL (    1128 calls)
     ccgdiagg     :      0.87s CPU      0.95s WALL (     528 calls)
     wfcrot       :      0.21s CPU      0.25s WALL (     504 calls)

     Called by *cgdiagg:
     h_psi        :      0.66s CPU      0.73s WALL (    5574 calls)
     s_psi        :      0.03s CPU      0.03s WALL (   10644 calls)

     Called by h_psi:
     h_psi:calbec :      0.09s CPU      0.10s WALL (    5574 calls)
     vloc_psi     :      0.52s CPU      0.56s WALL (    5574 calls)
     add_vuspsi   :      0.02s CPU      0.02s WALL (    5574 calls)
     hs_1psi      :      0.54s CPU      0.59s WALL (    5070 calls)
     s_1psi       :      0.10s CPU      0.11s WALL (    5070 calls)

     General routines
     calbec       :      0.14s CPU      0.16s WALL (   11292 calls)
     fft          :      0.02s CPU      0.04s WALL (     139 calls)
     ffts         :      0.00s CPU      0.00s WALL (      44 calls)
     fftw         :      0.49s CPU      0.53s WALL (   16476 calls)
     interpolate  :      0.00s CPU      0.01s WALL (      22 calls)
 
     Parallel routines
 
     PWSCF        :      1.49s CPU      1.89s WALL

 
   This run was terminated on:  18:38:17  20Oct2025            

=------------------------------------------------------------------------------=
   JOB DONE.
=------------------------------------------------------------------------------=
TACC:  Shutdown complete. Exiting. 
