TACC:  Starting up job 2560479 
TACC:  Starting parallel tasks... 

     Program PWSCF v.7.3 starts on 17Nov2025 at 20:36:40 

     This program is part of the open-source Quantum ESPRESSO suite
     for quantum simulation of materials; please cite
         "P. Giannozzi et al., J. Phys.:Condens. Matter 21 395502 (2009);
         "P. Giannozzi et al., J. Phys.:Condens. Matter 29 465901 (2017);
         "P. Giannozzi et al., J. Chem. Phys. 152 154105 (2020);
          URL http://www.quantum-espresso.org", 
     in publications or presentations arising from this work. More details at
     http://www.quantum-espresso.org/quote

     Parallel version (MPI & OpenMP), running on      10 processor cores
     Number of MPI processes:                10
     Threads/MPI process:                     1

     MPI processes distributed on     1 nodes
     185206 MiB available memory on the printing compute node when the environment starts
 
     Waiting for input...
     Reading input from standard input
Warning: card &CELL ignored
Warning: card  CELL_DYNAMICS = 'BFGS', ignored
Warning: card  PRESS=0.D0, ignored
Warning: card / ignored

     Current dimensions of program PWSCF are:
     Max number of different atomic species (ntypx) = 10
     Max number of k-points (npk) =  40000
     Max angular momentum in pseudopotentials (lmaxx) =  4
     Message from routine setup:
     using ibrav=0 with symmetry is DISCOURAGED, use correct ibrav instead
 
     R & G space division:  proc/nbgrp/npool/nimage =      10
     Subspace diagonalization in iterative solution of the eigenvalue problem:
     a serial algorithm will be used

 
     Parallelization info
     --------------------
     sticks:   dense  smooth     PW     G-vecs:    dense   smooth      PW
     Min         209      84     25                 7677     1940     323
     Max         210      85     27                 7680     1943     324
     Sum        2093     845    253                76779    19415    3231
 
     Using Slab Decomposition
 


     bravais-lattice index     =            0
     lattice parameter (alat)  =       7.2713  a.u.
     unit-cell volume          =     406.4703 (a.u.)^3
     number of atoms/cell      =            5
     number of atomic types    =            3
     number of electrons       =        44.00
     number of Kohn-Sham states=           22
     kinetic-energy cutoff     =      50.0000  Ry
     charge density cutoff     =     500.0000  Ry
     scf convergence threshold =      1.0E-08
     mixing beta               =       0.7000
     number of iterations used =            8  plain     mixing
     energy convergence thresh.=      1.0E-04
     force convergence thresh. =      1.0E-03
     Exchange-correlation= SLA  PZ   NOGX NOGC
                           (   1   1   0   0   0   0   0)
     nstep                     =           50


     celldm(1)=   7.271302  celldm(2)=   0.000000  celldm(3)=   0.000000
     celldm(4)=   0.000000  celldm(5)=   0.000000  celldm(6)=   0.000000

     crystal axes: (cart. coord. in units of alat)
               a(1) = (   1.000000   0.000000   0.000000 )  
               a(2) = (   0.000000   1.000000   0.000000 )  
               a(3) = (   0.000000   0.000000   1.057285 )  

     reciprocal axes: (cart. coord. in units 2 pi/alat)
               b(1) = (  1.000000  0.000000  0.000000 )  
               b(2) = (  0.000000  1.000000  0.000000 )  
               b(3) = (  0.000000  0.000000  0.945818 )  


     PseudoPot. # 1 for Pb read from file:
     /scratch/11018/zhc/assisgnment3/input_files/Pb_LDA.UPF
     MD5 check sum: 062a37469794d955244864f8fe2e5624
     Pseudo is Ultrasoft + core correction, Zval = 14.0
     Generated by new atomic code, or converted to UPF format
     Using radial grid of  899 points,  6 beta functions with: 
                l(1) =   0
                l(2) =   0
                l(3) =   1
                l(4) =   1
                l(5) =   2
                l(6) =   2
     Q(r) pseudized with  6 coefficients,  rinner =    1.000   1.000   1.000
                                                       1.000   1.000

     PseudoPot. # 2 for Ti read from file:
     /scratch/11018/zhc/assisgnment3/input_files/Ti_LDA.UPF
     MD5 check sum: 0d9f225c038fe889ca2a701dcc8d72cb
     Pseudo is Ultrasoft + core correction, Zval = 12.0
     Generated by new atomic code, or converted to UPF format
     Using radial grid of  851 points,  6 beta functions with: 
                l(1) =   0
                l(2) =   0
                l(3) =   1
                l(4) =   1
                l(5) =   2
                l(6) =   2
     Q(r) pseudized with  6 coefficients,  rinner =    1.000   1.000   1.000
                                                       1.000   1.000

     PseudoPot. # 3 for O  read from file:
     /scratch/11018/zhc/assisgnment3/input_files/O_LDA.UPF
     MD5 check sum: 194b818514d2a7dbb603bb78519a4f40
     Pseudo is Ultrasoft + core correction, Zval =  6.0
     Generated by new atomic code, or converted to UPF format
     Using radial grid of  737 points,  5 beta functions with: 
                l(1) =   0
                l(2) =   0
                l(3) =   1
                l(4) =   1
                l(5) =   2
     Q(r) pseudized with  8 coefficients,  rinner =    0.900   0.900   0.900
                                                       0.900   0.900

     atomic species   valence    mass     pseudopotential
     Pb               14.00   207.20000     Pb( 1.00)
     Ti               12.00    47.88000     Ti( 1.00)
     O                 6.00    16.00000     O ( 1.00)

      8 Sym. Ops. (no inversion) found



   Cartesian axes

     site n.     atom                  positions (alat units)
         1        Pb     tau(   1) = (   0.0000000   0.0000000   1.0627557  )
         2        Ti     tau(   2) = (   0.5000000   0.5000000   0.5704419  )
         3        O      tau(   3) = (   0.5000000   0.5000000   0.1052083  )
         4        O      tau(   4) = (   0.5000000   0.0000000   0.6465661  )
         5        O      tau(   5) = (   0.0000000   0.5000000   0.6465661  )

     number of k points=    30
                       cart. coord. in units 2pi/alat
        k(    1) = (   0.0000000   0.0000000   0.0000000), wk =   0.0138889
        k(    2) = (   0.0000000   0.0000000   0.2364546), wk =   0.0277778
        k(    3) = (   0.0000000   0.0000000  -0.4729092), wk =   0.0138889
        k(    4) = (   0.0000000   0.1666667   0.0000000), wk =   0.0555556
        k(    5) = (   0.0000000   0.1666667   0.2364546), wk =   0.1111111
        k(    6) = (   0.0000000   0.1666667  -0.4729092), wk =   0.0555556
        k(    7) = (   0.0000000   0.3333333   0.0000000), wk =   0.0555556
        k(    8) = (   0.0000000   0.3333333   0.2364546), wk =   0.1111111
        k(    9) = (   0.0000000   0.3333333  -0.4729092), wk =   0.0555556
        k(   10) = (   0.0000000  -0.5000000   0.0000000), wk =   0.0277778
        k(   11) = (   0.0000000  -0.5000000   0.2364546), wk =   0.0555556
        k(   12) = (   0.0000000  -0.5000000  -0.4729092), wk =   0.0277778
        k(   13) = (   0.1666667   0.1666667   0.0000000), wk =   0.0555556
        k(   14) = (   0.1666667   0.1666667   0.2364546), wk =   0.1111111
        k(   15) = (   0.1666667   0.1666667  -0.4729092), wk =   0.0555556
        k(   16) = (   0.1666667   0.3333333   0.0000000), wk =   0.1111111
        k(   17) = (   0.1666667   0.3333333   0.2364546), wk =   0.2222222
        k(   18) = (   0.1666667   0.3333333  -0.4729092), wk =   0.1111111
        k(   19) = (   0.1666667  -0.5000000   0.0000000), wk =   0.0555556
        k(   20) = (   0.1666667  -0.5000000   0.2364546), wk =   0.1111111
        k(   21) = (   0.1666667  -0.5000000  -0.4729092), wk =   0.0555556
        k(   22) = (   0.3333333   0.3333333   0.0000000), wk =   0.0555556
        k(   23) = (   0.3333333   0.3333333   0.2364546), wk =   0.1111111
        k(   24) = (   0.3333333   0.3333333  -0.4729092), wk =   0.0555556
        k(   25) = (   0.3333333  -0.5000000   0.0000000), wk =   0.0555556
        k(   26) = (   0.3333333  -0.5000000   0.2364546), wk =   0.1111111
        k(   27) = (   0.3333333  -0.5000000  -0.4729092), wk =   0.0555556
        k(   28) = (  -0.5000000  -0.5000000   0.0000000), wk =   0.0138889
        k(   29) = (  -0.5000000  -0.5000000   0.2364546), wk =   0.0277778
        k(   30) = (  -0.5000000  -0.5000000  -0.4729092), wk =   0.0138889

     Dense  grid:    76779 G-vectors     FFT dimensions: (  54,  54,  60)

     Smooth grid:    19415 G-vectors     FFT dimensions: (  36,  36,  36)

     Estimated max dynamical RAM per process >      36.54 MB

     Estimated total dynamical RAM >     365.42 MB

     Check: negative core charge=   -0.000004

     Initial potential from superposition of free atoms

     starting charge      42.9982, renormalised to      44.0000

     negative rho (up, down):  1.667E-02 0.000E+00
     Starting wfcs are   31 randomized atomic wfcs

     total cpu time spent up to now is        0.7 secs

     Self-consistent Calculation

     iteration #  1     ecut=    50.00 Ry     beta= 0.70
     CG style diagonalization
     ethr =  1.00E-02,  avg # of iterations =  2.1

     negative rho (up, down):  1.400E-02 0.000E+00

     total cpu time spent up to now is        1.2 secs

     total energy              =    -380.06201046 Ry
     estimated scf accuracy    <       1.02194200 Ry

     iteration #  2     ecut=    50.00 Ry     beta= 0.70
     CG style diagonalization
     ethr =  2.32E-03,  avg # of iterations =  4.8

     negative rho (up, down):  1.449E-02 0.000E+00

     total cpu time spent up to now is        2.2 secs

     total energy              =    -379.75186049 Ry
     estimated scf accuracy    <       3.94007187 Ry

     iteration #  3     ecut=    50.00 Ry     beta= 0.70
     CG style diagonalization
     ethr =  2.32E-03,  avg # of iterations =  4.3

     negative rho (up, down):  1.511E-02 0.000E+00

     total cpu time spent up to now is        3.0 secs

     total energy              =    -380.53629690 Ry
     estimated scf accuracy    <       0.31645563 Ry

     iteration #  4     ecut=    50.00 Ry     beta= 0.70
     CG style diagonalization
     ethr =  7.19E-04,  avg # of iterations =  3.4

     negative rho (up, down):  1.510E-02 0.000E+00

     total cpu time spent up to now is        3.7 secs

     total energy              =    -380.56017778 Ry
     estimated scf accuracy    <       0.04265446 Ry

     iteration #  5     ecut=    50.00 Ry     beta= 0.70
     CG style diagonalization
     ethr =  9.69E-05,  avg # of iterations =  3.8

     negative rho (up, down):  1.510E-02 0.000E+00

     total cpu time spent up to now is        4.4 secs

     total energy              =    -380.57125499 Ry
     estimated scf accuracy    <       0.00830966 Ry

     iteration #  6     ecut=    50.00 Ry     beta= 0.70
     CG style diagonalization
     ethr =  1.89E-05,  avg # of iterations =  3.9

     negative rho (up, down):  1.511E-02 0.000E+00

     total cpu time spent up to now is        5.2 secs

     total energy              =    -380.57358382 Ry
     estimated scf accuracy    <       0.00609727 Ry

     iteration #  7     ecut=    50.00 Ry     beta= 0.70
     CG style diagonalization
     ethr =  1.39E-05,  avg # of iterations =  3.2

     negative rho (up, down):  1.512E-02 0.000E+00

     total cpu time spent up to now is        5.8 secs

     total energy              =    -380.57352824 Ry
     estimated scf accuracy    <       0.00171843 Ry

     iteration #  8     ecut=    50.00 Ry     beta= 0.70
     CG style diagonalization
     ethr =  3.91E-06,  avg # of iterations =  3.6

     negative rho (up, down):  1.515E-02 0.000E+00

     total cpu time spent up to now is        6.6 secs

     total energy              =    -380.57390889 Ry
     estimated scf accuracy    <       0.00000937 Ry

     iteration #  9     ecut=    50.00 Ry     beta= 0.70
     CG style diagonalization
     c_bands:  1 eigenvalues not converged
     c_bands:  1 eigenvalues not converged
     ethr =  2.13E-08,  avg # of iterations =  7.7

     negative rho (up, down):  1.518E-02 0.000E+00

     total cpu time spent up to now is        8.1 secs

     total energy              =    -380.57396876 Ry
     estimated scf accuracy    <       0.00002893 Ry

     iteration # 10     ecut=    50.00 Ry     beta= 0.70
     CG style diagonalization
     ethr =  2.13E-08,  avg # of iterations =  3.4

     negative rho (up, down):  1.530E-02 0.000E+00

     total cpu time spent up to now is        8.7 secs

     total energy              =    -380.57396233 Ry
     estimated scf accuracy    <       0.00001802 Ry

     iteration # 11     ecut=    50.00 Ry     beta= 0.70
     CG style diagonalization
     ethr =  2.13E-08,  avg # of iterations =  4.1

     negative rho (up, down):  1.529E-02 0.000E+00

     total cpu time spent up to now is        9.5 secs

     total energy              =    -380.57396662 Ry
     estimated scf accuracy    <       0.00000179 Ry

     iteration # 12     ecut=    50.00 Ry     beta= 0.70
     CG style diagonalization
     ethr =  4.06E-09,  avg # of iterations =  4.6

     negative rho (up, down):  1.529E-02 0.000E+00

     total cpu time spent up to now is       10.4 secs

     total energy              =    -380.57396745 Ry
     estimated scf accuracy    <       0.00000011 Ry

     iteration # 13     ecut=    50.00 Ry     beta= 0.70
     CG style diagonalization
     ethr =  2.45E-10,  avg # of iterations =  9.0

     negative rho (up, down):  1.529E-02 0.000E+00

     total cpu time spent up to now is       12.2 secs

     total energy              =    -380.57396804 Ry
     estimated scf accuracy    <       0.00000004 Ry

     iteration # 14     ecut=    50.00 Ry     beta= 0.70
     CG style diagonalization
     ethr =  1.01E-10,  avg # of iterations =  5.0

     negative rho (up, down):  1.530E-02 0.000E+00

     total cpu time spent up to now is       13.1 secs

     End of self-consistent calculation

          k = 0.0000 0.0000 0.0000 (  2421 PWs)   bands (ev):

   -45.1743 -21.8473 -21.7731 -21.7731  -7.1719  -6.0194  -5.7527  -4.4115
    -4.4115  -4.3698  -4.2476  -4.1497   4.8291   6.7461   6.7461   7.0911
     8.7158   8.7158   8.9359   9.2887   9.4488   9.4488

          k = 0.0000 0.0000 0.2365 (  2449 PWs)   bands (ev):

   -45.1740 -21.8696 -21.7723 -21.7723  -6.9699  -5.9594  -5.6868  -4.4286
    -4.4286  -4.3683  -4.2378  -4.2249   3.9733   6.7999   6.7999   7.3165
     8.4687   8.4687   8.8568   9.3659   9.5651   9.5651

          k = 0.0000 0.0000-0.4729 (  2402 PWs)   bands (ev):

   -45.1737 -21.8917 -21.7714 -21.7714  -6.7501  -5.8939  -5.6281  -4.4455
    -4.4455  -4.3669  -4.3055  -4.2299   3.4351   6.6451   6.8342   6.8342
     8.3139   8.3139   8.7815   9.6396   9.6396  10.6257

          k = 0.0000 0.1667 0.0000 (  2419 PWs)   bands (ev):

   -45.1740 -21.8464 -21.7940 -21.7723  -7.0256  -5.9848  -5.7206  -4.4360
    -4.4099  -4.3849  -4.2515  -4.1365   4.3474   6.7889   6.8553   7.1250
     8.6746   8.7420   8.9482   9.0667   9.1685   9.5610

          k = 0.0000 0.1667 0.2365 (  2431 PWs)   bands (ev):

   -45.1736 -21.8685 -21.7930 -21.7714  -6.8400  -5.9404  -5.6488  -4.4348
    -4.4276  -4.3841  -4.2479  -4.1743   3.7409   6.5858   6.9205   7.3881
     8.1405   8.4527   8.7702   9.1586   9.2330   9.9245

          k = 0.0000 0.1667-0.4729 (  2426 PWs)   bands (ev):

   -45.1733 -21.8905 -21.7920 -21.7705  -6.6477  -5.8901  -5.5752  -4.4451
    -4.4314  -4.3833  -4.2554  -4.2069   3.2897   6.2861   6.9612   7.0474
     7.9426   8.3053   8.8347   9.2234   9.3135  10.5543

          k = 0.0000 0.3333 0.0000 (  2434 PWs)   bands (ev):

   -45.1732 -21.8452 -21.8348 -21.7705  -6.7088  -5.9088  -5.6721  -4.4731
    -4.4151  -4.4065  -4.2489  -4.1386   3.7227   6.4170   7.0713   7.1335
     8.3209   8.3658   8.7966   8.8582   9.2853  10.2285

          k = 0.0000 0.3333 0.2365 (  2417 PWs)   bands (ev):

   -45.1728 -21.8664 -21.8341 -21.7696  -6.5898  -5.8670  -5.5782  -4.4410
    -4.4256  -4.4153  -4.2432  -4.1121   3.3554   6.2930   6.9957   7.2326
     7.7693   8.1942   8.3455   8.9131   9.4115  10.3039

          k = 0.0000 0.3333-0.4729 (  2418 PWs)   bands (ev):

   -45.1725 -21.8880 -21.8329 -21.7686  -6.5006  -5.8013  -5.4561  -4.4442
    -4.4157  -4.4014  -4.2795  -4.0591   3.0354   5.9900   6.7622   7.2798
     7.6594   7.8188   8.1324   8.9444   9.8812  10.1064

          k = 0.0000-0.5000 0.0000 (  2420 PWs)   bands (ev):

   -45.1728 -21.8562 -21.8434 -21.7696  -6.5353  -5.8498  -5.6757  -4.4891
    -4.4299  -4.4049  -4.2252  -4.1682   3.5040   6.0308   7.3423   7.3710
     7.8128   7.9862   8.7182   8.9000   9.3151  11.0371

          k = 0.0000-0.5000 0.2365 (  2422 PWs)   bands (ev):

   -45.1725 -21.8650 -21.8548 -21.7687  -6.4819  -5.7753  -5.5692  -4.4535
    -4.4308  -4.4244  -4.2108  -4.1067   3.2042   6.0039   7.0324   7.2744
     7.5735   7.7915   8.4528   8.8962   9.4028  10.5240

          k = 0.0000-0.5000-0.4729 (  2436 PWs)   bands (ev):

   -45.1721 -21.8865 -21.8534 -21.7677  -6.4656  -5.6957  -5.4003  -4.4438
    -4.4318  -4.4105  -4.2654  -3.9976   2.9341   5.8398   6.4556   7.3397
     7.6160   7.7926   7.8335   8.8933   9.8050  10.1618

          k = 0.1667 0.1667 0.0000 (  2433 PWs)   bands (ev):

   -45.1736 -21.8456 -21.7932 -21.7928  -6.8813  -5.9494  -5.7114  -4.4412
    -4.4265  -4.3891  -4.2276  -4.1245   4.0205   6.7229   6.9555   7.1852
     8.1901   8.3069   9.0331   9.0882   9.3907   9.8027

          k = 0.1667 0.1667 0.2365 (  2423 PWs)   bands (ev):

   -45.1732 -21.8675 -21.7922 -21.7919  -6.7069  -5.9244  -5.6396  -4.4445
    -4.4211  -4.3832  -4.2183  -4.1395   3.6184   6.5026   6.6101   7.3327
     8.0245   8.0494   8.8612   9.2188   9.4670   9.8990

          k = 0.1667 0.1667-0.4729 (  2428 PWs)   bands (ev):

   -45.1729 -21.8893 -21.7911 -21.7910  -6.5328  -5.8992  -5.5566  -4.4572
    -4.3991  -4.3620  -4.2247  -4.1603   3.2561   6.2899   6.3603   7.0242
     7.9400   7.9689   8.7710   9.2969   9.5260  10.2590

          k = 0.1667 0.3333 0.0000 (  2419 PWs)   bands (ev):

   -45.1728 -21.8443 -21.8337 -21.7911  -6.5719  -5.8757  -5.7084  -4.4657
    -4.4150  -4.3733  -4.2038  -4.1272   3.5116   6.4157   6.9658   7.2510
     7.6461   8.2427   8.5368   9.2244   9.4092  10.3089

          k = 0.1667 0.3333 0.2365 (  2423 PWs)   bands (ev):

   -45.1725 -21.8654 -21.8330 -21.7901  -6.4496  -5.8665  -5.6280  -4.4418
    -4.4154  -4.3498  -4.1849  -4.0858   3.3618   6.2426   6.3775   6.9371
     7.3927   8.0826   8.8993   9.1844   9.5112  10.0155

          k = 0.1667 0.3333-0.4729 (  2420 PWs)   bands (ev):

   -45.1721 -21.8869 -21.8319 -21.7892  -6.3629  -5.8438  -5.5108  -4.4389
    -4.3900  -4.3101  -4.1984  -4.0316   3.1700   5.9042   6.3135   6.6537
     6.8745   7.9390   9.0305   9.2287   9.5180   9.9458

          k = 0.1667-0.5000 0.0000 (  2416 PWs)   bands (ev):

   -45.1724 -21.8550 -21.8425 -21.7901  -6.4036  -5.8196  -5.7346  -4.4686
    -4.4069  -4.3507  -4.1874  -4.1584   3.3133   6.0498   7.0798   7.3087
     7.5954   7.9523   8.4169   9.2599   9.4016  10.6337

          k = 0.1667-0.5000 0.2365 (  2418 PWs)   bands (ev):

   -45.1721 -21.8641 -21.8537 -21.7892  -6.3402  -5.7854  -5.6492  -4.4400
    -4.4017  -4.3263  -4.1648  -4.0780   3.2447   6.0091   6.2715   6.6822
     7.3582   8.2282   8.6587   9.1961   9.5114   9.9865

          k = 0.1667-0.5000-0.4729 (  2412 PWs)   bands (ev):

   -45.1718 -21.8855 -21.8524 -21.7882  -6.3267  -5.7526  -5.4935  -4.4337
    -4.3592  -4.3035  -4.1836  -3.9707   3.1300   5.7941   6.1405   6.2908
     6.7529   8.0516   8.8862   9.1549   9.1743  10.1641

          k = 0.3333 0.3333 0.0000 (  2432 PWs)   bands (ev):

   -45.1720 -21.8428 -21.8320 -21.8311  -6.3005  -5.8088  -5.7636  -4.4447
    -4.3947  -4.3011  -4.1284  -4.1187   3.1120   6.4044   6.4916   7.3622
     7.5124   7.6780   8.3277   9.0625   9.8941  10.0246

          k = 0.3333 0.3333 0.2365 (  2428 PWs)   bands (ev):

   -45.1717 -21.8634 -21.8309 -21.8309  -6.1702  -5.8566  -5.7185  -4.4037
    -4.3874  -4.2400  -4.0737  -4.0490   3.2954   5.9519   6.0258   6.4048
     7.0433   7.5637   8.9562   9.4684   9.5256   9.9094

          k = 0.3333 0.3333-0.4729 (  2436 PWs)   bands (ev):

   -45.1714 -21.8847 -21.8300 -21.8299  -6.1031  -5.9010  -5.5988  -4.3803
    -4.3628  -4.1738  -4.0272  -3.9718   3.4542   5.5582   5.5713   6.1674
     6.8183   6.9557   8.2282   9.8599   9.8771  10.0357

          k = 0.3333-0.5000 0.0000 (  2458 PWs)   bands (ev):

   -45.1716 -21.8526 -21.8411 -21.8304  -6.1772  -5.7825  -5.7642  -4.4361
    -4.3702  -4.2362  -4.1612  -4.0825   2.9275   6.0459   6.5368   7.1789
     7.7198   7.8199   7.9492   9.0297   9.6928  10.0966

          k = 0.3333-0.5000 0.2365 (  2434 PWs)   bands (ev):

   -45.1713 -21.8621 -21.8515 -21.8299  -6.0508  -5.8101  -5.7778  -4.3942
    -4.3583  -4.1432  -4.0792  -4.0123   3.2239   5.8465   5.9937   6.0648
     6.8252   7.6399   8.4769   9.4665   9.4981  10.0692

          k = 0.3333-0.5000-0.4729 (  2416 PWs)   bands (ev):

   -45.1710 -21.8834 -21.8503 -21.8290  -6.0427  -5.8529  -5.6377  -4.3636
    -4.3371  -4.0778  -3.9960  -3.9131   3.5953   5.2832   5.4874   5.9087
     6.5726   6.9870   7.4360   9.9603  10.0416  10.1884

          k =-0.5000-0.5000 0.0000 (  2480 PWs)   bands (ev):

   -45.1712 -21.8514 -21.8514 -21.8393  -6.1187  -5.7395  -5.7395  -4.4248
    -4.3212  -4.1828  -4.1828  -4.0280   2.7369   5.8962   6.3633   7.4001
     7.4001   7.9403   7.9403   8.7973   9.1908  10.3617

          k =-0.5000-0.5000 0.2365 (  2408 PWs)   bands (ev):

   -45.1709 -21.8608 -21.8504 -21.8504  -5.9114  -5.8241  -5.8241  -4.3817
    -4.3191  -4.0384  -4.0384  -3.9941   3.1480   5.8534   5.9767   5.9767
     6.3696   7.5832   7.8122   9.4918   9.4918  10.3447

          k =-0.5000-0.5000-0.4729 (  2400 PWs)   bands (ev):

   -45.1706 -21.8822 -21.8493 -21.8493  -5.8981  -5.8981  -5.6981  -4.3385
    -4.3171  -3.9492  -3.9022  -3.9022   3.8111   5.3215   5.3215   5.7414
     6.3760   6.4142   6.6993  10.2007  10.2007  10.3277

     highest occupied level (ev):    11.0371

!    total energy              =    -380.57396807 Ry
     estimated scf accuracy    <          1.3E-09 Ry

     The total energy is the sum of the following terms:
     one-electron contribution =     -79.75670878 Ry
     hartree contribution      =      69.95601425 Ry
     xc contribution           =    -102.67737113 Ry
     ewald contribution        =    -268.09590240 Ry

     convergence has been achieved in  14 iterations

     negative rho (up, down):  1.530E-02 0.000E+00

     Forces acting on atoms (cartesian axes, Ry/au):

     atom    1 type  1   force =     0.00000000    0.00000000    0.00040615
     atom    2 type  2   force =     0.00000000    0.00000000   -0.00489268
     atom    3 type  3   force =     0.00000000    0.00000000    0.00410859
     atom    4 type  3   force =     0.00000000    0.00000000    0.00018897
     atom    5 type  3   force =     0.00000000    0.00000000    0.00018897

     Total force =     0.006407     Total SCF correction =     0.000173


     Computing stress (Cartesian axis) and pressure


     negative rho (up, down):  1.530E-02 0.000E+00
          total   stress  (Ry/bohr**3)                   (kbar)     P=        0.24
   0.00002895   0.00000000   0.00000000            4.26        0.00        0.00
   0.00000000   0.00002895   0.00000000            0.00        4.26        0.00
   0.00000000   0.00000000  -0.00005309            0.00        0.00       -7.81


     BFGS Geometry Optimization
     Energy error            =      0.0E+00 Ry
     Gradient error          =      4.9E-03 Ry/Bohr

     number of scf cycles    =   1
     number of bfgs steps    =   0

     energy             new  =    -380.5739680680 Ry

     new trust radius        =       0.0048926804 bohr
     new conv_thr            =       0.0000000100 Ry


ATOMIC_POSITIONS (crystal)
Pb               0.0000000000        0.0000000000        1.0052266591
Ti               0.5000000000        0.5000000000        0.5388980115
O                0.5000000000        0.5000000000        0.1000423297
O                0.5000000000        0.0000000000        0.6115586438
O                0.0000000000        0.5000000000        0.6115586438



     Writing config-only to output data dir ./pto_tetragonal_etam0p002.save/ :
     XML data file
     NEW-OLD atomic charge density approx. for the potential

     Check: negative core charge=   -0.000004

     negative rho (up, down):  1.529E-02 0.000E+00

     total cpu time spent up to now is       14.3 secs

     Self-consistent Calculation

     iteration #  1     ecut=    50.00 Ry     beta= 0.70
     CG style diagonalization
     ethr =  1.00E-06,  avg # of iterations =  3.6

     Threshold (ethr) on eigenvalues was too large:
     Diagonalizing with lowered threshold

     CG style diagonalization
     c_bands:  1 eigenvalues not converged
     c_bands:  1 eigenvalues not converged
     c_bands:  3 eigenvalues not converged
     c_bands:  1 eigenvalues not converged
     c_bands:  1 eigenvalues not converged
     c_bands:  1 eigenvalues not converged
     c_bands:  1 eigenvalues not converged
     ethr =  3.75E-08,  avg # of iterations =  5.2

     negative rho (up, down):  1.529E-02 0.000E+00

     total cpu time spent up to now is       16.2 secs

     total energy              =    -380.57398890 Ry
     estimated scf accuracy    <       0.00001749 Ry

     iteration #  2     ecut=    50.00 Ry     beta= 0.70
     CG style diagonalization
     ethr =  3.98E-08,  avg # of iterations =  4.5

     negative rho (up, down):  1.529E-02 0.000E+00

     total cpu time spent up to now is       17.1 secs

     total energy              =    -380.57398697 Ry
     estimated scf accuracy    <       0.00004360 Ry

     iteration #  3     ecut=    50.00 Ry     beta= 0.70
     CG style diagonalization
     ethr =  3.98E-08,  avg # of iterations =  4.2

     negative rho (up, down):  1.529E-02 0.000E+00

     total cpu time spent up to now is       17.9 secs

     total energy              =    -380.57399586 Ry
     estimated scf accuracy    <       0.00000410 Ry

     iteration #  4     ecut=    50.00 Ry     beta= 0.70
     CG style diagonalization
     ethr =  9.33E-09,  avg # of iterations =  3.6

     negative rho (up, down):  1.529E-02 0.000E+00

     total cpu time spent up to now is       18.6 secs

     total energy              =    -380.57399686 Ry
     estimated scf accuracy    <       0.00000037 Ry

     iteration #  5     ecut=    50.00 Ry     beta= 0.70
     CG style diagonalization
     ethr =  8.33E-10,  avg # of iterations =  4.4

     negative rho (up, down):  1.529E-02 0.000E+00

     total cpu time spent up to now is       19.5 secs

     total energy              =    -380.57399709 Ry
     estimated scf accuracy    <       0.00000003 Ry

     iteration #  6     ecut=    50.00 Ry     beta= 0.70
     CG style diagonalization
     ethr =  6.02E-11,  avg # of iterations =  4.7

     negative rho (up, down):  1.529E-02 0.000E+00

     total cpu time spent up to now is       20.4 secs

     total energy              =    -380.57399711 Ry
     estimated scf accuracy    <       0.00000002 Ry

     iteration #  7     ecut=    50.00 Ry     beta= 0.70
     CG style diagonalization
     ethr =  5.63E-11,  avg # of iterations =  3.8

     negative rho (up, down):  1.529E-02 0.000E+00

     total cpu time spent up to now is       21.2 secs

     total energy              =    -380.57399711 Ry
     estimated scf accuracy    <       0.00000001 Ry

     iteration #  8     ecut=    50.00 Ry     beta= 0.70
     CG style diagonalization
     ethr =  2.29E-11,  avg # of iterations =  4.2

     negative rho (up, down):  1.529E-02 0.000E+00

     total cpu time spent up to now is       22.0 secs

     End of self-consistent calculation

          k = 0.0000 0.0000 0.0000 (  2421 PWs)   bands (ev):

   -45.1641 -21.8441 -21.7624 -21.7624  -7.1692  -6.0143  -5.7559  -4.4130
    -4.4130  -4.3720  -4.2497  -4.1506   4.8272   6.7482   6.7482   7.0958
     8.6942   8.6942   8.9366   9.2724   9.4533   9.4533

          k = 0.0000 0.0000 0.2365 (  2449 PWs)   bands (ev):

   -45.1638 -21.8664 -21.7615 -21.7615  -6.9659  -5.9541  -5.6911  -4.4301
    -4.4301  -4.3706  -4.2402  -4.2260   3.9686   6.7982   6.7982   7.3192
     8.4564   8.4564   8.8573   9.3607   9.5689   9.5689

          k = 0.0000 0.0000-0.4729 (  2402 PWs)   bands (ev):

   -45.1635 -21.8885 -21.7606 -21.7606  -6.7442  -5.8882  -5.6339  -4.4470
    -4.4470  -4.3691  -4.3069  -4.2324   3.4276   6.6483   6.8277   6.8277
     8.3097   8.3097   8.7819   9.6436   9.6436  10.6276

          k = 0.0000 0.1667 0.0000 (  2419 PWs)   bands (ev):

   -45.1637 -21.8432 -21.7832 -21.7615  -7.0230  -5.9800  -5.7240  -4.4377
    -4.4114  -4.3872  -4.2535  -4.1374   4.3464   6.7912   6.8578   7.1255
     8.6668   8.7212   8.9454   9.0703   9.1639   9.5545

          k = 0.0000 0.1667 0.2365 (  2431 PWs)   bands (ev):

   -45.1634 -21.8653 -21.7822 -21.7606  -6.8362  -5.9354  -5.6532  -4.4365
    -4.4291  -4.3863  -4.2500  -4.1753   3.7374   6.5838   6.9194   7.3902
     8.1354   8.4414   8.7720   9.1537   9.2355   9.9247

          k = 0.0000 0.1667-0.4729 (  2426 PWs)   bands (ev):

   -45.1631 -21.8873 -21.7812 -21.7597  -6.6421  -5.8850  -5.5810  -4.4466
    -4.4331  -4.3855  -4.2576  -4.2081   3.2840   6.2814   6.9551   7.0509
     7.9414   8.3013   8.8396   9.2183   9.3172  10.5571

          k = 0.0000 0.3333 0.0000 (  2434 PWs)   bands (ev):

   -45.1629 -21.8416 -21.8244 -21.7597  -6.7064  -5.9048  -5.6757  -4.4747
    -4.4173  -4.4080  -4.2504  -4.1397   3.7219   6.4214   7.0716   7.1374
     8.3233   8.3692   8.7977   8.8360   9.2751  10.2230

          k = 0.0000 0.3333 0.2365 (  2417 PWs)   bands (ev):

   -45.1626 -21.8632 -21.8233 -21.7588  -6.5858  -5.8634  -5.5831  -4.4426
    -4.4271  -4.4175  -4.2449  -4.1129   3.3537   6.2944   6.9964   7.2331
     7.7714   8.1905   8.3457   8.9059   9.4082  10.3007

          k = 0.0000 0.3333-0.4729 (  2418 PWs)   bands (ev):

   -45.1623 -21.8848 -21.8221 -21.7578  -6.4954  -5.7975  -5.4624  -4.4457
    -4.4180  -4.4030  -4.2814  -4.0597   3.0328   5.9849   6.7682   7.2746
     7.6610   7.8241   8.1317   8.9437   9.8701  10.1104

          k = 0.0000-0.5000 0.0000 (  2420 PWs)   bands (ev):

   -45.1625 -21.8454 -21.8402 -21.7589  -6.5326  -5.8464  -5.6797  -4.4906
    -4.4321  -4.4064  -4.2264  -4.1697   3.5029   6.0388   7.3402   7.3769
     7.8182   7.9883   8.7192   8.8769   9.3046  11.0320

          k = 0.0000-0.5000 0.2365 (  2422 PWs)   bands (ev):

   -45.1622 -21.8618 -21.8440 -21.7579  -6.4776  -5.7719  -5.5751  -4.4550
    -4.4331  -4.4259  -4.2123  -4.1075   3.2030   6.0101   7.0320   7.2751
     7.5799   7.7857   8.4533   8.8851   9.4023  10.5174

          k = 0.0000-0.5000-0.4729 (  2436 PWs)   bands (ev):

   -45.1619 -21.8833 -21.8426 -21.7569  -6.4605  -5.6922  -5.4073  -4.4452
    -4.4340  -4.4119  -4.2671  -3.9982   2.9329   5.8389   6.4584   7.3423
     7.6060   7.7995   7.8391   8.8897   9.8050  10.1523

          k = 0.1667 0.1667 0.0000 (  2433 PWs)   bands (ev):

   -45.1633 -21.8424 -21.7824 -21.7820  -6.8791  -5.9447  -5.7147  -4.4428
    -4.4281  -4.3912  -4.2296  -4.1254   4.0202   6.7264   6.9584   7.1828
     8.1751   8.3085   9.0345   9.0782   9.3958   9.7894

          k = 0.1667 0.1667 0.2365 (  2423 PWs)   bands (ev):

   -45.1630 -21.8643 -21.7814 -21.7811  -6.7034  -5.9196  -5.6442  -4.4463
    -4.4228  -4.3851  -4.2204  -4.1404   3.6158   6.5007   6.6098   7.3321
     8.0217   8.0519   8.8501   9.2184   9.4690   9.8983

          k = 0.1667 0.1667-0.4729 (  2428 PWs)   bands (ev):

   -45.1627 -21.8862 -21.7804 -21.7802  -6.5275  -5.8944  -5.5627  -4.4591
    -4.4011  -4.3634  -4.2271  -4.1612   3.2514   6.2848   6.3570   7.0296
     7.9398   7.9720   8.7633   9.2971   9.5265  10.2616

          k = 0.1667 0.3333 0.0000 (  2419 PWs)   bands (ev):

   -45.1625 -21.8407 -21.8232 -21.7803  -6.5703  -5.8717  -5.7113  -4.4672
    -4.4166  -4.3754  -4.2057  -4.1283   3.5117   6.4211   6.9643   7.2551
     7.6467   8.2278   8.5403   9.2216   9.4084  10.3012

          k = 0.1667 0.3333 0.2365 (  2423 PWs)   bands (ev):

   -45.1622 -21.8622 -21.8223 -21.7794  -6.4462  -5.8628  -5.6325  -4.4435
    -4.4170  -4.3520  -4.1867  -4.0866   3.3608   6.2433   6.3779   6.9390
     7.3923   8.0837   8.8985   9.1795   9.5091  10.0121

          k = 0.1667 0.3333-0.4729 (  2420 PWs)   bands (ev):

   -45.1619 -21.8837 -21.8212 -21.7784  -6.3581  -5.8400  -5.5169  -4.4408
    -4.3918  -4.3121  -4.2002  -4.0322   3.1677   5.8993   6.3153   6.6546
     6.8803   7.9434   9.0215   9.2326   9.5171   9.9410

          k = 0.1667-0.5000 0.0000 (  2416 PWs)   bands (ev):

   -45.1621 -21.8442 -21.8393 -21.7794  -6.4021  -5.8162  -5.7374  -4.4701
    -4.4085  -4.3531  -4.1889  -4.1598   3.3134   6.0578   7.0753   7.3131
     7.6016   7.9567   8.3963   9.2613   9.3969  10.6305

          k = 0.1667-0.5000 0.2365 (  2418 PWs)   bands (ev):

   -45.1618 -21.8609 -21.8429 -21.7784  -6.3366  -5.7821  -5.6543  -4.4417
    -4.4032  -4.3290  -4.1661  -4.0790   3.2443   6.0150   6.2732   6.6807
     7.3576   8.2284   8.6620   9.1873   9.5132   9.9792

          k = 0.1667-0.5000-0.4729 (  2412 PWs)   bands (ev):

   -45.1615 -21.8823 -21.8416 -21.7774  -6.3221  -5.7493  -5.4997  -4.4355
    -4.3605  -4.3066  -4.1849  -3.9713   3.1291   5.7914   6.1445   6.2940
     6.7534   8.0574   8.8858   9.1462   9.1772  10.1572

          k = 0.3333 0.3333 0.0000 (  2432 PWs)   bands (ev):

   -45.1617 -21.8390 -21.8212 -21.8209  -6.3014  -5.8049  -5.7644  -4.4461
    -4.3966  -4.3029  -4.1294  -4.1214   3.1133   6.4080   6.5001   7.3573
     7.5144   7.6622   8.3379   9.0602   9.8977  10.0203

          k = 0.3333 0.3333 0.2365 (  2428 PWs)   bands (ev):

   -45.1614 -21.8602 -21.8202 -21.8202  -6.1685  -5.8529  -5.7222  -4.4051
    -4.3894  -4.2422  -4.0761  -4.0498   3.2962   5.9512   6.0253   6.4083
     7.0493   7.5639   8.9557   9.4659   9.5175   9.9124

          k = 0.3333 0.3333-0.4729 (  2436 PWs)   bands (ev):

   -45.1611 -21.8815 -21.8192 -21.8192  -6.0993  -5.8976  -5.6044  -4.3823
    -4.3643  -4.1765  -4.0291  -3.9723   3.4537   5.5556   5.5735   6.1680
     6.8215   6.9653   8.2259   9.8520   9.8816  10.0301

          k = 0.3333-0.5000 0.0000 (  2458 PWs)   bands (ev):

   -45.1613 -21.8418 -21.8375 -21.8199  -6.1802  -5.7813  -5.7609  -4.4375
    -4.3721  -4.2378  -4.1623  -4.0854   2.9292   6.0527   6.5456   7.1699
     7.7066   7.8262   7.9526   9.0295   9.6917  10.1012

          k = 0.3333-0.5000 0.2365 (  2434 PWs)   bands (ev):

   -45.1610 -21.8589 -21.8407 -21.8191  -6.0497  -5.8070  -5.7807  -4.3957
    -4.3603  -4.1458  -4.0801  -4.0143   3.2256   5.8455   5.9964   6.0673
     6.8314   7.6397   8.4775   9.4616   9.4924  10.0732

          k = 0.3333-0.5000-0.4729 (  2416 PWs)   bands (ev):

   -45.1607 -21.8802 -21.8395 -21.8182  -6.0393  -5.8500  -5.6430  -4.3654
    -4.3387  -4.0816  -3.9966  -3.9141   3.5966   5.2849   5.4839   5.9135
     6.5779   6.9935   7.4333   9.9530  10.0466  10.1821

          k =-0.5000-0.5000 0.0000 (  2480 PWs)   bands (ev):

   -45.1609 -21.8406 -21.8406 -21.8361  -6.1242  -5.7362  -5.7362  -4.4262
    -4.3234  -4.1837  -4.1837  -4.0319   2.7391   5.9020   6.3755   7.3883
     7.3883   7.9453   7.9453   8.7962   9.1941  10.3667

          k =-0.5000-0.5000 0.2365 (  2408 PWs)   bands (ev):

   -45.1606 -21.8576 -21.8396 -21.8396  -5.9167  -5.8211  -5.8211  -4.3831
    -4.3213  -4.0391  -4.0391  -3.9984   3.1508   5.8592   5.9736   5.9736
     6.3818   7.5827   7.8130   9.4873   9.4873  10.3497

          k =-0.5000-0.5000-0.4729 (  2400 PWs)   bands (ev):

   -45.1603 -21.8790 -21.8385 -21.8385  -5.8953  -5.8953  -5.7031  -4.3399
    -4.3192  -3.9541  -3.9027  -3.9027   3.8156   5.3192   5.3192   5.7464
     6.3882   6.4124   6.6999  10.1946  10.1946  10.3327

     highest occupied level (ev):    11.0320

!    total energy              =    -380.57399711 Ry
     estimated scf accuracy    <          2.0E-09 Ry

     The total energy is the sum of the following terms:
     one-electron contribution =     -79.77932433 Ry
     hartree contribution      =      69.97020290 Ry
     xc contribution           =    -102.67948524 Ry
     ewald contribution        =    -268.08539045 Ry

     convergence has been achieved in   8 iterations

     negative rho (up, down):  1.529E-02 0.000E+00

     Forces acting on atoms (cartesian axes, Ry/au):

     atom    1 type  1   force =     0.00000000    0.00000000   -0.00022043
     atom    2 type  2   force =     0.00000000    0.00000000   -0.00202327
     atom    3 type  3   force =     0.00000000    0.00000000    0.00143785
     atom    4 type  3   force =     0.00000000    0.00000000    0.00040293
     atom    5 type  3   force =     0.00000000    0.00000000    0.00040293

     Total force =     0.002556     Total SCF correction =     0.000055


     Computing stress (Cartesian axis) and pressure


     negative rho (up, down):  1.529E-02 0.000E+00
          total   stress  (Ry/bohr**3)                   (kbar)     P=        1.47
   0.00002922   0.00000000   0.00000000            4.30        0.00        0.00
   0.00000000   0.00002922   0.00000000            0.00        4.30        0.00
   0.00000000   0.00000000  -0.00002839            0.00        0.00       -4.18

     Energy error            =      2.9E-05 Ry
     Gradient error          =      2.0E-03 Ry/Bohr

     number of scf cycles    =   2
     number of bfgs steps    =   1

     energy             old  =    -380.5739680680 Ry
     energy             new  =    -380.5739971131 Ry

     CASE: energy            _new < energy            _old

     new trust radius        =       0.0034248488 bohr
     new conv_thr            =            1.0E-10 Ry


ATOMIC_POSITIONS (crystal)
Pb               0.0000000000        0.0000000000        1.0051812882
Ti               0.5000000000        0.5000000000        0.5384525225
O                0.5000000000        0.5000000000        0.1003610467
O                0.5000000000        0.0000000000        0.6116447152
O                0.0000000000        0.5000000000        0.6116447152



     Writing config-only to output data dir ./pto_tetragonal_etam0p002.save/ :
     XML data file
     NEW-OLD atomic charge density approx. for the potential

     Check: negative core charge=   -0.000004

     negative rho (up, down):  1.528E-02 0.000E+00

     total cpu time spent up to now is       23.2 secs

     Self-consistent Calculation

     iteration #  1     ecut=    50.00 Ry     beta= 0.70
     CG style diagonalization
     ethr =  1.00E-06,  avg # of iterations =  3.0

     Threshold (ethr) on eigenvalues was too large:
     Diagonalizing with lowered threshold

     CG style diagonalization
     c_bands:  1 eigenvalues not converged
     c_bands:  1 eigenvalues not converged
     c_bands:  1 eigenvalues not converged
     c_bands:  1 eigenvalues not converged
     c_bands:  1 eigenvalues not converged
     c_bands:  1 eigenvalues not converged
     ethr =  1.35E-08,  avg # of iterations =  6.0

     negative rho (up, down):  1.528E-02 0.000E+00

     total cpu time spent up to now is       25.1 secs

     total energy              =    -380.57399890 Ry
     estimated scf accuracy    <       0.00000650 Ry

     iteration #  2     ecut=    50.00 Ry     beta= 0.70
     CG style diagonalization
     ethr =  1.48E-08,  avg # of iterations =  4.5

     negative rho (up, down):  1.528E-02 0.000E+00

     total cpu time spent up to now is       26.0 secs

     total energy              =    -380.57399821 Ry
     estimated scf accuracy    <       0.00001453 Ry

     iteration #  3     ecut=    50.00 Ry     beta= 0.70
     CG style diagonalization
     ethr =  1.48E-08,  avg # of iterations =  4.1

     negative rho (up, down):  1.528E-02 0.000E+00

     total cpu time spent up to now is       26.8 secs

     total energy              =    -380.57400124 Ry
     estimated scf accuracy    <       0.00000174 Ry

     iteration #  4     ecut=    50.00 Ry     beta= 0.70
     CG style diagonalization
     ethr =  3.96E-09,  avg # of iterations =  3.6

     negative rho (up, down):  1.528E-02 0.000E+00

     total cpu time spent up to now is       27.5 secs

     total energy              =    -380.57400164 Ry
     estimated scf accuracy    <       0.00000015 Ry

     iteration #  5     ecut=    50.00 Ry     beta= 0.70
     CG style diagonalization
     ethr =  3.46E-10,  avg # of iterations =  4.4

     negative rho (up, down):  1.528E-02 0.000E+00

     total cpu time spent up to now is       28.4 secs

     total energy              =    -380.57400173 Ry
     estimated scf accuracy    <       0.00000002 Ry

     iteration #  6     ecut=    50.00 Ry     beta= 0.70
     CG style diagonalization
     ethr =  3.56E-11,  avg # of iterations =  4.4

     negative rho (up, down):  1.528E-02 0.000E+00

     total cpu time spent up to now is       29.2 secs

     total energy              =    -380.57400174 Ry
     estimated scf accuracy    <          8.2E-09 Ry

     iteration #  7     ecut=    50.00 Ry     beta= 0.70
     CG style diagonalization
     ethr =  1.86E-11,  avg # of iterations =  4.1

     negative rho (up, down):  1.528E-02 0.000E+00

     total cpu time spent up to now is       30.0 secs

     total energy              =    -380.57400174 Ry
     estimated scf accuracy    <          4.1E-09 Ry

     iteration #  8     ecut=    50.00 Ry     beta= 0.70
     CG style diagonalization
     ethr =  9.41E-12,  avg # of iterations =  4.0

     negative rho (up, down):  1.528E-02 0.000E+00

     total cpu time spent up to now is       30.8 secs

     total energy              =    -380.57400175 Ry
     estimated scf accuracy    <          4.2E-10 Ry

     iteration #  9     ecut=    50.00 Ry     beta= 0.70
     CG style diagonalization
     ethr =  9.64E-13,  avg # of iterations =  5.6

     negative rho (up, down):  1.528E-02 0.000E+00

     total cpu time spent up to now is       31.9 secs

     End of self-consistent calculation

          k = 0.0000 0.0000 0.0000 (  2421 PWs)   bands (ev):

   -45.1576 -21.8421 -21.7555 -21.7555  -7.1681  -6.0117  -5.7577  -4.4134
    -4.4134  -4.3727  -4.2507  -4.1501   4.8263   6.7486   6.7486   7.0995
     8.6797   8.6797   8.9363   9.2615   9.4554   9.4554

          k = 0.0000 0.0000 0.2365 (  2449 PWs)   bands (ev):

   -45.1573 -21.8645 -21.7546 -21.7546  -6.9640  -5.9513  -5.6935  -4.4305
    -4.4305  -4.3713  -4.2412  -4.2256   3.9659   6.7958   6.7958   7.3213
     8.4484   8.4484   8.8569   9.3574   9.5706   9.5706

          k = 0.0000 0.0000-0.4729 (  2402 PWs)   bands (ev):

   -45.1570 -21.8866 -21.7537 -21.7537  -6.7413  -5.8853  -5.6372  -4.4473
    -4.4473  -4.3698  -4.3067  -4.2335   3.4232   6.6506   6.8218   6.8218
     8.3077   8.3077   8.7814   9.6454   9.6454  10.6289

          k = 0.0000 0.1667 0.0000 (  2419 PWs)   bands (ev):

   -45.1572 -21.8413 -21.7763 -21.7546  -7.0221  -5.9775  -5.7259  -4.4381
    -4.4118  -4.3879  -4.2542  -4.1369   4.3460   6.7925   6.8586   7.1256
     8.6617   8.7072   8.9431   9.0718   9.1601   9.5504

          k = 0.0000 0.1667 0.2365 (  2431 PWs)   bands (ev):

   -45.1569 -21.8634 -21.7753 -21.7537  -6.8344  -5.9330  -5.6558  -4.4369
    -4.4294  -4.3870  -4.2508  -4.1748   3.7356   6.5818   6.9173   7.3916
     8.1321   8.4340   8.7729   9.1499   9.2365   9.9249

          k = 0.0000 0.1667-0.4729 (  2426 PWs)   bands (ev):

   -45.1566 -21.8854 -21.7743 -21.7528  -6.6393  -5.8825  -5.5845  -4.4469
    -4.4335  -4.3863  -4.2583  -4.2079   3.2807   6.2777   6.9494   7.0528
     7.9410   8.2993   8.8419   9.2143   9.3191  10.5594

          k = 0.0000 0.3333 0.0000 (  2434 PWs)   bands (ev):

   -45.1564 -21.8396 -21.8175 -21.7528  -6.7055  -5.9031  -5.6780  -4.4751
    -4.4180  -4.4083  -4.2507  -4.1394   3.7216   6.4239   7.0721   7.1392
     8.3250   8.3707   8.7977   8.8209   9.2680  10.2199

          k = 0.0000 0.3333 0.2365 (  2417 PWs)   bands (ev):

   -45.1561 -21.8612 -21.8164 -21.7519  -6.5840  -5.8619  -5.5861  -4.4430
    -4.4274  -4.4182  -4.2453  -4.1125   3.3529   6.2949   6.9969   7.2324
     7.7726   8.1874   8.3457   8.9013   9.4056  10.2991

          k = 0.0000 0.3333-0.4729 (  2418 PWs)   bands (ev):

   -45.1558 -21.8829 -21.8152 -21.7509  -6.4927  -5.7961  -5.4663  -4.4460
    -4.4187  -4.4034  -4.2819  -4.0592   3.0316   5.9809   6.7727   7.2696
     7.6614   7.8271   8.1310   8.9435   9.8624  10.1140

          k = 0.0000-0.5000 0.0000 (  2420 PWs)   bands (ev):

   -45.1560 -21.8385 -21.8382 -21.7519  -6.5315  -5.8453  -5.6823  -4.4909
    -4.4328  -4.4067  -4.2261  -4.1699   3.5022   6.0440   7.3393   7.3802
     7.8214   7.9888   8.7190   8.8611   9.2973  11.0290

          k = 0.0000-0.5000 0.2365 (  2422 PWs)   bands (ev):

   -45.1557 -21.8599 -21.8371 -21.7510  -6.4755  -5.7708  -5.5788  -4.4553
    -4.4338  -4.4262  -4.2125  -4.1071   3.2026   6.0140   7.0317   7.2751
     7.5834   7.7806   8.4533   8.8780   9.4016  10.5135

          k = 0.0000-0.5000-0.4729 (  2436 PWs)   bands (ev):

   -45.1554 -21.8814 -21.8357 -21.7500  -6.4579  -5.6911  -5.4117  -4.4456
    -4.4347  -4.4121  -4.2673  -3.9976   2.9326   5.8377   6.4609   7.3431
     7.5980   7.8032   7.8427   8.8878   9.8059  10.1459

          k = 0.1667 0.1667 0.0000 (  2433 PWs)   bands (ev):

   -45.1568 -21.8404 -21.7755 -21.7751  -6.8784  -5.9424  -5.7167  -4.4432
    -4.4286  -4.3918  -4.2303  -4.1249   4.0200   6.7279   6.9604   7.1806
     8.1651   8.3090   9.0349   9.0718   9.3987   9.7807

          k = 0.1667 0.1667 0.2365 (  2423 PWs)   bands (ev):

   -45.1565 -21.8624 -21.7745 -21.7742  -6.7018  -5.9173  -5.6469  -4.4468
    -4.4232  -4.3857  -4.2212  -4.1399   3.6144   6.4985   6.6091   7.3314
     8.0203   8.0530   8.8427   9.2172   9.4699   9.8984

          k = 0.1667 0.1667-0.4729 (  2428 PWs)   bands (ev):

   -45.1562 -21.8843 -21.7735 -21.7733  -6.5250  -5.8920  -5.5664  -4.4596
    -4.4017  -4.3636  -4.2280  -4.1607   3.2487   6.2806   6.3543   7.0329
     7.9386   7.9746   8.7587   9.2964   9.5263  10.2639

          k = 0.1667 0.3333 0.0000 (  2419 PWs)   bands (ev):

   -45.1560 -21.8387 -21.8164 -21.7734  -6.5700  -5.8701  -5.7132  -4.4675
    -4.4170  -4.3761  -4.2062  -4.1280   3.5118   6.4244   6.9628   7.2578
     7.6465   8.2180   8.5428   9.2193   9.4075  10.2964

          k = 0.1667 0.3333 0.2365 (  2423 PWs)   bands (ev):

   -45.1557 -21.8603 -21.8154 -21.7725  -6.4448  -5.8614  -5.6354  -4.4439
    -4.4174  -4.3527  -4.1872  -4.0862   3.3603   6.2433   6.3778   6.9398
     7.3920   8.0847   8.8976   9.1760   9.5072  10.0103

          k = 0.1667 0.3333-0.4729 (  2420 PWs)   bands (ev):

   -45.1554 -21.8818 -21.8142 -21.7715  -6.3558  -5.8385  -5.5207  -4.4413
    -4.3923  -4.3128  -4.2007  -4.0317   3.1666   5.8955   6.3157   6.6551
     6.8841   7.9463   9.0155   9.2344   9.5172   9.9375

          k = 0.1667-0.5000 0.0000 (  2416 PWs)   bands (ev):

   -45.1556 -21.8373 -21.8373 -21.7725  -6.4018  -5.8151  -5.7393  -4.4704
    -4.4088  -4.3538  -4.1889  -4.1598   3.3133   6.0631   7.0720   7.3150
     7.6060   7.9596   8.3829   9.2614   9.3934  10.6288

          k = 0.1667-0.5000 0.2365 (  2418 PWs)   bands (ev):

   -45.1553 -21.8590 -21.8360 -21.7715  -6.3350  -5.7811  -5.6575  -4.4421
    -4.4035  -4.3301  -4.1661  -4.0787   3.2441   6.0187   6.2741   6.6794
     7.3569   8.2289   8.6640   9.1811   9.5139   9.9749

          k = 0.1667-0.5000-0.4729 (  2412 PWs)   bands (ev):

   -45.1550 -21.8804 -21.8346 -21.7705  -6.3198  -5.7483  -5.5035  -4.4360
    -4.3608  -4.3079  -4.1848  -3.9709   3.1289   5.7890   6.1463   6.2962
     6.7537   8.0612   8.8859   9.1402   9.1790  10.1525

          k = 0.3333 0.3333 0.0000 (  2432 PWs)   bands (ev):

   -45.1552 -21.8369 -21.8142 -21.8142  -6.3025  -5.8035  -5.7653  -4.4463
    -4.3971  -4.3033  -4.1290  -4.1224   3.1138   6.4098   6.5055   7.3535
     7.5164   7.6521   8.3447   9.0590   9.8992  10.0180

          k = 0.3333 0.3333 0.2365 (  2428 PWs)   bands (ev):

   -45.1549 -21.8582 -21.8134 -21.8132  -6.1682  -5.8515  -5.7245  -4.4054
    -4.3899  -4.2429  -4.0769  -4.0493   3.2964   5.9506   6.0247   6.4102
     7.0539   7.5645   8.9562   9.4640   9.5122   9.9136

          k = 0.3333 0.3333-0.4729 (  2436 PWs)   bands (ev):

   -45.1546 -21.8796 -21.8123 -21.8122  -6.0978  -5.8962  -5.6077  -4.3830
    -4.3646  -4.1778  -4.0296  -3.9718   3.4532   5.5538   5.5745   6.1677
     6.8241   6.9722   8.2257   9.8465   9.8835  10.0261

          k = 0.3333-0.5000 0.0000 (  2458 PWs)   bands (ev):

   -45.1548 -21.8355 -21.8349 -21.8131  -6.1823  -5.7811  -5.7599  -4.4377
    -4.3726  -4.2378  -4.1621  -4.0866   2.9297   6.0571   6.5512   7.1638
     7.6976   7.8306   7.9556   9.0295   9.6917  10.1034

          k = 0.3333-0.5000 0.2365 (  2434 PWs)   bands (ev):

   -45.1545 -21.8569 -21.8337 -21.8122  -6.0498  -5.8060  -5.7826  -4.3959
    -4.3608  -4.1468  -4.0798  -4.0148   3.2260   5.8449   5.9978   6.0690
     6.8358   7.6400   8.4789   9.4582   9.4884  10.0750

          k = 0.3333-0.5000-0.4729 (  2416 PWs)   bands (ev):

   -45.1542 -21.8783 -21.8326 -21.8113  -6.0379  -5.8491  -5.6462  -4.3659
    -4.3391  -4.0836  -3.9963  -3.9140   3.5968   5.2858   5.4816   5.9161
     6.5817   6.9984   7.4330   9.9479  10.0490  10.1778

          k =-0.5000-0.5000 0.0000 (  2480 PWs)   bands (ev):

   -45.1544 -21.8341 -21.8337 -21.8337  -6.1275  -5.7353  -5.7353  -4.4264
    -4.3240  -4.1832  -4.1832  -4.0338   2.7398   5.9057   6.3839   7.3804
     7.3804   7.9490   7.9490   8.7959   9.1970  10.3690

          k =-0.5000-0.5000 0.2365 (  2408 PWs)   bands (ev):

   -45.1541 -21.8557 -21.8326 -21.8326  -5.9199  -5.8202  -5.8202  -4.3833
    -4.3219  -4.0387  -4.0387  -4.0006   3.1516   5.8627   5.9718   5.9718
     6.3903   7.5827   7.8146   9.4842   9.4842  10.3521

          k =-0.5000-0.5000-0.4729 (  2400 PWs)   bands (ev):

   -45.1538 -21.8771 -21.8316 -21.8316  -5.8943  -5.8943  -5.7060  -4.3402
    -4.3198  -3.9567  -3.9023  -3.9023   3.8166   5.3182   5.3182   5.7493
     6.3967   6.4133   6.7008  10.1904  10.1904  10.3350

     highest occupied level (ev):    11.0290

!    total energy              =    -380.57400175 Ry
     estimated scf accuracy    <          1.2E-11 Ry

     The total energy is the sum of the following terms:
     one-electron contribution =     -79.80133459 Ry
     hartree contribution      =      69.98307874 Ry
     xc contribution           =    -102.68099431 Ry
     ewald contribution        =    -268.07475159 Ry

     convergence has been achieved in   9 iterations

     negative rho (up, down):  1.528E-02 0.000E+00

     Forces acting on atoms (cartesian axes, Ry/au):

     atom    1 type  1   force =     0.00000000    0.00000000   -0.00061222
     atom    2 type  2   force =     0.00000000    0.00000000   -0.00006556
     atom    3 type  3   force =     0.00000000    0.00000000   -0.00022955
     atom    4 type  3   force =     0.00000000    0.00000000    0.00045367
     atom    5 type  3   force =     0.00000000    0.00000000    0.00045367

     Total force =     0.000918     Total SCF correction =     0.000010


     Computing stress (Cartesian axis) and pressure


     negative rho (up, down):  1.528E-02 0.000E+00
          total   stress  (Ry/bohr**3)                   (kbar)     P=        2.21
   0.00002867   0.00000000   0.00000000            4.22        0.00        0.00
   0.00000000   0.00002867   0.00000000            0.00        4.22        0.00
   0.00000000   0.00000000  -0.00001222            0.00        0.00       -1.80

     Energy error            =      4.6E-06 Ry
     Gradient error          =      6.1E-04 Ry/Bohr

     bfgs converged in   3 scf cycles and   2 bfgs steps
     (criteria: energy <  1.0E-04 Ry, force <  1.0E-03 Ry/Bohr)

     End of BFGS Geometry Optimization

     Final energy             =    -380.5740017464 Ry

     File ./pto_tetragonal_etam0p002.bfgs deleted, as requested
Begin final coordinates

ATOMIC_POSITIONS (crystal)
Pb               0.0000000000        0.0000000000        1.0051812882
Ti               0.5000000000        0.5000000000        0.5384525225
O                0.5000000000        0.5000000000        0.1003610467
O                0.5000000000        0.0000000000        0.6116447152
O                0.0000000000        0.5000000000        0.6116447152
End final coordinates



     Writing all to output data dir ./pto_tetragonal_etam0p002.save/ :
     XML data file, charge density, pseudopotentials, collected wavefunctions
 
     init_run     :      0.37s CPU      0.45s WALL (       1 calls)
     electrons    :     27.05s CPU     28.97s WALL (       3 calls)
     update_pot   :      0.01s CPU      0.01s WALL (       2 calls)
     forces       :      0.31s CPU      0.32s WALL (       3 calls)
     stress       :      2.82s CPU      2.86s WALL (       3 calls)

     Called by init_run:
     wfcinit      :      0.15s CPU      0.18s WALL (       1 calls)
     potinit      :      0.01s CPU      0.01s WALL (       1 calls)
     hinit0       :      0.11s CPU      0.14s WALL (       1 calls)

     Called by electrons:
     c_bands      :     22.76s CPU     24.16s WALL (      33 calls)
     sum_band     :      3.03s CPU      3.19s WALL (      33 calls)
     v_of_rho     :      0.05s CPU      0.05s WALL (      34 calls)
     newd         :      1.27s CPU      1.56s WALL (      34 calls)
     mix_rho      :      0.04s CPU      0.04s WALL (      33 calls)

     Called by c_bands:
     init_us_2    :      0.21s CPU      0.22s WALL (    2190 calls)
     init_us_2:cp :      0.21s CPU      0.22s WALL (    2190 calls)
     ccgdiagg     :     20.31s CPU     21.59s WALL (     990 calls)
     wfcrot       :      2.41s CPU      2.55s WALL (     870 calls)

     Called by *cgdiagg:
     h_psi        :     12.76s CPU     13.54s WALL (   78117 calls)
     s_psi        :      1.89s CPU      2.01s WALL (  155364 calls)

     Called by h_psi:
     h_psi:calbec :      1.99s CPU      2.12s WALL (   78117 calls)
     vloc_psi     :      9.20s CPU      9.76s WALL (   78117 calls)
     add_vuspsi   :      0.96s CPU      1.02s WALL (   78117 calls)
     hs_1psi      :     12.21s CPU     12.97s WALL (   77247 calls)
     s_1psi       :      2.94s CPU      3.12s WALL (   77247 calls)

     General routines
     calbec       :      3.59s CPU      3.82s WALL (  156804 calls)
     fft          :      0.06s CPU      0.08s WALL (     226 calls)
     ffts         :      0.00s CPU      0.00s WALL (      67 calls)
     fftw         :      7.89s CPU      8.34s WALL (  215094 calls)
     interpolate  :      0.01s CPU      0.01s WALL (      34 calls)
 
     Parallel routines
 
     PWSCF        :     30.89s CPU     33.52s WALL

 
   This run was terminated on:  20:37:14  17Nov2025            

=------------------------------------------------------------------------------=
   JOB DONE.
=------------------------------------------------------------------------------=
TACC:  Shutdown complete. Exiting. 
