TACC:  Starting up job 2560876 
TACC:  Starting parallel tasks... 

     Program PWSCF v.7.3 starts on 18Nov2025 at  0:28:18 

     This program is part of the open-source Quantum ESPRESSO suite
     for quantum simulation of materials; please cite
         "P. Giannozzi et al., J. Phys.:Condens. Matter 21 395502 (2009);
         "P. Giannozzi et al., J. Phys.:Condens. Matter 29 465901 (2017);
         "P. Giannozzi et al., J. Chem. Phys. 152 154105 (2020);
          URL http://www.quantum-espresso.org", 
     in publications or presentations arising from this work. More details at
     http://www.quantum-espresso.org/quote

     Parallel version (MPI & OpenMP), running on      10 processor cores
     Number of MPI processes:                10
     Threads/MPI process:                     1

     MPI processes distributed on     1 nodes
     186500 MiB available memory on the printing compute node when the environment starts
 
     Waiting for input...
     Reading input from standard input
Warning: card &CELL ignored
Warning: card  CELL_DYNAMICS = 'BFGS', ignored
Warning: card  PRESS=0.D0, ignored
Warning: card / ignored

     Current dimensions of program PWSCF are:
     Max number of different atomic species (ntypx) = 10
     Max number of k-points (npk) =  40000
     Max angular momentum in pseudopotentials (lmaxx) =  4
     Message from routine setup:
     using ibrav=0 with symmetry is DISCOURAGED, use correct ibrav instead
 
     R & G space division:  proc/nbgrp/npool/nimage =      10
     Subspace diagonalization in iterative solution of the eigenvalue problem:
     a serial algorithm will be used

 
     Parallelization info
     --------------------
     sticks:   dense  smooth     PW     G-vecs:    dense   smooth      PW
     Min         209      84     25                 7675     1940     323
     Max         211      86     27                 7678     1943     324
     Sum        2097     853    257                76759    19415    3235
 
     Using Slab Decomposition
 


     bravais-lattice index     =            0
     lattice parameter (alat)  =       7.2934  a.u.
     unit-cell volume          =     406.4953 (a.u.)^3
     number of atoms/cell      =            5
     number of atomic types    =            3
     number of electrons       =        44.00
     number of Kohn-Sham states=           22
     kinetic-energy cutoff     =      50.0000  Ry
     charge density cutoff     =     500.0000  Ry
     scf convergence threshold =      1.0E-08
     mixing beta               =       0.7000
     number of iterations used =            8  plain     mixing
     energy convergence thresh.=      1.0E-04
     force convergence thresh. =      1.0E-03
     Exchange-correlation= SLA  PZ   NOGX NOGC
                           (   1   1   0   0   0   0   0)
     nstep                     =           50


     celldm(1)=   7.293436  celldm(2)=   0.000000  celldm(3)=   0.000000
     celldm(4)=   0.000000  celldm(5)=   0.000000  celldm(6)=   0.000000

     crystal axes: (cart. coord. in units of alat)
               a(1) = (   1.000000   0.000000   0.000000 )  
               a(2) = (   0.000000   0.998964   0.000000 )  
               a(3) = (   0.000000   0.000000   1.048840 )  

     reciprocal axes: (cart. coord. in units 2 pi/alat)
               b(1) = (  1.000000  0.000000  0.000000 )  
               b(2) = (  0.000000  1.001037  0.000000 )  
               b(3) = (  0.000000  0.000000  0.953434 )  


     PseudoPot. # 1 for Pb read from file:
     /scratch/11018/zhc/assisgnment3/input_files/Pb_LDA.UPF
     MD5 check sum: 062a37469794d955244864f8fe2e5624
     Pseudo is Ultrasoft + core correction, Zval = 14.0
     Generated by new atomic code, or converted to UPF format
     Using radial grid of  899 points,  6 beta functions with: 
                l(1) =   0
                l(2) =   0
                l(3) =   1
                l(4) =   1
                l(5) =   2
                l(6) =   2
     Q(r) pseudized with  6 coefficients,  rinner =    1.000   1.000   1.000
                                                       1.000   1.000

     PseudoPot. # 2 for Ti read from file:
     /scratch/11018/zhc/assisgnment3/input_files/Ti_LDA.UPF
     MD5 check sum: 0d9f225c038fe889ca2a701dcc8d72cb
     Pseudo is Ultrasoft + core correction, Zval = 12.0
     Generated by new atomic code, or converted to UPF format
     Using radial grid of  851 points,  6 beta functions with: 
                l(1) =   0
                l(2) =   0
                l(3) =   1
                l(4) =   1
                l(5) =   2
                l(6) =   2
     Q(r) pseudized with  6 coefficients,  rinner =    1.000   1.000   1.000
                                                       1.000   1.000

     PseudoPot. # 3 for O  read from file:
     /scratch/11018/zhc/assisgnment3/input_files/O_LDA.UPF
     MD5 check sum: 194b818514d2a7dbb603bb78519a4f40
     Pseudo is Ultrasoft + core correction, Zval =  6.0
     Generated by new atomic code, or converted to UPF format
     Using radial grid of  737 points,  5 beta functions with: 
                l(1) =   0
                l(2) =   0
                l(3) =   1
                l(4) =   1
                l(5) =   2
     Q(r) pseudized with  8 coefficients,  rinner =    0.900   0.900   0.900
                                                       0.900   0.900

     atomic species   valence    mass     pseudopotential
     Pb               14.00   207.20000     Pb( 1.00)
     Ti               12.00    47.88000     Ti( 1.00)
     O                 6.00    16.00000     O ( 1.00)

      4 Sym. Ops. (no inversion) found



   Cartesian axes

     site n.     atom                  positions (alat units)
         1        Pb     tau(   1) = (   0.0000000   0.0000000   1.0542668  )
         2        Ti     tau(   2) = (   0.5000000   0.4994818   0.5658854  )
         3        O      tau(   3) = (   0.5000000   0.4994818   0.1043679  )
         4        O      tau(   4) = (   0.5000000   0.0000000   0.6414016  )
         5        O      tau(   5) = (   0.0000000   0.4994818   0.6414016  )

     number of k points=    48
                       cart. coord. in units 2pi/alat
        k(    1) = (   0.0000000   0.0000000   0.0000000), wk =   0.0138889
        k(    2) = (   0.0000000   0.0000000   0.2383585), wk =   0.0277778
        k(    3) = (   0.0000000   0.0000000  -0.4767170), wk =   0.0138889
        k(    4) = (   0.0000000   0.1668396   0.0000000), wk =   0.0277778
        k(    5) = (   0.0000000   0.1668396   0.2383585), wk =   0.0555556
        k(    6) = (   0.0000000   0.1668396  -0.4767170), wk =   0.0277778
        k(    7) = (   0.0000000   0.3336792   0.0000000), wk =   0.0277778
        k(    8) = (   0.0000000   0.3336792   0.2383585), wk =   0.0555556
        k(    9) = (   0.0000000   0.3336792  -0.4767170), wk =   0.0277778
        k(   10) = (   0.0000000  -0.5005187   0.0000000), wk =   0.0138889
        k(   11) = (   0.0000000  -0.5005187   0.2383585), wk =   0.0277778
        k(   12) = (   0.0000000  -0.5005187  -0.4767170), wk =   0.0138889
        k(   13) = (   0.1666667   0.0000000   0.0000000), wk =   0.0277778
        k(   14) = (   0.1666667   0.0000000   0.2383585), wk =   0.0555556
        k(   15) = (   0.1666667   0.0000000  -0.4767170), wk =   0.0277778
        k(   16) = (   0.1666667   0.1668396   0.0000000), wk =   0.0555556
        k(   17) = (   0.1666667   0.1668396   0.2383585), wk =   0.1111111
        k(   18) = (   0.1666667   0.1668396  -0.4767170), wk =   0.0555556
        k(   19) = (   0.1666667   0.3336792   0.0000000), wk =   0.0555556
        k(   20) = (   0.1666667   0.3336792   0.2383585), wk =   0.1111111
        k(   21) = (   0.1666667   0.3336792  -0.4767170), wk =   0.0555556
        k(   22) = (   0.1666667  -0.5005187   0.0000000), wk =   0.0277778
        k(   23) = (   0.1666667  -0.5005187   0.2383585), wk =   0.0555556
        k(   24) = (   0.1666667  -0.5005187  -0.4767170), wk =   0.0277778
        k(   25) = (   0.3333333   0.0000000   0.0000000), wk =   0.0277778
        k(   26) = (   0.3333333   0.0000000   0.2383585), wk =   0.0555556
        k(   27) = (   0.3333333   0.0000000  -0.4767170), wk =   0.0277778
        k(   28) = (   0.3333333   0.1668396   0.0000000), wk =   0.0555556
        k(   29) = (   0.3333333   0.1668396   0.2383585), wk =   0.1111111
        k(   30) = (   0.3333333   0.1668396  -0.4767170), wk =   0.0555556
        k(   31) = (   0.3333333   0.3336792   0.0000000), wk =   0.0555556
        k(   32) = (   0.3333333   0.3336792   0.2383585), wk =   0.1111111
        k(   33) = (   0.3333333   0.3336792  -0.4767170), wk =   0.0555556
        k(   34) = (   0.3333333  -0.5005187   0.0000000), wk =   0.0277778
        k(   35) = (   0.3333333  -0.5005187   0.2383585), wk =   0.0555556
        k(   36) = (   0.3333333  -0.5005187  -0.4767170), wk =   0.0277778
        k(   37) = (  -0.5000000   0.0000000   0.0000000), wk =   0.0138889
        k(   38) = (  -0.5000000   0.0000000   0.2383585), wk =   0.0277778
        k(   39) = (  -0.5000000   0.0000000  -0.4767170), wk =   0.0138889
        k(   40) = (  -0.5000000   0.1668396   0.0000000), wk =   0.0277778
        k(   41) = (  -0.5000000   0.1668396   0.2383585), wk =   0.0555556
        k(   42) = (  -0.5000000   0.1668396  -0.4767170), wk =   0.0277778
        k(   43) = (  -0.5000000   0.3336792   0.0000000), wk =   0.0277778
        k(   44) = (  -0.5000000   0.3336792   0.2383585), wk =   0.0555556
        k(   45) = (  -0.5000000   0.3336792  -0.4767170), wk =   0.0277778
        k(   46) = (  -0.5000000  -0.5005187   0.0000000), wk =   0.0138889
        k(   47) = (  -0.5000000  -0.5005187   0.2383585), wk =   0.0277778
        k(   48) = (  -0.5000000  -0.5005187  -0.4767170), wk =   0.0138889

     Dense  grid:    76759 G-vectors     FFT dimensions: (  54,  54,  60)

     Smooth grid:    19415 G-vectors     FFT dimensions: (  36,  36,  36)

     Estimated max dynamical RAM per process >      38.00 MB

     Estimated total dynamical RAM >     379.98 MB

     Check: negative core charge=   -0.000004

     Initial potential from superposition of free atoms

     starting charge      42.9982, renormalised to      44.0000

     negative rho (up, down):  1.669E-02 0.000E+00
     Starting wfcs are   31 randomized atomic wfcs

     total cpu time spent up to now is        0.8 secs

     Self-consistent Calculation

     iteration #  1     ecut=    50.00 Ry     beta= 0.70
     CG style diagonalization
     ethr =  1.00E-02,  avg # of iterations =  2.1

     negative rho (up, down):  1.400E-02 0.000E+00

     total cpu time spent up to now is        1.6 secs

     total energy              =    -380.06132561 Ry
     estimated scf accuracy    <       1.02263585 Ry

     iteration #  2     ecut=    50.00 Ry     beta= 0.70
     CG style diagonalization
     ethr =  2.32E-03,  avg # of iterations =  4.8

     negative rho (up, down):  1.452E-02 0.000E+00

     total cpu time spent up to now is        3.0 secs

     total energy              =    -379.75266434 Ry
     estimated scf accuracy    <       3.93386669 Ry

     iteration #  3     ecut=    50.00 Ry     beta= 0.70
     CG style diagonalization
     ethr =  2.32E-03,  avg # of iterations =  4.3

     negative rho (up, down):  1.513E-02 0.000E+00

     total cpu time spent up to now is        4.4 secs

     total energy              =    -380.53730728 Ry
     estimated scf accuracy    <       0.31031662 Ry

     iteration #  4     ecut=    50.00 Ry     beta= 0.70
     CG style diagonalization
     ethr =  7.05E-04,  avg # of iterations =  3.5

     negative rho (up, down):  1.512E-02 0.000E+00

     total cpu time spent up to now is        5.4 secs

     total energy              =    -380.56006664 Ry
     estimated scf accuracy    <       0.04219426 Ry

     iteration #  5     ecut=    50.00 Ry     beta= 0.70
     CG style diagonalization
     ethr =  9.59E-05,  avg # of iterations =  3.9

     negative rho (up, down):  1.513E-02 0.000E+00

     total cpu time spent up to now is        6.5 secs

     total energy              =    -380.57158332 Ry
     estimated scf accuracy    <       0.00780507 Ry

     iteration #  6     ecut=    50.00 Ry     beta= 0.70
     CG style diagonalization
     ethr =  1.77E-05,  avg # of iterations =  3.9

     negative rho (up, down):  1.513E-02 0.000E+00

     total cpu time spent up to now is        7.7 secs

     total energy              =    -380.57363001 Ry
     estimated scf accuracy    <       0.00612024 Ry

     iteration #  7     ecut=    50.00 Ry     beta= 0.70
     CG style diagonalization
     ethr =  1.39E-05,  avg # of iterations =  3.3

     negative rho (up, down):  1.514E-02 0.000E+00

     total cpu time spent up to now is        8.7 secs

     total energy              =    -380.57362318 Ry
     estimated scf accuracy    <       0.00164182 Ry

     iteration #  8     ecut=    50.00 Ry     beta= 0.70
     CG style diagonalization
     ethr =  3.73E-06,  avg # of iterations =  3.7

     negative rho (up, down):  1.517E-02 0.000E+00

     total cpu time spent up to now is        9.8 secs

     total energy              =    -380.57398292 Ry
     estimated scf accuracy    <       0.00000953 Ry

     iteration #  9     ecut=    50.00 Ry     beta= 0.70
     CG style diagonalization
     c_bands:  1 eigenvalues not converged
     c_bands:  1 eigenvalues not converged
     c_bands:  1 eigenvalues not converged
     c_bands:  1 eigenvalues not converged
     ethr =  2.16E-08,  avg # of iterations =  7.7

     negative rho (up, down):  1.520E-02 0.000E+00

     total cpu time spent up to now is       12.1 secs

     total energy              =    -380.57404379 Ry
     estimated scf accuracy    <       0.00003732 Ry

     iteration # 10     ecut=    50.00 Ry     beta= 0.70
     CG style diagonalization
     ethr =  2.16E-08,  avg # of iterations =  3.5

     negative rho (up, down):  1.526E-02 0.000E+00

     total cpu time spent up to now is       13.2 secs

     total energy              =    -380.57403860 Ry
     estimated scf accuracy    <       0.00002149 Ry

     iteration # 11     ecut=    50.00 Ry     beta= 0.70
     CG style diagonalization
     ethr =  2.16E-08,  avg # of iterations =  3.8

     negative rho (up, down):  1.531E-02 0.000E+00

     total cpu time spent up to now is       14.3 secs

     total energy              =    -380.57404079 Ry
     estimated scf accuracy    <       0.00000144 Ry

     iteration # 12     ecut=    50.00 Ry     beta= 0.70
     CG style diagonalization
     ethr =  3.27E-09,  avg # of iterations =  5.5

     negative rho (up, down):  1.530E-02 0.000E+00

     total cpu time spent up to now is       16.0 secs

     total energy              =    -380.57404177 Ry
     estimated scf accuracy    <       0.00000120 Ry

     iteration # 13     ecut=    50.00 Ry     beta= 0.70
     CG style diagonalization
     ethr =  2.72E-09,  avg # of iterations =  4.2

     negative rho (up, down):  1.531E-02 0.000E+00

     total cpu time spent up to now is       17.2 secs

     total energy              =    -380.57404217 Ry
     estimated scf accuracy    <       0.00000002 Ry

     iteration # 14     ecut=    50.00 Ry     beta= 0.70
     CG style diagonalization
     c_bands:  1 eigenvalues not converged
     c_bands:  1 eigenvalues not converged
     c_bands:  1 eigenvalues not converged
     ethr =  4.07E-11,  avg # of iterations = 12.1

     negative rho (up, down):  1.531E-02 0.000E+00

     total cpu time spent up to now is       21.0 secs

     total energy              =    -380.57404250 Ry
     estimated scf accuracy    <       0.00000001 Ry

     iteration # 15     ecut=    50.00 Ry     beta= 0.70
     CG style diagonalization
     ethr =  3.20E-11,  avg # of iterations =  4.0

     negative rho (up, down):  1.531E-02 0.000E+00

     total cpu time spent up to now is       22.2 secs

     End of self-consistent calculation

          k = 0.0000 0.0000 0.0000 (  2421 PWs)   bands (ev):

   -45.1710 -21.8528 -21.7675 -21.7664  -7.1657  -6.0137  -5.7586  -4.4145
    -4.4142  -4.3750  -4.2588  -4.1416   4.8429   6.7287   6.7369   7.1138
     8.7107   8.7125   8.9544   9.2895   9.4389   9.4406

          k = 0.0000 0.0000 0.2384 (  2429 PWs)   bands (ev):

   -45.1707 -21.8765 -21.7665 -21.7655  -6.9568  -5.9515  -5.6878  -4.4324
    -4.4321  -4.3735  -4.2461  -4.2190   3.9800   6.7846   6.7912   7.3029
     8.4545   8.4585   8.8701   9.3792   9.5589   9.5597

          k = 0.0000 0.0000-0.4767 (  2410 PWs)   bands (ev):

   -45.1703 -21.9000 -21.7656 -21.7645  -6.7300  -5.8834  -5.6234  -4.4502
    -4.4499  -4.3719  -4.3024  -4.2349   3.4359   6.6008   6.8195   6.8241
     8.2952   8.3019   8.7899   9.6356   9.6360  10.6592

          k = 0.0000 0.1668 0.0000 (  2433 PWs)   bands (ev):

   -45.1706 -21.8520 -21.7879 -21.7656  -7.0206  -5.9794  -5.7281  -4.4387
    -4.4129  -4.3898  -4.2615  -4.1301   4.3529   6.8054   6.8392   7.1449
     8.6682   8.7307   8.9480   9.0648   9.1703   9.5627

          k = 0.0000 0.1668 0.2384 (  2430 PWs)   bands (ev):

   -45.1703 -21.8755 -21.7868 -21.7646  -6.8281  -5.9335  -5.6516  -4.4371
    -4.4315  -4.3889  -4.2554  -4.1696   3.7469   6.5834   6.9063   7.3903
     8.1218   8.4361   8.7643   9.1635   9.2304   9.9364

          k = 0.0000 0.1668-0.4767 (  2422 PWs)   bands (ev):

   -45.1699 -21.8988 -21.7857 -21.7636  -6.6292  -5.8814  -5.5720  -4.4498
    -4.4333  -4.3881  -4.2594  -4.2052   3.2928   6.2596   6.9470   7.0323
     7.9286   8.2862   8.8313   9.2202   9.3119  10.5780

          k = 0.0000 0.3337 0.0000 (  2422 PWs)   bands (ev):

   -45.1698 -21.8503 -21.8282 -21.7638  -6.7053  -5.9054  -5.6829  -4.4759
    -4.4194  -4.4096  -4.2549  -4.1362   3.7238   6.4318   7.1014   7.1220
     8.3319   8.3527   8.8039   8.8530   9.2903  10.2119

          k = 0.0000 0.3337 0.2384 (  2425 PWs)   bands (ev):

   -45.1695 -21.8734 -21.8270 -21.7628  -6.5790  -5.8633  -5.5854  -4.4424
    -4.4295  -4.4195  -4.2481  -4.1090   3.3610   6.3017   7.0011   7.2221
     7.7571   8.1799   8.3364   8.9039   9.4291  10.2913

          k = 0.0000 0.3337-0.4767 (  2428 PWs)   bands (ev):

   -45.1692 -21.8963 -21.8258 -21.7618  -6.4857  -5.7958  -5.4564  -4.4490
    -4.4199  -4.4008  -4.2840  -4.0551   3.0422   5.9738   6.7606   7.2663
     7.6399   7.8099   8.1212   8.9342   9.8576  10.1247

          k = 0.0000-0.5005 0.0000 (  2432 PWs)   bands (ev):

   -45.1695 -21.8491 -21.8487 -21.7630  -6.5312  -5.8491  -5.6884  -4.4920
    -4.4339  -4.4080  -4.2268  -4.1703   3.5041   6.0470   7.3654   7.3657
     7.8399   7.9706   8.7247   8.8898   9.3215  11.0148

          k = 0.0000-0.5005 0.2384 (  2428 PWs)   bands (ev):

   -45.1691 -21.8721 -21.8472 -21.7620  -6.4709  -5.7730  -5.5802  -4.4547
    -4.4348  -4.4284  -4.2133  -4.1047   3.2096   6.0189   7.0308   7.2693
     7.5745   7.7714   8.4475   8.8806   9.4321  10.4884

          k = 0.0000-0.5005-0.4767 (  2416 PWs)   bands (ev):

   -45.1688 -21.8949 -21.8457 -21.7609  -6.4525  -5.6914  -5.4030  -4.4485
    -4.4357  -4.4095  -4.2689  -3.9926   2.9423   5.8353   6.4473   7.3276
     7.5910   7.8008   7.8219   8.8746   9.7856  10.1626

          k = 0.1667 0.0000 0.0000 (  2423 PWs)   bands (ev):

   -45.1706 -21.8520 -21.7866 -21.7666  -7.0216  -5.9799  -5.7283  -4.4389
    -4.4126  -4.3897  -4.2615  -4.1304   4.3524   6.8014   6.8473   7.1464
     8.6655   8.7333   8.9472   9.0641   9.1712   9.5628

          k = 0.1667 0.0000 0.2384 (  2432 PWs)   bands (ev):

   -45.1703 -21.8755 -21.7855 -21.7657  -6.8292  -5.9336  -5.6518  -4.4373
    -4.4312  -4.3888  -4.2549  -4.1708   3.7460   6.5799   6.9127   7.3913
     8.1230   8.4400   8.7646   9.1603   9.2314   9.9354

          k = 0.1667 0.0000-0.4767 (  2422 PWs)   bands (ev):

   -45.1699 -21.8988 -21.7844 -21.7647  -6.6305  -5.8811  -5.5721  -4.4495
    -4.4334  -4.3879  -4.2588  -4.2070   3.2917   6.2570   6.9511   7.0338
     7.9268   8.2929   8.8332   9.2159   9.3134  10.5796

          k = 0.1667 0.1668 0.0000 (  2423 PWs)   bands (ev):

   -45.1702 -21.8512 -21.7870 -21.7856  -6.8790  -5.9446  -5.7195  -4.4449
    -4.4289  -4.3932  -4.2375  -4.1198   4.0205   6.7209   6.9793   7.2005
     8.1946   8.3057   9.0438   9.0740   9.3796   9.7951

          k = 0.1667 0.1668 0.2384 (  2423 PWs)   bands (ev):

   -45.1699 -21.8745 -21.7859 -21.7846  -6.6976  -5.9184  -5.6436  -4.4476
    -4.4241  -4.3870  -4.2264  -4.1358   3.6224   6.4983   6.6080   7.3342
     8.0229   8.0382   8.8436   9.2244   9.4590   9.9045

          k = 0.1667 0.1668-0.4767 (  2444 PWs)   bands (ev):

   -45.1696 -21.8977 -21.7848 -21.7835  -6.5175  -5.8919  -5.5545  -4.4607
    -4.4026  -4.3636  -4.2314  -4.1579   3.2594   6.2819   6.3254   7.0261
     7.9279   7.9666   8.7443   9.2988   9.5170  10.2731

          k = 0.1667 0.3337 0.0000 (  2426 PWs)   bands (ev):

   -45.1695 -21.8495 -21.8271 -21.7837  -6.5724  -5.8722  -5.7169  -4.4693
    -4.4180  -4.3775  -4.2122  -4.1258   3.5065   6.4289   6.9737   7.2752
     7.6558   8.2403   8.5496   9.2171   9.4087  10.2919

          k = 0.1667 0.3337 0.2384 (  2429 PWs)   bands (ev):

   -45.1691 -21.8724 -21.8260 -21.7827  -6.4422  -5.8631  -5.6339  -4.4445
    -4.4188  -4.3540  -4.1911  -4.0834   3.3638   6.2502   6.3795   6.9355
     7.3868   8.0769   8.8979   9.1765   9.5175  10.0020

          k = 0.1667 0.3337-0.4767 (  2424 PWs)   bands (ev):

   -45.1688 -21.8953 -21.8248 -21.7817  -6.3515  -5.8395  -5.5102  -4.4423
    -4.3929  -4.3124  -4.2037  -4.0281   3.1758   5.8935   6.3100   6.6311
     6.8774   7.9366   8.9975   9.2205   9.5060   9.9550

          k = 0.1667-0.5005 0.0000 (  2428 PWs)   bands (ev):

   -45.1691 -21.8482 -21.8475 -21.7828  -6.4046  -5.8183  -5.7428  -4.4723
    -4.4101  -4.3560  -4.1918  -4.1610   3.3065   6.0655   7.0904   7.3207
     7.6204   7.9664   8.4071   9.2499   9.4070  10.6271

          k = 0.1667-0.5005 0.2384 (  2424 PWs)   bands (ev):

   -45.1687 -21.8712 -21.8461 -21.7818  -6.3329  -5.7833  -5.6572  -4.4426
    -4.4051  -4.3328  -4.1670  -4.0775   3.2456   6.0233   6.2739   6.6841
     7.3463   8.2200   8.6649   9.1868   9.5280   9.9621

          k = 0.1667-0.5005-0.4767 (  2420 PWs)   bands (ev):

   -45.1684 -21.8940 -21.8448 -21.7807  -6.3173  -5.7496  -5.4937  -4.4368
    -4.3605  -4.3103  -4.1858  -3.9665   3.1367   5.7878   6.1426   6.2940
     6.7250   8.0502   8.8663   9.1306   9.1625  10.1728

          k = 0.3333 0.0000 0.0000 (  2422 PWs)   bands (ev):

   -45.1699 -21.8503 -21.8265 -21.7649  -6.7083  -5.9068  -5.6835  -4.4762
    -4.4190  -4.4093  -4.2556  -4.1368   3.7240   6.4365   7.1019   7.1300
     8.3301   8.3560   8.8033   8.8528   9.2907  10.2102

          k = 0.3333 0.0000 0.2384 (  2425 PWs)   bands (ev):

   -45.1695 -21.8734 -21.8253 -21.7639  -6.5821  -5.8641  -5.5859  -4.4427
    -4.4293  -4.4191  -4.2478  -4.1113   3.3593   6.3038   7.0031   7.2284
     7.7596   8.1836   8.3390   8.9065   9.4271  10.2896

          k = 0.3333 0.0000-0.4767 (  2428 PWs)   bands (ev):

   -45.1692 -21.8964 -21.8240 -21.7629  -6.4887  -5.7960  -5.4569  -4.4487
    -4.4195  -4.4011  -4.2838  -4.0582   3.0393   5.9729   6.7645   7.2695
     7.6448   7.8126   8.1278   8.9378   9.8512  10.1317

          k = 0.3333 0.1668 0.0000 (  2426 PWs)   bands (ev):

   -45.1695 -21.8495 -21.8254 -21.7851  -6.5743  -5.8732  -5.7174  -4.4693
    -4.4180  -4.3775  -4.2126  -4.1261   3.5068   6.4340   6.9753   7.2771
     7.6546   8.2399   8.5494   9.2209   9.4089  10.2896

          k = 0.3333 0.1668 0.2384 (  2429 PWs)   bands (ev):

   -45.1691 -21.8724 -21.8242 -21.7841  -6.4442  -5.8637  -5.6343  -4.4445
    -4.4189  -4.3540  -4.1905  -4.0852   3.3628   6.2522   6.3820   6.9363
     7.3872   8.0794   8.9038   9.1788   9.5160  10.0003

          k = 0.3333 0.1668-0.4767 (  2420 PWs)   bands (ev):

   -45.1688 -21.8953 -21.8230 -21.7830  -6.3532  -5.8399  -5.5105  -4.4424
    -4.3929  -4.3123  -4.2027  -4.0308   3.1737   5.8925   6.3122   6.6320
     6.8824   7.9383   9.0028   9.2261   9.5060   9.9531

          k = 0.3333 0.3337 0.0000 (  2436 PWs)   bands (ev):

   -45.1687 -21.8477 -21.8250 -21.8232  -6.3098  -5.8056  -5.7669  -4.4493
    -4.3986  -4.3052  -4.1316  -4.1289   3.0990   6.4146   6.5123   7.3824
     7.5363   7.6771   8.3485   9.0683   9.8820  10.0261

          k = 0.3333 0.3337 0.2384 (  2424 PWs)   bands (ev):

   -45.1684 -21.8704 -21.8240 -21.8222  -6.1696  -5.8542  -5.7225  -4.4068
    -4.3916  -4.2447  -4.0829  -4.0478   3.2902   5.9598   6.0303   6.4098
     7.0545   7.5518   8.9683   9.4807   9.5205   9.8983

          k = 0.3333 0.3337-0.4767 (  2426 PWs)   bands (ev):

   -45.1680 -21.8931 -21.8229 -21.8211  -6.0984  -5.8993  -5.5965  -4.3846
    -4.3647  -4.1792  -4.0319  -3.9690   3.4579   5.5525   5.5751   6.1506
     6.8038   6.9717   8.2100   9.8536   9.8690  10.0337

          k = 0.3333-0.5005 0.0000 (  2454 PWs)   bands (ev):

   -45.1683 -21.8464 -21.8452 -21.8221  -6.1905  -5.7819  -5.7616  -4.4410
    -4.3747  -4.2393  -4.1645  -4.0963   2.9115   6.0582   6.5611   7.1924
     7.7206   7.8441   7.9698   9.0368   9.7089  10.0907

          k = 0.3333-0.5005 0.2384 (  2430 PWs)   bands (ev):

   -45.1680 -21.8692 -21.8440 -21.8212  -6.0517  -5.8083  -5.7813  -4.3977
    -4.3628  -4.1504  -4.0806  -4.0180   3.2157   5.8507   6.0032   6.0728
     6.8375   7.6215   8.4934   9.4798   9.5069  10.0566

          k = 0.3333-0.5005-0.4767 (  2420 PWs)   bands (ev):

   -45.1677 -21.8919 -21.8428 -21.8201  -6.0409  -5.8518  -5.6346  -4.3672
    -4.3399  -4.0883  -3.9956  -3.9112   3.5990   5.2853   5.4812   5.9092
     6.5632   6.9833   7.4236   9.9534  10.0281  10.1966

          k =-0.5000 0.0000 0.0000 (  2432 PWs)   bands (ev):

   -45.1695 -21.8491 -21.8466 -21.7641  -6.5352  -5.8514  -5.6888  -4.4923
    -4.4334  -4.4078  -4.2287  -4.1701   3.5044   6.0544   7.3681   7.3752
     7.8368   7.9725   8.7249   8.8898   9.3219  11.0104

          k =-0.5000 0.0000 0.2384 (  2430 PWs)   bands (ev):

   -45.1691 -21.8721 -21.8452 -21.7631  -6.4746  -5.7750  -5.5805  -4.4551
    -4.4343  -4.4281  -4.2133  -4.1076   3.2075   6.0253   7.0305   7.2738
     7.5842   7.7716   8.4494   8.8832   9.4319  10.4881

          k =-0.5000 0.0000-0.4767 (  2424 PWs)   bands (ev):

   -45.1688 -21.8950 -21.8437 -21.7620  -6.4556  -5.6930  -5.4035  -4.4483
    -4.4352  -4.4098  -4.2691  -3.9963   2.9383   5.8366   6.4530   7.3317
     7.5904   7.8109   7.8250   8.8787   9.7939  10.1590

          k =-0.5000 0.1668 0.0000 (  2424 PWs)   bands (ev):

   -45.1691 -21.8482 -21.8455 -21.7842  -6.4074  -5.8204  -5.7430  -4.4724
    -4.4101  -4.3559  -4.1934  -4.1604   3.3070   6.0733   7.0937   7.3176
     7.6251   7.9645   8.4074   9.2542   9.4083  10.6226

          k =-0.5000 0.1668 0.2384 (  2426 PWs)   bands (ev):

   -45.1688 -21.8712 -21.8441 -21.7831  -6.3353  -5.7853  -5.6573  -4.4427
    -4.4053  -4.3327  -4.1662  -4.0801   3.2442   6.0296   6.2773   6.6826
     7.3461   8.2211   8.6747   9.1890   9.5279   9.9614

          k =-0.5000 0.1668-0.4767 (  2408 PWs)   bands (ev):

   -45.1684 -21.8940 -21.8427 -21.7821  -6.3189  -5.7515  -5.4940  -4.4369
    -4.3608  -4.3101  -4.1848  -3.9700   3.1334   5.7881   6.1463   6.2986
     6.7263   8.0509   8.8778   9.1347   9.1659  10.1697

          k =-0.5000 0.3337 0.0000 (  2454 PWs)   bands (ev):

   -45.1683 -21.8464 -21.8431 -21.8239  -6.1910  -5.7812  -5.7635  -4.4410
    -4.3747  -4.2405  -4.1632  -4.0967   2.9118   6.0653   6.5554   7.1927
     7.7213   7.8495   7.9653   9.0368   9.7137  10.0870

          k =-0.5000 0.3337 0.2384 (  2430 PWs)   bands (ev):

   -45.1680 -21.8692 -21.8419 -21.8230  -6.0516  -5.8104  -5.7808  -4.3975
    -4.3631  -4.1512  -4.0786  -4.0198   3.2155   5.8522   6.0056   6.0727
     6.8358   7.6212   8.4970   9.4797   9.5075  10.0584

          k =-0.5000 0.3337-0.4767 (  2420 PWs)   bands (ev):

   -45.1677 -21.8919 -21.8407 -21.8220  -6.0398  -5.8542  -5.6347  -4.3669
    -4.3404  -4.0886  -3.9930  -3.9142   3.5977   5.2866   5.4783   5.9128
     6.5676   6.9791   7.4276   9.9571  10.0311  10.1937

          k =-0.5000-0.5005 0.0000 (  2480 PWs)   bands (ev):

   -45.1680 -21.8451 -21.8441 -21.8420  -6.1354  -5.7379  -5.7361  -4.4301
    -4.3269  -4.1862  -4.1845  -4.0466   2.7179   5.9099   6.3915   7.4031
     7.4036   7.9610   7.9673   8.8038   9.2410  10.3482

          k =-0.5000-0.5005 0.2384 (  2432 PWs)   bands (ev):

   -45.1676 -21.8680 -21.8429 -21.8409  -5.9180  -5.8246  -5.8224  -4.3853
    -4.3247  -4.0393  -4.0368  -4.0120   3.1366   5.8665   5.9724   5.9746
     6.3982   7.5619   7.8419   9.5102   9.5109  10.3304

          k =-0.5000-0.5005-0.4767 (  2400 PWs)   bands (ev):

   -45.1673 -21.8908 -21.8418 -21.8397  -5.9002  -5.8976  -5.6938  -4.3405
    -4.3225  -3.9655  -3.9008  -3.8975   3.8158   5.3106   5.3125   5.7460
     6.4050   6.4180   6.6633  10.2052  10.2081  10.3128

     highest occupied level (ev):    11.0148

!    total energy              =    -380.57404251 Ry
     estimated scf accuracy    <          1.3E-09 Ry

     The total energy is the sum of the following terms:
     one-electron contribution =     -79.70566200 Ry
     hartree contribution      =      69.92967979 Ry
     xc contribution           =    -102.67690792 Ry
     ewald contribution        =    -268.12115238 Ry

     convergence has been achieved in  15 iterations

     negative rho (up, down):  1.531E-02 0.000E+00

     Forces acting on atoms (cartesian axes, Ry/au):

     atom    1 type  1   force =     0.00000000    0.00000000    0.00010942
     atom    2 type  2   force =     0.00000000    0.00000000    0.00106651
     atom    3 type  3   force =     0.00000000    0.00000000   -0.00089247
     atom    4 type  3   force =     0.00000000    0.00000000   -0.00003365
     atom    5 type  3   force =     0.00000000    0.00000000   -0.00024981

     Total force =     0.001418     Total SCF correction =     0.000101


     Computing stress (Cartesian axis) and pressure


     negative rho (up, down):  1.531E-02 0.000E+00
          total   stress  (Ry/bohr**3)                   (kbar)     P=       -0.07
  -0.00001190   0.00000000   0.00000000           -1.75        0.00        0.00
   0.00000000   0.00000147   0.00000000            0.00        0.22        0.00
   0.00000000   0.00000000   0.00000895            0.00        0.00        1.32


     BFGS Geometry Optimization
     Energy error            =      0.0E+00 Ry
     Gradient error          =      1.1E-03 Ry/Bohr

     number of scf cycles    =   1
     number of bfgs steps    =   0

     energy             new  =    -380.5740425070 Ry

     new trust radius        =       0.0010665112 bohr
     new conv_thr            =       0.0000000100 Ry


ATOMIC_POSITIONS (crystal)
Pb               0.0000000000        0.0000000000        1.0051881317
Ti               0.5000000000        0.5000000000        0.5396738490
O                0.5000000000        0.5000000000        0.0993912344
O                0.5000000000        0.0000000000        0.6115296651
O                0.0000000000        0.5000000000        0.6115014077



     Writing config-only to output data dir ./pto_T4_eta0p004.save/ :
     XML data file
     NEW-OLD atomic charge density approx. for the potential

     Check: negative core charge=   -0.000004

     negative rho (up, down):  1.531E-02 0.000E+00

     total cpu time spent up to now is       23.8 secs

     Self-consistent Calculation

     iteration #  1     ecut=    50.00 Ry     beta= 0.70
     CG style diagonalization
     ethr =  1.00E-06,  avg # of iterations =  2.3

     Threshold (ethr) on eigenvalues was too large:
     Diagonalizing with lowered threshold

     CG style diagonalization
     c_bands:  1 eigenvalues not converged
     c_bands:  1 eigenvalues not converged
     c_bands:  2 eigenvalues not converged
     c_bands:  1 eigenvalues not converged
     c_bands:  1 eigenvalues not converged
     c_bands:  2 eigenvalues not converged
     c_bands:  1 eigenvalues not converged
     c_bands:  1 eigenvalues not converged
     c_bands:  1 eigenvalues not converged
     c_bands:  1 eigenvalues not converged
     c_bands:  1 eigenvalues not converged
     c_bands:  2 eigenvalues not converged
     c_bands:  1 eigenvalues not converged
     c_bands:  1 eigenvalues not converged
     c_bands:  1 eigenvalues not converged
     c_bands:  1 eigenvalues not converged
     c_bands:  1 eigenvalues not converged
     ethr =  1.35E-09,  avg # of iterations =  6.9

     negative rho (up, down):  1.531E-02 0.000E+00

     total cpu time spent up to now is       26.9 secs

     total energy              =    -380.57404338 Ry
     estimated scf accuracy    <       0.00000089 Ry

     iteration #  2     ecut=    50.00 Ry     beta= 0.70
     CG style diagonalization
     ethr =  2.02E-09,  avg # of iterations =  4.6

     negative rho (up, down):  1.531E-02 0.000E+00

     total cpu time spent up to now is       28.3 secs

     total energy              =    -380.57404337 Ry
     estimated scf accuracy    <       0.00000268 Ry

     iteration #  3     ecut=    50.00 Ry     beta= 0.70
     CG style diagonalization
     ethr =  2.02E-09,  avg # of iterations =  4.2

     negative rho (up, down):  1.531E-02 0.000E+00

     total cpu time spent up to now is       29.6 secs

     total energy              =    -380.57404374 Ry
     estimated scf accuracy    <       0.00000016 Ry

     iteration #  4     ecut=    50.00 Ry     beta= 0.70
     CG style diagonalization
     ethr =  3.72E-10,  avg # of iterations =  3.7

     negative rho (up, down):  1.531E-02 0.000E+00

     total cpu time spent up to now is       30.7 secs

     total energy              =    -380.57404379 Ry
     estimated scf accuracy    <       0.00000002 Ry

     iteration #  5     ecut=    50.00 Ry     beta= 0.70
     CG style diagonalization
     ethr =  4.37E-11,  avg # of iterations =  4.3

     negative rho (up, down):  1.531E-02 0.000E+00

     total cpu time spent up to now is       32.0 secs

     End of self-consistent calculation

          k = 0.0000 0.0000 0.0000 (  2421 PWs)   bands (ev):

   -45.1732 -21.8535 -21.7698 -21.7687  -7.1660  -6.0144  -5.7581  -4.4143
    -4.4140  -4.3746  -4.2584  -4.1416   4.8433   6.7286   6.7367   7.1125
     8.7154   8.7171   8.9545   9.2930   9.4382   9.4400

          k = 0.0000 0.0000 0.2384 (  2429 PWs)   bands (ev):

   -45.1729 -21.8772 -21.7688 -21.7678  -6.9574  -5.9523  -5.6871  -4.4322
    -4.4319  -4.3731  -4.2457  -4.2190   3.9809   6.7853   6.7918   7.3021
     8.4572   8.4611   8.8702   9.3804   9.5584   9.5592

          k = 0.0000 0.0000-0.4767 (  2410 PWs)   bands (ev):

   -45.1725 -21.9006 -21.7679 -21.7668  -6.7309  -5.8842  -5.6224  -4.4500
    -4.4497  -4.3716  -4.3024  -4.2345   3.4375   6.5999   6.8213   6.8257
     8.2959   8.3027   8.7901   9.6352   9.6354  10.6589

          k = 0.0000 0.1668 0.0000 (  2433 PWs)   bands (ev):

   -45.1728 -21.8527 -21.7902 -21.7679  -7.0209  -5.9801  -5.7275  -4.4384
    -4.4127  -4.3895  -4.2612  -4.1301   4.3531   6.8050   6.8390   7.1447
     8.6701   8.7351   8.9487   9.0645   9.1715   9.5642

          k = 0.0000 0.1668 0.2384 (  2430 PWs)   bands (ev):

   -45.1725 -21.8761 -21.7891 -21.7669  -6.8286  -5.9342  -5.6509  -4.4368
    -4.4313  -4.3886  -4.2551  -4.1697   3.7475   6.5840   6.9069   7.3897
     8.1230   8.4385   8.7642   9.1647   9.2302   9.9365

          k = 0.0000 0.1668-0.4767 (  2422 PWs)   bands (ev):

   -45.1721 -21.8994 -21.7880 -21.7659  -6.6300  -5.8822  -5.5709  -4.4496
    -4.4331  -4.3877  -4.2590  -4.2052   3.2939   6.2606   6.9487   7.0316
     7.9289   8.2869   8.8306   9.2214   9.3113  10.5774

          k = 0.0000 0.3337 0.0000 (  2422 PWs)   bands (ev):

   -45.1720 -21.8510 -21.8305 -21.7661  -6.7055  -5.9060  -5.6822  -4.4757
    -4.4191  -4.4094  -4.2548  -4.1362   3.7240   6.4310   7.1014   7.1214
     8.3317   8.3523   8.8038   8.8579   9.2926  10.2130

          k = 0.0000 0.3337 0.2384 (  2425 PWs)   bands (ev):

   -45.1717 -21.8740 -21.8293 -21.7651  -6.5795  -5.8639  -5.5845  -4.4421
    -4.4293  -4.4192  -4.2479  -4.1090   3.3614   6.3016   7.0010   7.2224
     7.7569   8.1809   8.3365   8.9056   9.4300  10.2919

          k = 0.0000 0.3337-0.4767 (  2428 PWs)   bands (ev):

   -45.1714 -21.8970 -21.8281 -21.7641  -6.4864  -5.7964  -5.4552  -4.4488
    -4.4196  -4.4006  -4.2837  -4.0551   3.0428   5.9750   6.7593   7.2679
     7.6398   7.8090   8.1214   8.9343   9.8600  10.1237

          k = 0.0000-0.5005 0.0000 (  2432 PWs)   bands (ev):

   -45.1716 -21.8510 -21.8497 -21.7653  -6.5314  -5.8496  -5.6876  -4.4918
    -4.4336  -4.4078  -4.2268  -4.1702   3.5044   6.0454   7.3646   7.3661
     7.8390   7.9705   8.7247   8.8949   9.3239  11.0158

          k = 0.0000-0.5005 0.2384 (  2428 PWs)   bands (ev):

   -45.1713 -21.8727 -21.8495 -21.7643  -6.4714  -5.7735  -5.5791  -4.4545
    -4.4345  -4.4282  -4.2132  -4.1048   3.2099   6.0178   7.0310   7.2695
     7.5733   7.7730   8.4475   8.8830   9.4324  10.4896

          k = 0.0000-0.5005-0.4767 (  2416 PWs)   bands (ev):

   -45.1710 -21.8956 -21.8480 -21.7632  -6.4532  -5.6919  -5.4017  -4.4484
    -4.4354  -4.4093  -4.2687  -3.9927   2.9426   5.8357   6.4467   7.3274
     7.5936   7.7996   7.8208   8.8752   9.7857  10.1643

          k = 0.1667 0.0000 0.0000 (  2423 PWs)   bands (ev):

   -45.1728 -21.8527 -21.7888 -21.7689  -7.0219  -5.9805  -5.7277  -4.4387
    -4.4124  -4.3894  -4.2612  -4.1305   4.3526   6.8011   6.8470   7.1464
     8.6673   8.7376   8.9478   9.0637   9.1723   9.5643

          k = 0.1667 0.0000 0.2384 (  2432 PWs)   bands (ev):

   -45.1725 -21.8762 -21.7878 -21.7680  -6.8297  -5.9343  -5.6510  -4.4371
    -4.4310  -4.3885  -4.2546  -4.1708   3.7467   6.5806   6.9132   7.3908
     8.1241   8.4424   8.7643   9.1616   9.2311   9.9354

          k = 0.1667 0.0000-0.4767 (  2422 PWs)   bands (ev):

   -45.1721 -21.8994 -21.7867 -21.7670  -6.6314  -5.8818  -5.5711  -4.4493
    -4.4332  -4.3876  -4.2585  -4.2069   3.2928   6.2581   6.9527   7.0333
     7.9270   8.2937   8.8324   9.2172   9.3129  10.5790

          k = 0.1667 0.1668 0.0000 (  2423 PWs)   bands (ev):

   -45.1724 -21.8518 -21.7893 -21.7879  -6.8792  -5.9452  -5.7189  -4.4447
    -4.4287  -4.3929  -4.2372  -4.1198   4.0206   6.7204   6.9787   7.2012
     8.1979   8.3056   9.0437   9.0760   9.3787   9.7979

          k = 0.1667 0.1668 0.2384 (  2423 PWs)   bands (ev):

   -45.1721 -21.8752 -21.7882 -21.7869  -6.6981  -5.9190  -5.6428  -4.4474
    -4.4239  -4.3867  -4.2261  -4.1358   3.6229   6.4989   6.6082   7.3344
     8.0234   8.0379   8.8460   9.2247   9.4589   9.9045

          k = 0.1667 0.1668-0.4767 (  2444 PWs)   bands (ev):

   -45.1718 -21.8983 -21.7871 -21.7858  -6.5183  -5.8926  -5.5534  -4.4604
    -4.4023  -4.3634  -4.2310  -4.1580   3.2604   6.2832   6.3261   7.0251
     7.9283   7.9659   8.7458   9.2990   9.5172  10.2725

          k = 0.1667 0.3337 0.0000 (  2426 PWs)   bands (ev):

   -45.1716 -21.8502 -21.8294 -21.7860  -6.5725  -5.8727  -5.7164  -4.4691
    -4.4178  -4.3772  -4.2120  -4.1258   3.5065   6.4278   6.9742   7.2744
     7.6560   8.2435   8.5490   9.2178   9.4091  10.2935

          k = 0.1667 0.3337 0.2384 (  2429 PWs)   bands (ev):

   -45.1713 -21.8731 -21.8283 -21.7850  -6.4426  -5.8636  -5.6331  -4.4443
    -4.4186  -4.3537  -4.1909  -4.0834   3.3641   6.2502   6.3796   6.9353
     7.3870   8.0766   8.8983   9.1777   9.5182  10.0025

          k = 0.1667 0.3337-0.4767 (  2424 PWs)   bands (ev):

   -45.1710 -21.8959 -21.8271 -21.7840  -6.3521  -5.8400  -5.5091  -4.4420
    -4.3926  -4.3121  -4.2034  -4.0281   3.1763   5.8946   6.3099   6.6309
     6.8763   7.9358   8.9995   9.2200   9.5061   9.9560

          k = 0.1667-0.5005 0.0000 (  2428 PWs)   bands (ev):

   -45.1713 -21.8498 -21.8488 -21.7851  -6.4046  -5.8188  -5.7422  -4.4722
    -4.4099  -4.3556  -4.1918  -4.1609   3.3066   6.0640   7.0915   7.3202
     7.6192   7.9655   8.4115   9.2499   9.4081  10.6276

          k = 0.1667-0.5005 0.2384 (  2424 PWs)   bands (ev):

   -45.1709 -21.8718 -21.8484 -21.7841  -6.3333  -5.7838  -5.6562  -4.4424
    -4.4049  -4.3324  -4.1669  -4.0775   3.2457   6.0222   6.2737   6.6847
     7.3466   8.2198   8.6644   9.1889   9.5279   9.9634

          k = 0.1667-0.5005-0.4767 (  2420 PWs)   bands (ev):

   -45.1706 -21.8946 -21.8471 -21.7830  -6.3178  -5.7501  -5.4925  -4.4366
    -4.3603  -4.3098  -4.1857  -3.9665   3.1369   5.7886   6.1421   6.2934
     6.7249   8.0491   8.8665   9.1326   9.1619  10.1742

          k = 0.3333 0.0000 0.0000 (  2422 PWs)   bands (ev):

   -45.1720 -21.8510 -21.8287 -21.7672  -6.7086  -5.9072  -5.6829  -4.4760
    -4.4187  -4.4091  -4.2554  -4.1367   3.7240   6.4358   7.1018   7.1295
     8.3296   8.3555   8.8033   8.8576   9.2928  10.2112

          k = 0.3333 0.0000 0.2384 (  2425 PWs)   bands (ev):

   -45.1717 -21.8740 -21.8276 -21.7662  -6.5827  -5.8644  -5.5850  -4.4425
    -4.4291  -4.4188  -4.2476  -4.1113   3.3595   6.3038   7.0029   7.2285
     7.7593   8.1845   8.3389   8.9080   9.4281  10.2901

          k = 0.3333 0.0000-0.4767 (  2428 PWs)   bands (ev):

   -45.1714 -21.8970 -21.8263 -21.7652  -6.4896  -5.7963  -5.4558  -4.4485
    -4.4192  -4.4009  -4.2836  -4.0582   3.0397   5.9741   6.7631   7.2709
     7.6447   7.8115   8.1281   8.9380   9.8537  10.1307

          k = 0.3333 0.1668 0.0000 (  2426 PWs)   bands (ev):

   -45.1717 -21.8501 -21.8277 -21.7874  -6.5745  -5.8736  -5.7168  -4.4692
    -4.4178  -4.3772  -4.2123  -4.1261   3.5068   6.4330   6.9757   7.2763
     7.6546   8.2431   8.5487   9.2216   9.4093  10.2911

          k = 0.3333 0.1668 0.2384 (  2429 PWs)   bands (ev):

   -45.1713 -21.8731 -21.8265 -21.7864  -6.4447  -5.8641  -5.6335  -4.4443
    -4.4187  -4.3537  -4.1903  -4.0852   3.3630   6.2523   6.3821   6.9359
     7.3871   8.0791   8.9042   9.1799   9.5167  10.0008

          k = 0.3333 0.1668-0.4767 (  2420 PWs)   bands (ev):

   -45.1710 -21.8960 -21.8253 -21.7853  -6.3540  -5.8403  -5.5094  -4.4421
    -4.3927  -4.3120  -4.2025  -4.0308   3.1740   5.8937   6.3121   6.6317
     6.8812   7.9374   9.0047   9.2255   9.5062   9.9542

          k = 0.3333 0.3337 0.0000 (  2436 PWs)   bands (ev):

   -45.1709 -21.8484 -21.8273 -21.8255  -6.3095  -5.8060  -5.7667  -4.4492
    -4.3983  -4.3050  -4.1312  -4.1289   3.0989   6.4140   6.5106   7.3836
     7.5358   7.6803   8.3465   9.0686   9.8816  10.0268

          k = 0.3333 0.3337 0.2384 (  2424 PWs)   bands (ev):

   -45.1706 -21.8711 -21.8263 -21.8245  -6.1697  -5.8546  -5.7218  -4.4067
    -4.3913  -4.2444  -4.0825  -4.0478   3.2902   5.9600   6.0305   6.4092
     7.0532   7.5515   8.9683   9.4814   9.5222   9.8980

          k = 0.3333 0.3337-0.4767 (  2426 PWs)   bands (ev):

   -45.1702 -21.8938 -21.8252 -21.8234  -6.0989  -5.8997  -5.5955  -4.3843
    -4.3645  -4.1787  -4.0317  -3.9691   3.4581   5.5531   5.5748   6.1506
     6.8030   6.9697   8.2102   9.8554   9.8684  10.0351

          k = 0.3333-0.5005 0.0000 (  2454 PWs)   bands (ev):

   -45.1705 -21.8475 -21.8471 -21.8244  -6.1899  -5.7818  -5.7621  -4.4408
    -4.3744  -4.2391  -4.1644  -4.0959   2.9114   6.0569   6.5595   7.1943
     7.7234   7.8429   7.9691   9.0367   9.7090  10.0900

          k = 0.3333-0.5005 0.2384 (  2430 PWs)   bands (ev):

   -45.1702 -21.8698 -21.8463 -21.8235  -6.0517  -5.8087  -5.7807  -4.3975
    -4.3626  -4.1499  -4.0806  -4.0178   3.2156   5.8510   6.0028   6.0724
     6.8362   7.6213   8.4931   9.4808   9.5083  10.0561

          k = 0.3333-0.5005-0.4767 (  2420 PWs)   bands (ev):

   -45.1699 -21.8925 -21.8451 -21.8224  -6.0412  -5.8522  -5.6337  -4.3669
    -4.3396  -4.0876  -3.9956  -3.9111   3.5989   5.2850   5.4820   5.9084
     6.5621   6.9817   7.4239   9.9551  10.0274  10.1980

          k =-0.5000 0.0000 0.0000 (  2432 PWs)   bands (ev):

   -45.1717 -21.8498 -21.8489 -21.7664  -6.5356  -5.8516  -5.6881  -4.4921
    -4.4331  -4.4076  -4.2286  -4.1699   3.5046   6.0529   7.3685   7.3743
     7.8357   7.9721   8.7250   8.8948   9.3241  11.0114

          k =-0.5000 0.0000 0.2384 (  2430 PWs)   bands (ev):

   -45.1713 -21.8728 -21.8475 -21.7654  -6.4753  -5.7751  -5.5794  -4.4549
    -4.4340  -4.4279  -4.2131  -4.1076   3.2076   6.0242   7.0305   7.2739
     7.5833   7.7729   8.4492   8.8856   9.4323  10.4893

          k =-0.5000 0.0000-0.4767 (  2424 PWs)   bands (ev):

   -45.1710 -21.8956 -21.8460 -21.7643  -6.4564  -5.6932  -5.4022  -4.4481
    -4.4349  -4.4097  -4.2689  -3.9964   2.9384   5.8372   6.4521   7.3314
     7.5926   7.8098   7.8238   8.8795   9.7941  10.1608

          k =-0.5000 0.1668 0.0000 (  2424 PWs)   bands (ev):

   -45.1713 -21.8489 -21.8478 -21.7865  -6.4076  -5.8206  -5.7425  -4.4723
    -4.4099  -4.3556  -4.1933  -4.1603   3.3070   6.0718   7.0948   7.3167
     7.6238   7.9635   8.4117   9.2542   9.4092  10.6232

          k =-0.5000 0.1668 0.2384 (  2426 PWs)   bands (ev):

   -45.1710 -21.8718 -21.8464 -21.7854  -6.3359  -5.7855  -5.6563  -4.4425
    -4.4051  -4.3322  -4.1661  -4.0801   3.2442   6.0285   6.2771   6.6829
     7.3462   8.2210   8.6742   9.1909   9.5278   9.9628

          k =-0.5000 0.1668-0.4767 (  2408 PWs)   bands (ev):

   -45.1706 -21.8946 -21.8450 -21.7844  -6.3197  -5.7516  -5.4928  -4.4367
    -4.3606  -4.3096  -4.1847  -3.9700   3.1334   5.7889   6.1458   6.2979
     6.7261   8.0498   8.8778   9.1365   9.1655  10.1713

          k =-0.5000 0.3337 0.0000 (  2454 PWs)   bands (ev):

   -45.1705 -21.8471 -21.8454 -21.8262  -6.1904  -5.7814  -5.7636  -4.4408
    -4.3744  -4.2404  -4.1632  -4.0963   2.9117   6.0640   6.5536   7.1947
     7.7241   7.8483   7.9645   9.0367   9.7137  10.0864

          k =-0.5000 0.3337 0.2384 (  2430 PWs)   bands (ev):

   -45.1702 -21.8699 -21.8442 -21.8253  -6.0518  -5.8106  -5.7803  -4.3974
    -4.3628  -4.1508  -4.0786  -4.0195   3.2153   5.8525   6.0053   6.0721
     6.8345   7.6210   8.4967   9.4808   9.5088  10.0579

          k =-0.5000 0.3337-0.4767 (  2420 PWs)   bands (ev):

   -45.1699 -21.8926 -21.8430 -21.8243  -6.0404  -5.8543  -5.6338  -4.3666
    -4.3402  -4.0879  -3.9930  -3.9142   3.5975   5.2864   5.4791   5.9120
     6.5663   6.9776   7.4278   9.9587  10.0304  10.1952

          k =-0.5000-0.5005 0.0000 (  2480 PWs)   bands (ev):

   -45.1701 -21.8464 -21.8458 -21.8443  -6.1345  -5.7381  -5.7366  -4.4299
    -4.3266  -4.1862  -4.1846  -4.0459   2.7177   5.9088   6.3890   7.4056
     7.4060   7.9600   7.9663   8.8038   9.2401  10.3475

          k =-0.5000-0.5005 0.2384 (  2432 PWs)   bands (ev):

   -45.1698 -21.8687 -21.8452 -21.8432  -5.9171  -5.8248  -5.8228  -4.3851
    -4.3244  -4.0393  -4.0368  -4.0112   3.1363   5.8654   5.9730   5.9752
     6.3957   7.5618   7.8415   9.5112   9.5120  10.3297

          k =-0.5000-0.5005-0.4767 (  2400 PWs)   bands (ev):

   -45.1695 -21.8914 -21.8441 -21.8420  -5.9003  -5.8980  -5.6930  -4.3403
    -4.3222  -3.9646  -3.9009  -3.8976   3.8154   5.3110   5.3129   5.7451
     6.4024   6.4179   6.6630  10.2067  10.2095  10.3122

     highest occupied level (ev):    11.0158

!    total energy              =    -380.57404379 Ry
     estimated scf accuracy    <          2.8E-09 Ry

     The total energy is the sum of the following terms:
     one-electron contribution =     -79.69799604 Ry
     hartree contribution      =      69.92512527 Ry
     xc contribution           =    -102.67636578 Ry
     ewald contribution        =    -268.12480724 Ry

     convergence has been achieved in   5 iterations

     negative rho (up, down):  1.531E-02 0.000E+00

     Forces acting on atoms (cartesian axes, Ry/au):

     atom    1 type  1   force =     0.00000000    0.00000000    0.00026026
     atom    2 type  2   force =     0.00000000    0.00000000    0.00040493
     atom    3 type  3   force =     0.00000000    0.00000000   -0.00031558
     atom    4 type  3   force =     0.00000000    0.00000000   -0.00007714
     atom    5 type  3   force =     0.00000000    0.00000000   -0.00027247

     Total force =     0.000641     Total SCF correction =     0.000198
     SCF correction compared to forces is large: reduce conv_thr to get better values


     Computing stress (Cartesian axis) and pressure


     negative rho (up, down):  1.531E-02 0.000E+00
          total   stress  (Ry/bohr**3)                   (kbar)     P=       -0.44
  -0.00001242   0.00000000   0.00000000           -1.83        0.00        0.00
   0.00000000   0.00000071   0.00000000            0.00        0.10        0.00
   0.00000000   0.00000000   0.00000273            0.00        0.00        0.40

     Energy error            =      1.3E-06 Ry
     Gradient error          =      4.0E-04 Ry/Bohr

     bfgs converged in   2 scf cycles and   1 bfgs steps
     (criteria: energy <  1.0E-04 Ry, force <  1.0E-03 Ry/Bohr)

     End of BFGS Geometry Optimization

     Final energy             =    -380.5740437946 Ry

     File ./pto_T4_eta0p004.bfgs deleted, as requested
Begin final coordinates

ATOMIC_POSITIONS (crystal)
Pb               0.0000000000        0.0000000000        1.0051881317
Ti               0.5000000000        0.5000000000        0.5396738490
O                0.5000000000        0.5000000000        0.0993912344
O                0.5000000000        0.0000000000        0.6115296651
O                0.0000000000        0.5000000000        0.6115014077
End final coordinates



     Writing all to output data dir ./pto_T4_eta0p004.save/ :
     XML data file, charge density, pseudopotentials, collected wavefunctions
 
     init_run     :      0.46s CPU      0.54s WALL (       1 calls)
     electrons    :     27.92s CPU     29.69s WALL (       2 calls)
     update_pot   :      0.00s CPU      0.00s WALL (       1 calls)
     forces       :      0.25s CPU      0.27s WALL (       2 calls)
     stress       :      2.74s CPU      2.77s WALL (       2 calls)

     Called by init_run:
     wfcinit      :      0.25s CPU      0.28s WALL (       1 calls)
     potinit      :      0.01s CPU      0.01s WALL (       1 calls)
     hinit0       :      0.11s CPU      0.14s WALL (       1 calls)

     Called by electrons:
     c_bands      :     24.51s CPU     26.05s WALL (      21 calls)
     sum_band     :      2.51s CPU      2.63s WALL (      21 calls)
     v_of_rho     :      0.03s CPU      0.03s WALL (      22 calls)
     newd         :      0.91s CPU      0.99s WALL (      22 calls)
     mix_rho      :      0.02s CPU      0.03s WALL (      21 calls)

     Called by c_bands:
     init_us_2    :      0.22s CPU      0.23s WALL (    2256 calls)
     init_us_2:cp :      0.21s CPU      0.22s WALL (    2256 calls)
     ccgdiagg     :     21.99s CPU     23.41s WALL (    1008 calls)
     wfcrot       :      2.58s CPU      2.71s WALL (     912 calls)

     Called by *cgdiagg:
     h_psi        :     13.89s CPU     14.74s WALL (   83596 calls)
     s_psi        :      2.16s CPU      2.30s WALL (  166280 calls)

     Called by h_psi:
     h_psi:calbec :      2.17s CPU      2.31s WALL (   83596 calls)
     vloc_psi     :      9.87s CPU     10.47s WALL (   83596 calls)
     add_vuspsi   :      1.18s CPU      1.26s WALL (   83596 calls)
     hs_1psi      :     13.38s CPU     14.24s WALL (   82684 calls)
     s_1psi       :      3.23s CPU      3.43s WALL (   82684 calls)

     General routines
     calbec       :      3.90s CPU      4.16s WALL (  167768 calls)
     fft          :      0.04s CPU      0.06s WALL (     146 calls)
     ffts         :      0.00s CPU      0.00s WALL (      43 calls)
     fftw         :      8.42s CPU      8.91s WALL (  228536 calls)
     interpolate  :      0.01s CPU      0.01s WALL (      22 calls)
 
     Parallel routines
 
     PWSCF        :     31.70s CPU     34.26s WALL

 
   This run was terminated on:   0:28:52  18Nov2025            

=------------------------------------------------------------------------------=
   JOB DONE.
=------------------------------------------------------------------------------=
TACC:  Shutdown complete. Exiting. 
