TACC:  Starting up job 2410614 
TACC:  Starting parallel tasks... 

     Program PWSCF v.7.3 starts on 24Sep2025 at 20: 2:46 

     This program is part of the open-source Quantum ESPRESSO suite
     for quantum simulation of materials; please cite
         "P. Giannozzi et al., J. Phys.:Condens. Matter 21 395502 (2009);
         "P. Giannozzi et al., J. Phys.:Condens. Matter 29 465901 (2017);
         "P. Giannozzi et al., J. Chem. Phys. 152 154105 (2020);
          URL http://www.quantum-espresso.org", 
     in publications or presentations arising from this work. More details at
     http://www.quantum-espresso.org/quote

     Parallel version (MPI & OpenMP), running on      10 processor cores
     Number of MPI processes:                10
     Threads/MPI process:                     1

     MPI processes distributed on     1 nodes
     186348 MiB available memory on the printing compute node when the environment starts
 
     Waiting for input...
     Reading input from standard input
Warning: card &CELL ignored
Warning: card  CELL_DYNAMICS = 'BFGS', ignored
Warning: card  PRESS=0.D0, ignored
Warning: card / ignored
     Message from routine read_cards :
     DEPRECATED: no units specified in ATOMIC_POSITIONS card
     Message from routine read_cards :
     ATOMIC_POSITIONS: units set to alat

     Current dimensions of program PWSCF are:
     Max number of different atomic species (ntypx) = 10
     Max number of k-points (npk) =  40000
     Max angular momentum in pseudopotentials (lmaxx) =  4
 
     R & G space division:  proc/nbgrp/npool/nimage =      10
     Subspace diagonalization in iterative solution of the eigenvalue problem:
     a serial algorithm will be used

 
     Parallelization info
     --------------------
     sticks:   dense  smooth     PW     G-vecs:    dense   smooth      PW
     Min         376     148     43                17392     4380     691
     Max         377     149     44                17397     4385     694
     Sum        3761    1489    437               173925    43819    6931
 
     Using Slab Decomposition
 


     bravais-lattice index     =            1
     lattice parameter (alat)  =       6.8793  a.u.
     unit-cell volume          =     325.5652 (a.u.)^3
     number of atoms/cell      =            5
     number of atomic types    =            3
     number of electrons       =        40.00
     number of Kohn-Sham states=           20
     kinetic-energy cutoff     =     100.0000  Ry
     charge density cutoff     =    1000.0000  Ry
     scf convergence threshold =      1.0E-08
     mixing beta               =       0.7000
     number of iterations used =            8  plain     mixing
     Exchange-correlation= SLA  PZ   NOGX NOGC
                           (   1   1   0   0   0   0   0)

     celldm(1)=   6.879328  celldm(2)=   0.000000  celldm(3)=   0.000000
     celldm(4)=   0.000000  celldm(5)=   0.000000  celldm(6)=   0.000000

     crystal axes: (cart. coord. in units of alat)
               a(1) = (   1.000000   0.000000   0.000000 )  
               a(2) = (   0.000000   1.000000   0.000000 )  
               a(3) = (   0.000000   0.000000   1.000000 )  

     reciprocal axes: (cart. coord. in units 2 pi/alat)
               b(1) = (  1.000000  0.000000  0.000000 )  
               b(2) = (  0.000000  1.000000  0.000000 )  
               b(3) = (  0.000000  0.000000  1.000000 )  


     PseudoPot. # 1 for Ca read from file:
     /scratch/11018/zhc/assisgnment1/CaTiO3/Ca_LDA.UPF
     MD5 check sum: d2d4e7693e10d071152e9eeb7dd009f3
     Pseudo is Ultrasoft + core correction, Zval = 10.0
     Generated by new atomic code, or converted to UPF format
     Using radial grid of  845 points,  6 beta functions with: 
                l(1) =   0
                l(2) =   0
                l(3) =   1
                l(4) =   1
                l(5) =   2
                l(6) =   2
     Q(r) pseudized with  8 coefficients,  rinner =    1.500   1.500   1.500
                                                       1.500   1.500

     PseudoPot. # 2 for Ti read from file:
     /scratch/11018/zhc/assisgnment1/CaTiO3/Ti_LDA.UPF
     MD5 check sum: 0d9f225c038fe889ca2a701dcc8d72cb
     Pseudo is Ultrasoft + core correction, Zval = 12.0
     Generated by new atomic code, or converted to UPF format
     Using radial grid of  851 points,  6 beta functions with: 
                l(1) =   0
                l(2) =   0
                l(3) =   1
                l(4) =   1
                l(5) =   2
                l(6) =   2
     Q(r) pseudized with  6 coefficients,  rinner =    1.000   1.000   1.000
                                                       1.000   1.000

     PseudoPot. # 3 for O  read from file:
     /scratch/11018/zhc/assisgnment1/CaTiO3/O_LDA.UPF
     MD5 check sum: 194b818514d2a7dbb603bb78519a4f40
     Pseudo is Ultrasoft + core correction, Zval =  6.0
     Generated by new atomic code, or converted to UPF format
     Using radial grid of  737 points,  5 beta functions with: 
                l(1) =   0
                l(2) =   0
                l(3) =   1
                l(4) =   1
                l(5) =   2
     Q(r) pseudized with  8 coefficients,  rinner =    0.900   0.900   0.900
                                                       0.900   0.900

     atomic species   valence    mass     pseudopotential
     Ca               10.00    40.07800     Ca( 1.00)
     Ti               12.00    47.88000     Ti( 1.00)
     O                 6.00    16.00000     O ( 1.00)

     48 Sym. Ops., with inversion, found



   Cartesian axes

     site n.     atom                  positions (alat units)
         1        Ca     tau(   1) = (   0.0000000   0.0000000   0.0000000  )
         2        Ti     tau(   2) = (   0.5000000   0.5000000   0.5000000  )
         3        O      tau(   3) = (   0.5000000   0.5000000   0.0000000  )
         4        O      tau(   4) = (   0.5000000   0.0000000   0.5000000  )
         5        O      tau(   5) = (   0.0000000   0.5000000   0.5000000  )

     number of k points=    20
                       cart. coord. in units 2pi/alat
        k(    1) = (   0.0000000   0.0000000   0.0000000), wk =   0.0092593
        k(    2) = (   0.0000000   0.0000000   0.1666667), wk =   0.0555556
        k(    3) = (   0.0000000   0.0000000   0.3333333), wk =   0.0555556
        k(    4) = (   0.0000000   0.0000000  -0.5000000), wk =   0.0277778
        k(    5) = (   0.0000000   0.1666667   0.1666667), wk =   0.1111111
        k(    6) = (   0.0000000   0.1666667   0.3333333), wk =   0.2222222
        k(    7) = (   0.0000000   0.1666667  -0.5000000), wk =   0.1111111
        k(    8) = (   0.0000000   0.3333333   0.3333333), wk =   0.1111111
        k(    9) = (   0.0000000   0.3333333  -0.5000000), wk =   0.1111111
        k(   10) = (   0.0000000  -0.5000000  -0.5000000), wk =   0.0277778
        k(   11) = (   0.1666667   0.1666667   0.1666667), wk =   0.0740741
        k(   12) = (   0.1666667   0.1666667   0.3333333), wk =   0.2222222
        k(   13) = (   0.1666667   0.1666667  -0.5000000), wk =   0.1111111
        k(   14) = (   0.1666667   0.3333333   0.3333333), wk =   0.2222222
        k(   15) = (   0.1666667   0.3333333  -0.5000000), wk =   0.2222222
        k(   16) = (   0.1666667  -0.5000000  -0.5000000), wk =   0.0555556
        k(   17) = (   0.3333333   0.3333333   0.3333333), wk =   0.0740741
        k(   18) = (   0.3333333   0.3333333  -0.5000000), wk =   0.1111111
        k(   19) = (   0.3333333  -0.5000000  -0.5000000), wk =   0.0555556
        k(   20) = (  -0.5000000  -0.5000000  -0.5000000), wk =   0.0092593

     Dense  grid:   173925 G-vectors     FFT dimensions: (  72,  72,  72)

     Smooth grid:    43819 G-vectors     FFT dimensions: (  45,  45,  45)

     Estimated max dynamical RAM per process >      76.16 MB

     Estimated total dynamical RAM >     761.56 MB

     Check: negative core charge=   -0.000001

     Initial potential from superposition of free atoms

     starting charge      38.9952, renormalised to      40.0000

     negative rho (up, down):  7.112E-04 0.000E+00
     Starting wfcs are   32 randomized atomic wfcs

     total cpu time spent up to now is        1.1 secs

     Self-consistent Calculation

     iteration #  1     ecut=   100.00 Ry     beta= 0.70
     CG style diagonalization
     ethr =  1.00E-02,  avg # of iterations =  2.1

     negative rho (up, down):  1.311E-03 0.000E+00

     total cpu time spent up to now is        1.9 secs

     total energy              =    -291.28172401 Ry
     estimated scf accuracy    <       0.83519211 Ry

     iteration #  2     ecut=   100.00 Ry     beta= 0.70
     CG style diagonalization
     ethr =  2.09E-03,  avg # of iterations =  4.7

     negative rho (up, down):  5.622E-04 0.000E+00

     total cpu time spent up to now is        3.1 secs

     total energy              =    -291.13654080 Ry
     estimated scf accuracy    <       2.70265405 Ry

     iteration #  3     ecut=   100.00 Ry     beta= 0.70
     CG style diagonalization
     ethr =  2.09E-03,  avg # of iterations =  4.2

     negative rho (up, down):  7.377E-04 0.000E+00

     total cpu time spent up to now is        4.1 secs

     total energy              =    -291.69460167 Ry
     estimated scf accuracy    <       0.08472442 Ry

     iteration #  4     ecut=   100.00 Ry     beta= 0.70
     CG style diagonalization
     ethr =  2.12E-04,  avg # of iterations =  3.7

     negative rho (up, down):  8.552E-04 0.000E+00

     total cpu time spent up to now is        5.1 secs

     total energy              =    -291.70846299 Ry
     estimated scf accuracy    <       0.00836928 Ry

     iteration #  5     ecut=   100.00 Ry     beta= 0.70
     CG style diagonalization
     ethr =  2.09E-05,  avg # of iterations =  3.8

     negative rho (up, down):  8.591E-04 0.000E+00

     total cpu time spent up to now is        6.1 secs

     total energy              =    -291.71140622 Ry
     estimated scf accuracy    <       0.00023839 Ry

     iteration #  6     ecut=   100.00 Ry     beta= 0.70
     CG style diagonalization
     ethr =  5.96E-07,  avg # of iterations =  4.0

     negative rho (up, down):  8.501E-04 0.000E+00

     total cpu time spent up to now is        7.2 secs

     total energy              =    -291.71154591 Ry
     estimated scf accuracy    <       0.00007677 Ry

     iteration #  7     ecut=   100.00 Ry     beta= 0.70
     CG style diagonalization
     ethr =  1.92E-07,  avg # of iterations =  3.5

     negative rho (up, down):  8.484E-04 0.000E+00

     total cpu time spent up to now is        8.1 secs

     total energy              =    -291.71155864 Ry
     estimated scf accuracy    <       0.00000593 Ry

     iteration #  8     ecut=   100.00 Ry     beta= 0.70
     CG style diagonalization
     ethr =  1.48E-08,  avg # of iterations =  4.0

     negative rho (up, down):  8.476E-04 0.000E+00

     total cpu time spent up to now is        9.2 secs

     total energy              =    -291.71156078 Ry
     estimated scf accuracy    <       0.00000019 Ry

     iteration #  9     ecut=   100.00 Ry     beta= 0.70
     CG style diagonalization
     ethr =  4.85E-10,  avg # of iterations =  4.7

     negative rho (up, down):  8.478E-04 0.000E+00

     total cpu time spent up to now is       10.3 secs

     total energy              =    -291.71156098 Ry
     estimated scf accuracy    <       0.00000003 Ry

     iteration # 10     ecut=   100.00 Ry     beta= 0.70
     CG style diagonalization
     ethr =  6.64E-11,  avg # of iterations =  4.1

     negative rho (up, down):  8.478E-04 0.000E+00

     total cpu time spent up to now is       11.4 secs

     End of self-consistent calculation

          k = 0.0000 0.0000 0.0000 (  5449 PWs)   bands (ev):

   -43.3731 -26.6382 -20.1726 -20.1726 -20.1726  -7.8806  -7.8806  -7.8806
    -6.4303  -5.1422  -5.1422   8.3028   8.3028   8.3028  10.0882  10.0882
    10.0882  11.3499  11.3499  11.3499

          k = 0.0000 0.0000 0.1667 (  5502 PWs)   bands (ev):

   -43.3721 -26.6345 -20.2184 -20.1701 -20.1701  -8.1108  -7.8745  -7.8745
    -6.0844  -5.1240  -4.9454   7.9283   8.2656   8.2656   9.6323   9.6323
     9.7637  10.3217  11.1955  11.1955

          k = 0.0000 0.0000 0.3333 (  5522 PWs)   bands (ev):

   -43.3702 -26.6270 -20.3077 -20.1651 -20.1651  -8.4490  -7.8624  -7.8624
    -5.4794  -5.0871  -4.5333   7.0550   8.2351   8.2351   8.8786   8.8786
     8.9011   9.2156  11.0570  11.0570

          k = 0.0000 0.0000-0.5000 (  5478 PWs)   bands (ev):

   -43.3693 -26.6233 -20.3514 -20.1625 -20.1625  -8.5878  -7.8563  -7.8563
    -5.2036  -5.0685  -4.2962   6.5204   8.3813   8.3813   8.4036   8.4036
     8.4042   8.9762  11.0117  11.0117

          k = 0.0000 0.1667 0.1667 (  5481 PWs)   bands (ev):

   -43.3712 -26.6304 -20.2177 -20.2151 -20.1676  -8.1471  -7.9767  -7.8678
    -5.8272  -5.0262  -4.8401   7.5803   8.1472   8.2180   8.8445   9.3075
    10.0733  10.1882  10.5284  10.9526

          k = 0.0000 0.1667 0.3333 (  5495 PWs)   bands (ev):

   -43.3693 -26.6224 -20.3070 -20.2126 -20.1627  -8.3766  -7.9687  -7.8543
    -5.3910  -4.9317  -4.4508   6.9099   7.4891   8.1588   8.2611   8.6905
     9.1518  10.1241  10.3312  10.7388

          k = 0.0000 0.1667-0.5000 (  5478 PWs)   bands (ev):

   -43.3684 -26.6184 -20.3512 -20.2107 -20.1602  -8.4926  -7.9465  -7.8475
    -5.2450  -4.8523  -4.1974   6.5164   6.9817   8.1740   8.2573   8.2890
     8.8479  10.1305  10.1841  10.6785

          k = 0.0000 0.3333 0.3333 (  5492 PWs)   bands (ev):

   -43.3674 -26.6132 -20.3067 -20.3041 -20.1580  -8.2646  -8.1303  -7.8379
    -5.3950  -4.4505  -4.2339   6.2310   7.1653   7.2510   8.0239   8.2970
     9.2250   9.4668  10.4001  11.0043

          k = 0.0000 0.3333-0.5000 (  5480 PWs)   bands (ev):

   -43.3665 -26.6086 -20.3508 -20.3046 -20.1556  -8.2968  -8.1149  -7.8297
    -5.4324  -4.2600  -4.0084   5.9238   6.5115   7.1826   8.0227   8.0404
     9.1562   9.4338  10.2995  11.1818

          k = 0.0000-0.5000-0.5000 (  5472 PWs)   bands (ev):

   -43.3656 -26.6037 -20.3506 -20.3506 -20.1533  -8.1941  -8.1941  -7.8208
    -5.5369  -3.9170  -3.9170   5.5406   6.5033   6.5174   7.9112   7.9112
     9.3114   9.3114  10.1818  11.5035

          k = 0.1667 0.1667 0.1667 (  5497 PWs)   bands (ev):

   -43.3703 -26.6263 -20.2150 -20.2150 -20.2130  -8.1550  -7.9599  -7.9599
    -5.6054  -4.8467  -4.8467   7.2979   8.0147   8.0147   8.7292   8.7292
     9.8258  10.4384  10.4730  10.4730

          k = 0.1667 0.1667 0.3333 (  5497 PWs)   bands (ev):

   -43.3684 -26.6179 -20.3056 -20.2108 -20.2095  -8.3134  -7.9742  -7.9256
    -5.2065  -4.8609  -4.4156   6.7824   7.4574   7.5502   7.9199   8.4416
     9.5202  10.1429  10.3647  10.4169

          k = 0.1667 0.1667-0.5000 (  5500 PWs)   bands (ev):

   -43.3674 -26.6137 -20.3502 -20.2093 -20.2067  -8.4115  -7.9529  -7.9082
    -5.0406  -4.8684  -4.1398   6.5159   6.8486   7.3110   7.7427   8.4088
     9.6302   9.9215  10.2890  10.3248

          k = 0.1667 0.3333 0.3333 (  5485 PWs)   bands (ev):

   -43.3665 -26.6089 -20.3035 -20.3021 -20.2052  -8.2167  -8.1017  -7.9118
    -5.1186  -4.4542  -4.2813   6.2938   7.1440   7.1540   7.5507   7.6206
     9.1069  10.1744  10.2134  11.0330

          k = 0.1667 0.3333-0.5000 (  5500 PWs)   bands (ev):

   -43.3656 -26.6044 -20.3481 -20.3014 -20.2028  -8.2473  -8.0902  -7.8963
    -5.1430  -4.3300  -4.0326   6.0598   6.5193   7.1219   7.2329   7.5744
     9.1471  10.1027  10.1886  11.2078

          k = 0.1667-0.5000-0.5000 (  5524 PWs)   bands (ev):

   -43.3647 -26.5997 -20.3471 -20.3471 -20.2002  -8.1627  -8.1627  -7.8828
    -5.2335  -3.9826  -3.9826   5.7303   6.5235   6.5252   7.2554   7.2554
     9.1521  10.1479  10.1479  11.5372

          k = 0.3333 0.3333 0.3333 (  5514 PWs)   bands (ev):

   -43.3647 -26.6003 -20.2988 -20.2970 -20.2970  -8.1356  -8.0424  -8.0424
    -4.5906  -4.3789  -4.3789   6.3140   6.7932   6.7932   7.2614   7.2614
     7.6443  10.8170  10.8170  11.2108

          k = 0.3333 0.3333-0.5000 (  5534 PWs)   bands (ev):

   -43.3638 -26.5960 -20.3428 -20.2963 -20.2937  -8.1479  -8.0533  -8.0115
    -4.5423  -4.4291  -4.0865   6.2569   6.5352   6.5525   6.7453   7.2503
     7.5470  10.9188  11.0571  11.3476

          k = 0.3333-0.5000-0.5000 (  5524 PWs)   bands (ev):

   -43.3629 -26.5918 -20.3401 -20.3401 -20.2918  -8.0973  -8.0973  -8.0039
    -4.5629  -4.1162  -4.1162   6.1186   6.5358   6.5646   6.5646   6.5686
     7.3954  11.2069  11.2069  11.6065

          k =-0.5000-0.5000-0.5000 (  5520 PWs)   bands (ev):

   -43.3620 -26.5878 -20.3366 -20.3366 -20.3366  -8.0630  -8.0630  -8.0630
    -4.1845  -4.1845  -4.1845   6.3179   6.3179   6.3179   6.5420   6.5420
     6.6286  11.6422  11.6422  11.6422

     highest occupied level (ev):    11.6422

!    total energy              =    -291.71156099 Ry
     estimated scf accuracy    <          9.9E-10 Ry

     The total energy is the sum of the following terms:
     one-electron contribution =     -71.63996133 Ry
     hartree contribution      =      59.85711237 Ry
     xc contribution           =     -51.97496500 Ry
     ewald contribution        =    -227.95374703 Ry

     convergence has been achieved in  10 iterations

     negative rho (up, down):  8.478E-04 0.000E+00

     Forces acting on atoms (cartesian axes, Ry/au):

     atom    1 type  1   force =     0.00000000    0.00000000    0.00000000
     atom    2 type  2   force =     0.00000000    0.00000000    0.00000000
     atom    3 type  3   force =     0.00000000    0.00000000    0.00000000
     atom    4 type  3   force =     0.00000000    0.00000000    0.00000000
     atom    5 type  3   force =     0.00000000    0.00000000    0.00000000

     Total force =     0.000000     Total SCF correction =     0.000000


     Computing stress (Cartesian axis) and pressure


     negative rho (up, down):  8.478E-04 0.000E+00
          total   stress  (Ry/bohr**3)                   (kbar)     P=      368.51
   0.00250507   0.00000000   0.00000000          368.51        0.00        0.00
   0.00000000   0.00250507   0.00000000            0.00      368.51        0.00
   0.00000000   0.00000000   0.00250507            0.00        0.00      368.51


     Writing all to output data dir ./CTO_module_2.save/ :
     XML data file, charge density, pseudopotentials, collected wavefunctions
 
     init_run     :      0.73s CPU      0.83s WALL (       1 calls)
     electrons    :      9.69s CPU     10.33s WALL (       1 calls)
     forces       :      0.18s CPU      0.19s WALL (       1 calls)
     stress       :      1.44s CPU      1.48s WALL (       1 calls)

     Called by init_run:
     wfcinit      :      0.22s CPU      0.25s WALL (       1 calls)
     potinit      :      0.02s CPU      0.02s WALL (       1 calls)
     hinit0       :      0.14s CPU      0.17s WALL (       1 calls)

     Called by electrons:
     c_bands      :      7.13s CPU      7.37s WALL (      10 calls)
     sum_band     :      1.68s CPU      1.81s WALL (      10 calls)
     v_of_rho     :      0.03s CPU      0.03s WALL (      11 calls)
     newd         :      0.90s CPU      1.16s WALL (      11 calls)
     mix_rho      :      0.02s CPU      0.02s WALL (      10 calls)

     Called by c_bands:
     init_us_2    :      0.10s CPU      0.10s WALL (     460 calls)
     init_us_2:cp :      0.10s CPU      0.10s WALL (     460 calls)
     ccgdiagg     :      6.02s CPU      6.23s WALL (     200 calls)
     wfcrot       :      1.24s CPU      1.29s WALL (     200 calls)

     Called by *cgdiagg:
     h_psi        :      5.05s CPU      5.21s WALL (   12124 calls)
     s_psi        :      0.60s CPU      0.62s WALL (   24048 calls)

     Called by h_psi:
     h_psi:calbec :      0.62s CPU      0.64s WALL (   12124 calls)
     vloc_psi     :      3.98s CPU      4.11s WALL (   12124 calls)
     add_vuspsi   :      0.34s CPU      0.36s WALL (   12124 calls)
     hs_1psi      :      4.31s CPU      4.46s WALL (   11924 calls)
     s_1psi       :      0.74s CPU      0.76s WALL (   11924 calls)

     General routines
     calbec       :      1.04s CPU      1.07s WALL (   24348 calls)
     fft          :      0.04s CPU      0.05s WALL (      72 calls)
     ffts         :      0.00s CPU      0.01s WALL (      21 calls)
     fftw         :      3.54s CPU      3.65s WALL (   36328 calls)
     interpolate  :      0.01s CPU      0.01s WALL (      11 calls)
 
     Parallel routines
 
     PWSCF        :     12.27s CPU     13.46s WALL

 
   This run was terminated on:  20: 3: 0  24Sep2025            

=------------------------------------------------------------------------------=
   JOB DONE.
=------------------------------------------------------------------------------=
TACC:  Shutdown complete. Exiting. 
