TACC:  Starting up job 2553091 
TACC:  Starting parallel tasks... 

     Program PWSCF v.7.3 starts on 15Nov2025 at  2:32:31 

     This program is part of the open-source Quantum ESPRESSO suite
     for quantum simulation of materials; please cite
         "P. Giannozzi et al., J. Phys.:Condens. Matter 21 395502 (2009);
         "P. Giannozzi et al., J. Phys.:Condens. Matter 29 465901 (2017);
         "P. Giannozzi et al., J. Chem. Phys. 152 154105 (2020);
          URL http://www.quantum-espresso.org", 
     in publications or presentations arising from this work. More details at
     http://www.quantum-espresso.org/quote

     Parallel version (MPI & OpenMP), running on      10 processor cores
     Number of MPI processes:                10
     Threads/MPI process:                     1

     MPI processes distributed on     1 nodes
     179980 MiB available memory on the printing compute node when the environment starts
 
     Waiting for input...
     Reading input from standard input
Warning: card &CELL ignored
Warning: card  CELL_DYNAMICS = 'BFGS', ignored
Warning: card  PRESS=0.D0, ignored
Warning: card / ignored

     Current dimensions of program PWSCF are:
     Max number of different atomic species (ntypx) = 10
     Max number of k-points (npk) =  40000
     Max angular momentum in pseudopotentials (lmaxx) =  4
     Message from routine setup:
     using ibrav=0 with symmetry is DISCOURAGED, use correct ibrav instead
 
     R & G space division:  proc/nbgrp/npool/nimage =      10
     Subspace diagonalization in iterative solution of the eigenvalue problem:
     a serial algorithm will be used

 
     Parallelization info
     --------------------
     sticks:   dense  smooth     PW     G-vecs:    dense   smooth      PW
     Min         216      86     26                 7944     2004     338
     Max         217      87     27                 7947     2007     341
     Sum        2161     869    261                79447    20063    3391
 
     Using Slab Decomposition
 


     bravais-lattice index     =            0
     lattice parameter (alat)  =       7.3699  a.u.
     unit-cell volume          =     420.8329 (a.u.)^3
     number of atoms/cell      =            5
     number of atomic types    =            3
     number of electrons       =        44.00
     number of Kohn-Sham states=           22
     kinetic-energy cutoff     =      50.0000  Ry
     charge density cutoff     =     500.0000  Ry
     scf convergence threshold =      1.0E-08
     mixing beta               =       0.7000
     number of iterations used =            8  plain     mixing
     energy convergence thresh.=      1.0E-04
     force convergence thresh. =      1.0E-03
     Exchange-correlation= SLA  PZ   NOGX NOGC
                           (   1   1   0   0   0   0   0)
     nstep                     =           50


     celldm(1)=   7.369932  celldm(2)=   0.000000  celldm(3)=   0.000000
     celldm(4)=   0.000000  celldm(5)=   0.000000  celldm(6)=   0.000000

     crystal axes: (cart. coord. in units of alat)
               a(1) = (   1.000000   0.000000   0.000000 )  
               a(2) = (   0.000000   1.000000   0.000000 )  
               a(3) = (   0.000000   0.000000   1.051282 )  

     reciprocal axes: (cart. coord. in units 2 pi/alat)
               b(1) = (  1.000000  0.000000  0.000000 )  
               b(2) = (  0.000000  1.000000  0.000000 )  
               b(3) = (  0.000000  0.000000  0.951220 )  


     PseudoPot. # 1 for Pb read from file:
     /scratch/11018/zhc/assisgnment3/input_files/Pb_LDA.UPF
     MD5 check sum: 062a37469794d955244864f8fe2e5624
     Pseudo is Ultrasoft + core correction, Zval = 14.0
     Generated by new atomic code, or converted to UPF format
     Using radial grid of  899 points,  6 beta functions with: 
                l(1) =   0
                l(2) =   0
                l(3) =   1
                l(4) =   1
                l(5) =   2
                l(6) =   2
     Q(r) pseudized with  6 coefficients,  rinner =    1.000   1.000   1.000
                                                       1.000   1.000

     PseudoPot. # 2 for Ti read from file:
     /scratch/11018/zhc/assisgnment3/input_files/Ti_LDA.UPF
     MD5 check sum: 0d9f225c038fe889ca2a701dcc8d72cb
     Pseudo is Ultrasoft + core correction, Zval = 12.0
     Generated by new atomic code, or converted to UPF format
     Using radial grid of  851 points,  6 beta functions with: 
                l(1) =   0
                l(2) =   0
                l(3) =   1
                l(4) =   1
                l(5) =   2
                l(6) =   2
     Q(r) pseudized with  6 coefficients,  rinner =    1.000   1.000   1.000
                                                       1.000   1.000

     PseudoPot. # 3 for O  read from file:
     /scratch/11018/zhc/assisgnment3/input_files/O_LDA.UPF
     MD5 check sum: 194b818514d2a7dbb603bb78519a4f40
     Pseudo is Ultrasoft + core correction, Zval =  6.0
     Generated by new atomic code, or converted to UPF format
     Using radial grid of  737 points,  5 beta functions with: 
                l(1) =   0
                l(2) =   0
                l(3) =   1
                l(4) =   1
                l(5) =   2
     Q(r) pseudized with  8 coefficients,  rinner =    0.900   0.900   0.900
                                                       0.900   0.900

     atomic species   valence    mass     pseudopotential
     Pb               14.00   207.20000     Pb( 1.00)
     Ti               12.00    47.88000     Ti( 1.00)
     O                 6.00    16.00000     O ( 1.00)

      8 Sym. Ops. (no inversion) found



   Cartesian axes

     site n.     atom                  positions (alat units)
         1        Pb     tau(   1) = (   0.0000000   0.0000000   1.0580339  )
         2        Ti     tau(   2) = (   0.5000000   0.5000000   0.5681377  )
         3        O      tau(   3) = (   0.5000000   0.5000000   0.1036357  )
         4        O      tau(   4) = (   0.5000000   0.0000000   0.6422586  )
         5        O      tau(   5) = (   0.0000000   0.5000000   0.6422586  )

     number of k points=    75
                       cart. coord. in units 2pi/alat
        k(    1) = (   0.0000000   0.0000000   0.0000000), wk =   0.0039062
        k(    2) = (   0.0000000   0.0000000   0.1189024), wk =   0.0078125
        k(    3) = (   0.0000000   0.0000000   0.2378049), wk =   0.0078125
        k(    4) = (   0.0000000   0.0000000   0.3567073), wk =   0.0078125
        k(    5) = (   0.0000000   0.0000000  -0.4756098), wk =   0.0039062
        k(    6) = (   0.0000000   0.1250000   0.0000000), wk =   0.0156250
        k(    7) = (   0.0000000   0.1250000   0.1189024), wk =   0.0312500
        k(    8) = (   0.0000000   0.1250000   0.2378049), wk =   0.0312500
        k(    9) = (   0.0000000   0.1250000   0.3567073), wk =   0.0312500
        k(   10) = (   0.0000000   0.1250000  -0.4756098), wk =   0.0156250
        k(   11) = (   0.0000000   0.2500000   0.0000000), wk =   0.0156250
        k(   12) = (   0.0000000   0.2500000   0.1189024), wk =   0.0312500
        k(   13) = (   0.0000000   0.2500000   0.2378049), wk =   0.0312500
        k(   14) = (   0.0000000   0.2500000   0.3567073), wk =   0.0312500
        k(   15) = (   0.0000000   0.2500000  -0.4756098), wk =   0.0156250
        k(   16) = (   0.0000000   0.3750000   0.0000000), wk =   0.0156250
        k(   17) = (   0.0000000   0.3750000   0.1189024), wk =   0.0312500
        k(   18) = (   0.0000000   0.3750000   0.2378049), wk =   0.0312500
        k(   19) = (   0.0000000   0.3750000   0.3567073), wk =   0.0312500
        k(   20) = (   0.0000000   0.3750000  -0.4756098), wk =   0.0156250
        k(   21) = (   0.0000000  -0.5000000   0.0000000), wk =   0.0078125
        k(   22) = (   0.0000000  -0.5000000   0.1189024), wk =   0.0156250
        k(   23) = (   0.0000000  -0.5000000   0.2378049), wk =   0.0156250
        k(   24) = (   0.0000000  -0.5000000   0.3567073), wk =   0.0156250
        k(   25) = (   0.0000000  -0.5000000  -0.4756098), wk =   0.0078125
        k(   26) = (   0.1250000   0.1250000   0.0000000), wk =   0.0156250
        k(   27) = (   0.1250000   0.1250000   0.1189024), wk =   0.0312500
        k(   28) = (   0.1250000   0.1250000   0.2378049), wk =   0.0312500
        k(   29) = (   0.1250000   0.1250000   0.3567073), wk =   0.0312500
        k(   30) = (   0.1250000   0.1250000  -0.4756098), wk =   0.0156250
        k(   31) = (   0.1250000   0.2500000   0.0000000), wk =   0.0312500
        k(   32) = (   0.1250000   0.2500000   0.1189024), wk =   0.0625000
        k(   33) = (   0.1250000   0.2500000   0.2378049), wk =   0.0625000
        k(   34) = (   0.1250000   0.2500000   0.3567073), wk =   0.0625000
        k(   35) = (   0.1250000   0.2500000  -0.4756098), wk =   0.0312500
        k(   36) = (   0.1250000   0.3750000   0.0000000), wk =   0.0312500
        k(   37) = (   0.1250000   0.3750000   0.1189024), wk =   0.0625000
        k(   38) = (   0.1250000   0.3750000   0.2378049), wk =   0.0625000
        k(   39) = (   0.1250000   0.3750000   0.3567073), wk =   0.0625000
        k(   40) = (   0.1250000   0.3750000  -0.4756098), wk =   0.0312500
        k(   41) = (   0.1250000  -0.5000000   0.0000000), wk =   0.0156250
        k(   42) = (   0.1250000  -0.5000000   0.1189024), wk =   0.0312500
        k(   43) = (   0.1250000  -0.5000000   0.2378049), wk =   0.0312500
        k(   44) = (   0.1250000  -0.5000000   0.3567073), wk =   0.0312500
        k(   45) = (   0.1250000  -0.5000000  -0.4756098), wk =   0.0156250
        k(   46) = (   0.2500000   0.2500000   0.0000000), wk =   0.0156250
        k(   47) = (   0.2500000   0.2500000   0.1189024), wk =   0.0312500
        k(   48) = (   0.2500000   0.2500000   0.2378049), wk =   0.0312500
        k(   49) = (   0.2500000   0.2500000   0.3567073), wk =   0.0312500
        k(   50) = (   0.2500000   0.2500000  -0.4756098), wk =   0.0156250
        k(   51) = (   0.2500000   0.3750000   0.0000000), wk =   0.0312500
        k(   52) = (   0.2500000   0.3750000   0.1189024), wk =   0.0625000
        k(   53) = (   0.2500000   0.3750000   0.2378049), wk =   0.0625000
        k(   54) = (   0.2500000   0.3750000   0.3567073), wk =   0.0625000
        k(   55) = (   0.2500000   0.3750000  -0.4756098), wk =   0.0312500
        k(   56) = (   0.2500000  -0.5000000   0.0000000), wk =   0.0156250
        k(   57) = (   0.2500000  -0.5000000   0.1189024), wk =   0.0312500
        k(   58) = (   0.2500000  -0.5000000   0.2378049), wk =   0.0312500
        k(   59) = (   0.2500000  -0.5000000   0.3567073), wk =   0.0312500
        k(   60) = (   0.2500000  -0.5000000  -0.4756098), wk =   0.0156250
        k(   61) = (   0.3750000   0.3750000   0.0000000), wk =   0.0156250
        k(   62) = (   0.3750000   0.3750000   0.1189024), wk =   0.0312500
        k(   63) = (   0.3750000   0.3750000   0.2378049), wk =   0.0312500
        k(   64) = (   0.3750000   0.3750000   0.3567073), wk =   0.0312500
        k(   65) = (   0.3750000   0.3750000  -0.4756098), wk =   0.0156250
        k(   66) = (   0.3750000  -0.5000000   0.0000000), wk =   0.0156250
        k(   67) = (   0.3750000  -0.5000000   0.1189024), wk =   0.0312500
        k(   68) = (   0.3750000  -0.5000000   0.2378049), wk =   0.0312500
        k(   69) = (   0.3750000  -0.5000000   0.3567073), wk =   0.0312500
        k(   70) = (   0.3750000  -0.5000000  -0.4756098), wk =   0.0156250
        k(   71) = (  -0.5000000  -0.5000000   0.0000000), wk =   0.0039062
        k(   72) = (  -0.5000000  -0.5000000   0.1189024), wk =   0.0078125
        k(   73) = (  -0.5000000  -0.5000000   0.2378049), wk =   0.0078125
        k(   74) = (  -0.5000000  -0.5000000   0.3567073), wk =   0.0078125
        k(   75) = (  -0.5000000  -0.5000000  -0.4756098), wk =   0.0039062

     Dense  grid:    79447 G-vectors     FFT dimensions: (  54,  54,  60)

     Smooth grid:    20063 G-vectors     FFT dimensions: (  36,  36,  36)

     Estimated max dynamical RAM per process >      41.39 MB

     Estimated total dynamical RAM >     413.90 MB

     Check: negative core charge=   -0.000004

     Initial potential from superposition of free atoms

     starting charge      42.9982, renormalised to      44.0000

     negative rho (up, down):  1.690E-02 0.000E+00
     Starting wfcs are   31 randomized atomic wfcs

     total cpu time spent up to now is        0.9 secs

     Self-consistent Calculation

     iteration #  1     ecut=    50.00 Ry     beta= 0.70
     CG style diagonalization
     ethr =  1.00E-02,  avg # of iterations =  2.1

     negative rho (up, down):  1.407E-02 0.000E+00

     total cpu time spent up to now is        2.1 secs

     total energy              =    -380.04728170 Ry
     estimated scf accuracy    <       1.03343017 Ry

     iteration #  2     ecut=    50.00 Ry     beta= 0.70
     CG style diagonalization
     ethr =  2.35E-03,  avg # of iterations =  4.9

     negative rho (up, down):  1.455E-02 0.000E+00

     total cpu time spent up to now is        4.4 secs

     total energy              =    -379.55628535 Ry
     estimated scf accuracy    <       5.12511775 Ry

     iteration #  3     ecut=    50.00 Ry     beta= 0.70
     CG style diagonalization
     ethr =  2.35E-03,  avg # of iterations =  4.5

     negative rho (up, down):  1.524E-02 0.000E+00

     total cpu time spent up to now is        6.5 secs

     total energy              =    -380.53234484 Ry
     estimated scf accuracy    <       0.36456941 Ry

     iteration #  4     ecut=    50.00 Ry     beta= 0.70
     CG style diagonalization
     ethr =  8.29E-04,  avg # of iterations =  3.4

     negative rho (up, down):  1.523E-02 0.000E+00

     total cpu time spent up to now is        8.0 secs

     total energy              =    -380.55284774 Ry
     estimated scf accuracy    <       0.07062775 Ry

     iteration #  5     ecut=    50.00 Ry     beta= 0.70
     CG style diagonalization
     ethr =  1.61E-04,  avg # of iterations =  3.7

     negative rho (up, down):  1.523E-02 0.000E+00

     total cpu time spent up to now is        9.8 secs

     total energy              =    -380.56664681 Ry
     estimated scf accuracy    <       0.00804069 Ry

     iteration #  6     ecut=    50.00 Ry     beta= 0.70
     CG style diagonalization
     ethr =  1.83E-05,  avg # of iterations =  4.1

     negative rho (up, down):  1.524E-02 0.000E+00

     total cpu time spent up to now is       11.7 secs

     total energy              =    -380.57090178 Ry
     estimated scf accuracy    <       0.00678733 Ry

     iteration #  7     ecut=    50.00 Ry     beta= 0.70
     CG style diagonalization
     ethr =  1.54E-05,  avg # of iterations =  3.2

     negative rho (up, down):  1.525E-02 0.000E+00

     total cpu time spent up to now is       13.1 secs

     total energy              =    -380.57055399 Ry
     estimated scf accuracy    <       0.00266604 Ry

     iteration #  8     ecut=    50.00 Ry     beta= 0.70
     CG style diagonalization
     ethr =  6.06E-06,  avg # of iterations =  3.6

     negative rho (up, down):  1.526E-02 0.000E+00

     total cpu time spent up to now is       14.7 secs

     total energy              =    -380.57103895 Ry
     estimated scf accuracy    <       0.00001198 Ry

     iteration #  9     ecut=    50.00 Ry     beta= 0.70
     CG style diagonalization
     c_bands:  1 eigenvalues not converged
     c_bands:  1 eigenvalues not converged
     c_bands:  1 eigenvalues not converged
     c_bands:  1 eigenvalues not converged
     c_bands:  1 eigenvalues not converged
     c_bands:  1 eigenvalues not converged
     ethr =  2.72E-08,  avg # of iterations =  7.7

     negative rho (up, down):  1.531E-02 0.000E+00

     total cpu time spent up to now is       18.4 secs

     total energy              =    -380.57110879 Ry
     estimated scf accuracy    <       0.00002359 Ry

     iteration # 10     ecut=    50.00 Ry     beta= 0.70
     CG style diagonalization
     ethr =  2.72E-08,  avg # of iterations =  3.4

     negative rho (up, down):  1.540E-02 0.000E+00

     total cpu time spent up to now is       19.9 secs

     total energy              =    -380.57110496 Ry
     estimated scf accuracy    <       0.00001125 Ry

     iteration # 11     ecut=    50.00 Ry     beta= 0.70
     CG style diagonalization
     ethr =  2.56E-08,  avg # of iterations =  3.9

     negative rho (up, down):  1.539E-02 0.000E+00

     total cpu time spent up to now is       21.7 secs

     total energy              =    -380.57110809 Ry
     estimated scf accuracy    <       0.00000353 Ry

     iteration # 12     ecut=    50.00 Ry     beta= 0.70
     CG style diagonalization
     ethr =  8.02E-09,  avg # of iterations =  4.1

     negative rho (up, down):  1.540E-02 0.000E+00

     total cpu time spent up to now is       23.6 secs

     total energy              =    -380.57110918 Ry
     estimated scf accuracy    <       0.00000004 Ry

     iteration # 13     ecut=    50.00 Ry     beta= 0.70
     CG style diagonalization
     c_bands:  1 eigenvalues not converged
     c_bands:  1 eigenvalues not converged
     c_bands:  1 eigenvalues not converged
     c_bands:  1 eigenvalues not converged
     c_bands:  1 eigenvalues not converged
     c_bands:  1 eigenvalues not converged
     c_bands:  2 eigenvalues not converged
     c_bands:  1 eigenvalues not converged
     c_bands:  1 eigenvalues not converged
     c_bands:  1 eigenvalues not converged
     c_bands:  3 eigenvalues not converged
     c_bands:  1 eigenvalues not converged
     c_bands:  1 eigenvalues not converged
     c_bands:  1 eigenvalues not converged
     c_bands:  2 eigenvalues not converged
     c_bands:  1 eigenvalues not converged
     c_bands:  1 eigenvalues not converged
     c_bands:  1 eigenvalues not converged
     c_bands:  2 eigenvalues not converged
     c_bands:  2 eigenvalues not converged
     c_bands:  1 eigenvalues not converged
     c_bands:  1 eigenvalues not converged
     c_bands:  2 eigenvalues not converged
     c_bands:  1 eigenvalues not converged
     c_bands:  1 eigenvalues not converged
     ethr =  8.46E-11,  avg # of iterations = 12.8

     negative rho (up, down):  1.540E-02 0.000E+00

     total cpu time spent up to now is       29.8 secs

     total energy              =    -380.57111017 Ry
     estimated scf accuracy    <       0.00000003 Ry

     iteration # 14     ecut=    50.00 Ry     beta= 0.70
     CG style diagonalization
     ethr =  6.96E-11,  avg # of iterations =  3.6

     negative rho (up, down):  1.541E-02 0.000E+00

     total cpu time spent up to now is       31.5 secs

     total energy              =    -380.57111017 Ry
     estimated scf accuracy    <       0.00000003 Ry

     iteration # 15     ecut=    50.00 Ry     beta= 0.70
     CG style diagonalization
     ethr =  6.00E-11,  avg # of iterations =  3.3

     negative rho (up, down):  1.541E-02 0.000E+00

     total cpu time spent up to now is       33.0 secs

     total energy              =    -380.57111016 Ry
     estimated scf accuracy    <       0.00000001 Ry

     iteration # 16     ecut=    50.00 Ry     beta= 0.70
     CG style diagonalization
     ethr =  2.98E-11,  avg # of iterations =  4.5

     negative rho (up, down):  1.541E-02 0.000E+00

     total cpu time spent up to now is       35.1 secs

     End of self-consistent calculation

          k = 0.0000 0.0000 0.0000 (  2525 PWs)   bands (ev):

   -45.8547 -22.4895 -22.4277 -22.4277  -7.5146  -6.4344  -6.2034  -5.0268
    -5.0268  -4.9921  -4.8709  -4.7663   4.2240   6.3077   6.3077   6.6256
     8.2734   8.2734   8.4917   8.7770   8.9405   8.9405

          k = 0.0000 0.0000 0.1189 (  2541 PWs)   bands (ev):

   -45.8546 -22.4952 -22.4275 -22.4275  -7.4595  -6.4177  -6.1859  -5.0313
    -5.0313  -4.9917  -4.8685  -4.7866   3.9508   6.3290   6.3290   6.8340
     8.1827   8.1827   8.4665   8.6300   8.9791   8.9791

          k = 0.0000 0.0000 0.2378 (  2517 PWs)   bands (ev):

   -45.8545 -22.5090 -22.4269 -22.4269  -7.3214  -6.3755  -6.1458  -5.0420
    -5.0420  -4.9908  -4.8632  -4.8375   3.4622   6.3770   6.3770   6.7863
     8.0071   8.0071   8.4075   8.8274   9.0466   9.0466

          k = 0.0000 0.0000 0.3567 (  2526 PWs)   bands (ev):

   -45.8543 -22.5227 -22.4264 -22.4264  -7.1745  -6.3304  -6.1096  -5.0527
    -5.0527  -4.9899  -4.8913  -4.8588   3.0947   6.3528   6.4184   6.4184
     7.8710   7.8710   8.3502   9.0978   9.0978   9.5557

          k = 0.0000 0.0000-0.4756 (  2530 PWs)   bands (ev):

   -45.8542 -22.5284 -22.4262 -22.4262  -7.1104  -6.3107  -6.0963  -5.0571
    -5.0571  -4.9896  -4.9146  -4.8574   2.9643   6.1458   6.4332   6.4332
     7.8235   7.8235   8.3270   9.1167   9.1167   9.9990

          k = 0.0000 0.1250 0.0000 (  2525 PWs)   bands (ev):

   -45.8545 -22.4891 -22.4377 -22.4273  -7.4363  -6.4171  -6.1862  -5.0395
    -5.0261  -4.9996  -4.8740  -4.7600   3.9553   6.3329   6.3699   6.7051
     8.1646   8.2895   8.5106   8.6998   8.7124   9.0199

          k = 0.0000 0.1250 0.1189 (  2523 PWs)   bands (ev):

   -45.8545 -22.4948 -22.4375 -22.4270  -7.3834  -6.4031  -6.1684  -5.0415
    -5.0306  -4.9993  -4.8719  -4.7747   3.7458   6.2861   6.3927   6.8913
     8.0143   8.1872   8.5383   8.5627   8.7645   9.0548

          k = 0.0000 0.1250 0.2378 (  2519 PWs)   bands (ev):

   -45.8543 -22.5085 -22.4369 -22.4265  -7.2516  -6.3680  -6.1261  -5.0450
    -5.0415  -4.9986  -4.8692  -4.8104   3.3356   6.2257   6.4434   6.8993
     7.7461   8.0060   8.4655   8.5993   8.8425   9.2792

          k = 0.0000 0.1250 0.3567 (  2528 PWs)   bands (ev):

   -45.8541 -22.5222 -22.4364 -22.4259  -7.1138  -6.3305  -6.0852  -5.0524
    -5.0476  -4.9979  -4.8719  -4.8444   3.0074   6.0722   6.4866   6.6323
     7.6263   7.8728   8.5713   8.5982   8.8970   9.7190

          k = 0.0000 0.1250-0.4756 (  2514 PWs)   bands (ev):

   -45.8540 -22.5278 -22.4361 -22.4257  -7.0547  -6.3140  -6.0689  -5.0569
    -5.0486  -4.9976  -4.8762  -4.8560   2.8881   5.9461   6.5016   6.5506
     7.5931   7.8277   8.5834   8.6275   8.9167   9.9855

          k = 0.0000 0.2500 0.0000 (  2503 PWs)   bands (ev):

   -45.8541 -22.4882 -22.4619 -22.4263  -7.2375  -6.3753  -6.1487  -5.0649
    -5.0242  -5.0175  -4.8781  -4.7558   3.4751   6.2810   6.5431   6.5756
     8.1487   8.1853   8.3861   8.4163   8.7069   9.1774

          k = 0.0000 0.2500 0.1189 (  2505 PWs)   bands (ev):

   -45.8540 -22.4938 -22.4616 -22.4260  -7.1920  -6.3662  -6.1290  -5.0602
    -5.0289  -5.0175  -4.8749  -4.7590   3.3453   6.1900   6.5698   6.6781
     7.9279   8.0855   8.3501   8.4394   8.6130   9.3246

          k = 0.0000 0.2500 0.2378 (  2512 PWs)   bands (ev):

   -45.8538 -22.5074 -22.4610 -22.4255  -7.0842  -6.3414  -6.0772  -5.0463
    -5.0403  -5.0173  -4.8775  -4.7606   3.0617   6.0393   6.6278   6.7165
     7.5853   7.9051   7.9302   8.5029   8.8587   9.5241

          k = 0.0000 0.2500 0.3567 (  2512 PWs)   bands (ev):

   -45.8536 -22.5209 -22.4604 -22.4249  -6.9813  -6.3095  -6.0195  -5.0516
    -5.0298  -5.0170  -4.8911  -4.7565   2.8113   5.8259   6.5897   6.6733
     7.3448   7.7720   7.8271   8.5444   9.0304   9.6717

          k = 0.0000 0.2500-0.4756 (  2508 PWs)   bands (ev):

   -45.8536 -22.5264 -22.4601 -22.4247  -6.9409  -6.2932  -5.9939  -5.0563
    -5.0228  -5.0169  -4.8981  -4.7544   2.7157   5.7004   6.5276   6.6873
     7.2682   7.7762   7.7959   8.5597   9.0771   9.7295

          k = 0.0000 0.3750 0.0000 (  2500 PWs)   bands (ev):

   -45.8536 -22.4884 -22.4847 -22.4252  -7.0204  -6.3255  -6.1277  -5.0869
    -5.0355  -5.0221  -4.8675  -4.7741   3.1271   5.8352   6.7517   6.7893
     7.6855   7.7299   8.3141   8.4230   8.7910   9.8758

          k = 0.0000 0.3750 0.1189 (  2506 PWs)   bands (ev):

   -45.8536 -22.4929 -22.4855 -22.4250  -6.9899  -6.3134  -6.1061  -5.0781
    -5.0356  -5.0270  -4.8565  -4.7700   3.0377   5.8215   6.7086   6.8245
     7.4599   7.6942   8.4118   8.4423   8.5662   9.8745

          k = 0.0000 0.3750 0.2378 (  2511 PWs)   bands (ev):

   -45.8534 -22.5061 -22.4850 -22.4244  -6.9278  -6.2778  -6.0406  -5.0549
    -5.0391  -5.0357  -4.8611  -4.7347   2.8326   5.7664   6.5360   6.8967
     7.1453   7.6272   7.8980   8.3926   8.9432   9.7535

          k = 0.0000 0.3750 0.3567 (  2518 PWs)   bands (ev):

   -45.8532 -22.5194 -22.4843 -22.4238  -6.8839  -6.2306  -5.9565  -5.0508
    -5.0360  -5.0279  -4.8884  -4.6862   2.6413   5.6242   6.2817   6.9394
     7.0915   7.4706   7.6006   8.3816   9.2575   9.5612

          k = 0.0000 0.3750-0.4756 (  2518 PWs)   bands (ev):

   -45.8531 -22.5250 -22.4840 -22.4236  -6.8709  -6.2075  -5.9161  -5.0556
    -5.0361  -5.0144  -4.9039  -4.6659   2.5657   5.5180   6.2025   6.9454
     7.1090   7.3227   7.6047   8.3788   9.3060   9.5297

          k = 0.0000-0.5000 0.0000 (  2488 PWs)   bands (ev):

   -45.8535 -22.4962 -22.4864 -22.4248  -6.9237  -6.2952  -6.1324  -5.0959
    -5.0429  -5.0213  -4.8472  -4.7992   3.0106   5.6190   6.9603   6.9713
     7.3488   7.4686   8.2685   8.4475   8.8103  10.3554

          k = 0.0000-0.5000 0.1189 (  2506 PWs)   bands (ev):

   -45.8534 -22.4959 -22.4920 -22.4246  -6.9039  -6.2749  -6.1123  -5.0868
    -5.0430  -5.0264  -4.8133  -4.8104   2.9325   5.6154   6.9041   7.0266
     7.1127   7.4237   8.4288   8.4910   8.5248  10.2069

          k = 0.0000-0.5000 0.2378 (  2506 PWs)   bands (ev):

   -45.8532 -22.5054 -22.4951 -22.4240  -6.8712  -6.2241  -6.0405  -5.0635
    -5.0434  -5.0384  -4.8402  -4.7353   2.7516   5.5909   6.5906   6.8581
     7.1652   7.3161   7.9693   8.3928   8.9300   9.8610

          k = 0.0000-0.5000 0.3567 (  2526 PWs)   bands (ev):

   -45.8530 -22.5188 -22.4942 -22.4234  -6.8574  -6.1707  -5.9375  -5.0504
    -5.0439  -5.0368  -4.8755  -4.6627   2.5806   5.5037   6.1644   6.8884
     7.2108   7.3118   7.5301   8.3658   9.1909   9.6191

          k = 0.0000-0.5000-0.4756 (  2516 PWs)   bands (ev):

   -45.8529 -22.5243 -22.4939 -22.4232  -6.8561  -6.1477  -5.8867  -5.0553
    -5.0440  -5.0236  -4.8931  -4.6342   2.5124   5.4239   6.0397   6.9195
     7.1682   7.3701   7.3752   8.3566   9.1473   9.6521

          k = 0.1250 0.1250 0.0000 (  2509 PWs)   bands (ev):

   -45.8544 -22.4887 -22.4374 -22.4372  -7.3589  -6.3995  -6.1763  -5.0413
    -5.0364  -5.0056  -4.8661  -4.7539   3.7472   6.3091   6.4337   6.7685
     7.9229   8.1926   8.4366   8.5729   8.9222   9.1055

          k = 0.1250 0.1250 0.1189 (  2511 PWs)   bands (ev):

   -45.8543 -22.4944 -22.4372 -22.4370  -7.3076  -6.3884  -6.1586  -5.0419
    -5.0396  -5.0053  -4.8635  -4.7638   3.5872   6.2857   6.3356   6.9487
     7.8409   8.0706   8.3768   8.6195   8.9313   9.0706

          k = 0.1250 0.1250 0.2378 (  2521 PWs)   bands (ev):

   -45.8541 -22.5081 -22.4366 -22.4364  -7.1811  -6.3610  -6.1155  -5.0545
    -5.0323  -5.0046  -4.8600  -4.7894   3.2476   6.2208   6.2631   6.9428
     7.7110   7.7787   8.3364   8.6792   8.9514   9.2735

          k = 0.1250 0.1250 0.3567 (  2515 PWs)   bands (ev):

   -45.8539 -22.5217 -22.4360 -22.4359  -7.0508  -6.3327  -6.0715  -5.0657
    -5.0196  -5.0043  -4.8615  -4.8172   2.9578   6.0947   6.1465   6.7436
     7.6356   7.7090   8.2965   8.7009   8.9725   9.6661

          k = 0.1250 0.1250-0.4756 (  2512 PWs)   bands (ev):

   -45.8538 -22.5273 -22.4357 -22.4356  -6.9956  -6.3206  -6.0527  -5.0699
    -5.0114  -5.0052  -4.8641  -4.8295   2.8493   5.9536   6.1136   6.7094
     7.6148   7.6999   8.2865   8.7029   8.9824   9.8599

          k = 0.1250 0.2500 0.0000 (  2507 PWs)   bands (ev):

   -45.8539 -22.4878 -22.4614 -22.4362  -7.1627  -6.3574  -6.1570  -5.0665
    -5.0332  -5.0083  -4.8553  -4.7498   3.3395   6.2400   6.5773   6.6261
     7.6840   7.8925   8.3801   8.6209   8.8350   9.3775

          k = 0.1250 0.2500 0.1189 (  2500 PWs)   bands (ev):

   -45.8538 -22.4934 -22.4612 -22.4360  -7.1178  -6.3522  -6.1387  -5.0616
    -5.0368  -5.0059  -4.8508  -4.7491   3.2514   6.1766   6.3566   6.7924
     7.5787   7.8586   8.3584   8.6380   8.7863   9.3859

          k = 0.1250 0.2500 0.2378 (  2499 PWs)   bands (ev):

   -45.8536 -22.5069 -22.4605 -22.4354  -7.0119  -6.3381  -6.0898  -5.0553
    -5.0367  -4.9981  -4.8473  -4.7454   3.0392   6.0070   6.2439   6.7523
     7.2897   7.6450   8.3807   8.6326   8.9159   9.4482

          k = 0.1250 0.2500 0.3567 (  2521 PWs)   bands (ev):

   -45.8535 -22.5204 -22.4599 -22.4349  -6.9119  -6.3203  -6.0326  -5.0598
    -5.0243  -4.9822  -4.8557  -4.7395   2.8334   5.8010   6.1912   6.5317
     7.1170   7.5474   8.3160   8.6860   9.0735   9.4953

          k = 0.1250 0.2500-0.4756 (  2512 PWs)   bands (ev):

   -45.8534 -22.5259 -22.4596 -22.4346  -6.8730  -6.3113  -6.0059  -5.0620
    -5.0197  -4.9706  -4.8635  -4.7371   2.7511   5.6902   6.1351   6.4695
     7.0960   7.5278   8.2746   8.7119   9.1212   9.5015

          k = 0.1250 0.3750 0.0000 (  2515 PWs)   bands (ev):

   -45.8535 -22.4879 -22.4842 -22.4352  -6.9496  -6.3091  -6.1545  -5.0824
    -5.0262  -5.0022  -4.8445  -4.7677   3.0232   5.8421   6.6296   6.8813
     7.2649   7.8050   8.0985   8.6144   8.8784   9.8525

          k = 0.1250 0.3750 0.1189 (  2508 PWs)   bands (ev):

   -45.8534 -22.4925 -22.4849 -22.4350  -6.9178  -6.3028  -6.1358  -5.0744
    -5.0292  -4.9976  -4.8335  -4.7592   2.9749   5.8266   6.3779   6.8349
     7.2663   7.8150   8.0992   8.6813   8.7476   9.7729

          k = 0.1250 0.3750 0.2378 (  2508 PWs)   bands (ev):

   -45.8532 -22.5056 -22.4845 -22.4344  -6.8541  -6.2823  -6.0770  -5.0586
    -5.0306  -4.9860  -4.8298  -4.7203   2.8489   5.7605   6.1532   6.5550
     6.9663   7.7557   8.1866   8.5390   8.9899   9.5503

          k = 0.1250 0.3750 0.3567 (  2512 PWs)   bands (ev):

   -45.8530 -22.5190 -22.4838 -22.4338  -6.8106  -6.2526  -5.9980  -5.0553
    -5.0175  -4.9683  -4.8458  -4.6715   2.7138   5.6012   6.0855   6.3484
     6.5909   7.6465   8.3363   8.4381   9.0759   9.4539

          k = 0.1250 0.3750-0.4756 (  2522 PWs)   bands (ev):

   -45.8529 -22.5245 -22.4835 -22.4335  -6.7985  -6.2381  -5.9590  -5.0560
    -5.0101  -4.9562  -4.8577  -4.6513   2.6562   5.4928   6.0813   6.2959
     6.4538   7.6188   8.3783   8.4098   8.9636   9.5323

          k = 0.1250-0.5000 0.0000 (  2524 PWs)   bands (ev):

   -45.8533 -22.4956 -22.4860 -22.4348  -6.8548  -6.2792  -6.1676  -5.0857
    -5.0233  -4.9972  -4.8281  -4.7933   2.9136   5.6291   6.7434   7.0451
     7.1384   7.4615   8.1396   8.5896   8.8996  10.1335

          k = 0.1250-0.5000 0.1189 (  2518 PWs)   bands (ev):

   -45.8532 -22.4953 -22.4915 -22.4345  -6.8328  -6.2653  -6.1517  -5.0768
    -5.0259  -4.9929  -4.7983  -4.7960   2.8770   5.6241   6.4037   6.8609
     7.3028   7.5452   8.1154   8.6980   8.7295   9.9558

          k = 0.1250-0.5000 0.2378 (  2510 PWs)   bands (ev):

   -45.8530 -22.5049 -22.4945 -22.4339  -6.7975  -6.2316  -6.0878  -5.0591
    -5.0251  -4.9838  -4.8134  -4.7201   2.7789   5.5945   6.1362   6.4251
     6.9720   7.9053   7.9425   8.5670   8.9752   9.5669

          k = 0.1250-0.5000 0.3567 (  2514 PWs)   bands (ev):

   -45.8528 -22.5183 -22.4937 -22.4333  -6.7844  -6.1976  -5.9913  -5.0543
    -5.0047  -4.9743  -4.8350  -4.6482   2.6694   5.4956   6.0728   6.0749
     6.6122   7.7663   8.1465   8.4751   8.9024   9.5409

          k = 0.1250-0.5000-0.4756 (  2532 PWs)   bands (ev):

   -45.8528 -22.5238 -22.4934 -22.4331  -6.7841  -6.1835  -5.9433  -5.0547
    -4.9906  -4.9696  -4.8471  -4.6197   2.6214   5.4091   5.9769   6.0837
     6.4664   7.7300   8.2134   8.4376   8.7304   9.6562

          k = 0.2500 0.2500 0.0000 (  2528 PWs)   bands (ev):

   -45.8535 -22.4868 -22.4603 -22.4602  -6.9767  -6.3150  -6.1785  -5.0662
    -5.0359  -4.9841  -4.8133  -4.7449   3.0386   6.2069   6.4012   6.7814
     7.2449   7.4913   8.2786   8.6180   9.0475   9.5686

          k = 0.2500 0.2500 0.1189 (  2512 PWs)   bands (ev):

   -45.8534 -22.4924 -22.4601 -22.4599  -6.9342  -6.3185  -6.1637  -5.0583
    -5.0380  -4.9766  -4.8054  -4.7350   3.0220   6.1063   6.2217   6.5689
     7.3039   7.4728   8.4926   8.5445   9.0638   9.4523

          k = 0.2500 0.2500 0.2378 (  2504 PWs)   bands (ev):

   -45.8532 -22.5057 -22.4595 -22.4593  -6.8376  -6.3271  -6.1191  -5.0410
    -5.0381  -4.9552  -4.7892  -4.7132   2.9609   5.8564   5.9111   6.4415
     7.1166   7.1512   8.6200   8.8821   9.1291   9.2216

          k = 0.2500 0.2500 0.3567 (  2513 PWs)   bands (ev):

   -45.8530 -22.5191 -22.4589 -22.4587  -6.7524  -6.3358  -6.0581  -5.0415
    -5.0189  -4.9237  -4.7805  -4.6938   2.8723   5.6185   5.7856   6.1932
     6.8210   7.0418   8.6719   9.0097   9.0595   9.2530

          k = 0.2500 0.2500-0.4756 (  2520 PWs)   bands (ev):

   -45.8529 -22.5247 -22.4586 -22.4585  -6.7213  -6.3395  -6.0270  -5.0410
    -5.0118  -4.9050  -4.7812  -4.6863   2.8288   5.5256   5.7452   6.0609
     6.7502   7.0239   8.6147   9.0199   9.0341   9.3070

          k = 0.2500 0.3750 0.0000 (  2521 PWs)   bands (ev):

   -45.8530 -22.4868 -22.4830 -22.4590  -6.7818  -6.2707  -6.2049  -5.0648
    -5.0213  -4.9427  -4.7841  -4.7600   2.7738   5.8583   6.3569   6.8845
     7.0271   7.5350   7.8455   8.6630   9.1659   9.6097

          k = 0.2500 0.3750 0.1189 (  2518 PWs)   bands (ev):

   -45.8529 -22.4915 -22.4837 -22.4588  -6.7453  -6.2784  -6.1954  -5.0551
    -5.0206  -4.9288  -4.7738  -4.7400   2.8018   5.8311   6.1544   6.3687
     7.0600   7.5908   8.1640   8.6377   9.1763   9.4236

          k = 0.2500 0.3750 0.2378 (  2508 PWs)   bands (ev):

   -45.8528 -22.5045 -22.4833 -22.4583  -6.6742  -6.2931  -6.1546  -5.0345
    -5.0142  -4.8970  -4.7520  -4.6887   2.8579   5.6613   5.7403   6.0621
     6.7597   7.2409   8.4880   8.9221   9.0868   9.2461

          k = 0.2500 0.3750 0.3567 (  2507 PWs)   bands (ev):

   -45.8526 -22.5178 -22.4826 -22.4577  -6.6319  -6.3026  -6.0834  -5.0244
    -4.9951  -4.8628  -4.7344  -4.6363   2.8905   5.4469   5.4823   5.8972
     6.4013   6.9932   8.2198   9.0497   9.1375   9.4430

          k = 0.2500 0.3750-0.4756 (  2508 PWs)   bands (ev):

   -45.8525 -22.5233 -22.4824 -22.4574  -6.6225  -6.3057  -6.0448  -5.0221
    -4.9851  -4.8459  -4.7291  -4.6149   2.8950   5.3398   5.4352   5.8133
     6.2543   6.9480   8.0215   9.0784   9.1631   9.5552

          k = 0.2500-0.5000 0.0000 (  2530 PWs)   bands (ev):

   -45.8528 -22.4943 -22.4850 -22.4586  -6.6983  -6.2427  -6.2262  -5.0626
    -5.0139  -4.9103  -4.7874  -4.7685   2.6748   5.6439   6.4425   6.6848
     7.2979   7.4705   7.6295   8.7168   9.1526   9.6030

          k = 0.2500-0.5000 0.1189 (  2512 PWs)   bands (ev):

   -45.8528 -22.4940 -22.4905 -22.4583  -6.6667  -6.2451  -6.2238  -5.0525
    -5.0123  -4.8918  -4.7767  -4.7446   2.7163   5.6374   6.1476   6.3110
     7.0350   7.7838   7.8868   8.6949   9.1516   9.3857

          k = 0.2500-0.5000 0.2378 (  2506 PWs)   bands (ev):

   -45.8526 -22.5038 -22.4933 -22.4578  -6.6172  -6.2513  -6.1843  -5.0314
    -5.0029  -4.8568  -4.7522  -4.6793   2.8121   5.5993   5.6008   5.9380
     6.6961   7.3342   8.3037   8.9333   9.0169   9.2806

          k = 0.2500-0.5000 0.3567 (  2506 PWs)   bands (ev):

   -45.8524 -22.5171 -22.4926 -22.4572  -6.6053  -6.2581  -6.0989  -5.0200
    -4.9811  -4.8263  -4.7290  -4.6103   2.8940   5.3317   5.4366   5.6813
     6.3424   7.0651   7.8856   9.0867   9.1212   9.5269

          k = 0.2500-0.5000-0.4756 (  2504 PWs)   bands (ev):

   -45.8523 -22.5226 -22.4923 -22.4570  -6.6082  -6.2611  -6.0536  -5.0172
    -4.9695  -4.8131  -4.7197  -4.5819   2.9209   5.2767   5.3146   5.6191
     6.1855   7.0145   7.6376   9.1226   9.1481   9.6707

          k = 0.3750 0.3750 0.0000 (  2512 PWs)   bands (ev):

   -45.8526 -22.4863 -22.4830 -22.4811  -6.6322  -6.2312  -6.2272  -5.0513
    -4.9936  -4.8828  -4.7727  -4.7218   2.5317   5.7453   6.0334   6.9197
     7.1625   7.2372   7.7219   8.4352   9.1487   9.5572

          k = 0.3750 0.3750 0.1189 (  2519 PWs)   bands (ev):

   -45.8525 -22.4905 -22.4827 -22.4821  -6.5869  -6.2507  -6.2338  -5.0402
    -4.9905  -4.8578  -4.7437  -4.7088   2.6091   5.7264   5.9503   6.2479
     6.6772   7.6284   8.3190   8.3193   8.8955   9.5573

          k = 0.3750 0.3750 0.2378 (  2509 PWs)   bands (ev):

   -45.8523 -22.5033 -22.4821 -22.4820  -6.4988  -6.2949  -6.2239  -5.0134
    -4.9847  -4.8023  -4.6745  -4.6719   2.8145   5.5128   5.6113   5.7444
     6.3715   7.0680   8.0186   9.0094   9.0103   9.5582

          k = 0.3750 0.3750 0.3567 (  2498 PWs)   bands (ev):

   -45.8521 -22.5165 -22.4815 -22.4815  -6.4609  -6.3359  -6.1580  -4.9866
    -4.9802  -4.7509  -4.6287  -4.6066   3.0518   5.1329   5.2473   5.6200
     6.3064   6.4804   7.3582   9.3888   9.4378   9.5659

          k = 0.3750 0.3750-0.4756 (  2500 PWs)   bands (ev):

   -45.8521 -22.5220 -22.4812 -22.4812  -6.4587  -6.3521  -6.1157  -4.9785
    -4.9755  -4.7293  -4.6099  -4.5790   3.1607   5.0169   5.1089   5.5432
     6.2739   6.2951   7.0725   9.5110   9.5349   9.6079

          k = 0.3750-0.5000 0.0000 (  2520 PWs)   bands (ev):

   -45.8524 -22.4930 -22.4849 -22.4812  -6.5839  -6.2253  -6.2097  -5.0464
    -4.9763  -4.8400  -4.7969  -4.6992   2.4346   5.5720   6.0305   6.8501
     7.1754   7.4510   7.5052   8.3911   8.8941   9.6800

          k = 0.3750-0.5000 0.1189 (  2522 PWs)   bands (ev):

   -45.8523 -22.4927 -22.4896 -22.4819  -6.5341  -6.2447  -6.2290  -5.0352
    -4.9732  -4.8055  -4.7668  -4.6855   2.5266   5.5622   5.9735   6.2138
     6.5697   7.7774   8.0724   8.4168   8.6008   9.6749

          k = 0.3750-0.5000 0.2378 (  2514 PWs)   bands (ev):

   -45.8521 -22.5027 -22.4920 -22.4816  -6.4371  -6.2729  -6.2616  -5.0084
    -4.9676  -4.7361  -4.6944  -4.6397   2.7807   5.5130   5.5179   5.6391
     6.2239   7.1047   7.6638   8.9973   9.0259   9.6678

          k = 0.3750-0.5000 0.3567 (  2508 PWs)   bands (ev):

   -45.8519 -22.5159 -22.4914 -22.4810  -6.4200  -6.3135  -6.1909  -4.9827
    -4.9623  -4.6850  -4.6229  -4.5753   3.1044   5.0539   5.2183   5.4609
     6.1467   6.5325   6.8768   9.4363   9.5046   9.6640

          k = 0.3750-0.5000-0.4756 (  2496 PWs)   bands (ev):

   -45.8519 -22.5214 -22.4911 -22.4808  -6.4300  -6.3294  -6.1426  -4.9737
    -4.9587  -4.6660  -4.5936  -4.5457   3.2725   4.8979   5.0691   5.4015
     6.1036   6.3669   6.5265   9.5636   9.6494   9.6877

          k =-0.5000-0.5000 0.0000 (  2496 PWs)   bands (ev):

   -45.8522 -22.4924 -22.4924 -22.4831  -6.5603  -6.1972  -6.1972  -5.0409
    -4.9490  -4.8093  -4.8093  -4.6724   2.3357   5.4602   5.9638   6.9974
     6.9974   7.5190   7.5190   8.2454   8.5819   9.8308

          k =-0.5000-0.5000 0.1189 (  2524 PWs)   bands (ev):

   -45.8521 -22.4921 -22.4921 -22.4886  -6.5051  -6.2236  -6.2236  -5.0297
    -4.9485  -4.7675  -4.7675  -4.6634   2.4421   5.4499   5.9656   6.3276
     6.3276   7.8577   8.1741   8.2292   8.2292   9.8262

          k =-0.5000-0.5000 0.2378 (  2508 PWs)   bands (ev):

   -45.8520 -22.5020 -22.4915 -22.4915  -6.3701  -6.2822  -6.2822  -5.0027
    -4.9472  -4.6710  -4.6710  -4.6386   2.7456   5.4135   5.6158   5.6158
     5.9700   7.0796   7.2564   9.0184   9.0184   9.8153

          k =-0.5000-0.5000 0.3567 (  2512 PWs)   bands (ev):

   -45.8518 -22.5153 -22.4909 -22.4909  -6.3351  -6.3351  -6.2330  -4.9757
    -4.9459  -4.6084  -4.5791  -4.5791   3.1651   5.1457   5.1457   5.3419
     5.9743   6.3255   6.4580   9.5270   9.5270   9.8044

          k =-0.5000-0.5000-0.4756 (  2504 PWs)   bands (ev):

   -45.8517 -22.5208 -22.4906 -22.4906  -6.3557  -6.3557  -6.1757  -4.9646
    -4.9454  -4.5939  -4.5421  -4.5421   3.4114   4.9819   4.9819   5.2899
     5.8882   5.9762   6.2453   9.6928   9.6928   9.8000

     highest occupied level (ev):    10.3554

!    total energy              =    -380.57111017 Ry
     estimated scf accuracy    <          2.2E-09 Ry

     The total energy is the sum of the following terms:
     one-electron contribution =     -84.08396021 Ry
     hartree contribution      =      71.16900421 Ry
     xc contribution           =    -102.54199472 Ry
     ewald contribution        =    -265.11415945 Ry

     convergence has been achieved in  16 iterations

     negative rho (up, down):  1.541E-02 0.000E+00

     Forces acting on atoms (cartesian axes, Ry/au):

     atom    1 type  1   force =     0.00000000    0.00000000   -0.00775923
     atom    2 type  2   force =     0.00000000    0.00000000   -0.01202007
     atom    3 type  3   force =     0.00000000    0.00000000    0.02001475
     atom    4 type  3   force =     0.00000000    0.00000000   -0.00011773
     atom    5 type  3   force =     0.00000000    0.00000000   -0.00011773

     Total force =     0.024603     Total SCF correction =     0.000046


     Computing stress (Cartesian axis) and pressure


     negative rho (up, down):  1.541E-02 0.000E+00
          total   stress  (Ry/bohr**3)                   (kbar)     P=      -65.58
  -0.00043260   0.00000000   0.00000000          -63.64        0.00        0.00
   0.00000000  -0.00043260   0.00000000            0.00      -63.64        0.00
   0.00000000   0.00000000  -0.00047228            0.00        0.00      -69.47


     BFGS Geometry Optimization
     Energy error            =      0.0E+00 Ry
     Gradient error          =      2.0E-02 Ry/Bohr

     number of scf cycles    =   1
     number of bfgs steps    =   0

     energy             new  =    -380.5711101665 Ry

     new trust radius        =       0.0200147539 bohr
     new conv_thr            =       0.0000000100 Ry


ATOMIC_POSITIONS (crystal)
Pb               0.0000000000        0.0000000000        1.0054210425
Ti               0.5000000000        0.5000000000        0.5388722955
O                0.5000000000        0.5000000000        0.1011635575
O                0.5000000000        0.0000000000        0.6109136962
O                0.0000000000        0.5000000000        0.6109136962



     Writing config-only to output data dir ./pto_k8.save/ :
     XML data file
     NEW-OLD atomic charge density approx. for the potential

     Check: negative core charge=   -0.000004

     negative rho (up, down):  1.527E-02 0.000E+00

     total cpu time spent up to now is       37.4 secs

     Self-consistent Calculation

     iteration #  1     ecut=    50.00 Ry     beta= 0.70
     CG style diagonalization
     c_bands:  2 eigenvalues not converged
     c_bands:  1 eigenvalues not converged
     c_bands:  1 eigenvalues not converged
     c_bands:  1 eigenvalues not converged
     c_bands:  1 eigenvalues not converged
     c_bands:  1 eigenvalues not converged
     c_bands:  1 eigenvalues not converged
     c_bands:  1 eigenvalues not converged
     c_bands:  1 eigenvalues not converged
     c_bands:  2 eigenvalues not converged
     c_bands:  1 eigenvalues not converged
     c_bands:  2 eigenvalues not converged
     c_bands:  1 eigenvalues not converged
     c_bands:  1 eigenvalues not converged
     c_bands:  1 eigenvalues not converged
     c_bands:  2 eigenvalues not converged
     c_bands:  2 eigenvalues not converged
     c_bands:  2 eigenvalues not converged
     ethr =  1.00E-06,  avg # of iterations =  6.9

     negative rho (up, down):  1.525E-02 0.000E+00

     total cpu time spent up to now is       41.0 secs

     total energy              =    -380.57146410 Ry
     estimated scf accuracy    <       0.00023199 Ry

     iteration #  2     ecut=    50.00 Ry     beta= 0.70
     CG style diagonalization
     ethr =  5.27E-07,  avg # of iterations =  4.8

     negative rho (up, down):  1.526E-02 0.000E+00

     total cpu time spent up to now is       43.3 secs

     total energy              =    -380.57143837 Ry
     estimated scf accuracy    <       0.00069007 Ry

     iteration #  3     ecut=    50.00 Ry     beta= 0.70
     CG style diagonalization
     ethr =  5.27E-07,  avg # of iterations =  4.3

     negative rho (up, down):  1.526E-02 0.000E+00

     total cpu time spent up to now is       45.2 secs

     total energy              =    -380.57157301 Ry
     estimated scf accuracy    <       0.00005327 Ry

     iteration #  4     ecut=    50.00 Ry     beta= 0.70
     CG style diagonalization
     ethr =  1.21E-07,  avg # of iterations =  3.7

     negative rho (up, down):  1.525E-02 0.000E+00

     total cpu time spent up to now is       46.9 secs

     total energy              =    -380.57158644 Ry
     estimated scf accuracy    <       0.00000567 Ry

     iteration #  5     ecut=    50.00 Ry     beta= 0.70
     CG style diagonalization
     ethr =  1.29E-08,  avg # of iterations =  4.3

     negative rho (up, down):  1.525E-02 0.000E+00

     total cpu time spent up to now is       49.0 secs

     total energy              =    -380.57158962 Ry
     estimated scf accuracy    <       0.00000062 Ry

     iteration #  6     ecut=    50.00 Ry     beta= 0.70
     CG style diagonalization
     ethr =  1.40E-09,  avg # of iterations =  4.6

     negative rho (up, down):  1.525E-02 0.000E+00

     total cpu time spent up to now is       51.1 secs

     total energy              =    -380.57158996 Ry
     estimated scf accuracy    <       0.00000031 Ry

     iteration #  7     ecut=    50.00 Ry     beta= 0.70
     CG style diagonalization
     ethr =  7.14E-10,  avg # of iterations =  4.0

     negative rho (up, down):  1.525E-02 0.000E+00

     total cpu time spent up to now is       52.9 secs

     total energy              =    -380.57159003 Ry
     estimated scf accuracy    <       0.00000007 Ry

     iteration #  8     ecut=    50.00 Ry     beta= 0.70
     CG style diagonalization
     ethr =  1.62E-10,  avg # of iterations =  4.5

     negative rho (up, down):  1.525E-02 0.000E+00

     total cpu time spent up to now is       55.0 secs

     End of self-consistent calculation

          k = 0.0000 0.0000 0.0000 (  2525 PWs)   bands (ev):

   -45.8204 -22.4771 -22.3928 -22.3928  -7.5118  -6.4284  -6.2137  -5.0294
    -5.0294  -4.9964  -4.8782  -4.7641   4.2144   6.3112   6.3112   6.6550
     8.2069   8.2069   8.4930   8.7212   8.9489   8.9489

          k = 0.0000 0.0000 0.1189 (  2541 PWs)   bands (ev):

   -45.8203 -22.4829 -22.3926 -22.3926  -7.4560  -6.4117  -6.1969  -5.0339
    -5.0339  -4.9961  -4.8758  -4.7845   3.9405   6.3301   6.3301   6.8616
     8.1247   8.1247   8.4677   8.5840   8.9856   8.9856

          k = 0.0000 0.0000 0.2378 (  2517 PWs)   bands (ev):

   -45.8202 -22.4967 -22.3920 -22.3920  -7.3159  -6.3694  -6.1585  -5.0446
    -5.0446  -4.9952  -4.8704  -4.8354   3.4483   6.3711   6.3711   6.8014
     7.9654   7.9654   8.4084   8.8095   9.0519   9.0519

          k = 0.0000 0.0000 0.3567 (  2526 PWs)   bands (ev):

   -45.8200 -22.5105 -22.3915 -22.3915  -7.1663  -6.3242  -6.1246  -5.0552
    -5.0552  -4.9943  -4.8893  -4.8660   3.0761   6.3648   6.4040   6.4040
     7.8446   7.8446   8.3508   9.1030   9.1030   9.5540

          k = 0.0000 0.0000-0.4756 (  2530 PWs)   bands (ev):

   -45.8199 -22.5161 -22.3913 -22.3913  -7.1009  -6.3044  -6.1125  -5.0596
    -5.0596  -4.9939  -4.9127  -4.8645   2.9435   6.1590   6.4148   6.4148
     7.8037   7.8037   8.3275   9.1219   9.1219  10.0020

          k = 0.0000 0.1250 0.0000 (  2525 PWs)   bands (ev):

   -45.8202 -22.4767 -22.4029 -22.3924  -7.4339  -6.4115  -6.1971  -5.0424
    -5.0286  -5.0039  -4.8801  -4.7578   3.9490   6.3361   6.3739   6.7232
     8.1226   8.2229   8.5035   8.6742   8.7210   9.0011

          k = 0.0000 0.1250 0.1189 (  2523 PWs)   bands (ev):

   -45.8202 -22.4824 -22.4027 -22.3922  -7.3801  -6.3974  -6.1800  -5.0443
    -5.0331  -5.0036  -4.8780  -4.7725   3.7382   6.2873   6.3943   6.9077
     7.9799   8.1306   8.5158   8.5496   8.7695   9.0463

          k = 0.0000 0.1250 0.2378 (  2519 PWs)   bands (ev):

   -45.8200 -22.4962 -22.4021 -22.3916  -7.2463  -6.3623  -6.1394  -5.0476
    -5.0440  -5.0029  -4.8755  -4.8083   3.3244   6.2188   6.4382   6.9137
     7.7175   7.9652   8.4618   8.5867   8.8469   9.2771

          k = 0.0000 0.1250 0.3567 (  2528 PWs)   bands (ev):

   -45.8198 -22.5099 -22.4015 -22.3910  -7.1059  -6.3247  -6.1007  -5.0549
    -5.0500  -5.0022  -4.8773  -4.8433   2.9919   6.0614   6.4727   6.6424
     7.6082   7.8466   8.5726   8.5902   8.9022   9.7222

          k = 0.0000 0.1250-0.4756 (  2514 PWs)   bands (ev):

   -45.8197 -22.5156 -22.4012 -22.3908  -7.0456  -6.3082  -6.0856  -5.0593
    -5.0510  -5.0019  -4.8800  -4.8567   2.8706   5.9383   6.4837   6.5554
     7.5802   7.8078   8.5735   8.6321   8.9221   9.9912

          k = 0.0000 0.2500 0.0000 (  2503 PWs)   bands (ev):

   -45.8198 -22.4757 -22.4272 -22.3914  -7.2356  -6.3707  -6.1612  -5.0680
    -5.0267  -5.0217  -4.8814  -4.7537   3.4722   6.2831   6.5484   6.5797
     8.1351   8.1757   8.3355   8.4159   8.6798   9.1590

          k = 0.0000 0.2500 0.1189 (  2505 PWs)   bands (ev):

   -45.8197 -22.4813 -22.4269 -22.3911  -7.1893  -6.3617  -6.1420  -5.0632
    -5.0314  -5.0217  -4.8786  -4.7568   3.3415   6.1906   6.5729   6.6807
     7.9204   8.0589   8.3352   8.4122   8.5986   9.3132

          k = 0.0000 0.2500 0.2378 (  2512 PWs)   bands (ev):

   -45.8195 -22.4950 -22.4262 -22.3906  -7.0793  -6.3373  -6.0919  -5.0491
    -5.0428  -5.0215  -4.8816  -4.7583   3.0555   6.0314   6.6243   6.7221
     7.5769   7.9013   7.9043   8.4931   8.8402   9.5234

          k = 0.0000 0.2500 0.3567 (  2512 PWs)   bands (ev):

   -45.8193 -22.5085 -22.4256 -22.3900  -6.9739  -6.3056  -6.0363  -5.0540
    -5.0323  -5.0213  -4.8953  -4.7542   2.8023   5.8093   6.6038   6.6610
     7.3370   7.7786   7.8059   8.5427   9.0062   9.6795

          k = 0.0000 0.2500-0.4756 (  2508 PWs)   bands (ev):

   -45.8193 -22.5141 -22.4253 -22.3898  -6.9326  -6.2892  -6.0117  -5.0587
    -5.0251  -5.0212  -4.9025  -4.7522   2.7054   5.6827   6.5430   6.6708
     7.2632   7.7793   7.7826   8.5602   9.0513   9.7397

          k = 0.0000 0.3750 0.0000 (  2500 PWs)   bands (ev):

   -45.8193 -22.4746 -22.4513 -22.3904  -7.0187  -6.3222  -6.1422  -5.0894
    -5.0397  -5.0246  -4.8677  -4.7731   3.1251   5.8461   6.7466   6.7967
     7.6854   7.7378   8.3145   8.3511   8.7555   9.8643

          k = 0.0000 0.3750 0.1189 (  2506 PWs)   bands (ev):

   -45.8193 -22.4802 -22.4510 -22.3901  -6.9871  -6.3105  -6.1213  -5.0806
    -5.0398  -5.0295  -4.8576  -4.7683   3.0354   5.8312   6.7044   6.8304
     7.4573   7.6945   8.3531   8.4306   8.5517   9.8629

          k = 0.0000 0.3750 0.2378 (  2511 PWs)   bands (ev):

   -45.8191 -22.4937 -22.4503 -22.3895  -6.9227  -6.2757  -6.0576  -5.0573
    -5.0417  -5.0397  -4.8630  -4.7322   2.8297   5.7702   6.5334   6.8963
     7.1393   7.6186   7.8977   8.3577   8.9319   9.7436

          k = 0.0000 0.3750 0.3567 (  2518 PWs)   bands (ev):

   -45.8189 -22.5071 -22.4495 -22.3890  -6.8769  -6.2283  -5.9756  -5.0532
    -5.0402  -5.0301  -4.8904  -4.6837   2.6376   5.6153   6.2866   6.9286
     7.0861   7.4820   7.5934   8.3627   9.2418   9.5535

          k = 0.0000 0.3750-0.4756 (  2518 PWs)   bands (ev):

   -45.8188 -22.5127 -22.4492 -22.3887  -6.8634  -6.2050  -5.9360  -5.0580
    -5.0403  -5.0165  -4.9060  -4.6635   2.5617   5.5035   6.2115   6.9294
     7.1037   7.3377   7.6001   8.3651   9.2899   9.5216

          k = 0.0000-0.5000 0.0000 (  2488 PWs)   bands (ev):

   -45.8192 -22.4739 -22.4614 -22.3899  -6.9217  -6.2920  -6.1487  -5.0979
    -5.0470  -5.0238  -4.8445  -4.8005   3.0084   5.6347   6.9437   6.9810
     7.3600   7.4752   8.2682   8.3737   8.7743  10.3431

          k = 0.0000-0.5000 0.1189 (  2506 PWs)   bands (ev):

   -45.8191 -22.4796 -22.4611 -22.3897  -6.9008  -6.2718  -6.1298  -5.0887
    -5.0472  -5.0288  -4.8117  -4.8107   2.9303   5.6303   6.8907   7.0364
     7.1170   7.4234   8.3659   8.4876   8.5026  10.1941

          k = 0.0000-0.5000 0.2378 (  2506 PWs)   bands (ev):

   -45.8189 -22.4930 -22.4603 -22.3891  -6.8658  -6.2213  -6.0602  -5.0653
    -5.0476  -5.0409  -4.8414  -4.7329   2.7496   5.6021   6.5849   6.8492
     7.1754   7.3025   7.9691   8.3512   8.9237   9.8451

          k = 0.0000-0.5000 0.3567 (  2526 PWs)   bands (ev):

   -45.8187 -22.5065 -22.4594 -22.3885  -6.8506  -6.1682  -5.9587  -5.0528
    -5.0481  -5.0384  -4.8767  -4.6603   2.5789   5.5043   6.1607   6.8825
     7.1879   7.3224   7.5431   8.3402   9.1892   9.5943

          k = 0.0000-0.5000-0.4756 (  2516 PWs)   bands (ev):

   -45.8186 -22.5120 -22.4591 -22.3883  -6.8490  -6.1453  -5.9083  -5.0578
    -5.0482  -5.0251  -4.8943  -4.6318   2.5108   5.4170   6.0408   6.9147
     7.1421   7.3860   7.3870   8.3366   9.1444   9.6269

          k = 0.1250 0.1250 0.0000 (  2509 PWs)   bands (ev):

   -45.8201 -22.4763 -22.4026 -22.4023  -7.3568  -6.3941  -6.1876  -5.0443
    -5.0392  -5.0096  -4.8715  -4.7516   3.7426   6.3151   6.4380   6.7762
     7.8737   8.1856   8.3964   8.5676   8.9315   9.0623

          k = 0.1250 0.1250 0.1189 (  2511 PWs)   bands (ev):

   -45.8200 -22.4820 -22.4023 -22.4021  -7.3048  -6.3830  -6.1707  -5.0447
    -5.0424  -5.0092  -4.8691  -4.7616   3.5812   6.2881   6.3374   6.9559
     7.8023   8.0574   8.3414   8.6109   8.9395   9.0438

          k = 0.1250 0.1250 0.2378 (  2521 PWs)   bands (ev):

   -45.8198 -22.4957 -22.4017 -22.4016  -7.1762  -6.3555  -6.1295  -5.0573
    -5.0349  -5.0085  -4.8659  -4.7871   3.2381   6.2148   6.2578   6.9527
     7.6900   7.7585   8.3116   8.6685   8.9580   9.2694

          k = 0.1250 0.1250 0.3567 (  2515 PWs)   bands (ev):

   -45.8196 -22.5094 -22.4011 -22.4010  -7.0433  -6.3271  -6.0877  -5.0687
    -5.0220  -5.0081  -4.8677  -4.8148   2.9443   6.0856   6.1329   6.7558
     7.6276   7.6842   8.2863   8.6901   8.9787   9.6703

          k = 0.1250 0.1250-0.4756 (  2512 PWs)   bands (ev):

   -45.8195 -22.5150 -22.4009 -22.4008  -6.9869  -6.3150  -6.0700  -5.0729
    -5.0139  -5.0087  -4.8705  -4.8271   2.8340   5.9471   6.0972   6.7183
     7.6114   7.6745   8.2817   8.6922   8.9885   9.8660

          k = 0.1250 0.2500 0.0000 (  2507 PWs)   bands (ev):

   -45.8196 -22.4752 -22.4267 -22.4014  -7.1615  -6.3529  -6.1692  -5.0693
    -5.0360  -5.0121  -4.8591  -4.7476   3.3371   6.2476   6.5748   6.6311
     7.6791   7.8483   8.3738   8.6056   8.8307   9.3453

          k = 0.1250 0.2500 0.1189 (  2500 PWs)   bands (ev):

   -45.8195 -22.4809 -22.4264 -22.4012  -7.1158  -6.3478  -6.1516  -5.0644
    -5.0396  -5.0097  -4.8548  -4.7468   3.2480   6.1794   6.3565   6.7947
     7.5624   7.8428   8.3350   8.6275   8.7793   9.3676

          k = 0.1250 0.2500 0.2378 (  2499 PWs)   bands (ev):

   -45.8193 -22.4945 -22.4258 -22.4006  -7.0076  -6.3339  -6.1046  -5.0583
    -5.0394  -5.0017  -4.8516  -4.7430   3.0335   6.0001   6.2404   6.7559
     7.2840   7.6399   8.3443   8.6387   8.8994   9.4464

          k = 0.1250 0.2500 0.3567 (  2521 PWs)   bands (ev):

   -45.8192 -22.5080 -22.4251 -22.4000  -6.9051  -6.3161  -6.0496  -5.0630
    -5.0275  -4.9851  -4.8602  -4.7372   2.8249   5.7859   6.1829   6.5425
     7.1185   7.5461   8.2836   8.6944   9.0516   9.5027

          k = 0.1250 0.2500-0.4756 (  2512 PWs)   bands (ev):

   -45.8191 -22.5136 -22.4248 -22.3997  -6.8653  -6.3070  -6.0239  -5.0652
    -5.0232  -4.9729  -4.8683  -4.7348   2.7412   5.6735   6.1266   6.4814
     7.0992   7.5267   8.2460   8.7198   9.0976   9.5115

          k = 0.1250 0.3750 0.0000 (  2515 PWs)   bands (ev):

   -45.8192 -22.4741 -22.4508 -22.4003  -6.9491  -6.3060  -6.1674  -5.0846
    -5.0289  -5.0066  -4.8457  -4.7664   3.0215   5.8540   6.6230   6.8886
     7.2664   7.8076   8.0413   8.6096   8.8574   9.8366

          k = 0.1250 0.3750 0.1189 (  2508 PWs)   bands (ev):

   -45.8191 -22.4797 -22.4505 -22.4001  -6.9162  -6.3001  -6.1495  -5.0767
    -5.0318  -5.0023  -4.8351  -4.7573   2.9729   5.8368   6.3735   6.8410
     7.2585   7.8145   8.0630   8.6605   8.7393   9.7602

          k = 0.1250 0.3750 0.2378 (  2508 PWs)   bands (ev):

   -45.8189 -22.4932 -22.4498 -22.3995  -6.8498  -6.2801  -6.0927  -5.0613
    -5.0330  -4.9909  -4.8317  -4.7180   2.8460   5.7638   6.1492   6.5575
     6.9577   7.7524   8.1861   8.5080   8.9808   9.5399

          k = 0.1250 0.3750 0.3567 (  2512 PWs)   bands (ev):

   -45.8187 -22.5066 -22.4490 -22.3989  -6.8043  -6.2501  -6.0159  -5.0583
    -5.0203  -4.9729  -4.8475  -4.6693   2.7099   5.5912   6.0843   6.3550
     6.5866   7.6521   8.3349   8.4126   9.0722   9.4368

          k = 0.1250 0.3750-0.4756 (  2522 PWs)   bands (ev):

   -45.8186 -22.5122 -22.4487 -22.3987  -6.7916  -6.2354  -5.9776  -5.0591
    -5.0133  -4.9606  -4.8594  -4.6490   2.6519   5.4777   6.0833   6.3008
     6.4541   7.6252   8.3527   8.4106   8.9611   9.5140

          k = 0.1250-0.5000 0.0000 (  2524 PWs)   bands (ev):

   -45.8190 -22.4735 -22.4609 -22.3999  -6.8543  -6.2762  -6.1817  -5.0877
    -5.0258  -5.0022  -4.8262  -4.7940   2.9118   5.6449   6.7268   7.0565
     7.1477   7.4689   8.0711   8.5882   8.8746  10.1245

          k = 0.1250-0.5000 0.1189 (  2518 PWs)   bands (ev):

   -45.8189 -22.4791 -22.4605 -22.3997  -6.8310  -6.2624  -6.1670  -5.0788
    -5.0284  -4.9981  -4.7990  -4.7940   2.8751   5.6391   6.3973   6.8630
     7.3049   7.5464   8.0688   8.6950   8.7047   9.9458

          k = 0.1250-0.5000 0.2378 (  2510 PWs)   bands (ev):

   -45.8187 -22.4926 -22.4597 -22.3991  -6.7930  -6.2289  -6.1055  -5.0615
    -5.0272  -4.9896  -4.8140  -4.7181   2.7768   5.6055   6.1338   6.4182
     6.9662   7.9001   7.9446   8.5336   8.9726   9.5508

          k = 0.1250-0.5000 0.3567 (  2514 PWs)   bands (ev):

   -45.8185 -22.5060 -22.4589 -22.3985  -6.7783  -6.1952  -6.0102  -5.0572
    -5.0065  -4.9807  -4.8353  -4.6461   2.6673   5.4945   6.0714   6.0727
     6.6083   7.7756   8.1493   8.4430   8.9035   9.5171

          k = 0.1250-0.5000-0.4756 (  2532 PWs)   bands (ev):

   -45.8184 -22.5115 -22.4586 -22.3982  -6.7776  -6.1812  -5.9624  -5.0577
    -4.9923  -4.9764  -4.8473  -4.6176   2.6194   5.4003   5.9782   6.0845
     6.4652   7.7408   8.2157   8.4075   8.7304   9.6331

          k = 0.2500 0.2500 0.0000 (  2528 PWs)   bands (ev):

   -45.8192 -22.4742 -22.4257 -22.4253  -6.9775  -6.3111  -6.1896  -5.0684
    -5.0390  -4.9876  -4.8177  -4.7425   3.0370   6.2212   6.3977   6.7881
     7.2355   7.4413   8.3010   8.5948   9.0474   9.5411

          k = 0.2500 0.2500 0.1189 (  2512 PWs)   bands (ev):

   -45.8191 -22.4798 -22.4254 -22.4251  -6.9340  -6.3146  -6.1758  -5.0604
    -5.0412  -4.9802  -4.8098  -4.7326   3.0197   6.1136   6.2152   6.5747
     7.2797   7.4690   8.4675   8.5497   9.0624   9.4312

          k = 0.2500 0.2500 0.2378 (  2504 PWs)   bands (ev):

   -45.8189 -22.4933 -22.4248 -22.4245  -6.8347  -6.3231  -6.1335  -5.0444
    -5.0403  -4.9591  -4.7938  -4.7106   2.9566   5.8522   5.9051   6.4428
     7.1165   7.1548   8.5870   8.8826   9.1205   9.2156

          k = 0.2500 0.2500 0.3567 (  2513 PWs)   bands (ev):

   -45.8187 -22.5068 -22.4241 -22.4239  -6.7469  -6.3318  -6.0747  -5.0451
    -5.0215  -4.9278  -4.7850  -4.6910   2.8654   5.6086   5.7782   6.1949
     6.8287   7.0525   8.6336   9.0148   9.0641   9.2362

          k = 0.2500 0.2500-0.4756 (  2520 PWs)   bands (ev):

   -45.8186 -22.5123 -22.4238 -22.4236  -6.7149  -6.3354  -6.0443  -5.0448
    -5.0146  -4.9092  -4.7857  -4.6834   2.8206   5.5143   5.7363   6.0662
     6.7570   7.0374   8.5803   9.0226   9.0397   9.2892

          k = 0.2500 0.3750 0.0000 (  2521 PWs)   bands (ev):

   -45.8187 -22.4731 -22.4495 -22.4243  -6.7852  -6.2682  -6.2136  -5.0666
    -5.0243  -4.9461  -4.7882  -4.7581   2.7723   5.8710   6.3655   6.8670
     7.0354   7.4819   7.8628   8.6516   9.1651   9.5991

          k = 0.2500 0.3750 0.1189 (  2518 PWs)   bands (ev):

   -45.8186 -22.4786 -22.4492 -22.4241  -6.7472  -6.2762  -6.2052  -5.0571
    -5.0237  -4.9327  -4.7774  -4.7382   2.8000   5.8416   6.1495   6.3735
     7.0491   7.5782   8.1577   8.6244   9.1731   9.4156

          k = 0.2500 0.3750 0.2378 (  2508 PWs)   bands (ev):

   -45.8184 -22.4920 -22.4486 -22.4235  -6.6724  -6.2907  -6.1677  -5.0370
    -5.0169  -4.9024  -4.7547  -4.6870   2.8550   5.6594   5.7368   6.0667
     6.7619   7.2413   8.4814   8.9030   9.0762   9.2411

          k = 0.2500 0.3750 0.3567 (  2507 PWs)   bands (ev):

   -45.8183 -22.5054 -22.4479 -22.4229  -6.6274  -6.2999  -6.0990  -5.0278
    -4.9975  -4.8695  -4.7365  -4.6344   2.8861   5.4403   5.4753   5.9041
     6.4060   7.0048   8.2150   9.0279   9.1396   9.4231

          k = 0.2500 0.3750-0.4756 (  2508 PWs)   bands (ev):

   -45.8182 -22.5110 -22.4476 -22.4226  -6.6173  -6.3028  -6.0609  -5.0257
    -4.9875  -4.8534  -4.7308  -4.6129   2.8899   5.3267   5.4337   5.8188
     6.2620   6.9616   8.0173   9.0577   9.1653   9.5337

          k = 0.2500-0.5000 0.0000 (  2530 PWs)   bands (ev):

   -45.8185 -22.4724 -22.4595 -22.4238  -6.7031  -6.2403  -6.2343  -5.0644
    -5.0168  -4.9139  -4.7869  -4.7709   2.6732   5.6592   6.4578   6.6621
     7.3091   7.4819   7.5714   8.7089   9.1500   9.6037

          k = 0.2500-0.5000 0.1189 (  2512 PWs)   bands (ev):

   -45.8184 -22.4780 -22.4592 -22.4236  -6.6695  -6.2427  -6.2336  -5.0544
    -5.0152  -4.8967  -4.7762  -4.7461   2.7145   5.6521   6.1381   6.3179
     7.0295   7.7599   7.8866   8.6807   9.1446   9.3883

          k = 0.2500-0.5000 0.2378 (  2506 PWs)   bands (ev):

   -45.8183 -22.4914 -22.4585 -22.4230  -6.6155  -6.2490  -6.1979  -5.0339
    -5.0056  -4.8643  -4.7514  -4.6791   2.8097   5.5967   5.6093   5.9346
     6.6988   7.3314   8.3063   8.9081   9.0072   9.2764

          k = 0.2500-0.5000 0.3567 (  2506 PWs)   bands (ev):

   -45.8181 -22.5048 -22.4578 -22.4224  -6.6010  -6.2559  -6.1143  -5.0232
    -4.9834  -4.8358  -4.7279  -4.6093   2.8909   5.3308   5.4264   5.6905
     6.3449   7.0758   7.8856   9.0599   9.1261   9.5070

          k = 0.2500-0.5000-0.4756 (  2504 PWs)   bands (ev):

   -45.8180 -22.5103 -22.4575 -22.4222  -6.6034  -6.2589  -6.0691  -5.0205
    -4.9717  -4.8234  -4.7185  -4.5807   2.9175   5.2771   5.2985   5.6308
     6.1901   7.0278   7.6366   9.0961   9.1544   9.6489

          k = 0.3750 0.3750 0.0000 (  2512 PWs)   bands (ev):

   -45.8183 -22.4719 -22.4482 -22.4482  -6.6415  -6.2306  -6.2290  -5.0529
    -4.9969  -4.8839  -4.7703  -4.7293   2.5299   5.7536   6.0572   6.8969
     7.1195   7.2401   7.7400   8.4269   9.1470   9.5617

          k = 0.3750 0.3750 0.1189 (  2519 PWs)   bands (ev):

   -45.8182 -22.4774 -22.4480 -22.4479  -6.5947  -6.2484  -6.2386  -5.0419
    -4.9940  -4.8597  -4.7412  -4.7158   2.6071   5.7340   5.9659   6.2383
     6.6666   7.6229   8.3114   8.3125   8.8895   9.5617

          k = 0.3750 0.3750 0.2378 (  2509 PWs)   bands (ev):

   -45.8180 -22.4908 -22.4474 -22.4473  -6.5011  -6.2925  -6.2334  -5.0151
    -4.9885  -4.8069  -4.6774  -4.6719   2.8116   5.5081   5.6080   5.7505
     6.3871   7.0656   8.0212   8.9877   8.9950   9.5623

          k = 0.3750 0.3750 0.3567 (  2498 PWs)   bands (ev):

   -45.8178 -22.5041 -22.4467 -22.4467  -6.4583  -6.3334  -6.1715  -4.9884
    -4.9841  -4.7589  -4.6322  -4.6040   3.0473   5.1290   5.2395   5.6278
     6.3293   6.4799   7.3603   9.3641   9.4239   9.5662

          k = 0.3750 0.3750-0.4756 (  2500 PWs)   bands (ev):

   -45.8177 -22.5097 -22.4465 -22.4464  -6.4553  -6.3495  -6.1297  -4.9825
    -4.9774  -4.7389  -4.6125  -4.5764   3.1549   5.0148   5.1007   5.5505
     6.2740   6.3193   7.0747   9.4858   9.5388   9.5897

          k = 0.3750-0.5000 0.0000 (  2520 PWs)   bands (ev):

   -45.8181 -22.4713 -22.4582 -22.4477  -6.5961  -6.2260  -6.2080  -5.0480
    -4.9797  -4.8393  -4.7949  -4.7079   2.4326   5.5830   6.0555   6.8220
     7.1386   7.4600   7.5101   8.3872   8.8988   9.6858

          k = 0.3750-0.5000 0.1189 (  2522 PWs)   bands (ev):

   -45.8180 -22.4768 -22.4579 -22.4474  -6.5452  -6.2462  -6.2272  -5.0369
    -4.9768  -4.8060  -4.7647  -4.6935   2.5243   5.5732   5.9925   6.2008
     6.5594   7.7680   8.0715   8.4071   8.5990   9.6806

          k = 0.3750-0.5000 0.2378 (  2514 PWs)   bands (ev):

   -45.8178 -22.4902 -22.4572 -22.4468  -6.4418  -6.2710  -6.2687  -5.0102
    -4.9714  -4.7420  -4.6923  -4.6439   2.7778   5.5055   5.5267   5.6371
     6.2410   7.1009   7.6707   8.9804   9.0067   9.6732

          k = 0.3750-0.5000 0.3567 (  2508 PWs)   bands (ev):

   -45.8176 -22.5035 -22.4566 -22.4462  -6.4178  -6.3115  -6.2038  -4.9847
    -4.9660  -4.6961  -4.6208  -4.5760   3.0999   5.0500   5.2091   5.4722
     6.1678   6.5333   6.8823   9.4140   9.4867   9.6681

          k = 0.3750-0.5000-0.4756 (  2496 PWs)   bands (ev):

   -45.8176 -22.5091 -22.4563 -22.4460  -6.4272  -6.3274  -6.1557  -4.9762
    -4.9620  -4.6787  -4.5916  -4.5455   3.2668   4.8960   5.0590   5.4128
     6.1211   6.3734   6.5316   9.5407   9.6553   9.6672

          k =-0.5000-0.5000 0.0000 (  2496 PWs)   bands (ev):

   -45.8179 -22.4706 -22.4576 -22.4576  -6.5750  -6.1958  -6.1958  -5.0425
    -4.9530  -4.8062  -4.8062  -4.6843   2.3333   5.4707   5.9923   6.9648
     6.9648   7.5256   7.5256   8.2403   8.5946   9.8374

          k =-0.5000-0.5000 0.1189 (  2524 PWs)   bands (ev):

   -45.8178 -22.4762 -22.4574 -22.4574  -6.5195  -6.2221  -6.2221  -5.0314
    -4.9525  -4.7645  -4.7645  -4.6757   2.4395   5.4606   5.9941   6.3119
     6.3119   7.8531   8.1857   8.2183   8.2183   9.8328

          k =-0.5000-0.5000 0.2378 (  2508 PWs)   bands (ev):

   -45.8176 -22.4896 -22.4567 -22.4567  -6.3837  -6.2805  -6.2805  -5.0045
    -4.9512  -4.6683  -4.6683  -4.6522   2.7424   5.4251   5.6049   5.6049
     5.9985   7.0756   7.2670   9.0014   9.0014   9.8219

          k =-0.5000-0.5000 0.3567 (  2512 PWs)   bands (ev):

   -45.8175 -22.5030 -22.4561 -22.4561  -6.3332  -6.3332  -6.2457  -4.9776
    -4.9499  -4.6236  -4.5768  -4.5768   3.1602   5.1369   5.1369   5.3546
     6.0029   6.3368   6.4539   9.5071   9.5071   9.8110

          k =-0.5000-0.5000-0.4756 (  2504 PWs)   bands (ev):

   -45.8174 -22.5085 -22.4558 -22.4558  -6.3537  -6.3537  -6.1879  -4.9664
    -4.9494  -4.6098  -4.5399  -4.5399   3.4048   4.9737   4.9737   5.3030
     5.9009   6.0047   6.2413   9.6722   9.6722   9.8066

     highest occupied level (ev):    10.3431

!    total energy              =    -380.57159007 Ry
     estimated scf accuracy    <          5.0E-09 Ry

     The total energy is the sum of the following terms:
     one-electron contribution =     -84.29701047 Ry
     hartree contribution      =      71.28448919 Ry
     xc contribution           =    -102.55157923 Ry
     ewald contribution        =    -265.00748956 Ry

     convergence has been achieved in   8 iterations

     negative rho (up, down):  1.525E-02 0.000E+00

     Forces acting on atoms (cartesian axes, Ry/au):

     atom    1 type  1   force =     0.00000000    0.00000000   -0.00854404
     atom    2 type  2   force =     0.00000000    0.00000000   -0.00492730
     atom    3 type  3   force =     0.00000000    0.00000000    0.01123149
     atom    4 type  3   force =     0.00000000    0.00000000    0.00111992
     atom    5 type  3   force =     0.00000000    0.00000000    0.00111992

     Total force =     0.015031     Total SCF correction =     0.000109


     Computing stress (Cartesian axis) and pressure


     negative rho (up, down):  1.525E-02 0.000E+00
          total   stress  (Ry/bohr**3)                   (kbar)     P=      -60.40
  -0.00042175   0.00000000   0.00000000          -62.04        0.00        0.00
   0.00000000  -0.00042175   0.00000000            0.00      -62.04        0.00
   0.00000000   0.00000000  -0.00038828            0.00        0.00      -57.12

     Energy error            =      4.8E-04 Ry
     Gradient error          =      1.1E-02 Ry/Bohr

     number of scf cycles    =   2
     number of bfgs steps    =   1

     energy             old  =    -380.5711101665 Ry
     energy             new  =    -380.5715900663 Ry

     CASE: energy            _new < energy            _old

     new trust radius        =       0.0220162293 bohr
     new conv_thr            =       0.0000000005 Ry


ATOMIC_POSITIONS (crystal)
Pb               0.0000000000        0.0000000000        1.0034087632
Ti               0.5000000000        0.5000000000        0.5375608716
O                0.5000000000        0.5000000000        0.1040051397
O                0.5000000000        0.0000000000        0.6111547567
O                0.0000000000        0.5000000000        0.6111547567



     Writing config-only to output data dir ./pto_k8.save/ :
     XML data file
     NEW-OLD atomic charge density approx. for the potential

     Check: negative core charge=   -0.000004

     negative rho (up, down):  1.515E-02 0.000E+00

     total cpu time spent up to now is       57.4 secs

     Self-consistent Calculation

     iteration #  1     ecut=    50.00 Ry     beta= 0.70
     CG style diagonalization
     c_bands:  1 eigenvalues not converged
     c_bands:  1 eigenvalues not converged
     c_bands:  1 eigenvalues not converged
     c_bands:  1 eigenvalues not converged
     c_bands:  1 eigenvalues not converged
     c_bands:  1 eigenvalues not converged
     c_bands:  1 eigenvalues not converged
     c_bands:  1 eigenvalues not converged
     c_bands:  1 eigenvalues not converged
     c_bands:  1 eigenvalues not converged
     c_bands:  1 eigenvalues not converged
     c_bands:  1 eigenvalues not converged
     ethr =  1.00E-06,  avg # of iterations =  7.1

     negative rho (up, down):  1.511E-02 0.000E+00

     total cpu time spent up to now is       61.0 secs

     total energy              =    -380.57176307 Ry
     estimated scf accuracy    <       0.00023160 Ry

     iteration #  2     ecut=    50.00 Ry     beta= 0.70
     CG style diagonalization
     ethr =  5.26E-07,  avg # of iterations =  4.7

     negative rho (up, down):  1.512E-02 0.000E+00

     total cpu time spent up to now is       63.2 secs

     total energy              =    -380.57173556 Ry
     estimated scf accuracy    <       0.00066146 Ry

     iteration #  3     ecut=    50.00 Ry     beta= 0.70
     CG style diagonalization
     ethr =  5.26E-07,  avg # of iterations =  4.3

     negative rho (up, down):  1.512E-02 0.000E+00

     total cpu time spent up to now is       65.2 secs

     total energy              =    -380.57186671 Ry
     estimated scf accuracy    <       0.00005603 Ry

     iteration #  4     ecut=    50.00 Ry     beta= 0.70
     CG style diagonalization
     ethr =  1.27E-07,  avg # of iterations =  3.7

     negative rho (up, down):  1.511E-02 0.000E+00

     total cpu time spent up to now is       66.9 secs

     total energy              =    -380.57187995 Ry
     estimated scf accuracy    <       0.00000632 Ry

     iteration #  5     ecut=    50.00 Ry     beta= 0.70
     CG style diagonalization
     ethr =  1.44E-08,  avg # of iterations =  4.2

     negative rho (up, down):  1.511E-02 0.000E+00

     total cpu time spent up to now is       68.8 secs

     total energy              =    -380.57188343 Ry
     estimated scf accuracy    <       0.00000069 Ry

     iteration #  6     ecut=    50.00 Ry     beta= 0.70
     CG style diagonalization
     ethr =  1.56E-09,  avg # of iterations =  4.6

     negative rho (up, down):  1.511E-02 0.000E+00

     total cpu time spent up to now is       71.0 secs

     total energy              =    -380.57188385 Ry
     estimated scf accuracy    <       0.00000032 Ry

     iteration #  7     ecut=    50.00 Ry     beta= 0.70
     CG style diagonalization
     ethr =  7.19E-10,  avg # of iterations =  4.0

     negative rho (up, down):  1.511E-02 0.000E+00

     total cpu time spent up to now is       72.8 secs

     total energy              =    -380.57188392 Ry
     estimated scf accuracy    <       0.00000006 Ry

     iteration #  8     ecut=    50.00 Ry     beta= 0.70
     CG style diagonalization
     ethr =  1.43E-10,  avg # of iterations =  4.8

     negative rho (up, down):  1.511E-02 0.000E+00

     total cpu time spent up to now is       75.1 secs

     total energy              =    -380.57188397 Ry
     estimated scf accuracy    <          4.7E-09 Ry

     iteration #  9     ecut=    50.00 Ry     beta= 0.70
     CG style diagonalization
     ethr =  1.06E-11,  avg # of iterations =  6.6

     negative rho (up, down):  1.511E-02 0.000E+00

     total cpu time spent up to now is       78.3 secs

     total energy              =    -380.57188398 Ry
     estimated scf accuracy    <          4.9E-10 Ry

     iteration # 10     ecut=    50.00 Ry     beta= 0.70
     CG style diagonalization
     c_bands:  1 eigenvalues not converged
     ethr =  1.10E-12,  avg # of iterations =  6.6

     negative rho (up, down):  1.511E-02 0.000E+00

     total cpu time spent up to now is       81.4 secs

     End of self-consistent calculation

          k = 0.0000 0.0000 0.0000 (  2525 PWs)   bands (ev):

   -45.7863 -22.4667 -22.3583 -22.3583  -7.5149  -6.4310  -6.2219  -5.0284
    -5.0284  -4.9963  -4.8836  -4.7552   4.2053   6.3091   6.3091   6.6947
     8.1403   8.1403   8.4907   8.6633   8.9499   8.9499

          k = 0.0000 0.0000 0.1189 (  2541 PWs)   bands (ev):

   -45.7862 -22.4724 -22.3581 -22.3581  -7.4587  -6.4144  -6.2055  -5.0329
    -5.0329  -4.9959  -4.8811  -4.7754   3.9317   6.3253   6.3253   6.8981
     8.0662   8.0662   8.4653   8.5359   8.9849   8.9849

          k = 0.0000 0.0000 0.2378 (  2517 PWs)   bands (ev):

   -45.7860 -22.4863 -22.3575 -22.3575  -7.3175  -6.3725  -6.1683  -5.0435
    -5.0435  -4.9950  -4.8753  -4.8259   3.4370   6.3589   6.3589   6.8215
     7.9234   7.9234   8.4057   8.7912   9.0498   9.0498

          k = 0.0000 0.0000 0.3567 (  2526 PWs)   bands (ev):

   -45.7858 -22.5001 -22.3570 -22.3570  -7.1665  -6.3278  -6.1358  -5.0541
    -5.0541  -4.9941  -4.8793  -4.8704   3.0605   6.3803   6.3828   6.3828
     7.8182   7.8182   8.3479   9.1003   9.1003   9.5516

          k = 0.0000 0.0000-0.4756 (  2530 PWs)   bands (ev):

   -45.7857 -22.5058 -22.3567 -22.3567  -7.1004  -6.3083  -6.1244  -5.0585
    -5.0585  -4.9937  -4.9024  -4.8686   2.9257   6.1755   6.3895   6.3895
     7.7838   7.7838   8.3245   9.1190   9.1190  10.0035

          k = 0.0000 0.1250 0.0000 (  2525 PWs)   bands (ev):

   -45.7861 -22.4662 -22.3684 -22.3579  -7.4372  -6.4144  -6.2063  -5.0418
    -5.0276  -5.0037  -4.8837  -4.7487   3.9433   6.3355   6.3721   6.7456
     8.0800   8.1558   8.4949   8.6395   8.7228   8.9828

          k = 0.0000 0.1250 0.1189 (  2523 PWs)   bands (ev):

   -45.7860 -22.4720 -22.3682 -22.3576  -7.3831  -6.4006  -6.1896  -5.0434
    -5.0321  -5.0034  -4.8817  -4.7633   3.7320   6.2843   6.3899   6.9274
     7.9448   8.0727   8.4867   8.5362   8.7684   9.0350

          k = 0.0000 0.1250 0.2378 (  2519 PWs)   bands (ev):

   -45.7858 -22.4858 -22.3676 -22.3571  -7.2481  -6.3658  -6.1501  -5.0464
    -5.0430  -5.0027  -4.8790  -4.7990   3.3156   6.2073   6.4264   6.9303
     7.6867   7.9235   8.4532   8.5723   8.8447   9.2725

          k = 0.0000 0.1250 0.3567 (  2528 PWs)   bands (ev):

   -45.7856 -22.4996 -22.3670 -22.3565  -7.1064  -6.3287  -6.1128  -5.0538
    -5.0484  -5.0020  -4.8798  -4.8346   2.9794   6.0477   6.4520   6.6518
     7.5885   7.8199   8.5639   8.5823   8.9001   9.7248

          k = 0.0000 0.1250-0.4756 (  2514 PWs)   bands (ev):

   -45.7856 -22.5052 -22.3668 -22.3563  -7.0454  -6.3124  -6.0984  -5.0582
    -5.0493  -5.0017  -4.8811  -4.8492   2.8561   5.9288   6.4589   6.5583
     7.5658   7.7874   8.5607   8.6285   8.9201   9.9968

          k = 0.0000 0.2500 0.0000 (  2503 PWs)   bands (ev):

   -45.7856 -22.4652 -22.3928 -22.3569  -7.2395  -6.3749  -6.1729  -5.0674
    -5.0257  -5.0214  -4.8810  -4.7448   3.4701   6.2800   6.5476   6.5845
     8.1172   8.1466   8.2977   8.4121   8.6477   9.1450

          k = 0.0000 0.2500 0.1189 (  2505 PWs)   bands (ev):

   -45.7856 -22.4709 -22.3925 -22.3566  -7.1927  -6.3662  -6.1541  -5.0624
    -5.0304  -5.0214  -4.8787  -4.7475   3.3390   6.1864   6.5698   6.6824
     7.9095   8.0223   8.3159   8.3879   8.5823   9.3033

          k = 0.0000 0.2500 0.2378 (  2512 PWs)   bands (ev):

   -45.7854 -22.4846 -22.3918 -22.3560  -7.0815  -6.3423  -6.1049  -5.0477
    -5.0417  -5.0212  -4.8820  -4.7490   3.0515   6.0188   6.6141   6.7264
     7.5647   7.8678   7.8999   8.4805   8.8189   9.5235

          k = 0.0000 0.2500 0.3567 (  2512 PWs)   bands (ev):

   -45.7852 -22.4982 -22.3911 -22.3555  -6.9748  -6.3109  -6.0505  -5.0529
    -5.0302  -5.0211  -4.8955  -4.7454   2.7962   5.7894   6.6163   6.6416
     7.3261   7.7779   7.7819   8.5362   8.9797   9.6887

          k = 0.0000 0.2500-0.4756 (  2508 PWs)   bands (ev):

   -45.7851 -22.5038 -22.3908 -22.3552  -6.9330  -6.2946  -6.0264  -5.0576
    -5.0226  -5.0210  -4.9029  -4.7435   2.6983   5.6622   6.5564   6.6471
     7.2558   7.7602   7.7801   8.5554   9.0235   9.7520

          k = 0.0000 0.3750 0.0000 (  2500 PWs)   bands (ev):

   -45.7852 -22.4640 -22.4170 -22.3558  -7.0229  -6.3277  -6.1573  -5.0878
    -5.0394  -5.0235  -4.8625  -4.7656   3.1242   5.8520   6.7389   6.7973
     7.6804   7.7406   8.2778   8.3106   8.7161   9.8575

          k = 0.0000 0.3750 0.1189 (  2506 PWs)   bands (ev):

   -45.7851 -22.4697 -22.4167 -22.3556  -6.9907  -6.3164  -6.1365  -5.0788
    -5.0395  -5.0284  -4.8538  -4.7596   3.0347   5.8359   6.6969   6.8293
     7.4499   7.6884   8.2942   8.4135   8.5355   9.8553

          k = 0.0000 0.3750 0.2378 (  2511 PWs)   bands (ev):

   -45.7849 -22.4832 -22.4159 -22.3550  -6.9249  -6.2823  -6.0735  -5.0553
    -5.0408  -5.0392  -4.8602  -4.7230   2.8292   5.7685   6.5285   6.8886
     7.1262   7.6034   7.8958   8.3221   8.9160   9.7382

          k = 0.0000 0.3750 0.3567 (  2518 PWs)   bands (ev):

   -45.7847 -22.4967 -22.4151 -22.3544  -6.8780  -6.2353  -5.9925  -5.0521
    -5.0399  -5.0277  -4.8872  -4.6752   2.6371   5.6012   6.2901   6.9104
     7.0704   7.4923   7.5802   8.3419   9.2211   9.5522

          k = 0.0000 0.3750-0.4756 (  2518 PWs)   bands (ev):

   -45.7847 -22.5023 -22.4148 -22.3542  -6.8641  -6.2121  -5.9533  -5.0569
    -5.0401  -5.0139  -4.9027  -4.6552   2.5611   5.4845   6.2188   6.9063
     7.0872   7.3516   7.5895   8.3490   9.2719   9.5176

          k = 0.0000-0.5000 0.0000 (  2488 PWs)   bands (ev):

   -45.7850 -22.4635 -22.4271 -22.3554  -6.9259  -6.2973  -6.1663  -5.0956
    -5.0466  -5.0227  -4.8340  -4.7971   3.0075   5.6454   6.9228   6.9827
     7.3676   7.4782   8.2631   8.2981   8.7344  10.3343

          k = 0.0000-0.5000 0.1189 (  2506 PWs)   bands (ev):

   -45.7849 -22.4691 -22.4267 -22.3552  -6.9043  -6.2773  -6.1477  -5.0863
    -5.0468  -5.0277  -4.8081  -4.8006   2.9299   5.6400   6.8719   7.0381
     7.1180   7.4185   8.3018   8.4772   8.4796  10.1853

          k = 0.0000-0.5000 0.2378 (  2506 PWs)   bands (ev):

   -45.7847 -22.4826 -22.4259 -22.3546  -6.8679  -6.2276  -6.0786  -5.0626
    -5.0473  -5.0397  -4.8374  -4.7238   2.7502   5.6076   6.5770   6.8325
     7.1769   7.2839   7.9667   8.3086   8.9126   9.8351

          k = 0.0000-0.5000 0.3567 (  2526 PWs)   bands (ev):

   -45.7846 -22.4961 -22.4251 -22.3540  -6.8518  -6.1755  -5.9774  -5.0517
    -5.0477  -5.0354  -4.8722  -4.6521   2.5804   5.4987   6.1560   6.8662
     7.1602   7.3237   7.5544   8.3132   9.1853   9.5743

          k = 0.0000-0.5000-0.4756 (  2516 PWs)   bands (ev):

   -45.7845 -22.5017 -22.4247 -22.3537  -6.8499  -6.1530  -5.9271  -5.0566
    -5.0479  -5.0219  -4.8896  -4.6238   2.5126   5.4043   6.0409   6.8984
     7.1116   7.3872   7.4025   8.3147   9.1446   9.6020

          k = 0.1250 0.1250 0.0000 (  2509 PWs)   bands (ev):

   -45.7859 -22.4658 -22.3681 -22.3679  -7.3605  -6.3974  -6.1976  -5.0438
    -5.0383  -5.0091  -4.8740  -4.7425   3.7382   6.3160   6.4394   6.7850
     7.8226   8.1695   8.3606   8.5600   8.9335   9.0186

          k = 0.1250 0.1250 0.1189 (  2511 PWs)   bands (ev):

   -45.7858 -22.4715 -22.3678 -22.3676  -7.3080  -6.3864  -6.1811  -5.0438
    -5.0416  -5.0088  -4.8717  -4.7524   3.5762   6.2852   6.3359   6.9635
     7.7616   8.0386   8.3065   8.5999   8.9404   9.0169

          k = 0.1250 0.1250 0.2378 (  2521 PWs)   bands (ev):

   -45.7856 -22.4853 -22.3672 -22.3671  -7.1783  -6.3592  -6.1410  -5.0563
    -5.0336  -5.0081  -4.8687  -4.7777   3.2307   6.2034   6.2482   6.9628
     7.6673   7.7322   8.2865   8.6549   8.9572   9.2650

          k = 0.1250 0.1250 0.3567 (  2515 PWs)   bands (ev):

   -45.7855 -22.4990 -22.3666 -22.3665  -7.0441  -6.3311  -6.1005  -5.0676
    -5.0205  -5.0075  -4.8706  -4.8051   2.9335   6.0743   6.1143   6.7652
     7.6179   7.6535   8.2741   8.6762   8.9768   9.6748

          k = 0.1250 0.1250-0.4756 (  2512 PWs)   bands (ev):

   -45.7854 -22.5047 -22.3664 -22.3663  -6.9870  -6.3191  -6.0835  -5.0719
    -5.0127  -5.0078  -4.8734  -4.8173   2.8215   5.9395   6.0761   6.7230
     7.6062   7.6439   8.2735   8.6784   8.9863   9.8728

          k = 0.1250 0.2500 0.0000 (  2507 PWs)   bands (ev):

   -45.7855 -22.4647 -22.3923 -22.3669  -7.1660  -6.3574  -6.1810  -5.0683
    -5.0351  -5.0115  -4.8590  -4.7384   3.3346   6.2498   6.5670   6.6365
     7.6665   7.8037   8.3639   8.5897   8.8201   9.3161

          k = 0.1250 0.2500 0.1189 (  2500 PWs)   bands (ev):

   -45.7854 -22.4704 -22.3920 -22.3667  -7.1197  -6.3524  -6.1637  -5.0632
    -5.0386  -5.0092  -4.8550  -4.7376   3.2451   6.1771   6.3524   6.7947
     7.5403   7.8254   8.3081   8.6157   8.7669   9.3515

          k = 0.1250 0.2500 0.2378 (  2499 PWs)   bands (ev):

   -45.7852 -22.4841 -22.3913 -22.3661  -7.0103  -6.3387  -6.1177  -5.0572
    -5.0381  -5.0012  -4.8521  -4.7337   3.0292   5.9886   6.2316   6.7579
     7.2737   7.6320   8.3058   8.6385   8.8800   9.4458

          k = 0.1250 0.2500 0.3567 (  2521 PWs)   bands (ev):

   -45.7850 -22.4977 -22.3907 -22.3655  -6.9065  -6.3210  -6.0637  -5.0622
    -5.0265  -4.9839  -4.8607  -4.7281   2.8185   5.7673   6.1698   6.5512
     7.1135   7.5408   8.2509   8.6943   9.0274   9.5117

          k = 0.1250 0.2500-0.4756 (  2512 PWs)   bands (ev):

   -45.7849 -22.5033 -22.3904 -22.3652  -6.8662  -6.3119  -6.0385  -5.0645
    -5.0224  -4.9712  -4.8690  -4.7258   2.7339   5.6540   6.1143   6.4897
     7.0953   7.5212   8.2174   8.7189   9.0721   9.5236

          k = 0.1250 0.3750 0.0000 (  2515 PWs)   bands (ev):

   -45.7850 -22.4636 -22.4165 -22.3659  -6.9541  -6.3119  -6.1812  -5.0828
    -5.0278  -5.0067  -4.8414  -4.7584   3.0195   5.8609   6.6114   6.8926
     7.2631   7.8022   7.9883   8.5995   8.8316   9.8246

          k = 0.1250 0.3750 0.1189 (  2508 PWs)   bands (ev):

   -45.7849 -22.4692 -22.4162 -22.3656  -6.9205  -6.3063  -6.1634  -5.0748
    -5.0307  -5.0026  -4.8317  -4.7485   2.9710   5.8419   6.3641   6.8432
     7.2462   7.8086   8.0265   8.6361   8.7266   9.7511

          k = 0.1250 0.3750 0.2378 (  2508 PWs)   bands (ev):

   -45.7847 -22.4828 -22.4154 -22.3650  -6.8527  -6.2866  -6.1073  -5.0597
    -5.0316  -4.9916  -4.8288  -4.7090   2.8443   5.7616   6.1392   6.5567
     6.9464   7.7456   8.1778   8.4766   8.9667   9.5344

          k = 0.1250 0.3750 0.3567 (  2512 PWs)   bands (ev):

   -45.7846 -22.4962 -22.4147 -22.3644  -6.8060  -6.2567  -6.0312  -5.0573
    -5.0189  -4.9735  -4.8442  -4.6610   2.7081   5.5763   6.0771   6.3577
     6.5791   7.6537   8.3200   8.3912   9.0681   9.4218

          k = 0.1250 0.3750-0.4756 (  2522 PWs)   bands (ev):

   -45.7845 -22.5018 -22.4143 -22.3642  -6.7930  -6.2419  -5.9931  -5.0583
    -5.0124  -4.9609  -4.8557  -4.6409   2.6499   5.4584   6.0795   6.3016
     6.4497   7.6273   8.3220   8.4068   8.9620   9.4948

          k = 0.1250-0.5000 0.0000 (  2524 PWs)   bands (ev):

   -45.7848 -22.4630 -22.4265 -22.3654  -6.8594  -6.2819  -6.1973  -5.0855
    -5.0247  -5.0027  -4.8166  -4.7898   2.9097   5.6558   6.7042   7.0629
     7.1533   7.4738   8.0030   8.5807   8.8447  10.1190

          k = 0.1250-0.5000 0.1189 (  2518 PWs)   bands (ev):

   -45.7847 -22.4687 -22.4262 -22.3652  -6.8354  -6.2683  -6.1829  -5.0766
    -5.0271  -4.9991  -4.7946  -4.7847   2.8733   5.6491   6.3849   6.8603
     7.3046   7.5423   8.0213   8.6765   8.6864   9.9402

          k = 0.1250-0.5000 0.2378 (  2510 PWs)   bands (ev):

   -45.7846 -22.4822 -22.4254 -22.3646  -6.7958  -6.2353  -6.1218  -5.0598
    -5.0255  -4.9913  -4.8093  -4.7095   2.7759   5.6109   6.1239   6.4084
     6.9584   7.8915   7.9391   8.4990   8.9642   9.5413

          k = 0.1250-0.5000 0.3567 (  2514 PWs)   bands (ev):

   -45.7844 -22.4956 -22.4246 -22.3640  -6.7801  -6.2022  -6.0264  -5.0561
    -5.0041  -4.9830  -4.8301  -4.6382   2.6673   5.4875   6.0629   6.0669
     6.6026   7.7807   8.1435   8.4099   8.9072   9.4936

          k = 0.1250-0.5000-0.4756 (  2532 PWs)   bands (ev):

   -45.7843 -22.5012 -22.4242 -22.3637  -6.7791  -6.1884  -5.9784  -5.0568
    -4.9900  -4.9791  -4.8417  -4.6099   2.6198   5.3860   5.9784   6.0744
     6.4619   7.7473   8.2090   8.3766   8.7357   9.6083

          k = 0.2500 0.2500 0.0000 (  2528 PWs)   bands (ev):

   -45.7850 -22.4637 -22.3913 -22.3909  -6.9832  -6.3165  -6.2013  -5.0666
    -5.0381  -4.9866  -4.8177  -4.7330   3.0333   6.2310   6.3892   6.7928
     7.2223   7.3928   8.3178   8.5710   9.0398   9.5159

          k = 0.2500 0.2500 0.1189 (  2512 PWs)   bands (ev):

   -45.7849 -22.4693 -22.3910 -22.3906  -6.9392  -6.3198  -6.1878  -5.0585
    -5.0403  -4.9795  -4.8099  -4.7232   3.0158   6.1162   6.2049   6.5764
     7.2550   7.4626   8.4403   8.5507   9.0539   9.4132

          k = 0.2500 0.2500 0.2378 (  2504 PWs)   bands (ev):

   -45.7847 -22.4829 -22.3904 -22.3900  -6.8386  -6.3281  -6.1465  -5.0437
    -5.0384  -4.9590  -4.7940  -4.7014   2.9517   5.8444   5.8941   6.4402
     7.1150   7.1563   8.5505   8.8765   9.1070   9.2135

          k = 0.2500 0.2500 0.3567 (  2513 PWs)   bands (ev):

   -45.7846 -22.4964 -22.3897 -22.3894  -6.7495  -6.3366  -6.0883  -5.0447
    -5.0198  -4.9282  -4.7853  -4.6818   2.8589   5.5961   5.7643   6.1944
     6.8320   7.0611   8.5950   9.0112   9.0710   9.2161

          k = 0.2500 0.2500-0.4756 (  2520 PWs)   bands (ev):

   -45.7845 -22.5020 -22.3894 -22.3892  -6.7170  -6.3401  -6.0580  -5.0445
    -5.0131  -4.9100  -4.7857  -4.6742   2.8133   5.5007   5.7217   6.0683
     6.7587   7.0486   8.5469   9.0275   9.0363   9.2682

          k = 0.2500 0.3750 0.0000 (  2521 PWs)   bands (ev):

   -45.7846 -22.4625 -22.4152 -22.3899  -6.7923  -6.2751  -6.2248  -5.0645
    -5.0232  -4.9448  -4.7872  -4.7490   2.7675   5.8785   6.3694   6.8454
     7.0424   7.4312   7.8751   8.6380   9.1573   9.5912

          k = 0.2500 0.3750 0.1189 (  2518 PWs)   bands (ev):

   -45.7845 -22.4681 -22.4149 -22.3897  -6.7536  -6.2830  -6.2166  -5.0549
    -5.0226  -4.9324  -4.7760  -4.7293   2.7950   5.8470   6.1408   6.3742
     7.0366   7.5647   8.1485   8.6082   9.1640   9.4102

          k = 0.2500 0.3750 0.2378 (  2508 PWs)   bands (ev):

   -45.7843 -22.4816 -22.4142 -22.3891  -6.6771  -6.2971  -6.1798  -5.0354
    -5.0156  -4.9040  -4.7525  -4.6787   2.8497   5.6525   5.7292   6.0680
     6.7627   7.2404   8.4719   8.8809   9.0672   9.2311

          k = 0.2500 0.3750 0.3567 (  2507 PWs)   bands (ev):

   -45.7841 -22.4950 -22.4135 -22.3884  -6.6307  -6.3057  -6.1115  -5.0272
    -4.9957  -4.8730  -4.7336  -4.6267   2.8803   5.4291   5.4632   5.9079
     6.4096   7.0138   8.2151   9.0030   9.1346   9.4011

          k = 0.2500 0.3750-0.4756 (  2508 PWs)   bands (ev):

   -45.7840 -22.5006 -22.4132 -22.3882  -6.6203  -6.3085  -6.0733  -5.0252
    -4.9858  -4.8579  -4.7275  -4.6054   2.8838   5.3112   5.4238   5.8218
     6.2680   6.9725   8.0197   9.0330   9.1605   9.5100

          k = 0.2500-0.5000 0.0000 (  2530 PWs)   bands (ev):

   -45.7844 -22.4619 -22.4252 -22.3894  -6.7108  -6.2471  -6.2460  -5.0621
    -5.0156  -4.9128  -4.7805  -4.7666   2.6677   5.6694   6.4684   6.6366
     7.3167   7.4890   7.5169   8.6975   9.1427   9.6060

          k = 0.2500-0.5000 0.1189 (  2512 PWs)   bands (ev):

   -45.7843 -22.4675 -22.4249 -22.3892  -6.6764  -6.2495  -6.2455  -5.0522
    -5.0140  -4.8975  -4.7698  -4.7408   2.7090   5.6617   6.1254   6.3202
     7.0217   7.7372   7.8823   8.6631   9.1362   9.3902

          k = 0.2500-0.5000 0.2378 (  2506 PWs)   bands (ev):

   -45.7841 -22.4810 -22.4241 -22.3886  -6.6203  -6.2557  -6.2103  -5.0322
    -5.0041  -4.8684  -4.7451  -4.6727   2.8041   5.5882   5.6138   5.9290
     6.6997   7.3274   8.3086   8.8803   8.9980   9.2668

          k = 0.2500-0.5000 0.3567 (  2506 PWs)   bands (ev):

   -45.7839 -22.4944 -22.4234 -22.3880  -6.6044  -6.2624  -6.1264  -5.0224
    -4.9815  -4.8422  -4.7216  -4.6028   2.8855   5.3228   5.4120   5.6977
     6.3461   7.0835   7.8931   9.0307   9.1223   9.4849

          k = 0.2500-0.5000-0.4756 (  2504 PWs)   bands (ev):

   -45.7838 -22.5000 -22.4231 -22.3877  -6.6065  -6.2653  -6.0807  -5.0199
    -4.9699  -4.8308  -4.7122  -4.5742   2.9123   5.2687   5.2795   5.6403
     6.1931   7.0377   7.6453   9.0673   9.1515   9.6248

          k = 0.3750 0.3750 0.0000 (  2512 PWs)   bands (ev):

   -45.7841 -22.4613 -22.4140 -22.4138  -6.6511  -6.2401  -6.2367  -5.0505
    -4.9958  -4.8795  -4.7604  -4.7321   2.5221   5.7568   6.0768   6.8713
     7.0789   7.2420   7.7533   8.4179   9.1498   9.5575

          k = 0.3750 0.3750 0.1189 (  2519 PWs)   bands (ev):

   -45.7840 -22.4669 -22.4137 -22.4135  -6.6036  -6.2557  -6.2481  -5.0395
    -4.9932  -4.8569  -4.7316  -4.7181   2.5988   5.7366   5.9771   6.2268
     6.6560   7.6167   8.3010   8.3037   8.8892   9.5574

          k = 0.3750 0.3750 0.2378 (  2509 PWs)   bands (ev):

   -45.7838 -22.4803 -22.4130 -22.4129  -6.5079  -6.2989  -6.2434  -5.0127
    -4.9880  -4.8082  -4.6778  -4.6630   2.8020   5.5003   5.6025   5.7531
     6.4009   7.0630   8.0288   8.9641   8.9777   9.5578

          k = 0.3750 0.3750 0.3567 (  2498 PWs)   bands (ev):

   -45.7837 -22.4937 -22.4124 -22.4123  -6.4633  -6.3391  -6.1817  -4.9861
    -4.9839  -4.7644  -4.6306  -4.5960   3.0355   5.1212   5.2310   5.6321
     6.3493   6.4792   7.3710   9.3370   9.4051   9.5598

          k = 0.3750 0.3750-0.4756 (  2500 PWs)   bands (ev):

   -45.7836 -22.4993 -22.4121 -22.4120  -6.4598  -6.3549  -6.1394  -4.9823
    -4.9751  -4.7462  -4.6101  -4.5686   3.1420   5.0072   5.0921   5.5551
     6.2741   6.3404   7.0867   9.4582   9.5325   9.5701

          k = 0.3750-0.5000 0.0000 (  2520 PWs)   bands (ev):

   -45.7839 -22.4607 -22.4238 -22.4134  -6.6065  -6.2350  -6.2162  -5.0456
    -4.9787  -4.8324  -4.7858  -4.7122   2.4235   5.5890   6.0764   6.7937
     7.1014   7.4655   7.5140   8.3826   8.9084   9.6826

          k = 0.3750-0.5000 0.1189 (  2522 PWs)   bands (ev):

   -45.7838 -22.4663 -22.4236 -22.4131  -6.5550  -6.2549  -6.2350  -5.0345
    -4.9761  -4.8016  -4.7560  -4.6964   2.5147   5.5792   6.0070   6.1869
     6.5486   7.7591   8.0673   8.3954   8.6038   9.6773

          k = 0.3750-0.5000 0.2378 (  2514 PWs)   bands (ev):

   -45.7837 -22.4798 -22.4229 -22.4125  -6.4493  -6.2779  -6.2777  -5.0078
    -4.9710  -4.7452  -4.6844  -4.6419   2.7663   5.4971   5.5304   5.6337
     6.2559   7.0969   7.6848   8.9617   8.9851   9.6698

          k = 0.3750-0.5000 0.3567 (  2508 PWs)   bands (ev):

   -45.7835 -22.4932 -22.4222 -22.4118  -6.4230  -6.3176  -6.2131  -4.9827
    -4.9654  -4.7049  -4.6138  -4.5711   3.0851   5.0446   5.1993   5.4798
     6.1857   6.5329   6.8991   9.3893   9.4655   9.6640

          k = 0.3750-0.5000-0.4756 (  2496 PWs)   bands (ev):

   -45.7834 -22.4987 -22.4219 -22.4116  -6.4320  -6.3333  -6.1644  -4.9747
    -4.9609  -4.6892  -4.5849  -4.5402   3.2497   4.8917   5.0487   5.4211
     6.1348   6.3785   6.5505   9.5154   9.6419   9.6546

          k =-0.5000-0.5000 0.0000 (  2496 PWs)   bands (ev):

   -45.7837 -22.4601 -22.4233 -22.4233  -6.5858  -6.2045  -6.2045  -5.0401
    -4.9526  -4.7954  -4.7954  -4.6934   2.3227   5.4763   6.0168   6.9329
     6.9329   7.5297   7.5297   8.2358   8.6113   9.8349

          k =-0.5000-0.5000 0.1189 (  2524 PWs)   bands (ev):

   -45.7837 -22.4657 -22.4230 -22.4230  -6.5300  -6.2302  -6.2302  -5.0290
    -4.9521  -4.7545  -4.7545  -4.6854   2.4281   5.4666   6.0186   6.2960
     6.2960   7.8490   8.2028   8.2057   8.2057   9.8303

          k =-0.5000-0.5000 0.2378 (  2508 PWs)   bands (ev):

   -45.7835 -22.4792 -22.4224 -22.4224  -6.3932  -6.2875  -6.2875  -5.0021
    -4.9508  -4.6633  -4.6597  -4.6597   2.7283   5.4322   5.5942   5.5942
     6.0231   7.0715   7.2864   8.9823   8.9823   9.8195

          k =-0.5000-0.5000 0.3567 (  2512 PWs)   bands (ev):

   -45.7833 -22.4926 -22.4217 -22.4217  -6.3393  -6.3393  -6.2539  -4.9752
    -4.9495  -4.6365  -4.5694  -4.5694   3.1404   5.1287   5.1287   5.3637
     6.0275   6.3619   6.4489   9.4850   9.4850   9.8086

          k =-0.5000-0.5000-0.4756 (  2504 PWs)   bands (ev):

   -45.7832 -22.4981 -22.4215 -22.4215  -6.3595  -6.3595  -6.1956  -4.9641
    -4.9490  -4.6236  -4.5330  -4.5330   3.3795   4.9663   4.9663   5.3131
     5.9315   6.0294   6.2356   9.6493   9.6493   9.8042

     highest occupied level (ev):    10.3343

!    total energy              =    -380.57188398 Ry
     estimated scf accuracy    <          1.1E-10 Ry

     The total energy is the sum of the following terms:
     one-electron contribution =     -84.63038259 Ry
     hartree contribution      =      71.46012185 Ry
     xc contribution           =    -102.56357495 Ry
     ewald contribution        =    -264.83804829 Ry

     convergence has been achieved in  10 iterations

     negative rho (up, down):  1.511E-02 0.000E+00

     Forces acting on atoms (cartesian axes, Ry/au):

     atom    1 type  1   force =     0.00000000    0.00000000   -0.00851339
     atom    2 type  2   force =     0.00000000    0.00000000    0.00267099
     atom    3 type  3   force =     0.00000000    0.00000000    0.00135224
     atom    4 type  3   force =     0.00000000    0.00000000    0.00224508
     atom    5 type  3   force =     0.00000000    0.00000000    0.00224508

     Total force =     0.009567     Total SCF correction =     0.000017


     Computing stress (Cartesian axis) and pressure


     negative rho (up, down):  1.511E-02 0.000E+00
          total   stress  (Ry/bohr**3)                   (kbar)     P=      -54.13
  -0.00040595   0.00000000   0.00000000          -59.72        0.00        0.00
   0.00000000  -0.00040595   0.00000000            0.00      -59.72        0.00
   0.00000000   0.00000000  -0.00029193            0.00        0.00      -42.94

     Energy error            =      2.9E-04 Ry
     Gradient error          =      8.5E-03 Ry/Bohr

     number of scf cycles    =   3
     number of bfgs steps    =   2

     energy             old  =    -380.5715900663 Ry
     energy             new  =    -380.5718839823 Ry

     CASE: energy            _new < energy            _old

     new trust radius        =       0.0193256703 bohr
     new conv_thr            =       0.0000000003 Ry


ATOMIC_POSITIONS (crystal)
Pb               0.0000000000        0.0000000000        1.0009144451
Ti               0.5000000000        0.5000000000        0.5372844701
O                0.5000000000        0.5000000000        0.1057766381
O                0.5000000000        0.0000000000        0.6116543673
O                0.0000000000        0.5000000000        0.6116543673



     Writing config-only to output data dir ./pto_k8.save/ :
     XML data file
     NEW-OLD atomic charge density approx. for the potential

     Check: negative core charge=   -0.000004

     negative rho (up, down):  1.493E-02 0.000E+00

     total cpu time spent up to now is       83.8 secs

     Self-consistent Calculation

     iteration #  1     ecut=    50.00 Ry     beta= 0.70
     CG style diagonalization
     ethr =  1.00E-06,  avg # of iterations =  5.8

     negative rho (up, down):  1.490E-02 0.000E+00

     total cpu time spent up to now is       86.8 secs

     total energy              =    -380.57198929 Ry
     estimated scf accuracy    <       0.00005954 Ry

     iteration #  2     ecut=    50.00 Ry     beta= 0.70
     CG style diagonalization
     ethr =  1.35E-07,  avg # of iterations =  4.8

     negative rho (up, down):  1.490E-02 0.000E+00

     total cpu time spent up to now is       89.0 secs

     total energy              =    -380.57199256 Ry
     estimated scf accuracy    <       0.00015057 Ry

     iteration #  3     ecut=    50.00 Ry     beta= 0.70
     CG style diagonalization
     ethr =  1.35E-07,  avg # of iterations =  4.2

     negative rho (up, down):  1.490E-02 0.000E+00

     total cpu time spent up to now is       91.0 secs

     total energy              =    -380.57202373 Ry
     estimated scf accuracy    <       0.00001682 Ry

     iteration #  4     ecut=    50.00 Ry     beta= 0.70
     CG style diagonalization
     ethr =  3.82E-08,  avg # of iterations =  3.7

     negative rho (up, down):  1.489E-02 0.000E+00

     total cpu time spent up to now is       92.7 secs

     total energy              =    -380.57202747 Ry
     estimated scf accuracy    <       0.00000230 Ry

     iteration #  5     ecut=    50.00 Ry     beta= 0.70
     CG style diagonalization
     ethr =  5.24E-09,  avg # of iterations =  4.1

     negative rho (up, down):  1.489E-02 0.000E+00

     total cpu time spent up to now is       94.5 secs

     total energy              =    -380.57202856 Ry
     estimated scf accuracy    <       0.00000009 Ry

     iteration #  6     ecut=    50.00 Ry     beta= 0.70
     CG style diagonalization
     ethr =  2.00E-10,  avg # of iterations =  6.0

     negative rho (up, down):  1.489E-02 0.000E+00

     total cpu time spent up to now is       97.4 secs

     total energy              =    -380.57202873 Ry
     estimated scf accuracy    <       0.00000016 Ry

     iteration #  7     ecut=    50.00 Ry     beta= 0.70
     CG style diagonalization
     ethr =  2.00E-10,  avg # of iterations =  3.9

     negative rho (up, down):  1.489E-02 0.000E+00

     total cpu time spent up to now is       99.2 secs

     total energy              =    -380.57202874 Ry
     estimated scf accuracy    <       0.00000003 Ry

     iteration #  8     ecut=    50.00 Ry     beta= 0.70
     CG style diagonalization
     ethr =  7.30E-11,  avg # of iterations =  4.1

     negative rho (up, down):  1.489E-02 0.000E+00

     total cpu time spent up to now is      101.1 secs

     total energy              =    -380.57202875 Ry
     estimated scf accuracy    <          2.4E-09 Ry

     iteration #  9     ecut=    50.00 Ry     beta= 0.70
     CG style diagonalization
     ethr =  5.37E-12,  avg # of iterations =  6.3

     negative rho (up, down):  1.489E-02 0.000E+00

     total cpu time spent up to now is      104.1 secs

     End of self-consistent calculation

          k = 0.0000 0.0000 0.0000 (  2525 PWs)   bands (ev):

   -45.7726 -22.4644 -22.3450 -22.3450  -7.5253  -6.4455  -6.2228  -5.0224
    -5.0224  -4.9892  -4.8835  -4.7406   4.2017   6.2998   6.2998   6.7291
     8.1103   8.1103   8.4841   8.6337   8.9385   8.9385

          k = 0.0000 0.0000 0.1189 (  2541 PWs)   bands (ev):

   -45.7726 -22.4702 -22.3448 -22.3448  -7.4695  -6.4293  -6.2063  -5.0268
    -5.0268  -4.9889  -4.8805  -4.7605   3.9299   6.3146   6.3146   6.9288
     8.0395   8.0395   8.4587   8.5108   8.9728   8.9728

          k = 0.0000 0.0000 0.2378 (  2517 PWs)   bands (ev):

   -45.7724 -22.4841 -22.3442 -22.3442  -7.3293  -6.3884  -6.1686  -5.0375
    -5.0375  -4.9880  -4.8739  -4.8099   3.4359   6.3444   6.3444   6.8389
     7.9041   7.9041   8.3990   8.7824   9.0367   9.0367

          k = 0.0000 0.0000 0.3567 (  2526 PWs)   bands (ev):

   -45.7722 -22.4979 -22.3437 -22.3437  -7.1797  -6.3449  -6.1354  -5.0481
    -5.0481  -4.9871  -4.8680  -4.8621   3.0583   6.3642   6.3642   6.3933
     7.8060   7.8060   8.3411   9.0864   9.0864   9.5493

          k = 0.0000 0.0000-0.4756 (  2530 PWs)   bands (ev):

   -45.7721 -22.5036 -22.3435 -22.3435  -7.1144  -6.3259  -6.1236  -5.0524
    -5.0524  -4.9867  -4.8846  -4.8658   2.9227   6.1885   6.3690   6.3690
     7.7745   7.7745   8.3177   9.1047   9.1047  10.0015

          k = 0.0000 0.1250 0.0000 (  2525 PWs)   bands (ev):

   -45.7725 -22.4640 -22.3552 -22.3446  -7.4477  -6.4294  -6.2083  -5.0360
    -5.0216  -4.9966  -4.8818  -4.7340   3.9416   6.3289   6.3627   6.7637
     8.0632   8.1253   8.4856   8.6171   8.7124   8.9682

          k = 0.0000 0.1250 0.1189 (  2523 PWs)   bands (ev):

   -45.7724 -22.4697 -22.3549 -22.3444  -7.3939  -6.4158  -6.1914  -5.0374
    -5.0261  -4.9963  -4.8797  -4.7483   3.7314   6.2762   6.3791   6.9427
     7.9301   8.0459   8.4677   8.5255   8.7570   9.0229

          k = 0.0000 0.1250 0.2378 (  2519 PWs)   bands (ev):

   -45.7722 -22.4836 -22.3543 -22.3438  -7.2600  -6.3817  -6.1514  -5.0398
    -5.0369  -4.9956  -4.8765  -4.7835   3.3156   6.1953   6.4120   6.9420
     7.6710   7.9038   8.4422   8.5615   8.8325   9.2664

          k = 0.0000 0.1250 0.3567 (  2528 PWs)   bands (ev):

   -45.7720 -22.4973 -22.3538 -22.3433  -7.1197  -6.3455  -6.1133  -5.0477
    -5.0414  -4.9950  -4.8761  -4.8190   2.9786   6.0375   6.4335   6.6561
     7.5776   7.8069   8.5529   8.5695   8.8875   9.7253

          k = 0.0000 0.1250-0.4756 (  2514 PWs)   bands (ev):

   -45.7719 -22.5030 -22.3535 -22.3430  -7.0594  -6.3296  -6.0984  -5.0522
    -5.0420  -4.9947  -4.8765  -4.8338   2.8547   5.9223   6.4385   6.5575
     7.5575   7.7772   8.5507   8.6131   8.9072   9.9993

          k = 0.0000 0.2500 0.0000 (  2503 PWs)   bands (ev):

   -45.7720 -22.4629 -22.3796 -22.3436  -7.2501  -6.3907  -6.1778  -5.0613
    -5.0197  -5.0143  -4.8751  -4.7299   3.4706   6.2699   6.5379   6.5891
     8.1056   8.1263   8.2769   8.4031   8.6275   9.1434

          k = 0.0000 0.2500 0.1189 (  2505 PWs)   bands (ev):

   -45.7719 -22.4686 -22.3793 -22.3434  -7.2038  -6.3820  -6.1587  -5.0559
    -5.0243  -5.0143  -4.8731  -4.7324   3.3402   6.1768   6.5589   6.6831
     7.9011   8.0008   8.3022   8.3708   8.5695   9.3010

          k = 0.0000 0.2500 0.2378 (  2512 PWs)   bands (ev):

   -45.7717 -22.4823 -22.3786 -22.3428  -7.0936  -6.3584  -6.1087  -5.0405
    -5.0356  -5.0141  -4.8765  -4.7339   3.0537   6.0058   6.5999   6.7273
     7.5544   7.8488   7.8925   8.4670   8.8045   9.5251

          k = 0.0000 0.2500 0.3567 (  2512 PWs)   bands (ev):

   -45.7715 -22.4959 -22.3779 -22.3422  -6.9881  -6.3277  -6.0533  -5.0468
    -5.0223  -5.0139  -4.8895  -4.7309   2.7984   5.7747   6.6201   6.6235
     7.3175   7.7663   7.7673   8.5243   8.9643   9.6956

          k = 0.0000 0.2500-0.4756 (  2508 PWs)   bands (ev):

   -45.7715 -22.5016 -22.3776 -22.3420  -6.9467  -6.3117  -6.0287  -5.0515
    -5.0142  -5.0139  -4.8967  -4.7292   2.7003   5.6482   6.5598   6.6273
     7.2498   7.7477   7.7648   8.5438   9.0081   9.7611

          k = 0.0000 0.3750 0.0000 (  2500 PWs)   bands (ev):

   -45.7715 -22.4617 -22.4039 -22.3426  -7.0337  -6.3439  -6.1659  -5.0807
    -5.0322  -5.0175  -4.8517  -4.7519   3.1258   5.8468   6.7330   6.7870
     7.6712   7.7349   8.2414   8.3011   8.6932   9.8617

          k = 0.0000 0.3750 0.1189 (  2506 PWs)   bands (ev):

   -45.7715 -22.4674 -22.4036 -22.3423  -7.0020  -6.3327  -6.1444  -5.0715
    -5.0323  -5.0224  -4.8445  -4.7448   3.0370   5.8299   6.6897   6.8182
     7.4397   7.6783   8.2643   8.4003   8.5228   9.8581

          k = 0.0000 0.3750 0.2378 (  2511 PWs)   bands (ev):

   -45.7713 -22.4810 -22.4028 -22.3417  -6.9373  -6.2989  -6.0799  -5.0476
    -5.0345  -5.0323  -4.8516  -4.7083   2.8330   5.7595   6.5227   6.8750
     7.1101   7.5888   7.8926   8.3020   8.9030   9.7422

          k = 0.0000 0.3750 0.3567 (  2518 PWs)   bands (ev):

   -45.7711 -22.4945 -22.4020 -22.3412  -6.8910  -6.2530  -5.9974  -5.0460
    -5.0328  -5.0196  -4.8778  -4.6617   2.6421   5.5876   6.2885   6.8932
     7.0482   7.4957   7.5654   8.3276   9.2092   9.5574

          k = 0.0000 0.3750-0.4756 (  2518 PWs)   bands (ev):

   -45.7710 -22.5001 -22.4017 -22.3409  -6.8773  -6.2305  -5.9575  -5.0508
    -5.0329  -5.0055  -4.8930  -4.6422   2.5664   5.4696   6.2182   6.8875
     7.0629   7.3566   7.5752   8.3364   9.2684   9.5160

          k = 0.0000-0.5000 0.0000 (  2488 PWs)   bands (ev):

   -45.7714 -22.4612 -22.4140 -22.3422  -6.9370  -6.3131  -6.1771  -5.0879
    -5.0395  -5.0166  -4.8167  -4.7883   3.0094   5.6420   6.9090   6.9708
     7.3646   7.4745   8.2528   8.2605   8.7109  10.3361

          k = 0.0000-0.5000 0.1189 (  2506 PWs)   bands (ev):

   -45.7713 -22.4668 -22.4136 -22.3419  -6.9159  -6.2936  -6.1572  -5.0785
    -5.0397  -5.0217  -4.7991  -4.7842   2.9326   5.6362   6.8566   7.0258
     7.1130   7.4111   8.2696   8.4609   8.4688  10.1879

          k = 0.0000-0.5000 0.2378 (  2506 PWs)   bands (ev):

   -45.7711 -22.4804 -22.4128 -22.3413  -6.8804  -6.2451  -6.0856  -5.0544
    -5.0401  -5.0337  -4.8276  -4.7093   2.7548   5.6019   6.5695   6.8137
     7.1637   7.2706   7.9622   8.2859   8.9015   9.8391

          k = 0.0000-0.5000 0.3567 (  2526 PWs)   bands (ev):

   -45.7709 -22.4938 -22.4119 -22.3407  -6.8647  -6.1943  -5.9827  -5.0456
    -5.0406  -5.0269  -4.8615  -4.6391   2.5865   5.4884   6.1501   6.8434
     7.1432   7.3095   7.5575   8.2972   9.1848   9.5694

          k = 0.0000-0.5000-0.4756 (  2516 PWs)   bands (ev):

   -45.7708 -22.4994 -22.4116 -22.3405  -6.8628  -6.1725  -5.9319  -5.0505
    -5.0408  -5.0133  -4.8784  -4.6114   2.5194   5.3915   6.0365   6.8734
     7.0935   7.3726   7.4080   8.3009   9.1547   9.5876

          k = 0.1250 0.1250 0.0000 (  2509 PWs)   bands (ev):

   -45.7723 -22.4635 -22.3549 -22.3546  -7.3710  -6.4127  -6.2005  -5.0380
    -5.0322  -5.0020  -4.8707  -4.7275   3.7367   6.3086   6.4350   6.7921
     7.7986   8.1552   8.3450   8.5514   8.9229   8.9973

          k = 0.1250 0.1250 0.1189 (  2511 PWs)   bands (ev):

   -45.7722 -22.4693 -22.3546 -22.3544  -7.3189  -6.4019  -6.1838  -5.0376
    -5.0356  -5.0017  -4.8685  -4.7373   3.5756   6.2762   6.3296   6.9688
     7.7421   8.0259   8.2878   8.5898   8.9292   9.0037

          k = 0.1250 0.1250 0.2378 (  2521 PWs)   bands (ev):

   -45.7720 -22.4831 -22.3540 -22.3538  -7.1903  -6.3753  -6.1430  -5.0499
    -5.0270  -5.0011  -4.8655  -4.7622   3.2309   6.1911   6.2374   6.9685
     7.6553   7.7139   8.2719   8.6437   8.9446   9.2626

          k = 0.1250 0.1250 0.3567 (  2515 PWs)   bands (ev):

   -45.7718 -22.4968 -22.3534 -22.3532  -7.0574  -6.3478  -6.1015  -5.0610
    -5.0136  -5.0006  -4.8670  -4.7893   2.9331   6.0658   6.0994   6.7658
     7.6113   7.6333   8.2632   8.6650   8.9629   9.6776

          k = 0.1250 0.1250-0.4756 (  2512 PWs)   bands (ev):

   -45.7717 -22.5024 -22.3531 -22.3530  -7.0011  -6.3361  -6.0840  -5.0652
    -5.0056  -5.0010  -4.8696  -4.8012   2.8206   5.9344   6.0603   6.7190
     7.6013   7.6244   8.2631   8.6675   8.9718   9.8773

          k = 0.1250 0.2500 0.0000 (  2507 PWs)   bands (ev):

   -45.7718 -22.4625 -22.3791 -22.3537  -7.1765  -6.3736  -6.1864  -5.0618
    -5.0288  -5.0045  -4.8528  -4.7233   3.3333   6.2426   6.5560   6.6401
     7.6521   7.7836   8.3553   8.5786   8.8050   9.3071

          k = 0.1250 0.2500 0.1189 (  2500 PWs)   bands (ev):

   -45.7717 -22.4681 -22.3788 -22.3534  -7.1307  -6.3685  -6.1688  -5.0565
    -5.0323  -5.0023  -4.8491  -4.7224   3.2446   6.1685   6.3449   6.7921
     7.5247   7.8154   8.2918   8.6054   8.7522   9.3470

          k = 0.1250 0.2500 0.2378 (  2499 PWs)   bands (ev):

   -45.7715 -22.4818 -22.3781 -22.3528  -7.0225  -6.3549  -6.1216  -5.0505
    -5.0311  -4.9945  -4.8465  -4.7187   3.0298   5.9767   6.2202   6.7571
     7.2624   7.6249   8.2861   8.6275   8.8663   9.4473

          k = 0.1250 0.2500 0.3567 (  2521 PWs)   bands (ev):

   -45.7714 -22.4954 -22.3775 -22.3522  -6.9200  -6.3374  -6.0662  -5.0556
    -5.0192  -4.9770  -4.8548  -4.7136   2.8196   5.7536   6.1572   6.5526
     7.1016   7.5332   8.2356   8.6809   9.0130   9.5186

          k = 0.1250 0.2500-0.4756 (  2512 PWs)   bands (ev):

   -45.7713 -22.5010 -22.3772 -22.3520  -6.8802  -6.3286  -6.0402  -5.0580
    -5.0152  -4.9642  -4.8629  -4.7115   2.7349   5.6406   6.1038   6.4883
     7.0828   7.5131   8.2044   8.7044   9.0577   9.5327

          k = 0.1250 0.3750 0.0000 (  2515 PWs)   bands (ev):

   -45.7714 -22.4613 -22.4034 -22.3526  -6.9647  -6.3285  -6.1897  -5.0755
    -5.0214  -4.9999  -4.8311  -4.7442   3.0183   5.8561   6.6003   6.8896
     7.2532   7.7946   7.9646   8.5866   8.8132   9.8251

          k = 0.1250 0.3750 0.1189 (  2508 PWs)   bands (ev):

   -45.7713 -22.4669 -22.4030 -22.3524  -6.9317  -6.3228  -6.1711  -5.0674
    -5.0243  -4.9961  -4.8225  -4.7337   2.9705   5.8362   6.3532   6.8390
     7.2343   7.8014   8.0071   8.6197   8.7122   9.7527

          k = 0.1250 0.3750 0.2378 (  2508 PWs)   bands (ev):

   -45.7711 -22.4805 -22.4023 -22.3518  -6.8651  -6.3031  -6.1131  -5.0525
    -5.0247  -4.9855  -4.8201  -4.6945   2.8456   5.7527   6.1262   6.5516
     6.9374   7.7383   8.1642   8.4588   8.9538   9.5384

          k = 0.1250 0.3750 0.3567 (  2512 PWs)   bands (ev):

   -45.7709 -22.4940 -22.4015 -22.3512  -6.8193  -6.2738  -6.0348  -5.0507
    -5.0118  -4.9675  -4.8348  -4.6477   2.7109   5.5630   6.0644   6.3524
     6.5719   7.6486   8.3036   8.3768   9.0690   9.4154

          k = 0.1250 0.3750-0.4756 (  2522 PWs)   bands (ev):

   -45.7708 -22.4996 -22.4012 -22.3509  -6.8064  -6.2595  -5.9958  -5.0518
    -5.0055  -4.9550  -4.8458  -4.6282   2.6532   5.4439   6.0685   6.2953
     6.4419   7.6221   8.3065   8.3917   8.9707   9.4830

          k = 0.1250-0.5000 0.0000 (  2524 PWs)   bands (ev):

   -45.7712 -22.4608 -22.4134 -22.3522  -6.8700  -6.2982  -6.2077  -5.0779
    -5.0183  -4.9963  -4.8003  -4.7800   2.9085   5.6526   6.6871   7.0580
     7.1493   7.4718   7.9725   8.5676   8.8251  10.1222

          k = 0.1250-0.5000 0.1189 (  2518 PWs)   bands (ev):

   -45.7711 -22.4664 -22.4131 -22.3519  -6.8467  -6.2849  -6.1917  -5.0690
    -5.0207  -4.9929  -4.7848  -4.7690   2.8729   5.6455   6.3715   6.8527
     7.3005   7.5322   7.9995   8.6578   8.6735   9.9444

          k = 0.1250-0.5000 0.2378 (  2510 PWs)   bands (ev):

   -45.7709 -22.4799 -22.4123 -22.3513  -6.8084  -6.2527  -6.1274  -5.0525
    -5.0185  -4.9857  -4.7991  -4.6954   2.7775   5.6053   6.1088   6.3997
     6.9522   7.8837   7.9254   8.4796   8.9533   9.5460

          k = 0.1250-0.5000 0.3567 (  2514 PWs)   bands (ev):

   -45.7707 -22.4934 -22.4115 -22.3507  -6.7933  -6.2202  -6.0299  -5.0495
    -4.9966  -4.9779  -4.8191  -4.6255   2.6709   5.4769   6.0440   6.0609
     6.5984   7.7770   8.1280   8.3929   8.9153   9.4818

          k = 0.1250-0.5000-0.4756 (  2532 PWs)   bands (ev):

   -45.7706 -22.4989 -22.4111 -22.3505  -6.7923  -6.2068  -5.9812  -5.0503
    -4.9826  -4.9741  -4.8303  -4.5978   2.6241   5.3730   5.9740   6.0533
     6.4591   7.7437   8.1926   8.3612   8.7486   9.5934

          k = 0.2500 0.2500 0.0000 (  2528 PWs)   bands (ev):

   -45.7714 -22.4614 -22.3782 -22.3777  -6.9933  -6.3336  -6.2083  -5.0596
    -5.0315  -4.9793  -4.8109  -4.7176   3.0286   6.2283   6.3781   6.7929
     7.2103   7.3737   8.3178   8.5591   9.0242   9.5092

          k = 0.2500 0.2500 0.1189 (  2512 PWs)   bands (ev):

   -45.7713 -22.4670 -22.3779 -22.3774  -6.9499  -6.3368  -6.1940  -5.0513
    -5.0337  -4.9725  -4.8033  -4.7080   3.0116   6.1113   6.1946   6.5708
     7.2443   7.4567   8.4250   8.5444   9.0383   9.4102

          k = 0.2500 0.2500 0.2378 (  2504 PWs)   bands (ev):

   -45.7711 -22.4806 -22.3772 -22.3768  -6.8508  -6.3446  -6.1505  -5.0372
    -5.0309  -4.9527  -4.7878  -4.6867   2.9488   5.8368   5.8815   6.4332
     7.1124   7.1540   8.5305   8.8647   9.0917   9.2175

          k = 0.2500 0.2500 0.3567 (  2513 PWs)   bands (ev):

   -45.7709 -22.4941 -22.3765 -22.3762  -6.7633  -6.3526  -6.0901  -5.0383
    -5.0124  -4.9226  -4.7790  -4.6675   2.8571   5.5877   5.7478   6.1911
     6.8266   7.0619   8.5792   8.9966   9.0770   9.2017

          k = 0.2500 0.2500-0.4756 (  2520 PWs)   bands (ev):

   -45.7708 -22.4997 -22.3762 -22.3760  -6.7314  -6.3559  -6.0590  -5.0382
    -5.0058  -4.9049  -4.7793  -4.6601   2.8117   5.4921   5.7054   6.0646
     6.7517   7.0502   8.5362   9.0211   9.0319   9.2538

          k = 0.2500 0.3750 0.0000 (  2521 PWs)   bands (ev):

   -45.7709 -22.4602 -22.4021 -22.3767  -6.8012  -6.2928  -6.2347  -5.0570
    -5.0163  -4.9371  -4.7790  -4.7338   2.7600   5.8740   6.3647   6.8330
     7.0402   7.4127   7.8736   8.6289   9.1432   9.5918

          k = 0.2500 0.3750 0.1189 (  2518 PWs)   bands (ev):

   -45.7708 -22.4658 -22.4018 -22.3765  -6.7634  -6.3001  -6.2252  -5.0474
    -5.0157  -4.9255  -4.7678  -4.7145   2.7878   5.8418   6.1326   6.3687
     7.0295   7.5582   8.1398   8.5961   9.1508   9.4113

          k = 0.2500 0.3750 0.2378 (  2508 PWs)   bands (ev):

   -45.7706 -22.4793 -22.4011 -22.3759  -6.6891  -6.3134  -6.1847  -5.0283
    -5.0085  -4.8989  -4.7440  -4.6650   2.8435   5.6431   5.7204   6.0635
     6.7603   7.2391   8.4657   8.8661   9.0659   9.2164

          k = 0.2500 0.3750 0.3567 (  2507 PWs)   bands (ev):

   -45.7705 -22.4927 -22.4003 -22.3752  -6.6445  -6.3218  -6.1127  -5.0206
    -4.9884  -4.8694  -4.7249  -4.6141   2.8755   5.4198   5.4484   5.9050
     6.4088   7.0142   8.2251   8.9884   9.1192   9.3874

          k = 0.2500 0.3750-0.4756 (  2508 PWs)   bands (ev):

   -45.7704 -22.4983 -22.4001 -22.3750  -6.6344  -6.3244  -6.0733  -5.0188
    -4.9785  -4.8549  -4.7186  -4.5932   2.8797   5.3018   5.4061   5.8198
     6.2674   6.9733   8.0335   9.0182   9.1446   9.4958

          k = 0.2500-0.5000 0.0000 (  2530 PWs)   bands (ev):

   -45.7707 -22.4596 -22.4121 -22.3763  -6.7187  -6.2649  -6.2578  -5.0546
    -5.0085  -4.9051  -4.7684  -4.7544   2.6592   5.6662   6.4655   6.6237
     7.3136   7.4853   7.4983   8.6883   9.1315   9.6096

          k = 0.2500-0.5000 0.1189 (  2512 PWs)   bands (ev):

   -45.7706 -22.4652 -22.4117 -22.3760  -6.6855  -6.2671  -6.2550  -5.0447
    -5.0070  -4.8914  -4.7579  -4.7282   2.7006   5.6583   6.1163   6.3151
     7.0155   7.7286   7.8744   8.6499   9.1294   9.3902

          k = 0.2500-0.5000 0.2378 (  2506 PWs)   bands (ev):

   -45.7705 -22.4787 -22.4110 -22.3754  -6.6324  -6.2728  -6.2145  -5.0251
    -4.9970  -4.8648  -4.7337  -4.6603   2.7966   5.5785   5.6083   5.9233
     6.6967   7.3247   8.3109   8.8632   8.9957   9.2523

          k = 0.2500-0.5000 0.3567 (  2506 PWs)   bands (ev):

   -45.7703 -22.4922 -22.4103 -22.3748  -6.6181  -6.2790  -6.1269  -5.0157
    -4.9743  -4.8403  -4.7107  -4.5913   2.8796   5.3090   5.4011   5.6969
     6.3442   7.0828   7.9098   9.0141   9.1072   9.4714

          k = 0.2500-0.5000-0.4756 (  2504 PWs)   bands (ev):

   -45.7702 -22.4977 -22.4100 -22.3745  -6.6203  -6.2818  -6.0802  -5.0134
    -4.9626  -4.8294  -4.7014  -4.5631   2.9073   5.2518   5.2676   5.6408
     6.1917   7.0372   7.6658   9.0513   9.1357   9.6105

          k = 0.3750 0.3750 0.0000 (  2512 PWs)   bands (ev):

   -45.7705 -22.4590 -22.4009 -22.4007  -6.6556  -6.2558  -6.2542  -5.0429
    -4.9885  -4.8692  -4.7445  -4.7264   2.5089   5.7501   6.0789   6.8612
     7.0671   7.2372   7.7502   8.4135   9.1582   9.5419

          k = 0.3750 0.3750 0.1189 (  2519 PWs)   bands (ev):

   -45.7704 -22.4646 -22.4006 -22.4004  -6.6091  -6.2741  -6.2603  -5.0319
    -4.9861  -4.8481  -4.7164  -4.7119   2.5852   5.7300   5.9768   6.2203
     6.6522   7.6134   8.2934   8.2949   8.8972   9.5419

          k = 0.3750 0.3750 0.2378 (  2509 PWs)   bands (ev):

   -45.7702 -22.4780 -22.3999 -22.3998  -6.5176  -6.3157  -6.2494  -5.0052
    -4.9813  -4.8031  -4.6706  -4.6493   2.7870   5.4937   5.5988   5.7478
     6.4036   7.0622   8.0414   8.9513   8.9656   9.5422

          k = 0.3750 0.3750 0.3567 (  2498 PWs)   bands (ev):

   -45.7700 -22.4915 -22.3992 -22.3991  -6.4773  -6.3545  -6.1813  -4.9786
    -4.9773  -4.7625  -4.6228  -4.5838   3.0188   5.1125   5.2276   5.6284
     6.3533   6.4784   7.3905   9.3214   9.3918   9.5442

          k = 0.3750 0.3750-0.4756 (  2500 PWs)   bands (ev):

   -45.7699 -22.4970 -22.3990 -22.3989  -6.4745  -6.3699  -6.1375  -4.9758
    -4.9676  -4.7455  -4.6021  -4.5570   3.1246   4.9961   5.0891   5.5527
     6.2738   6.3446   7.1088   9.4425   9.5188   9.5547

          k = 0.3750-0.5000 0.0000 (  2520 PWs)   bands (ev):

   -45.7703 -22.4584 -22.4107 -22.4002  -6.6082  -6.2524  -6.2355  -5.0380
    -4.9714  -4.8197  -4.7709  -4.7073   2.4081   5.5837   6.0790   6.7854
     7.0909   7.4597   7.5087   8.3799   8.9203   9.6672

          k = 0.3750-0.5000 0.1189 (  2522 PWs)   bands (ev):

   -45.7702 -22.4640 -22.4104 -22.4000  -6.5573  -6.2704  -6.2535  -5.0269
    -4.9690  -4.7918  -4.7417  -4.6901   2.4985   5.5741   6.0078   6.1816
     6.5443   7.7560   8.0608   8.3861   8.6151   9.6618

          k = 0.3750-0.5000 0.2378 (  2514 PWs)   bands (ev):

   -45.7700 -22.4775 -22.4097 -22.3993  -6.4568  -6.2948  -6.2854  -5.0003
    -4.9641  -4.7418  -4.6718  -4.6324   2.7475   5.4936   5.5257   5.6303
     6.2582   7.0954   7.7030   8.9505   8.9716   9.6544

          k = 0.3750-0.5000 0.3567 (  2508 PWs)   bands (ev):

   -45.7698 -22.4909 -22.4091 -22.3987  -6.4371  -6.3333  -6.2117  -4.9753
    -4.9586  -4.7052  -4.6028  -4.5610   3.0620   5.0410   5.1955   5.4773
     6.1885   6.5312   6.9251   9.3750   9.4522   9.6487

          k = 0.3750-0.5000-0.4756 (  2496 PWs)   bands (ev):

   -45.7697 -22.4964 -22.4088 -22.3984  -6.4465  -6.3484  -6.1618  -4.9676
    -4.9538  -4.6905  -4.5745  -4.5303   3.2238   4.8871   5.0450   5.4198
     6.1359   6.3777   6.5813   9.5011   9.6287   9.6389

          k =-0.5000-0.5000 0.0000 (  2496 PWs)   bands (ev):

   -45.7701 -22.4579 -22.4101 -22.4101  -6.5848  -6.2245  -6.2245  -5.0325
    -4.9457  -4.7787  -4.7787  -4.6934   2.3047   5.4709   6.0214   6.9257
     6.9257   7.5225   7.5225   8.2354   8.6255   9.8194

          k =-0.5000-0.5000 0.1189 (  2524 PWs)   bands (ev):

   -45.7700 -22.4635 -22.4099 -22.4099  -6.5287  -6.2492  -6.2492  -5.0214
    -4.9452  -4.7389  -4.7389  -4.6857   2.4089   5.4615   6.0232   6.2912
     6.2912   7.8483   8.1961   8.1961   8.2194   9.8149

          k =-0.5000-0.5000 0.2378 (  2508 PWs)   bands (ev):

   -45.7698 -22.4769 -22.4092 -22.4092  -6.3912  -6.3044  -6.3044  -4.9945
    -4.9439  -4.6647  -4.6466  -4.6466   2.7048   5.4282   5.5916   5.5916
     6.0277   7.0699   7.3092   8.9705   8.9705   9.8042

          k =-0.5000-0.5000 0.3567 (  2512 PWs)   bands (ev):

   -45.7696 -22.4903 -22.4086 -22.4086  -6.3546  -6.3546  -6.2509  -4.9677
    -4.9426  -4.6391  -4.5584  -4.5584   3.1080   5.1275   5.1275   5.3616
     6.0321   6.3951   6.4454   9.4723   9.4723   9.7934

          k =-0.5000-0.5000-0.4756 (  2504 PWs)   bands (ev):

   -45.7696 -22.4959 -22.4083 -22.4083  -6.3742  -6.3742  -6.1922  -4.9566
    -4.9421  -4.6268  -4.5227  -4.5227   3.3390   4.9657   4.9657   5.3124
     5.9732   6.0340   6.2309   9.6365   9.6365   9.7890

     highest occupied level (ev):    10.3361

!    total energy              =    -380.57202876 Ry
     estimated scf accuracy    <          2.9E-10 Ry

     The total energy is the sum of the following terms:
     one-electron contribution =     -84.95253982 Ry
     hartree contribution      =      71.62477777 Ry
     xc contribution           =    -102.57215102 Ry
     ewald contribution        =    -264.67211569 Ry

     convergence has been achieved in   9 iterations

     negative rho (up, down):  1.489E-02 0.000E+00

     Forces acting on atoms (cartesian axes, Ry/au):

     atom    1 type  1   force =     0.00000000    0.00000000   -0.00707646
     atom    2 type  2   force =     0.00000000    0.00000000    0.00541226
     atom    3 type  3   force =     0.00000000    0.00000000   -0.00365937
     atom    4 type  3   force =     0.00000000    0.00000000    0.00266179
     atom    5 type  3   force =     0.00000000    0.00000000    0.00266179

     Total force =     0.010341     Total SCF correction =     0.000041


     Computing stress (Cartesian axis) and pressure


     negative rho (up, down):  1.489E-02 0.000E+00
          total   stress  (Ry/bohr**3)                   (kbar)     P=      -49.68
  -0.00038941   0.00000000   0.00000000          -57.28        0.00        0.00
   0.00000000  -0.00038941   0.00000000            0.00      -57.28        0.00
   0.00000000   0.00000000  -0.00023436            0.00        0.00      -34.48

     Energy error            =      1.4E-04 Ry
     Gradient error          =      7.1E-03 Ry/Bohr

     number of scf cycles    =   4
     number of bfgs steps    =   3

     energy             old  =    -380.5718839823 Ry
     energy             new  =    -380.5720287587 Ry

     CASE: energy            _new < energy            _old

     new trust radius        =       0.0327486136 bohr
     new conv_thr            =       0.0000000001 Ry


ATOMIC_POSITIONS (crystal)
Pb               0.0000000000        0.0000000000        0.9966876597
Ti               0.5000000000        0.5000000000        0.5377216167
O                0.5000000000        0.5000000000        0.1074412563
O                0.5000000000        0.0000000000        0.6127168776
O                0.0000000000        0.5000000000        0.6127168776



     Writing config-only to output data dir ./pto_k8.save/ :
     XML data file
     NEW-OLD atomic charge density approx. for the potential

     Check: negative core charge=   -0.000004

     negative rho (up, down):  1.528E-02 0.000E+00

     total cpu time spent up to now is      106.5 secs

     Self-consistent Calculation

     iteration #  1     ecut=    50.00 Ry     beta= 0.70
     CG style diagonalization
     c_bands:  1 eigenvalues not converged
     c_bands:  1 eigenvalues not converged
     c_bands:  1 eigenvalues not converged
     c_bands:  1 eigenvalues not converged
     ethr =  1.00E-06,  avg # of iterations =  6.6

     negative rho (up, down):  1.523E-02 0.000E+00

     total cpu time spent up to now is      109.9 secs

     total energy              =    -380.57217198 Ry
     estimated scf accuracy    <       0.00004860 Ry

     iteration #  2     ecut=    50.00 Ry     beta= 0.70
     CG style diagonalization
     ethr =  1.10E-07,  avg # of iterations =  4.6

     negative rho (up, down):  1.522E-02 0.000E+00

     total cpu time spent up to now is      112.1 secs

     total energy              =    -380.57218281 Ry
     estimated scf accuracy    <       0.00003657 Ry

     iteration #  3     ecut=    50.00 Ry     beta= 0.70
     CG style diagonalization
     ethr =  8.31E-08,  avg # of iterations =  4.2

     negative rho (up, down):  1.521E-02 0.000E+00

     total cpu time spent up to now is      114.0 secs

     total energy              =    -380.57219316 Ry
     estimated scf accuracy    <       0.00002802 Ry

     iteration #  4     ecut=    50.00 Ry     beta= 0.70
     CG style diagonalization
     ethr =  6.37E-08,  avg # of iterations =  3.6

     negative rho (up, down):  1.520E-02 0.000E+00

     total cpu time spent up to now is      115.7 secs

     total energy              =    -380.57219776 Ry
     estimated scf accuracy    <       0.00000039 Ry

     iteration #  5     ecut=    50.00 Ry     beta= 0.70
     CG style diagonalization
     ethr =  8.95E-10,  avg # of iterations =  6.0

     negative rho (up, down):  1.520E-02 0.000E+00

     total cpu time spent up to now is      118.5 secs

     total energy              =    -380.57219871 Ry
     estimated scf accuracy    <       0.00000039 Ry

     iteration #  6     ecut=    50.00 Ry     beta= 0.70
     CG style diagonalization
     ethr =  8.89E-10,  avg # of iterations =  3.5

     negative rho (up, down):  1.520E-02 0.000E+00

     total cpu time spent up to now is      120.1 secs

     total energy              =    -380.57219874 Ry
     estimated scf accuracy    <       0.00000008 Ry

     iteration #  7     ecut=    50.00 Ry     beta= 0.70
     CG style diagonalization
     ethr =  1.71E-10,  avg # of iterations =  4.6

     negative rho (up, down):  1.520E-02 0.000E+00

     total cpu time spent up to now is      122.2 secs

     total energy              =    -380.57219878 Ry
     estimated scf accuracy    <          6.1E-09 Ry

     iteration #  8     ecut=    50.00 Ry     beta= 0.70
     CG style diagonalization
     ethr =  1.38E-11,  avg # of iterations =  6.8

     negative rho (up, down):  1.521E-02 0.000E+00

     total cpu time spent up to now is      125.4 secs

     total energy              =    -380.57219879 Ry
     estimated scf accuracy    <          4.3E-09 Ry

     iteration #  9     ecut=    50.00 Ry     beta= 0.70
     CG style diagonalization
     ethr =  9.72E-12,  avg # of iterations =  4.1

     negative rho (up, down):  1.521E-02 0.000E+00

     total cpu time spent up to now is      127.4 secs

     total energy              =    -380.57219879 Ry
     estimated scf accuracy    <          3.6E-10 Ry

     iteration # 10     ecut=    50.00 Ry     beta= 0.70
     CG style diagonalization
     ethr =  8.23E-13,  avg # of iterations =  6.4

     negative rho (up, down):  1.521E-02 0.000E+00

     total cpu time spent up to now is      130.4 secs

     End of self-consistent calculation

          k = 0.0000 0.0000 0.0000 (  2525 PWs)   bands (ev):

   -45.7712 -22.4677 -22.3450 -22.3450  -7.5492  -6.4796  -6.2175  -5.0085
    -5.0085  -4.9718  -4.8778  -4.7123   4.2019   6.2776   6.2776   6.7769
     8.0978   8.0978   8.4693   8.6145   8.9088   8.9088

          k = 0.0000 0.0000 0.1189 (  2541 PWs)   bands (ev):

   -45.7711 -22.4735 -22.3448 -22.3448  -7.4945  -6.4641  -6.2004  -5.0129
    -5.0129  -4.9714  -4.8743  -4.7313   3.9343   6.2916   6.2916   6.9702
     8.0283   8.0283   8.4438   8.4942   8.9428   8.9428

          k = 0.0000 0.0000 0.2378 (  2517 PWs)   bands (ev):

   -45.7709 -22.4873 -22.3443 -22.3443  -7.3578  -6.4252  -6.1606  -5.0235
    -5.0235  -4.9705  -4.8660  -4.7788   3.4445   6.3193   6.3193   6.8630
     7.8961   7.8961   8.3842   8.7777   9.0056   9.0056

          k = 0.0000 0.0000 0.3567 (  2526 PWs)   bands (ev):

   -45.7707 -22.5012 -22.3437 -22.3437  -7.2129  -6.3839  -6.1244  -5.0341
    -5.0341  -4.9696  -4.8582  -4.8286   3.0680   6.3370   6.3370   6.4106
     7.8010   7.8010   8.3264   9.0539   9.0539   9.5462

          k = 0.0000 0.0000-0.4756 (  2530 PWs)   bands (ev):

   -45.7707 -22.5069 -22.3435 -22.3435  -7.1499  -6.3660  -6.1108  -5.0385
    -5.0385  -4.9692  -4.8551  -4.8500   2.9324   6.2051   6.3409   6.3409
     7.7708   7.7708   8.3030   9.0715   9.0715   9.9954

          k = 0.0000 0.1250 0.0000 (  2525 PWs)   bands (ev):

   -45.7710 -22.4673 -22.3552 -22.3446  -7.4715  -6.4640  -6.2048  -5.0222
    -5.0077  -4.9792  -4.8735  -4.7053   3.9430   6.3121   6.3400   6.7882
     8.0618   8.1125   8.4690   8.5964   8.6841   8.9468

          k = 0.0000 0.1250 0.1189 (  2523 PWs)   bands (ev):

   -45.7709 -22.4730 -22.3550 -22.3444  -7.4189  -6.4509  -6.1871  -5.0232
    -5.0122  -4.9789  -4.8712  -4.7192   3.7361   6.2583   6.3557   6.9624
     7.9271   8.0339   8.4496   8.5096   8.7289   9.0030

          k = 0.0000 0.1250 0.2378 (  2519 PWs)   bands (ev):

   -45.7707 -22.4868 -22.3544 -22.3438  -7.2886  -6.4184  -6.1449  -5.0248
    -5.0230  -4.9782  -4.8670  -4.7532   3.3243   6.1754   6.3866   6.9556
     7.6616   7.8944   8.4227   8.5471   8.8038   9.2560

          k = 0.0000 0.1250 0.3567 (  2528 PWs)   bands (ev):

   -45.7706 -22.5006 -22.3538 -22.3433  -7.1528  -6.3839  -6.1036  -5.0337
    -5.0256  -4.9775  -4.8647  -4.7879   2.9887   6.0238   6.4061   6.6580
     7.5702   7.8003   8.5294   8.5487   8.8576   9.7248

          k = 0.0000 0.1250-0.4756 (  2514 PWs)   bands (ev):

   -45.7705 -22.5063 -22.3535 -22.3430  -7.0947  -6.3688  -6.0869  -5.0382
    -5.0259  -4.9772  -4.8641  -4.8026   2.8651   5.9141   6.4103   6.5528
     7.5513   7.7718   8.5373   8.5781   8.8767  10.0009

          k = 0.0000 0.2500 0.0000 (  2503 PWs)   bands (ev):

   -45.7706 -22.4662 -22.3797 -22.3436  -7.2738  -6.4262  -6.1791  -5.0466
    -5.0057  -4.9969  -4.8609  -4.7009   3.4737   6.2473   6.5138   6.5972
     8.0942   8.1157   8.2474   8.3825   8.6088   9.1519

          k = 0.0000 0.2500 0.1189 (  2505 PWs)   bands (ev):

   -45.7705 -22.4719 -22.3794 -22.3434  -7.2288  -6.4176  -6.1589  -5.0407
    -5.0104  -4.9968  -4.8594  -4.7031   3.3455   6.1565   6.5343   6.6843
     7.8907   7.9855   8.2873   8.3468   8.5518   9.3047

          k = 0.0000 0.2500 0.2378 (  2512 PWs)   bands (ev):

   -45.7703 -22.4856 -22.3787 -22.3428  -7.1223  -6.3943  -6.1062  -5.0242
    -5.0216  -4.9966  -4.8625  -4.7049   3.0627   5.9847   6.5738   6.7262
     7.5404   7.8341   7.8786   8.4440   8.7884   9.5294

          k = 0.0000 0.2500 0.3567 (  2512 PWs)   bands (ev):

   -45.7701 -22.4992 -22.3780 -22.3422  -7.0207  -6.3648  -6.0472  -5.0329
    -5.0046  -4.9964  -4.8744  -4.7029   2.8098   5.7562   6.5961   6.6186
     7.3064   7.7388   7.7541   8.5007   8.9505   9.7047

          k = 0.0000 0.2500-0.4756 (  2508 PWs)   bands (ev):

   -45.7700 -22.5048 -22.3777 -22.3420  -6.9810  -6.3498  -6.0207  -5.0375
    -4.9964  -4.9957  -4.8812  -4.7017   2.7123   5.6320   6.5564   6.5995
     7.2421   7.7296   7.7351   8.5197   8.9955   9.7731

          k = 0.0000 0.3750 0.0000 (  2500 PWs)   bands (ev):

   -45.7701 -22.4650 -22.4041 -22.3426  -7.0578  -6.3795  -6.1730  -5.0644
    -5.0146  -5.0035  -4.8301  -4.7243   3.1303   5.8285   6.7276   6.7603
     7.6533   7.7181   8.2192   8.2801   8.6734   9.8785

          k = 0.0000 0.3750 0.1189 (  2506 PWs)   bands (ev):

   -45.7700 -22.4707 -22.4037 -22.3423  -7.0278  -6.3682  -6.1497  -5.0550
    -5.0148  -5.0084  -4.8250  -4.7159   3.0433   5.8111   6.6802   6.7912
     7.4221   7.6598   8.2441   8.3844   8.5049   9.8723

          k = 0.0000 0.3750 0.2378 (  2511 PWs)   bands (ev):

   -45.7698 -22.4842 -22.4029 -22.3418  -6.9665  -6.3348  -6.0809  -5.0303
    -5.0203  -5.0149  -4.8328  -4.6801   2.8431   5.7392   6.5134   6.8480
     7.0833   7.5675   7.8863   8.2846   8.8865   9.7568

          k = 0.0000 0.3750 0.3567 (  2518 PWs)   bands (ev):

   -45.7696 -22.4977 -22.4021 -22.3412  -6.9227  -6.2912  -5.9940  -5.0320
    -5.0153  -5.0016  -4.8574  -4.6359   2.6551   5.5673   6.2816   6.8672
     7.0083   7.4944   7.5412   8.3116   9.2011   9.5704

          k = 0.0000 0.3750-0.4756 (  2518 PWs)   bands (ev):

   -45.7696 -22.5033 -22.4018 -22.3409  -6.9096  -6.2702  -5.9523  -5.0368
    -5.0154  -4.9872  -4.8718  -4.6174   2.5804   5.4504   6.2104   6.8622
     7.0185   7.3561   7.5497   8.3206   9.2791   9.5140

          k = 0.0000-0.5000 0.0000 (  2488 PWs)   bands (ev):

   -45.7699 -22.4645 -22.4141 -22.3422  -6.9616  -6.3481  -6.1869  -5.0708
    -5.0219  -5.0027  -4.7841  -4.7694   3.0145   5.6245   6.8974   6.9394
     7.3498   7.4617   8.2306   8.2379   8.6904  10.3492

          k = 0.0000-0.5000 0.1189 (  2506 PWs)   bands (ev):

   -45.7698 -22.4701 -22.4138 -22.3419  -6.9423  -6.3294  -6.1637  -5.0612
    -5.0221  -5.0077  -4.7796  -4.7531   2.9395   5.6184   6.8388   6.9936
     7.0996   7.3971   8.2490   8.4443   8.4491  10.2029

          k = 0.0000-0.5000 0.2378 (  2506 PWs)   bands (ev):

   -45.7696 -22.4836 -22.4130 -22.3413  -6.9101  -6.2831  -6.0858  -5.0366
    -5.0226  -5.0197  -4.8067  -4.6816   2.7654   5.5830   6.5581   6.7843
     7.1295   7.2549   7.9532   8.2691   8.8856   9.8577

          k = 0.0000-0.5000 0.3567 (  2526 PWs)   bands (ev):

   -45.7695 -22.4971 -22.4121 -22.3407  -6.8959  -6.2348  -5.9788  -5.0316
    -5.0230  -5.0085  -4.8389  -4.6143   2.6004   5.4688   6.1395   6.8028
     7.1265   7.2730   7.5544   8.2829   9.1895   9.5745

          k = 0.0000-0.5000-0.4756 (  2516 PWs)   bands (ev):

   -45.7694 -22.5026 -22.4118 -22.3405  -6.8941  -6.2142  -5.9268  -5.0365
    -5.0232  -4.9948  -4.8549  -4.5877   2.5345   5.3723   6.0253   6.8275
     7.0766   7.3351   7.4070   8.2876   9.1827   9.5730

          k = 0.1250 0.1250 0.0000 (  2509 PWs)   bands (ev):

   -45.7708 -22.4668 -22.3549 -22.3546  -7.3946  -6.4478  -6.1986  -5.0241
    -5.0180  -4.9848  -4.8602  -4.6986   3.7371   6.2885   6.4216   6.8028
     7.7876   8.1369   8.3373   8.5363   8.8948   8.9852

          k = 0.1250 0.1250 0.1189 (  2511 PWs)   bands (ev):

   -45.7707 -22.4726 -22.3546 -22.3544  -7.3438  -6.4375  -6.1809  -5.0232
    -5.0213  -4.9846  -4.8580  -4.7081   3.5789   6.2560   6.3147   6.9754
     7.7324   8.0133   8.2731   8.5741   8.9005   8.9962

          k = 0.1250 0.1250 0.2378 (  2521 PWs)   bands (ev):

   -45.7706 -22.4863 -22.3540 -22.3538  -7.2188  -6.4120  -6.1375  -5.0350
    -5.0119  -4.9840  -4.8547  -4.7324   3.2384   6.1709   6.2184   6.9737
     7.6477   7.6942   8.2583   8.6276   8.9141   9.2617

          k = 0.1250 0.1250 0.3567 (  2515 PWs)   bands (ev):

   -45.7704 -22.5000 -22.3534 -22.3533  -7.0905  -6.3857  -6.0924  -5.0458
    -4.9979  -4.9838  -4.8555  -4.7585   2.9427   6.0539   6.0794   6.7589
     7.6049   7.6124   8.2475   8.6496   8.9300   9.6810

          k = 0.1250 0.1250-0.4756 (  2512 PWs)   bands (ev):

   -45.7703 -22.5057 -22.3531 -22.3530  -7.0364  -6.3746  -6.0731  -5.0498
    -4.9896  -4.9846  -4.8575  -4.7700   2.8307   5.9278   6.0404   6.7049
     7.5953   7.6049   8.2452   8.6524   8.9378   9.8827

          k = 0.1250 0.2500 0.0000 (  2507 PWs)   bands (ev):

   -45.7704 -22.4657 -22.3792 -22.3537  -7.1997  -6.4097  -6.1888  -5.0467
    -5.0143  -4.9875  -4.8378  -4.6941   3.3323   6.2221   6.5352   6.6451
     7.6297   7.7749   8.3443   8.5637   8.7782   9.3119

          k = 0.1250 0.2500 0.1189 (  2500 PWs)   bands (ev):

   -45.7703 -22.4714 -22.3789 -22.3535  -7.1554  -6.4047  -6.1699  -5.0408
    -5.0175  -4.9855  -4.8345  -4.6932   3.2458   6.1489   6.3299   6.7857
     7.5080   7.8073   8.2774   8.5890   8.7270   9.3514

          k = 0.1250 0.2500 0.2378 (  2499 PWs)   bands (ev):

   -45.7701 -22.4851 -22.3782 -22.3529  -7.0510  -6.3911  -6.1191  -5.0350
    -5.0149  -4.9781  -4.8321  -4.6899   3.0354   5.9575   6.2000   6.7533
     7.2447   7.6155   8.2733   8.5997   8.8504   9.4526

          k = 0.1250 0.2500 0.3567 (  2521 PWs)   bands (ev):

   -45.7699 -22.4987 -22.3776 -22.3523  -6.9527  -6.3742  -6.0594  -5.0403
    -5.0020  -4.9611  -4.8398  -4.6856   2.8282   5.7362   6.1372   6.5491
     7.0771   7.5202   8.2285   8.6472   8.9995   9.5282

          k = 0.1250 0.2500-0.4756 (  2512 PWs)   bands (ev):

   -45.7698 -22.5043 -22.3773 -22.3520  -6.9146  -6.3658  -6.0314  -5.0427
    -4.9980  -4.9483  -4.8474  -4.6838   2.7444   5.6250   6.0883   6.4782
     7.0561   7.4990   8.1991   8.6692   9.0453   9.5451

          k = 0.1250 0.3750 0.0000 (  2515 PWs)   bands (ev):

   -45.7699 -22.4646 -22.4035 -22.3526  -6.9875  -6.3648  -6.1976  -5.0591
    -5.0068  -4.9830  -4.8099  -4.7160   3.0167   5.8379   6.5846   6.8792
     7.2309   7.7868   7.9502   8.5630   8.7924   9.8377

          k = 0.1250 0.3750 0.1189 (  2508 PWs)   bands (ev):

   -45.7698 -22.4702 -22.4032 -22.3524  -6.9564  -6.3586  -6.1768  -5.0508
    -5.0095  -4.9795  -4.8028  -4.7048   2.9708   5.8178   6.3357   6.8263
     7.2169   7.7916   7.9921   8.6017   8.6878   9.7654

          k = 0.1250 0.3750 0.2378 (  2508 PWs)   bands (ev):

   -45.7696 -22.4837 -22.4024 -22.3518  -6.8940  -6.3387  -6.1133  -5.0362
    -5.0090  -4.9697  -4.8011  -4.6668   2.8502   5.7333   6.1035   6.5396
     6.9258   7.7277   8.1397   8.4422   8.9357   9.5530

          k = 0.1250 0.3750 0.3567 (  2512 PWs)   bands (ev):

   -45.7695 -22.4972 -22.4017 -22.3512  -6.8511  -6.3109  -6.0296  -5.0353
    -4.9953  -4.9521  -4.8147  -4.6223   2.7193   5.5440   6.0394   6.3368
     6.5619   7.6351   8.2795   8.3584   9.0768   9.4126

          k = 0.1250 0.3750-0.4756 (  2522 PWs)   bands (ev):

   -45.7694 -22.5028 -22.4013 -22.3509  -6.8389  -6.2976  -5.9885  -5.0366
    -4.9890  -4.9398  -4.8248  -4.6037   2.6630   5.4260   6.0443   6.2780
     6.4288   7.6077   8.2967   8.3584   8.9933   9.4705

          k = 0.1250-0.5000 0.0000 (  2524 PWs)   bands (ev):

   -45.7697 -22.4640 -22.4136 -22.3522  -6.8930  -6.3341  -6.2180  -5.0610
    -5.0036  -4.9796  -4.7687  -4.7596   2.9068   5.6354   6.6676   7.0387
     7.1350   7.4622   7.9608   8.5411   8.8050  10.1358

          k = 0.1250-0.5000 0.1189 (  2518 PWs)   bands (ev):

   -45.7696 -22.4696 -22.4132 -22.3520  -6.8718  -6.3213  -6.1982  -5.0521
    -5.0058  -4.9766  -4.7641  -4.7387   2.8731   5.6280   6.3513   6.8361
     7.2902   7.5120   7.9902   8.6375   8.6491   9.9604

          k = 0.1250-0.5000 0.2378 (  2510 PWs)   bands (ev):

   -45.7695 -22.4831 -22.4124 -22.3514  -6.8377  -6.2903  -6.1264  -5.0361
    -5.0029  -4.9700  -4.7778  -4.6683   2.7821   5.5869   6.0813   6.3873
     6.9437   7.8737   7.8970   8.4628   8.9353   9.5657

          k = 0.1250-0.5000 0.3567 (  2514 PWs)   bands (ev):

   -45.7693 -22.4966 -22.4116 -22.3508  -6.8245  -6.2592  -6.0238  -5.0341
    -4.9802  -4.9628  -4.7967  -4.6012   2.6796   5.4581   6.0068   6.0499
     6.5933   7.7636   8.0949   8.3814   8.9338   9.4736

          k = 0.1250-0.5000-0.4756 (  2532 PWs)   bands (ev):

   -45.7692 -22.5021 -22.4113 -22.3505  -6.8238  -6.2462  -5.9737  -5.0351
    -4.9663  -4.9593  -4.8071  -4.5746   2.6344   5.3548   5.9625   6.0112
     6.4554   7.7291   8.1580   8.3518   8.7778   9.5789

          k = 0.2500 0.2500 0.0000 (  2528 PWs)   bands (ev):

   -45.7699 -22.4646 -22.3783 -22.3778  -7.0145  -6.3713  -6.2142  -5.0438
    -5.0160  -4.9619  -4.7942  -4.6878   3.0197   6.2121   6.3583   6.7898
     7.1934   7.3721   8.3028   8.5523   8.9924   9.5166

          k = 0.2500 0.2500 0.1189 (  2512 PWs)   bands (ev):

   -45.7698 -22.4703 -22.3780 -22.3775  -6.9729  -6.3741  -6.1978  -5.0351
    -5.0181  -4.9556  -4.7869  -4.6788   3.0043   6.0965   6.1791   6.5554
     7.2419   7.4490   8.4132   8.5277   9.0074   9.4198

          k = 0.2500 0.2500 0.2378 (  2504 PWs)   bands (ev):

   -45.7696 -22.4838 -22.3773 -22.3769  -6.8786  -6.3811  -6.1486  -5.0216
    -5.0141  -4.9369  -4.7720  -4.6586   2.9458   5.8251   5.8610   6.4175
     7.1085   7.1483   8.5163   8.8401   9.0667   9.2296

          k = 0.2500 0.2500 0.3567 (  2513 PWs)   bands (ev):

   -45.7695 -22.4974 -22.3766 -22.3763  -6.7958  -6.3882  -6.0823  -5.0229
    -4.9955  -4.9081  -4.7635  -4.6403   2.8582   5.5783   5.7196   6.1829
     6.8115   7.0569   8.5771   8.9629   9.0859   9.1847

          k = 0.2500 0.2500-0.4756 (  2520 PWs)   bands (ev):

   -45.7694 -22.5029 -22.3763 -22.3761  -6.7657  -6.3912  -6.0490  -5.0229
    -4.9890  -4.8912  -4.7635  -4.6333   2.8144   5.4835   5.6776   6.0546
     6.7334   7.0449   8.5421   8.9861   9.0383   9.2378

          k = 0.2500 0.3750 0.0000 (  2521 PWs)   bands (ev):

   -45.7695 -22.4634 -22.4022 -22.3768  -6.8185  -6.3308  -6.2475  -5.0406
    -5.0002  -4.9190  -4.7595  -4.7043   2.7452   5.8563   6.3494   6.8236
     7.0283   7.4146   7.8592   8.6201   9.1144   9.6018

          k = 0.2500 0.3750 0.1189 (  2518 PWs)   bands (ev):

   -45.7694 -22.4690 -22.4019 -22.3766  -6.7835  -6.3371  -6.2345  -5.0309
    -4.9997  -4.9087  -4.7485  -4.6857   2.7738   5.8246   6.1209   6.3547
     7.0243   7.5554   8.1273   8.5813   9.1249   9.4209

          k = 0.2500 0.3750 0.2378 (  2508 PWs)   bands (ev):

   -45.7692 -22.4825 -22.4012 -22.3759  -6.7161  -6.3489  -6.1845  -5.0120
    -4.9923  -4.8844  -4.7251  -4.6385   2.8323   5.6268   5.7061   6.0506
     6.7538   7.2378   8.4612   8.8494   9.0707   9.1898

          k = 0.2500 0.3750 0.3567 (  2507 PWs)   bands (ev):

   -45.7690 -22.4960 -22.4005 -22.3753  -6.6762  -6.3568  -6.1043  -5.0049
    -4.9720  -4.8569  -4.7060  -4.5899   2.8685   5.4048   5.4263   5.8937
     6.4042   7.0077   8.2517   8.9750   9.0854   9.3741

          k = 0.2500 0.3750-0.4756 (  2508 PWs)   bands (ev):

   -45.7689 -22.5015 -22.4002 -22.3751  -6.6672  -6.3594  -6.0624  -5.0033
    -4.9621  -4.8433  -4.6997  -4.5698   2.8747   5.2932   5.3722   5.8113
     6.2615   6.9660   8.0670   9.0043   9.1093   9.4826

          k = 0.2500-0.5000 0.0000 (  2530 PWs)   bands (ev):

   -45.7693 -22.4629 -22.4122 -22.3763  -6.7334  -6.3031  -6.2744  -5.0381
    -4.9923  -4.8872  -4.7443  -4.7280   2.6423   5.6493   6.4481   6.6171
     7.2991   7.4740   7.4990   8.6773   9.1088   9.6181

          k = 0.2500-0.5000 0.1189 (  2512 PWs)   bands (ev):

   -45.7692 -22.4685 -22.4119 -22.3761  -6.7039  -6.3049  -6.2660  -5.0281
    -4.9909  -4.8756  -4.7343  -4.7018   2.6843   5.6413   6.1072   6.3003
     7.0080   7.7286   7.8600   8.6338   9.1159   9.3925

          k = 0.2500-0.5000 0.2378 (  2506 PWs)   bands (ev):

   -45.7690 -22.4820 -22.4112 -22.3755  -6.6595  -6.3097  -6.2128  -5.0088
    -4.9808  -4.8519  -4.7112  -4.6355   2.7823   5.5637   5.5915   5.9141
     6.6880   7.3233   8.3154   8.8467   8.9983   9.2252

          k = 0.2500-0.5000 0.3567 (  2506 PWs)   bands (ev):

   -45.7688 -22.4954 -22.4104 -22.3749  -6.6495  -6.3149  -6.1173  -4.9999
    -4.9580  -4.8293  -4.6892  -4.5687   2.8691   5.2834   5.3885   5.6876
     6.3388   7.0753   7.9454   8.9999   9.0734   9.4582

          k = 0.2500-0.5000-0.4756 (  2504 PWs)   bands (ev):

   -45.7687 -22.5009 -22.4101 -22.3746  -6.6522  -6.3173  -6.0687  -4.9978
    -4.9464  -4.8192  -4.6803  -4.5415   2.8990   5.2193   5.2562   5.6325
     6.1860   7.0280   7.7093   9.0382   9.0993   9.5975

          k = 0.3750 0.3750 0.0000 (  2512 PWs)   bands (ev):

   -45.7690 -22.4622 -22.4010 -22.4008  -6.6604  -6.2963  -6.2789  -5.0263
    -4.9715  -4.8479  -4.7143  -4.7095   2.4828   5.7309   6.0663   6.8620
     7.0769   7.2232   7.7302   8.4121   9.1769   9.5069

          k = 0.3750 0.3750 0.1189 (  2519 PWs)   bands (ev):

   -45.7689 -22.4678 -22.4007 -22.4005  -6.6173  -6.3132  -6.2799  -5.0152
    -4.9694  -4.8292  -4.6945  -4.6874   2.5582   5.7115   5.9662   6.2158
     6.6538   7.6115   8.2812   8.2853   8.9173   9.5069

          k = 0.3750 0.3750 0.2378 (  2509 PWs)   bands (ev):

   -45.7687 -22.4813 -22.4000 -22.3999  -6.5385  -6.3519  -6.2526  -4.9885
    -4.9650  -4.7892  -4.6524  -4.6234   2.7577   5.4854   5.5953   5.7322
     6.3983   7.0633   8.0669   8.9414   8.9520   9.5076

          k = 0.3750 0.3750 0.3567 (  2498 PWs)   bands (ev):

   -45.7686 -22.4947 -22.3994 -22.3993  -6.5085  -6.3882  -6.1708  -4.9619
    -4.9612  -4.7524  -4.6049  -4.5607   2.9873   5.0997   5.2277   5.6146
     6.3456   6.4782   7.4301   9.3080   9.3764   9.5114

          k = 0.3750 0.3750-0.4756 (  2500 PWs)   bands (ev):

   -45.7685 -22.5002 -22.3991 -22.3990  -6.5072  -6.4026  -6.1242  -4.9598
    -4.9510  -4.7367  -4.5845  -4.5350   3.0925   4.9775   5.0901   5.5416
     6.2737   6.3365   7.1536   9.4293   9.4882   9.5372

          k = 0.3750-0.5000 0.0000 (  2520 PWs)   bands (ev):

   -45.7688 -22.4617 -22.4109 -22.4004  -6.6047  -6.2860  -6.2761  -5.0213
    -4.9543  -4.7956  -4.7423  -4.6904   2.3777   5.5656   6.0666   6.7927
     7.1014   7.4403   7.4908   8.3788   8.9414   9.6317

          k = 0.3750-0.5000 0.1189 (  2522 PWs)   bands (ev):

   -45.7687 -22.4673 -22.4106 -22.4001  -6.5566  -6.2992  -6.2927  -5.0102
    -4.9521  -4.7719  -4.7145  -4.6713   2.4666   5.5562   5.9971   6.1826
     6.5442   7.7570   8.0496   8.3743   8.6385   9.6263

          k = 0.3750-0.5000 0.2378 (  2514 PWs)   bands (ev):

   -45.7686 -22.4807 -22.4099 -22.3995  -6.4735  -6.3310  -6.2922  -4.9836
    -4.9476  -4.7299  -4.6479  -4.6109   2.7107   5.4936   5.5111   5.6258
     6.2504   7.0961   7.7362   8.9402   8.9586   9.6191

          k = 0.3750-0.5000 0.3567 (  2508 PWs)   bands (ev):

   -45.7684 -22.4941 -22.4092 -22.3988  -6.4683  -6.3669  -6.1998  -4.9588
    -4.9421  -4.6972  -4.5819  -4.5406   3.0176   5.0385   5.1959   5.4636
     6.1794   6.5282   6.9745   9.3626   9.4392   9.6144

          k = 0.3750-0.5000-0.4756 (  2496 PWs)   bands (ev):

   -45.7683 -22.4996 -22.4090 -22.3986  -6.4783  -6.3812  -6.1475  -4.9511
    -4.9374  -4.6836  -4.5547  -4.5107   3.1744   4.8818   5.0462   5.4083
     6.1274   6.3715   6.6402   9.4893   9.6026   9.6176

          k =-0.5000-0.5000 0.0000 (  2496 PWs)   bands (ev):

   -45.7686 -22.4611 -22.4103 -22.4103  -6.5731  -6.2661  -6.2661  -5.0158
    -4.9289  -4.7475  -4.7475  -4.6848   2.2691   5.4528   6.0106   6.9393
     6.9393   7.5004   7.5004   8.2393   8.6462   9.7833

          k =-0.5000-0.5000 0.1189 (  2524 PWs)   bands (ev):

   -45.7686 -22.4667 -22.4100 -22.4100  -6.5166  -6.2889  -6.2889  -5.0048
    -4.9283  -4.7099  -4.7099  -4.6776   2.3710   5.4437   6.0124   6.2952
     6.2952   7.8511   8.1839   8.1839   8.2457   9.7788

          k =-0.5000-0.5000 0.2378 (  2508 PWs)   bands (ev):

   -45.7684 -22.4802 -22.4094 -22.4094  -6.3779  -6.3403  -6.3403  -4.9779
    -4.9270  -4.6578  -4.6220  -4.6220   2.6588   5.4116   5.5960   5.5960
     6.0169   7.0704   7.3488   8.9591   8.9591   9.7682

          k =-0.5000-0.5000 0.3567 (  2512 PWs)   bands (ev):

   -45.7682 -22.4935 -22.4087 -22.4087  -6.3875  -6.3875  -6.2364  -4.9511
    -4.9257  -4.6336  -4.5375  -4.5375   3.0457   5.1331   5.1331   5.3479
     6.0213   6.4424   6.4543   9.4615   9.4615   9.7576

          k =-0.5000-0.5000-0.4756 (  2504 PWs)   bands (ev):

   -45.7681 -22.4991 -22.4085 -22.4085  -6.4060  -6.4060  -6.1770  -4.9400
    -4.9252  -4.6219  -4.5032  -4.5032   3.2627   4.9718   4.9718   5.3008
     6.0232   6.0476   6.2256   9.6261   9.6261   9.7532

     highest occupied level (ev):    10.3492

!    total energy              =    -380.57219879 Ry
     estimated scf accuracy    <          4.7E-11 Ry

     The total energy is the sum of the following terms:
     one-electron contribution =     -85.43293346 Ry
     hartree contribution      =      71.86514063 Ry
     xc contribution           =    -102.58190727 Ry
     ewald contribution        =    -264.42249870 Ry

     convergence has been achieved in  10 iterations

     negative rho (up, down):  1.521E-02 0.000E+00

     Forces acting on atoms (cartesian axes, Ry/au):

     atom    1 type  1   force =     0.00000000    0.00000000   -0.00346456
     atom    2 type  2   force =     0.00000000    0.00000000    0.00455245
     atom    3 type  3   force =     0.00000000    0.00000000   -0.00600586
     atom    4 type  3   force =     0.00000000    0.00000000    0.00245898
     atom    5 type  3   force =     0.00000000    0.00000000    0.00245898

     Total force =     0.008994     Total SCF correction =     0.000031


     Computing stress (Cartesian axis) and pressure


     negative rho (up, down):  1.521E-02 0.000E+00
          total   stress  (Ry/bohr**3)                   (kbar)     P=      -44.81
  -0.00036359   0.00000000   0.00000000          -53.49        0.00        0.00
   0.00000000  -0.00036359   0.00000000            0.00      -53.49        0.00
   0.00000000   0.00000000  -0.00018664            0.00        0.00      -27.46

     Energy error            =      1.7E-04 Ry
     Gradient error          =      6.0E-03 Ry/Bohr

     number of scf cycles    =   5
     number of bfgs steps    =   4

     energy             old  =    -380.5720287587 Ry
     energy             new  =    -380.5721987947 Ry

     CASE: energy            _new < energy            _old

     new trust radius        =       0.0221726522 bohr
     new conv_thr            =       0.0000000002 Ry


ATOMIC_POSITIONS (crystal)
Pb               0.0000000000        0.0000000000        0.9938258884
Ti               0.5000000000        0.5000000000        0.5384442018
O                0.5000000000        0.5000000000        0.1076606956
O                0.5000000000        0.0000000000        0.6136767511
O                0.0000000000        0.5000000000        0.6136767511



     Writing config-only to output data dir ./pto_k8.save/ :
     XML data file
     NEW-OLD atomic charge density approx. for the potential

     Check: negative core charge=   -0.000004

     negative rho (up, down):  1.557E-02 0.000E+00

     total cpu time spent up to now is      132.8 secs

     Self-consistent Calculation

     iteration #  1     ecut=    50.00 Ry     beta= 0.70
     CG style diagonalization
     c_bands:  1 eigenvalues not converged
     c_bands:  1 eigenvalues not converged
     c_bands:  1 eigenvalues not converged
     c_bands:  1 eigenvalues not converged
     c_bands:  1 eigenvalues not converged
     c_bands:  1 eigenvalues not converged
     c_bands:  1 eigenvalues not converged
     c_bands:  1 eigenvalues not converged
     c_bands:  1 eigenvalues not converged
     ethr =  1.00E-06,  avg # of iterations =  6.1

     Threshold (ethr) on eigenvalues was too large:
     Diagonalizing with lowered threshold

     CG style diagonalization
     c_bands:  1 eigenvalues not converged
     c_bands:  1 eigenvalues not converged
     c_bands:  1 eigenvalues not converged
     c_bands:  1 eigenvalues not converged
     c_bands:  1 eigenvalues not converged
     c_bands:  1 eigenvalues not converged
     c_bands:  2 eigenvalues not converged
     c_bands:  1 eigenvalues not converged
     c_bands:  1 eigenvalues not converged
     c_bands:  1 eigenvalues not converged
     c_bands:  1 eigenvalues not converged
     c_bands:  1 eigenvalues not converged
     c_bands:  2 eigenvalues not converged
     ethr =  8.09E-08,  avg # of iterations =  5.5

     negative rho (up, down):  1.554E-02 0.000E+00

     total cpu time spent up to now is      138.8 secs

     total energy              =    -380.57226134 Ry
     estimated scf accuracy    <       0.00003485 Ry

     iteration #  2     ecut=    50.00 Ry     beta= 0.70
     CG style diagonalization
     ethr =  7.92E-08,  avg # of iterations =  4.5

     negative rho (up, down):  1.553E-02 0.000E+00

     total cpu time spent up to now is      140.9 secs

     total energy              =    -380.57226235 Ry
     estimated scf accuracy    <       0.00004303 Ry

     iteration #  3     ecut=    50.00 Ry     beta= 0.70
     CG style diagonalization
     ethr =  7.92E-08,  avg # of iterations =  4.1

     negative rho (up, down):  1.552E-02 0.000E+00

     total cpu time spent up to now is      142.7 secs

     total energy              =    -380.57227235 Ry
     estimated scf accuracy    <       0.00001348 Ry

     iteration #  4     ecut=    50.00 Ry     beta= 0.70
     CG style diagonalization
     ethr =  3.06E-08,  avg # of iterations =  3.6

     negative rho (up, down):  1.552E-02 0.000E+00

     total cpu time spent up to now is      144.4 secs

     total energy              =    -380.57227485 Ry
     estimated scf accuracy    <       0.00000128 Ry

     iteration #  5     ecut=    50.00 Ry     beta= 0.70
     CG style diagonalization
     ethr =  2.92E-09,  avg # of iterations =  4.1

     negative rho (up, down):  1.552E-02 0.000E+00

     total cpu time spent up to now is      146.3 secs

     total energy              =    -380.57227549 Ry
     estimated scf accuracy    <       0.00000031 Ry

     iteration #  6     ecut=    50.00 Ry     beta= 0.70
     CG style diagonalization
     ethr =  7.03E-10,  avg # of iterations =  4.1

     negative rho (up, down):  1.552E-02 0.000E+00

     total cpu time spent up to now is      148.2 secs

     total energy              =    -380.57227559 Ry
     estimated scf accuracy    <       0.00000005 Ry

     iteration #  7     ecut=    50.00 Ry     beta= 0.70
     CG style diagonalization
     ethr =  1.11E-10,  avg # of iterations =  5.1

     negative rho (up, down):  1.552E-02 0.000E+00

     total cpu time spent up to now is      150.6 secs

     total energy              =    -380.57227564 Ry
     estimated scf accuracy    <          4.2E-09 Ry

     iteration #  8     ecut=    50.00 Ry     beta= 0.70
     CG style diagonalization
     ethr =  9.54E-12,  avg # of iterations =  6.1

     negative rho (up, down):  1.552E-02 0.000E+00

     total cpu time spent up to now is      153.4 secs

     total energy              =    -380.57227565 Ry
     estimated scf accuracy    <          4.2E-10 Ry

     iteration #  9     ecut=    50.00 Ry     beta= 0.70
     CG style diagonalization
     c_bands:  1 eigenvalues not converged
     ethr =  9.63E-13,  avg # of iterations =  6.9

     negative rho (up, down):  1.552E-02 0.000E+00

     total cpu time spent up to now is      156.7 secs

     End of self-consistent calculation

          k = 0.0000 0.0000 0.0000 (  2525 PWs)   bands (ev):

   -45.7841 -22.4745 -22.3593 -22.3593  -7.5699  -6.5086  -6.2096  -4.9963
    -4.9963  -4.9559  -4.8702  -4.6897   4.2065   6.2575   6.2575   6.8025
     8.1118   8.1118   8.4560   8.6201   8.8817   8.8817

          k = 0.0000 0.0000 0.1189 (  2541 PWs)   bands (ev):

   -45.7840 -22.4802 -22.3591 -22.3591  -7.5165  -6.4937  -6.1917  -5.0007
    -5.0007  -4.9556  -4.8662  -4.7082   3.9425   6.2716   6.2716   6.9915
     8.0407   8.0407   8.4306   8.4984   8.9162   8.9162

          k = 0.0000 0.0000 0.2378 (  2517 PWs)   bands (ev):

   -45.7838 -22.4941 -22.3585 -22.3585  -7.3830  -6.4562  -6.1499  -5.0113
    -5.0113  -4.9547  -4.8566  -4.7542   3.4572   6.2998   6.2998   6.8758
     7.9058   7.9058   8.3712   8.7809   8.9788   8.9788

          k = 0.0000 0.0000 0.3567 (  2526 PWs)   bands (ev):

   -45.7836 -22.5079 -22.3580 -22.3580  -7.2423  -6.4166  -6.1107  -5.0219
    -5.0219  -4.9538  -4.8474  -4.8022   3.0833   6.3183   6.3183   6.4193
     7.8087   7.8087   8.3135   9.0261   9.0261   9.5447

          k = 0.0000 0.0000-0.4756 (  2530 PWs)   bands (ev):

   -45.7835 -22.5135 -22.3578 -22.3578  -7.1815  -6.3995  -6.0956  -5.0262
    -5.0262  -4.9534  -4.8437  -4.8228   2.9486   6.2127   6.3228   6.3228
     7.7775   7.7775   8.2902   9.0433   9.0433   9.9899

          k = 0.0000 0.1250 0.0000 (  2525 PWs)   bands (ev):

   -45.7839 -22.4740 -22.3695 -22.3589  -7.4921  -6.4933  -6.1980  -5.0098
    -4.9954  -4.9634  -4.8643  -4.6826   3.9469   6.2965   6.3195   6.8012
     8.0759   8.1265   8.4565   8.5916   8.6579   8.9355

          k = 0.0000 0.1250 0.1189 (  2523 PWs)   bands (ev):

   -45.7838 -22.4798 -22.3693 -22.3587  -7.4408  -6.4807  -6.1796  -5.0106
    -4.9999  -4.9631  -4.8618  -4.6961   3.7431   6.2425   6.3353   6.9722
     7.9371   8.0454   8.4450   8.4995   8.7041   8.9907

          k = 0.0000 0.1250 0.2378 (  2519 PWs)   bands (ev):

   -45.7836 -22.4936 -22.3687 -22.3581  -7.3138  -6.4492  -6.1351  -5.0116
    -5.0107  -4.9624  -4.8567  -4.7293   3.3359   6.1606   6.3668   6.9608
     7.6655   7.9028   8.4085   8.5391   8.7793   9.2498

          k = 0.0000 0.1250 0.3567 (  2528 PWs)   bands (ev):

   -45.7834 -22.5073 -22.3681 -22.3576  -7.1821  -6.4160  -6.0908  -5.0215
    -5.0120  -4.9617  -4.8531  -4.7633   3.0031   6.0151   6.3872   6.6553
     7.5727   7.8065   8.5050   8.5395   8.8321   9.7242

          k = 0.0000 0.1250-0.4756 (  2514 PWs)   bands (ev):

   -45.7833 -22.5129 -22.3678 -22.3573  -7.1261  -6.4016  -6.0725  -5.0259
    -5.0121  -4.9614  -4.8519  -4.7777   2.8804   5.9090   6.3920   6.5461
     7.5534   7.7770   8.5287   8.5495   8.8506  10.0011

          k = 0.0000 0.2500 0.0000 (  2503 PWs)   bands (ev):

   -45.7834 -22.4729 -22.3940 -22.3579  -7.2943  -6.4559  -6.1754  -5.0334
    -4.9934  -4.9811  -4.8481  -4.6780   3.4771   6.2285   6.4919   6.6039
     8.0915   8.1222   8.2301   8.3642   8.6054   9.1651

          k = 0.0000 0.2500 0.1189 (  2505 PWs)   bands (ev):

   -45.7833 -22.4786 -22.3937 -22.3577  -7.2507  -6.4475  -6.1543  -5.0272
    -4.9981  -4.9810  -4.8468  -4.6801   3.3511   6.1399   6.5126   6.6859
     7.8862   7.9865   8.2816   8.3338   8.5416   9.3124

          k = 0.0000 0.2500 0.2378 (  2512 PWs)   bands (ev):

   -45.7831 -22.4923 -22.3930 -22.3571  -7.1475  -6.4245  -6.0989  -5.0098
    -5.0094  -4.9808  -4.8497  -4.6821   3.0724   5.9701   6.5530   6.7246
     7.5330   7.8342   7.8685   8.4288   8.7819   9.5341

          k = 0.0000 0.2500 0.3567 (  2512 PWs)   bands (ev):

   -45.7830 -22.5059 -22.3923 -22.3565  -7.0495  -6.3958  -6.0366  -5.0206
    -4.9894  -4.9806  -4.8606  -4.6808   2.8224   5.7461   6.5769   6.6138
     7.3010   7.7155   7.7526   8.4832   8.9478   9.7106

          k = 0.0000 0.2500-0.4756 (  2508 PWs)   bands (ev):

   -45.7829 -22.5115 -22.3920 -22.3563  -7.0111  -6.3816  -6.0085  -5.0252
    -4.9806  -4.9800  -4.8670  -4.6799   2.7260   5.6240   6.5494   6.5812
     7.2390   7.6999   7.7328   8.5013   8.9942   9.7806

          k = 0.0000 0.3750 0.0000 (  2500 PWs)   bands (ev):

   -45.7830 -22.4718 -22.4184 -22.3569  -7.0787  -6.4091  -6.1728  -5.0502
    -4.9988  -4.9913  -4.8129  -4.7021   3.1341   5.8109   6.7284   6.7359
     7.6407   7.7009   8.2274   8.2614   8.6712   9.8961

          k = 0.0000 0.3750 0.1189 (  2506 PWs)   bands (ev):

   -45.7829 -22.4774 -22.4180 -22.3566  -7.0501  -6.3977  -6.1479  -5.0406
    -4.9991  -4.9961  -4.8089  -4.6931   3.0488   5.7936   6.6766   6.7671
     7.4107   7.6452   8.2485   8.3768   8.4948   9.8878

          k = 0.0000 0.3750 0.2378 (  2511 PWs)   bands (ev):

   -45.7827 -22.4909 -22.4173 -22.3560  -6.9920  -6.3648  -6.0753  -5.0155
    -5.0080  -4.9992  -4.8168  -4.6581   2.8520   5.7225   6.5078   6.8258
     7.0666   7.5543   7.8810   8.2836   8.8786   9.7718

          k = 0.0000 0.3750 0.3567 (  2518 PWs)   bands (ev):

   -45.7825 -22.5044 -22.4165 -22.3555  -6.9503  -6.3230  -5.9847  -5.0197
    -4.9995  -4.9862  -4.8402  -4.6158   2.6668   5.5544   6.2758   6.8490
     6.9803   7.4889   7.5251   8.3071   9.2033   9.5821

          k = 0.0000 0.3750-0.4756 (  2518 PWs)   bands (ev):

   -45.7824 -22.5100 -22.4161 -22.3552  -6.9377  -6.3031  -5.9416  -5.0245
    -4.9996  -4.9717  -4.8539  -4.5980   2.5932   5.4400   6.2029   6.8460
     6.9865   7.3502   7.5318   8.3149   9.2981   9.5124

          k = 0.0000-0.5000 0.0000 (  2488 PWs)   bands (ev):

   -45.7828 -22.4712 -22.4285 -22.3565  -6.9831  -6.3776  -6.1879  -5.0561
    -5.0061  -4.9904  -4.7590  -4.7534   3.0187   5.6063   6.8995   6.9113
     7.3337   7.4474   8.2113   8.2466   8.6875  10.3646

          k = 0.0000-0.5000 0.1189 (  2506 PWs)   bands (ev):

   -45.7827 -22.4768 -22.4281 -22.3562  -6.9653  -6.3595  -6.1621  -5.0464
    -5.0063  -4.9954  -4.7632  -4.7292   2.9453   5.6002   6.8337   6.9650
     7.0875   7.3849   8.2554   8.4342   8.4393  10.2197

          k = 0.0000-0.5000 0.2378 (  2506 PWs)   bands (ev):

   -45.7825 -22.4903 -22.4273 -22.3556  -6.9359  -6.3148  -6.0792  -5.0214
    -5.0074  -5.0068  -4.7892  -4.6601   2.7745   5.5653   6.5517   6.7668
     7.0992   7.2461   7.9460   8.2714   8.8769   9.8776

          k = 0.0000-0.5000 0.3567 (  2526 PWs)   bands (ev):

   -45.7823 -22.5038 -22.4265 -22.3550  -6.9229  -6.2683  -5.9690  -5.0193
    -5.0073  -4.9930  -4.8201  -4.5950   2.6121   5.4541   6.1331   6.7747
     7.1200   7.2408   7.5470   8.2825   9.1974   9.5858

          k = 0.0000-0.5000-0.4756 (  2516 PWs)   bands (ev):

   -45.7822 -22.5093 -22.4261 -22.3548  -6.9214  -6.2485  -5.9161  -5.0242
    -5.0074  -4.9793  -4.8354  -4.5692   2.5472   5.3603   6.0170   6.7947
     7.0708   7.3019   7.4000   8.2862   9.2102   9.5682

          k = 0.1250 0.1250 0.0000 (  2509 PWs)   bands (ev):

   -45.7837 -22.4736 -22.3692 -22.3689  -7.4151  -6.4775  -6.1929  -5.0117
    -5.0054  -4.9694  -4.8495  -4.6758   3.7393   6.2692   6.4088   6.8092
     7.7972   8.1258   8.3440   8.5253   8.8697   8.9917

          k = 0.1250 0.1250 0.1189 (  2511 PWs)   bands (ev):

   -45.7836 -22.4793 -22.3689 -22.3687  -7.3655  -6.4675  -6.1743  -5.0104
    -5.0085  -4.9691  -4.8473  -4.6851   3.5840   6.2379   6.3015   6.9783
     7.7398   8.0081   8.2738   8.5634   8.8754   9.0006

          k = 0.1250 0.1250 0.2378 (  2521 PWs)   bands (ev):

   -45.7834 -22.4930 -22.3683 -22.3681  -7.2439  -6.4429  -6.1282  -5.0220
    -4.9986  -4.9687  -4.8437  -4.7088   3.2483   6.1555   6.2040   6.9745
     7.6510   7.6864   8.2563   8.6174   8.8880   9.2638

          k = 0.1250 0.1250 0.3567 (  2515 PWs)   bands (ev):

   -45.7832 -22.5067 -22.3677 -22.3676  -7.1197  -6.4175  -6.0799  -5.0324
    -4.9844  -4.9686  -4.8437  -4.7343   2.9558   6.0460   6.0666   6.7494
     7.6049   7.6050   8.2400   8.6403   8.9021   9.6836

          k = 0.1250 0.1250-0.4756 (  2512 PWs)   bands (ev):

   -45.7831 -22.5124 -22.3674 -22.3673  -7.0676  -6.4068  -6.0590  -5.0364
    -4.9761  -4.9695  -4.8452  -4.7455   2.8448   5.9236   6.0286   6.6901
     7.5943   7.5986   8.2345   8.6434   8.9091   9.8860

          k = 0.1250 0.2500 0.0000 (  2507 PWs)   bands (ev):

   -45.7832 -22.4725 -22.3935 -22.3680  -7.2197  -6.4400  -6.1860  -5.0332
    -5.0014  -4.9722  -4.8243  -4.6711   3.3322   6.2028   6.5185   6.6491
     7.6146   7.7851   8.3388   8.5552   8.7600   9.3271

          k = 0.1250 0.2500 0.1189 (  2500 PWs)   bands (ev):

   -45.7831 -22.4782 -22.3932 -22.3678  -7.1767  -6.4349  -6.1658  -5.0270
    -5.0046  -4.9703  -4.8212  -4.6702   3.2479   6.1320   6.3179   6.7799
     7.5020   7.8085   8.2751   8.5781   8.7097   9.3621

          k = 0.1250 0.2500 0.2378 (  2499 PWs)   bands (ev):

   -45.7830 -22.4918 -22.3925 -22.3672  -7.0760  -6.4214  -6.1117  -5.0213
    -5.0008  -4.9634  -4.8189  -4.6673   3.0420   5.9440   6.1850   6.7488
     7.2340   7.6118   8.2767   8.5752   8.8436   9.4587

          k = 0.1250 0.2500 0.3567 (  2521 PWs)   bands (ev):

   -45.7828 -22.5054 -22.3919 -22.3666  -6.9814  -6.4050  -6.0483  -5.0269
    -4.9869  -4.9469  -4.8260  -4.6636   2.8384   5.7266   6.1230   6.5440
     7.0580   7.5120   8.2353   8.6176   8.9964   9.5348

          k = 0.1250 0.2500-0.4756 (  2512 PWs)   bands (ev):

   -45.7827 -22.5110 -22.3916 -22.3663  -6.9447  -6.3970  -6.0186  -5.0293
    -4.9827  -4.9344  -4.8331  -4.6621   2.7558   5.6171   6.0774   6.4677
     7.0348   7.4894   8.2063   8.6385   9.0435   9.5531

          k = 0.1250 0.3750 0.0000 (  2515 PWs)   bands (ev):

   -45.7828 -22.4713 -22.4178 -22.3669  -7.0072  -6.3948  -6.1984  -5.0449
    -4.9939  -4.9675  -4.7925  -4.6935   3.0155   5.8201   6.5750   6.8703
     7.2119   7.7847   7.9563   8.5448   8.7849   9.8534

          k = 0.1250 0.3750 0.1189 (  2508 PWs)   bands (ev):

   -45.7827 -22.4769 -22.4175 -22.3667  -6.9778  -6.3885  -6.1757  -5.0364
    -4.9965  -4.9643  -4.7863  -4.6821   2.9714   5.8004   6.3247   6.8135
     7.2067   7.7866   7.9938   8.5946   8.6707   9.7804

          k = 0.1250 0.3750 0.2378 (  2508 PWs)   bands (ev):

   -45.7825 -22.4905 -22.4167 -22.3661  -6.9191  -6.3686  -6.1075  -5.0220
    -4.9953  -4.9549  -4.7850  -4.6451   2.8547   5.7174   6.0878   6.5293
     6.9196   7.7226   8.1225   8.4389   8.9257   9.5680

          k = 0.1250 0.3750 0.3567 (  2512 PWs)   bands (ev):

   -45.7823 -22.5039 -22.4160 -22.3655  -6.8786  -6.3419  -6.0193  -5.0218
    -4.9806  -4.9379  -4.7978  -4.6024   2.7274   5.5326   6.0204   6.3229
     6.5559   7.6236   8.2604   8.3545   9.0874   9.4152

          k = 0.1250 0.3750-0.4756 (  2522 PWs)   bands (ev):

   -45.7822 -22.5095 -22.4157 -22.3652  -6.8670  -6.3293  -5.9767  -5.0232
    -4.9743  -4.9258  -4.8073  -4.5845   2.6724   5.4169   6.0247   6.2628
     6.4200   7.5947   8.2959   8.3351   9.0152   9.4658

          k = 0.1250-0.5000 0.0000 (  2524 PWs)   bands (ev):

   -45.7826 -22.4708 -22.4279 -22.3665  -6.9130  -6.3642  -6.2199  -5.0466
    -4.9907  -4.9642  -4.7442  -4.7427   2.9055   5.6174   6.6602   7.0178
     7.1232   7.4520   7.9767   8.5195   8.7992  10.1504

          k = 0.1250-0.5000 0.1189 (  2518 PWs)   bands (ev):

   -45.7825 -22.4764 -22.4276 -22.3662  -6.8937  -6.3518  -6.1970  -5.0376
    -4.9929  -4.9614  -4.7471  -4.7153   2.8734   5.6101   6.3398   6.8216
     7.2810   7.4979   8.0012   8.6300   8.6302   9.9769

          k = 0.1250-0.5000 0.2378 (  2510 PWs)   bands (ev):

   -45.7823 -22.4899 -22.4268 -22.3656  -6.8631  -6.3217  -6.1193  -5.0219
    -4.9893  -4.9552  -4.7602  -4.6472   2.7861   5.5697   6.0622   6.3799
     6.9381   7.8702   7.8753   8.4604   8.9237   9.5859

          k = 0.1250-0.5000 0.3567 (  2514 PWs)   bands (ev):

   -45.7821 -22.5033 -22.4260 -22.3650  -6.8516  -6.2914  -6.0130  -5.0206
    -4.9661  -4.9482  -4.7784  -4.5822   2.6871   5.4447   5.9791   6.0425
     6.5902   7.7511   8.0684   8.3840   8.9505   9.4749

          k = 0.1250-0.5000-0.4756 (  2532 PWs)   bands (ev):

   -45.7820 -22.5088 -22.4256 -22.3648  -6.8510  -6.2789  -5.9619  -5.0218
    -4.9522  -4.9448  -4.7882  -4.5564   2.6433   5.3442   5.9533   5.9791
     6.4528   7.7145   8.1300   8.3558   8.8036   9.5751

          k = 0.2500 0.2500 0.0000 (  2528 PWs)   bands (ev):

   -45.7828 -22.4714 -22.3925 -22.3921  -7.0327  -6.4026  -6.2142  -5.0300
    -5.0023  -4.9464  -4.7791  -4.6646   3.0129   6.1936   6.3437   6.7859
     7.1851   7.3895   8.2845   8.5564   8.9674   9.5329

          k = 0.2500 0.2500 0.1189 (  2512 PWs)   bands (ev):

   -45.7827 -22.4770 -22.3923 -22.3918  -6.9928  -6.4052  -6.1959  -5.0211
    -5.0044  -4.9405  -4.7721  -4.6559   2.9990   6.0817   6.1697   6.5411
     7.2506   7.4459   8.4143   8.5127   8.9838   9.4353

          k = 0.2500 0.2500 0.2378 (  2504 PWs)   bands (ev):

   -45.7825 -22.4906 -22.3916 -22.3912  -6.9028  -6.4115  -6.1417  -5.0078
    -4.9997  -4.9226  -4.7577  -4.6366   2.9447   5.8167   5.8477   6.4033
     7.1077   7.1444   8.5186   8.8193   9.0515   9.2418

          k = 0.2500 0.2500 0.3567 (  2513 PWs)   bands (ev):

   -45.7823 -22.5040 -22.3909 -22.3906  -6.8241  -6.4180  -6.0707  -5.0092
    -4.9808  -4.8946  -4.7494  -4.6192   2.8615   5.5738   5.7000   6.1753
     6.7985   7.0515   8.5908   8.9336   9.0920   9.1780

          k = 0.2500 0.2500-0.4756 (  2520 PWs)   bands (ev):

   -45.7822 -22.5096 -22.3906 -22.3904  -6.7955  -6.4207  -6.0356  -5.0092
    -4.9742  -4.8781  -4.7493  -4.6124   2.8195   5.4802   5.6575   6.0460
     6.7177   7.0383   8.5615   8.9559   9.0423   9.2321

          k = 0.2500 0.3750 0.0000 (  2521 PWs)   bands (ev):

   -45.7823 -22.4702 -22.4165 -22.3911  -6.8335  -6.3621  -6.2527  -5.0265
    -4.9861  -4.9030  -4.7425  -4.6813   2.7335   5.8387   6.3337   6.8237
     7.0173   7.4362   7.8432   8.6189   9.0911   9.6148

          k = 0.2500 0.3750 0.1189 (  2518 PWs)   bands (ev):

   -45.7822 -22.4758 -22.4162 -22.3909  -6.8011  -6.3678  -6.2366  -5.0167
    -4.9856  -4.8934  -4.7318  -4.6632   2.7629   5.8080   6.1142   6.3421
     7.0257   7.5593   8.1213   8.5752   9.1037   9.4334

          k = 0.2500 0.3750 0.2378 (  2508 PWs)   bands (ev):

   -45.7820 -22.4893 -22.4155 -22.3902  -6.7396  -6.3786  -6.1788  -4.9977
    -4.9782  -4.8703  -4.7088  -4.6176   2.8239   5.6161   5.6964   6.0384
     6.7487   7.2390   8.4626   8.8424   9.0762   9.1730

          k = 0.2500 0.3750 0.3567 (  2507 PWs)   bands (ev):

   -45.7819 -22.5027 -22.4148 -22.3896  -6.7035  -6.3861  -6.0925  -4.9910
    -4.9577  -4.8439  -4.6901  -4.5708   2.8640   5.3906   5.4177   5.8815
     6.4003   7.0009   8.2768   8.9717   9.0581   9.3708

          k = 0.2500 0.3750-0.4756 (  2508 PWs)   bands (ev):

   -45.7818 -22.5082 -22.4145 -22.3894  -6.6953  -6.3886  -6.0489  -4.9894
    -4.9479  -4.8307  -4.6839  -4.5514   2.8722   5.2911   5.3475   5.8014
     6.2561   6.9575   8.0974   8.9998   9.0815   9.4799

          k = 0.2500-0.5000 0.0000 (  2530 PWs)   bands (ev):

   -45.7821 -22.4696 -22.4266 -22.3906  -6.7464  -6.3347  -6.2823  -5.0239
    -4.9781  -4.8712  -4.7250  -4.7062   2.6289   5.6318   6.4281   6.6217
     7.2859   7.4606   7.5222   8.6737   9.0896   9.6268

          k = 0.2500-0.5000 0.1189 (  2512 PWs)   bands (ev):

   -45.7820 -22.4752 -22.4262 -22.3904  -6.7204  -6.3362  -6.2691  -5.0138
    -4.9767  -4.8606  -4.7154  -4.6804   2.6714   5.6240   6.1053   6.2857
     7.0054   7.7383   7.8511   8.6271   9.1028   9.3982

          k = 0.2500-0.5000 0.2378 (  2506 PWs)   bands (ev):

   -45.7819 -22.4887 -22.4255 -22.3898  -6.6832  -6.3402  -6.2060  -4.9946
    -4.9667  -4.8384  -4.6933  -4.6157   2.7712   5.5553   5.5761   5.9074
     6.6803   7.3258   8.3198   8.8428   9.0027   9.2066

          k = 0.2500-0.5000 0.3567 (  2506 PWs)   bands (ev):

   -45.7817 -22.5021 -22.4248 -22.3892  -6.6762  -6.3447  -6.1048  -4.9860
    -4.9439  -4.8167  -4.6721  -4.5508   2.8612   5.2656   5.3827   5.6765
     6.3342   7.0684   7.9750   8.9983   9.0450   9.4552

          k = 0.2500-0.5000-0.4756 (  2504 PWs)   bands (ev):

   -45.7816 -22.5076 -22.4245 -22.3889  -6.6792  -6.3468  -6.0550  -4.9839
    -4.9323  -4.8069  -4.6635  -4.5244   2.8930   5.1957   5.2532   5.6211
     6.1813   7.0186   7.7451   9.0375   9.0684   9.5953

          k = 0.3750 0.3750 0.0000 (  2512 PWs)   bands (ev):

   -45.7819 -22.4690 -22.4153 -22.4151  -6.6644  -6.3293  -6.2946  -5.0121
    -4.9566  -4.8302  -4.6932  -4.6909   2.4623   5.7133   6.0486   6.8721
     7.1013   7.2125   7.7094   8.4156   9.1930   9.4776

          k = 0.3750 0.3750 0.1189 (  2519 PWs)   bands (ev):

   -45.7818 -22.4746 -22.4150 -22.4149  -6.6251  -6.3451  -6.2908  -5.0010
    -4.9546  -4.8130  -4.6780  -4.6650   2.5370   5.6945   5.9531   6.2170
     6.6605   7.6132   8.2736   8.2841   8.9353   9.4778

          k = 0.3750 0.3750 0.2378 (  2509 PWs)   bands (ev):

   -45.7816 -22.4880 -22.4144 -22.4142  -6.5580  -6.3817  -6.2494  -4.9743
    -4.9504  -4.7756  -4.6362  -4.6034   2.7349   5.4818   5.5943   5.7179
     6.3908   7.0664   8.0879   8.9421   8.9469   9.4789

          k = 0.3750 0.3750 0.3567 (  2498 PWs)   bands (ev):

   -45.7814 -22.5014 -22.4137 -22.4136  -6.5352  -6.4161  -6.1580  -4.9477
    -4.9468  -4.7405  -4.5895  -4.5428   2.9631   5.0930   5.2311   5.5998
     6.3336   6.4800   7.4622   9.3067   9.3682   9.4869

          k = 0.3750 0.3750-0.4756 (  2500 PWs)   bands (ev):

   -45.7813 -22.5069 -22.4134 -22.4133  -6.5348  -6.4299  -6.1095  -4.9454
    -4.9368  -4.7254  -4.5697  -4.5179   3.0681   4.9663   5.0945   5.5286
     6.2753   6.3235   7.1900   9.4282   9.4593   9.5339

          k = 0.3750-0.5000 0.0000 (  2520 PWs)   bands (ev):

   -45.7817 -22.4684 -22.4252 -22.4147  -6.6007  -6.3103  -6.3091  -5.0071
    -4.9392  -4.7765  -4.7201  -4.6735   2.3539   5.5482   6.0490   6.8098
     7.1244   7.4233   7.4752   8.3810   8.9573   9.6016

          k = 0.3750-0.5000 0.1189 (  2522 PWs)   bands (ev):

   -45.7816 -22.4740 -22.4249 -22.4144  -6.5563  -6.3248  -6.3183  -4.9960
    -4.9372  -4.7554  -4.6935  -4.6535   2.4416   5.5389   5.9829   6.1894
     6.5491   7.7621   8.0435   8.3697   8.6575   9.5962

          k = 0.3750-0.5000 0.2378 (  2514 PWs)   bands (ev):

   -45.7814 -22.4874 -22.4242 -22.4138  -6.4910  -6.3608  -6.2902  -4.9694
    -4.9328  -4.7171  -4.6293  -4.5928   2.6821   5.4965   5.4980   5.6239
     6.2399   7.0995   7.7611   8.9387   8.9559   9.5894

          k = 0.3750-0.5000 0.3567 (  2508 PWs)   bands (ev):

   -45.7812 -22.5008 -22.4236 -22.4132  -6.4947  -6.3948  -6.1861  -4.9445
    -4.9275  -4.6860  -4.5655  -4.5240   2.9833   5.0399   5.2003   5.4481
     6.1665   6.5278   7.0124   9.3614   9.4354   9.5863

          k = 0.3750-0.5000-0.4756 (  2496 PWs)   bands (ev):

   -45.7811 -22.5063 -22.4233 -22.4129  -6.5050  -6.4084  -6.1325  -4.9367
    -4.9229  -4.6728  -4.5393  -4.4950   3.1367   4.8807   5.0516   5.3940
     6.1167   6.3665   6.6853   9.4886   9.5718   9.6169

          k =-0.5000-0.5000 0.0000 (  2496 PWs)   bands (ev):

   -45.7815 -22.4678 -22.4246 -22.4246  -6.5594  -6.2997  -6.2997  -5.0017
    -4.9137  -4.7238  -4.7238  -4.6733   2.2413   5.4356   5.9938   6.9629
     6.9629   7.4816   7.4816   8.2453   8.6596   9.7524

          k =-0.5000-0.5000 0.1189 (  2524 PWs)   bands (ev):

   -45.7814 -22.4734 -22.4244 -22.4244  -6.5027  -6.3212  -6.3212  -4.9906
    -4.9132  -4.6877  -4.6877  -4.6663   2.3414   5.4265   5.9956   6.3050
     6.3050   7.8560   8.1794   8.1794   8.2637   9.7479

          k =-0.5000-0.5000 0.2378 (  2508 PWs)   bands (ev):

   -45.7812 -22.4869 -22.4237 -22.4237  -6.3699  -6.3699  -6.3635  -4.9637
    -4.9119  -4.6469  -4.6031  -4.6031   2.6232   5.3947   5.6045   5.6045
     6.0000   7.0734   7.3774   8.9571   8.9571   9.7375

          k =-0.5000-0.5000 0.3567 (  2512 PWs)   bands (ev):

   -45.7810 -22.5002 -22.4231 -22.4231  -6.4148  -6.4148  -6.2212  -4.9369
    -4.9106  -4.6232  -4.5213  -4.5213   2.9982   5.1420   5.1420   5.3320
     6.0045   6.4434   6.4977   9.4608   9.4608   9.7269

          k =-0.5000-0.5000-0.4756 (  2504 PWs)   bands (ev):

   -45.7810 -22.5057 -22.4228 -22.4228  -6.4324  -6.4324  -6.1615  -4.9258
    -4.9101  -4.6118  -4.4881  -4.4881   3.2055   4.9809   4.9809   5.2860
     6.0064   6.1017   6.2252   9.6259   9.6259   9.7227

     highest occupied level (ev):    10.3646

!    total energy              =    -380.57227565 Ry
     estimated scf accuracy    <          8.0E-11 Ry

     The total energy is the sum of the following terms:
     one-electron contribution =     -85.71853622 Ry
     hartree contribution      =      72.00449432 Ry
     xc contribution           =    -102.58551407 Ry
     ewald contribution        =    -264.27271968 Ry

     convergence has been achieved in   9 iterations

     negative rho (up, down):  1.552E-02 0.000E+00

     Forces acting on atoms (cartesian axes, Ry/au):

     atom    1 type  1   force =     0.00000000    0.00000000   -0.00026664
     atom    2 type  2   force =     0.00000000    0.00000000    0.00059568
     atom    3 type  3   force =     0.00000000    0.00000000   -0.00345619
     atom    4 type  3   force =     0.00000000    0.00000000    0.00156357
     atom    5 type  3   force =     0.00000000    0.00000000    0.00156357

     Total force =     0.004155     Total SCF correction =     0.000028


     Computing stress (Cartesian axis) and pressure


     negative rho (up, down):  1.552E-02 0.000E+00
          total   stress  (Ry/bohr**3)                   (kbar)     P=      -43.22
  -0.00034771   0.00000000   0.00000000          -51.15        0.00        0.00
   0.00000000  -0.00034771   0.00000000            0.00      -51.15        0.00
   0.00000000   0.00000000  -0.00018594            0.00        0.00      -27.35

     Energy error            =      7.7E-05 Ry
     Gradient error          =      3.5E-03 Ry/Bohr

     number of scf cycles    =   6
     number of bfgs steps    =   5

     energy             old  =    -380.5721987947 Ry
     energy             new  =    -380.5722756482 Ry

     CASE: energy            _new < energy            _old

     new trust radius        =       0.0039391013 bohr
     new conv_thr            =            1.0E-10 Ry


ATOMIC_POSITIONS (crystal)
Pb               0.0000000000        0.0000000000        0.9935213584
Ti               0.5000000000        0.5000000000        0.5385874925
O                0.5000000000        0.5000000000        0.1071522851
O                0.5000000000        0.0000000000        0.6140115760
O                0.0000000000        0.5000000000        0.6140115760



     Writing config-only to output data dir ./pto_k8.save/ :
     XML data file
     NEW-OLD atomic charge density approx. for the potential

     Check: negative core charge=   -0.000004

     negative rho (up, down):  1.555E-02 0.000E+00

     total cpu time spent up to now is      159.1 secs

     Self-consistent Calculation

     iteration #  1     ecut=    50.00 Ry     beta= 0.70
     CG style diagonalization
     ethr =  1.00E-06,  avg # of iterations =  3.2

     Threshold (ethr) on eigenvalues was too large:
     Diagonalizing with lowered threshold

     CG style diagonalization
     c_bands:  1 eigenvalues not converged
     c_bands:  1 eigenvalues not converged
     c_bands:  1 eigenvalues not converged
     c_bands:  1 eigenvalues not converged
     c_bands:  1 eigenvalues not converged
     c_bands:  1 eigenvalues not converged
     c_bands:  1 eigenvalues not converged
     c_bands:  1 eigenvalues not converged
     c_bands:  2 eigenvalues not converged
     c_bands:  1 eigenvalues not converged
     c_bands:  2 eigenvalues not converged
     c_bands:  1 eigenvalues not converged
     c_bands:  1 eigenvalues not converged
     c_bands:  1 eigenvalues not converged
     c_bands:  1 eigenvalues not converged
     c_bands:  1 eigenvalues not converged
     c_bands:  1 eigenvalues not converged
     c_bands:  1 eigenvalues not converged
     c_bands:  1 eigenvalues not converged
     c_bands:  1 eigenvalues not converged
     c_bands:  1 eigenvalues not converged
     c_bands:  1 eigenvalues not converged
     c_bands:  1 eigenvalues not converged
     ethr =  2.55E-08,  avg # of iterations =  6.2

     negative rho (up, down):  1.555E-02 0.000E+00

     total cpu time spent up to now is      163.9 secs

     total energy              =    -380.57228376 Ry
     estimated scf accuracy    <       0.00001164 Ry

     iteration #  2     ecut=    50.00 Ry     beta= 0.70
     CG style diagonalization
     ethr =  2.65E-08,  avg # of iterations =  4.8

     negative rho (up, down):  1.555E-02 0.000E+00

     total cpu time spent up to now is      166.2 secs

     total energy              =    -380.57228211 Ry
     estimated scf accuracy    <       0.00003922 Ry

     iteration #  3     ecut=    50.00 Ry     beta= 0.70
     CG style diagonalization
     ethr =  2.65E-08,  avg # of iterations =  4.3

     negative rho (up, down):  1.555E-02 0.000E+00

     total cpu time spent up to now is      168.2 secs

     total energy              =    -380.57228932 Ry
     estimated scf accuracy    <       0.00000238 Ry

     iteration #  4     ecut=    50.00 Ry     beta= 0.70
     CG style diagonalization
     ethr =  5.41E-09,  avg # of iterations =  3.7

     negative rho (up, down):  1.555E-02 0.000E+00

     total cpu time spent up to now is      169.9 secs

     total energy              =    -380.57228991 Ry
     estimated scf accuracy    <       0.00000023 Ry

     iteration #  5     ecut=    50.00 Ry     beta= 0.70
     CG style diagonalization
     ethr =  5.11E-10,  avg # of iterations =  4.1

     negative rho (up, down):  1.555E-02 0.000E+00

     total cpu time spent up to now is      171.8 secs

     total energy              =    -380.57229003 Ry
     estimated scf accuracy    <       0.00000004 Ry

     iteration #  6     ecut=    50.00 Ry     beta= 0.70
     CG style diagonalization
     ethr =  9.16E-11,  avg # of iterations =  4.3

     negative rho (up, down):  1.555E-02 0.000E+00

     total cpu time spent up to now is      173.8 secs

     total energy              =    -380.57229005 Ry
     estimated scf accuracy    <          9.1E-09 Ry

     iteration #  7     ecut=    50.00 Ry     beta= 0.70
     CG style diagonalization
     ethr =  2.07E-11,  avg # of iterations =  4.2

     negative rho (up, down):  1.555E-02 0.000E+00

     total cpu time spent up to now is      175.7 secs

     total energy              =    -380.57229005 Ry
     estimated scf accuracy    <          1.4E-09 Ry

     iteration #  8     ecut=    50.00 Ry     beta= 0.70
     CG style diagonalization
     ethr =  3.13E-12,  avg # of iterations =  5.1

     negative rho (up, down):  1.555E-02 0.000E+00

     total cpu time spent up to now is      178.1 secs

     total energy              =    -380.57229005 Ry
     estimated scf accuracy    <          1.6E-10 Ry

     iteration #  9     ecut=    50.00 Ry     beta= 0.70
     CG style diagonalization
     ethr =  3.69E-13,  avg # of iterations =  6.0

     negative rho (up, down):  1.555E-02 0.000E+00

     total cpu time spent up to now is      180.9 secs

     End of self-consistent calculation

          k = 0.0000 0.0000 0.0000 (  2525 PWs)   bands (ev):

   -45.7920 -22.4776 -22.3675 -22.3675  -7.5743  -6.5139  -6.2067  -4.9930
    -4.9930  -4.9517  -4.8671  -4.6849   4.2100   6.2523   6.2523   6.8016
     8.1218   8.1218   8.4521   8.6285   8.8754   8.8754

          k = 0.0000 0.0000 0.1189 (  2541 PWs)   bands (ev):

   -45.7919 -22.4833 -22.3672 -22.3672  -7.5211  -6.4990  -6.1887  -4.9975
    -4.9975  -4.9513  -4.8629  -4.7033   3.9465   6.2665   6.2665   6.9901
     8.0499   8.0499   8.4268   8.5056   8.9103   8.9103

          k = 0.0000 0.0000 0.2378 (  2517 PWs)   bands (ev):

   -45.7917 -22.4971 -22.3667 -22.3667  -7.3884  -6.4618  -6.1464  -5.0081
    -5.0081  -4.9504  -4.8531  -4.7490   3.4623   6.2950   6.2950   6.8751
     7.9137   7.9137   8.3674   8.7841   8.9732   8.9732

          k = 0.0000 0.0000 0.3567 (  2526 PWs)   bands (ev):

   -45.7915 -22.5109 -22.3661 -22.3661  -7.2486  -6.4225  -6.1066  -5.0186
    -5.0186  -4.9495  -4.8437  -4.7967   3.0893   6.3139   6.3139   6.4185
     7.8156   7.8156   8.3098   9.0206   9.0206   9.5450

          k = 0.0000 0.0000-0.4756 (  2530 PWs)   bands (ev):

   -45.7914 -22.5166 -22.3659 -22.3659  -7.1882  -6.4055  -6.0912  -5.0230
    -5.0230  -4.9492  -4.8399  -4.8172   2.9550   6.2117   6.3185   6.3185
     7.7841   7.7841   8.2865   9.0376   9.0376   9.9891

          k = 0.0000 0.1250 0.0000 (  2525 PWs)   bands (ev):

   -45.7918 -22.4771 -22.3776 -22.3671  -7.4965  -6.4985  -6.1952  -5.0065
    -4.9922  -4.9591  -4.8611  -4.6778   3.9494   6.2931   6.3143   6.8000
     8.0832   8.1368   8.4538   8.5944   8.6515   8.9360

          k = 0.0000 0.1250 0.1189 (  2523 PWs)   bands (ev):

   -45.7917 -22.4828 -22.3774 -22.3668  -7.4454  -6.4860  -6.1766  -5.0072
    -4.9967  -4.9588  -4.8585  -4.6912   3.7462   6.2389   6.3301   6.9708
     7.9431   8.0544   8.4476   8.4978   8.6987   8.9900

          k = 0.0000 0.1250 0.2378 (  2519 PWs)   bands (ev):

   -45.7915 -22.4966 -22.3768 -22.3663  -7.3191  -6.4548  -6.1317  -5.0082
    -5.0075  -4.9581  -4.8533  -4.7242   3.3402   6.1573   6.3619   6.9590
     7.6708   7.9103   8.4069   8.5380   8.7744   9.2497

          k = 0.0000 0.1250 0.3567 (  2528 PWs)   bands (ev):

   -45.7913 -22.5103 -22.3762 -22.3657  -7.1883  -6.4218  -6.0867  -5.0183
    -5.0085  -4.9574  -4.8494  -4.7581   3.0084   6.0132   6.3827   6.6524
     7.5774   7.8130   8.5001   8.5382   8.8271   9.7247

          k = 0.0000 0.1250-0.4756 (  2514 PWs)   bands (ev):

   -45.7913 -22.5160 -22.3760 -22.3655  -7.1326  -6.4076  -6.0682  -5.0227
    -5.0086  -4.9572  -4.8481  -4.7724   2.8861   5.9077   6.3877   6.5425
     7.5579   7.7831   8.5271   8.5441   8.8456  10.0015

          k = 0.0000 0.2500 0.0000 (  2503 PWs)   bands (ev):

   -45.7913 -22.4760 -22.4021 -22.3660  -7.2986  -6.4614  -6.1729  -5.0299
    -4.9902  -4.9769  -4.8447  -4.6732   3.4785   6.2250   6.4866   6.6054
     8.0946   8.1271   8.2296   8.3596   8.6082   9.1697

          k = 0.0000 0.2500 0.1189 (  2505 PWs)   bands (ev):

   -45.7913 -22.4817 -22.4018 -22.3658  -7.2553  -6.4529  -6.1516  -5.0236
    -4.9949  -4.9768  -4.8433  -4.6753   3.3530   6.1370   6.5074   6.6863
     7.8879   7.9906   8.2824   8.3338   8.5410   9.3153

          k = 0.0000 0.2500 0.2378 (  2512 PWs)   bands (ev):

   -45.7911 -22.4954 -22.4011 -22.3652  -7.1527  -6.4300  -6.0957  -5.0062
    -5.0061  -4.9766  -4.8461  -4.6773   3.0754   5.9679   6.5481   6.7242
     7.5339   7.8382   7.8672   8.4278   8.7826   9.5357

          k = 0.0000 0.2500 0.3567 (  2512 PWs)   bands (ev):

   -45.7909 -22.5089 -22.4004 -22.3647  -7.0554  -6.4016  -6.0328  -5.0174
    -4.9856  -4.9764  -4.8567  -4.6762   2.8264   5.7450   6.5724   6.6124
     7.3021   7.7108   7.7564   8.4813   8.9496   9.7121

          k = 0.0000 0.2500-0.4756 (  2508 PWs)   bands (ev):

   -45.7908 -22.5146 -22.4002 -22.3644  -7.0173  -6.3876  -6.0044  -5.0220
    -4.9764  -4.9762  -4.8631  -4.6753   2.7303   5.6235   6.5473   6.5770
     7.2405   7.6938   7.7363   8.4990   8.9963   9.7823

          k = 0.0000 0.3750 0.0000 (  2500 PWs)   bands (ev):

   -45.7909 -22.4749 -22.4264 -22.3650  -7.0830  -6.4147  -6.1707  -5.0466
    -4.9947  -4.9880  -4.8089  -4.6974   3.1350   5.8077   6.7304   6.7315
     7.6404   7.6961   8.2372   8.2567   8.6751   9.9005

          k = 0.0000 0.3750 0.1189 (  2506 PWs)   bands (ev):

   -45.7908 -22.4805 -22.4261 -22.3648  -7.0547  -6.4034  -6.1455  -5.0370
    -4.9949  -4.9928  -4.8050  -4.6883   3.0502   5.7905   6.6782   6.7617
     7.4108   7.6418   8.2565   8.3767   8.4944   9.8920

          k = 0.0000 0.3750 0.2378 (  2511 PWs)   bands (ev):

   -45.7906 -22.4940 -22.4253 -22.3642  -6.9972  -6.3706  -6.0723  -5.0118
    -5.0048  -4.9950  -4.8129  -4.6536   2.8543   5.7198   6.5081   6.8208
     7.0664   7.5524   7.8799   8.2889   8.8791   9.7757

          k = 0.0000 0.3750 0.3567 (  2518 PWs)   bands (ev):

   -45.7904 -22.5075 -22.4246 -22.3636  -6.9558  -6.3292  -5.9810  -5.0165
    -4.9953  -4.9825  -4.8360  -4.6115   2.6698   5.5529   6.2763   6.8449
     6.9773   7.4863   7.5234   8.3107   9.2070   9.5849

          k = 0.0000 0.3750-0.4756 (  2518 PWs)   bands (ev):

   -45.7903 -22.5130 -22.4242 -22.3634  -6.9432  -6.3096  -5.9377  -5.0213
    -4.9954  -4.9679  -4.8496  -4.5938   2.5965   5.4393   6.2030   6.8424
     6.9824   7.3470   7.5298   8.3180   9.3059   9.5121

          k = 0.0000-0.5000 0.0000 (  2488 PWs)   bands (ev):

   -45.7907 -22.4743 -22.4365 -22.3646  -6.9874  -6.3836  -6.1857  -5.0525
    -5.0019  -4.9872  -4.7540  -4.7495   3.0197   5.6031   6.9058   6.9061
     7.3298   7.4423   8.2066   8.2568   8.6914  10.3690

          k = 0.0000-0.5000 0.1189 (  2506 PWs)   bands (ev):

   -45.7906 -22.4799 -22.4362 -22.3644  -6.9700  -6.3656  -6.1595  -5.0428
    -5.0021  -4.9922  -4.7593  -4.7244   2.9466   5.5970   6.8376   6.9593
     7.0853   7.3808   8.2645   8.4316   8.4411  10.2245

          k = 0.0000-0.5000 0.2378 (  2506 PWs)   bands (ev):

   -45.7904 -22.4934 -22.4354 -22.3638  -6.9409  -6.3211  -6.0758  -5.0177
    -5.0042  -5.0026  -4.7851  -4.6557   2.7766   5.5622   6.5522   6.7669
     7.0933   7.2436   7.9445   8.2783   8.8770   9.8830

          k = 0.0000-0.5000 0.3567 (  2526 PWs)   bands (ev):

   -45.7902 -22.5068 -22.4345 -22.3632  -6.9281  -6.2750  -5.9651  -5.0161
    -5.0031  -4.9893  -4.8158  -4.5909   2.6149   5.4519   6.1343   6.7717
     7.1186   7.2345   7.5439   8.2880   9.2014   9.5898

          k = 0.0000-0.5000-0.4756 (  2516 PWs)   bands (ev):

   -45.7902 -22.5124 -22.4342 -22.3629  -6.9265  -6.2553  -5.9121  -5.0210
    -5.0033  -4.9756  -4.8309  -4.5653   2.5502   5.3590   6.0177   6.7905
     7.0698   7.2955   7.3964   8.2912   9.2179   9.5697

          k = 0.1250 0.1250 0.0000 (  2509 PWs)   bands (ev):

   -45.7916 -22.4767 -22.3773 -22.3771  -7.4194  -6.4829  -6.1902  -5.0083
    -5.0020  -4.9653  -4.8461  -4.6710   3.7410   6.2639   6.4064   6.8081
     7.8050   8.1249   8.3495   8.5228   8.8649   8.9985

          k = 0.1250 0.1250 0.1189 (  2511 PWs)   bands (ev):

   -45.7915 -22.4824 -22.3771 -22.3768  -7.3701  -6.4730  -6.1714  -5.0071
    -5.0051  -4.9650  -4.8439  -4.6803   3.5863   6.2330   6.2988   6.9769
     7.7465   8.0088   8.2783   8.5614   8.8706   9.0053

          k = 0.1250 0.1250 0.2378 (  2521 PWs)   bands (ev):

   -45.7913 -22.4961 -22.3765 -22.3763  -7.2492  -6.4485  -6.1249  -5.0186
    -4.9951  -4.9646  -4.8402  -4.7039   3.2519   6.1517   6.2012   6.9726
     7.6559   7.6876   8.2596   8.6158   8.8829   9.2658

          k = 0.1250 0.1250 0.3567 (  2515 PWs)   bands (ev):

   -45.7911 -22.5098 -22.3758 -22.3757  -7.1259  -6.4233  -6.0759  -5.0290
    -4.9809  -4.9645  -4.8400  -4.7293   2.9605   6.0444   6.0637   6.7457
     7.6066   7.6085   8.2411   8.6389   8.8967   9.6849

          k = 0.1250 0.1250-0.4756 (  2512 PWs)   bands (ev):

   -45.7911 -22.5154 -22.3756 -22.3755  -7.0741  -6.4127  -6.0547  -5.0329
    -4.9727  -4.9654  -4.8414  -4.7404   2.8499   5.9223   6.0260   6.6856
     7.5973   7.6008   8.2345   8.6421   8.9035   9.8872

          k = 0.1250 0.2500 0.0000 (  2507 PWs)   bands (ev):

   -45.7911 -22.4756 -22.4016 -22.3761  -7.2239  -6.4456  -6.1837  -5.0297
    -4.9980  -4.9681  -4.8206  -4.6663   3.3328   6.1982   6.5151   6.6502
     7.6127   7.7931   8.3397   8.5543   8.7581   9.3337

          k = 0.1250 0.2500 0.1189 (  2500 PWs)   bands (ev):

   -45.7911 -22.4813 -22.4013 -22.3759  -7.1813  -6.4405  -6.1633  -5.0235
    -5.0011  -4.9662  -4.8176  -4.6654   3.2490   6.1284   6.3158   6.7783
     7.5037   7.8118   8.2785   8.5766   8.7076   9.3667

          k = 0.1250 0.2500 0.2378 (  2499 PWs)   bands (ev):

   -45.7909 -22.4949 -22.4007 -22.3753  -7.0812  -6.4271  -6.1085  -5.0178
    -4.9971  -4.9595  -4.8152  -4.6626   3.0443   5.9418   6.1824   6.7469
     7.2340   7.6133   8.2824   8.5703   8.8441   9.4610

          k = 0.1250 0.2500 0.3567 (  2521 PWs)   bands (ev):

   -45.7907 -22.5084 -22.4000 -22.3747  -6.9873  -6.4107  -6.0444  -5.0233
    -4.9830  -4.9432  -4.8221  -4.6590   2.8418   5.7255   6.1203   6.5425
     7.0553   7.5118   8.2415   8.6116   8.9981   9.5366

          k = 0.1250 0.2500-0.4756 (  2512 PWs)   bands (ev):

   -45.7906 -22.5140 -22.3997 -22.3745  -6.9509  -6.4028  -6.0145  -5.0258
    -4.9787  -4.9308  -4.8292  -4.6575   2.7597   5.6165   6.0750   6.4659
     7.0314   7.4888   8.2125   8.6324   9.0454   9.5550

          k = 0.1250 0.3750 0.0000 (  2515 PWs)   bands (ev):

   -45.7907 -22.4744 -22.4259 -22.3751  -7.0113  -6.4006  -6.1966  -5.0413
    -4.9905  -4.9633  -4.7885  -4.6888   3.0156   5.8168   6.5741   6.8696
     7.2078   7.7867   7.9640   8.5412   8.7866   9.8582

          k = 0.1250 0.3750 0.1189 (  2508 PWs)   bands (ev):

   -45.7906 -22.4800 -22.4256 -22.3748  -6.9823  -6.3942  -6.1736  -5.0328
    -4.9931  -4.9601  -4.7824  -4.6774   2.9719   5.7972   6.3241   6.8100
     7.2063   7.7878   7.9995   8.5955   8.6683   9.7848

          k = 0.1250 0.3750 0.2378 (  2508 PWs)   bands (ev):

   -45.7904 -22.4935 -22.4248 -22.3742  -6.9242  -6.3744  -6.1045  -5.0184
    -4.9918  -4.9508  -4.7811  -4.6406   2.8562   5.7149   6.0862   6.5274
     6.9192   7.7240   8.1211   8.4416   8.9256   9.5719

          k = 0.1250 0.3750 0.3567 (  2512 PWs)   bands (ev):

   -45.7902 -22.5070 -22.4241 -22.3736  -6.8841  -6.3480  -6.0157  -5.0182
    -4.9769  -4.9339  -4.7937  -4.5982   2.7297   5.5315   6.0180   6.3210
     6.5548   7.6221   8.2579   8.3577   9.0917   9.4168

          k = 0.1250 0.3750-0.4756 (  2522 PWs)   bands (ev):

   -45.7902 -22.5125 -22.4238 -22.3734  -6.8725  -6.3355  -5.9728  -5.0197
    -4.9705  -4.9220  -4.8032  -4.5804   2.6752   5.4165   6.0219   6.2611
     6.4176   7.5924   8.2979   8.3335   9.0212   9.4666

          k = 0.1250-0.5000 0.0000 (  2524 PWs)   bands (ev):

   -45.7905 -22.4739 -22.4360 -22.3746  -6.9170  -6.3703  -6.2181  -5.0430
    -4.9873  -4.9599  -4.7393  -4.7387   2.9055   5.6142   6.6621   7.0111
     7.1229   7.4501   7.9882   8.5150   8.8015  10.1543

          k = 0.1250-0.5000 0.1189 (  2518 PWs)   bands (ev):

   -45.7904 -22.4795 -22.4357 -22.3744  -6.8982  -6.3579  -6.1947  -5.0340
    -4.9895  -4.9572  -4.7431  -4.7105   2.8737   5.6069   6.3401   6.8177
     7.2792   7.4975   8.0101   8.6268   8.6313   9.9813

          k = 0.1250-0.5000 0.2378 (  2510 PWs)   bands (ev):

   -45.7902 -22.4929 -22.4349 -22.3738  -6.8681  -6.3279  -6.1160  -5.0184
    -4.9859  -4.9509  -4.7562  -4.6428   2.7873   5.5667   6.0605   6.3795
     6.9368   7.8723   7.8727   8.4636   8.9229   9.5910

          k = 0.1250-0.5000 0.3567 (  2514 PWs)   bands (ev):

   -45.7900 -22.5063 -22.4340 -22.3732  -6.8568  -6.2978  -6.0092  -5.0171
    -4.9626  -4.9440  -4.7742  -4.5782   2.6892   5.4429   5.9753   6.0428
     6.5890   7.7490   8.0643   8.3887   8.9550   9.4775

          k = 0.1250-0.5000-0.4756 (  2532 PWs)   bands (ev):

   -45.7900 -22.5119 -22.4337 -22.3729  -6.8562  -6.2853  -5.9580  -5.0183
    -4.9488  -4.9406  -4.7840  -4.5525   2.6457   5.3434   5.9533   5.9744
     6.4515   7.7115   8.1255   8.3608   8.8097   9.5770

          k = 0.2500 0.2500 0.0000 (  2528 PWs)   bands (ev):

   -45.7907 -22.4745 -22.4006 -22.4002  -7.0365  -6.4085  -6.2126  -5.0266
    -4.9986  -4.9423  -4.7751  -4.6597   3.0122   6.1881   6.3412   6.7855
     7.1855   7.3994   8.2800   8.5613   8.9633   9.5394

          k = 0.2500 0.2500 0.1189 (  2512 PWs)   bands (ev):

   -45.7906 -22.4801 -22.4004 -22.3999  -6.9970  -6.4110  -6.1938  -5.0176
    -5.0007  -4.9364  -4.7682  -4.6512   2.9987   6.0776   6.1691   6.5379
     7.2569   7.4467   8.4191   8.5100   8.9801   9.4410

          k = 0.2500 0.2500 0.2378 (  2504 PWs)   bands (ev):

   -45.7904 -22.4936 -22.3997 -22.3993  -6.9078  -6.4172  -6.1388  -5.0041
    -4.9960  -4.9186  -4.7538  -4.6321   2.9453   5.8149   5.8468   6.3995
     7.1103   7.1447   8.5243   8.8152   9.0503   9.2453

          k = 0.2500 0.2500 0.3567 (  2513 PWs)   bands (ev):

   -45.7902 -22.5071 -22.3990 -22.3987  -6.8300  -6.4236  -6.0670  -5.0055
    -4.9771  -4.8908  -4.7455  -4.6148   2.8634   5.5733   5.6978   6.1729
     6.7965   7.0522   8.5993   8.9277   9.0932   9.1788

          k = 0.2500 0.2500-0.4756 (  2520 PWs)   bands (ev):

   -45.7902 -22.5127 -22.3987 -22.3985  -6.8016  -6.4262  -6.0316  -5.0055
    -4.9705  -4.8744  -4.7454  -4.6081   2.8219   5.4801   5.6547   6.0440
     6.7148   7.0385   8.5710   8.9498   9.0428   9.2331

          k = 0.2500 0.3750 0.0000 (  2521 PWs)   bands (ev):

   -45.7902 -22.4733 -22.4246 -22.3992  -6.8367  -6.3681  -6.2521  -5.0230
    -4.9824  -4.8987  -4.7383  -4.6765   2.7318   5.8351   6.3293   6.8262
     7.0162   7.4473   7.8401   8.6215   9.0869   9.6189

          k = 0.2500 0.3750 0.1189 (  2518 PWs)   bands (ev):

   -45.7902 -22.4789 -22.4243 -22.3990  -6.8048  -6.3736  -6.2354  -5.0131
    -4.9819  -4.8892  -4.7276  -4.6586   2.7614   5.8047   6.1139   6.3394
     7.0290   7.5628   8.1229   8.5765   9.0999   9.4371

          k = 0.2500 0.3750 0.2378 (  2508 PWs)   bands (ev):

   -45.7900 -22.4923 -22.4236 -22.3984  -6.7444  -6.3843  -6.1762  -4.9941
    -4.9746  -4.8662  -4.7048  -4.6133   2.8230   5.6153   5.6955   6.0354
     6.7490   7.2413   8.4662   8.8434   9.0776   9.1712

          k = 0.2500 0.3750 0.3567 (  2507 PWs)   bands (ev):

   -45.7898 -22.5057 -22.4229 -22.3977  -6.7090  -6.3918  -6.0889  -4.9873
    -4.9541  -4.8397  -4.6863  -4.5667   2.8641   5.3888   5.4179   5.8776
     6.4009   7.0008   8.2838   8.9732   9.0535   9.3725

          k = 0.2500 0.3750-0.4756 (  2508 PWs)   bands (ev):

   -45.7897 -22.5113 -22.4226 -22.3975  -6.7009  -6.3942  -6.0450  -4.9857
    -4.9443  -4.8266  -4.6801  -4.5475   2.8728   5.2921   5.3444   5.7975
     6.2566   6.9568   8.1051   9.0008   9.0770   9.4820

          k = 0.2500-0.5000 0.0000 (  2530 PWs)   bands (ev):

   -45.7900 -22.4727 -22.4346 -22.3987  -6.7491  -6.3409  -6.2821  -5.0203
    -4.9744  -4.8668  -4.7208  -4.7013   2.6269   5.6286   6.4223   6.6258
     7.2849   7.4578   7.5342   8.6754   9.0860   9.6290

          k = 0.2500-0.5000 0.1189 (  2512 PWs)   bands (ev):

   -45.7900 -22.4783 -22.4343 -22.3985  -6.7239  -6.3424  -6.2680  -5.0103
    -4.9730  -4.8562  -4.7113  -4.6757   2.6695   5.6208   6.1073   6.2815
     7.0072   7.7440   7.8517   8.6284   9.1002   9.3999

          k = 0.2500-0.5000 0.2378 (  2506 PWs)   bands (ev):

   -45.7898 -22.4918 -22.4336 -22.3979  -6.6879  -6.3462  -6.2032  -4.9909
    -4.9631  -4.8341  -4.6894  -4.6114   2.7697   5.5556   5.5735   5.9061
     6.6795   7.3290   8.3226   8.8451   9.0038   9.2042

          k = 0.2500-0.5000 0.3567 (  2506 PWs)   bands (ev):

   -45.7896 -22.5051 -22.4328 -22.3973  -6.6814  -6.3506  -6.1012  -4.9823
    -4.9403  -4.8123  -4.6684  -4.5468   2.8605   5.2638   5.3832   5.6733
     6.3340   7.0689   7.9815   9.0011   9.0397   9.4572

          k = 0.2500-0.5000-0.4756 (  2504 PWs)   bands (ev):

   -45.7895 -22.5107 -22.4325 -22.3970  -6.6845  -6.3526  -6.0512  -4.9803
    -4.9288  -4.8025  -4.6599  -4.5206   2.8928   5.1926   5.2547   5.6173
     6.1815   7.0182   7.7527   9.0403   9.0626   9.5976

          k = 0.3750 0.3750 0.0000 (  2512 PWs)   bands (ev):

   -45.7898 -22.4721 -22.4234 -22.4232  -6.6652  -6.3356  -6.2965  -5.0086
    -4.9527  -4.8258  -4.6887  -4.6861   2.4591   5.7099   6.0441   6.8764
     7.1112   7.2126   7.7056   8.4188   9.1966   9.4721

          k = 0.3750 0.3750 0.1189 (  2519 PWs)   bands (ev):

   -45.7897 -22.4777 -22.4231 -22.4230  -6.6268  -6.3513  -6.2916  -4.9975
    -4.9507  -4.8087  -4.6736  -4.6605   2.5338   5.6911   5.9499   6.2194
     6.6648   7.6152   8.2742   8.2870   8.9392   9.4722

          k = 0.3750 0.3750 0.2378 (  2509 PWs)   bands (ev):

   -45.7895 -22.4911 -22.4224 -22.4223  -6.5621  -6.3874  -6.2474  -4.9707
    -4.9466  -4.7714  -4.6320  -4.5993   2.7315   5.4823   5.5949   5.7152
     6.3904   7.0686   8.0928   8.9450   8.9483   9.4735

          k = 0.3750 0.3750 0.3567 (  2498 PWs)   bands (ev):

   -45.7893 -22.5044 -22.4218 -22.4217  -6.5405  -6.4215  -6.1545  -4.9442
    -4.9429  -4.7362  -4.5858  -4.5391   2.9596   5.0934   5.2331   5.5955
     6.3316   6.4824   7.4689   9.3096   9.3681   9.4832

          k = 0.3750 0.3750-0.4756 (  2500 PWs)   bands (ev):

   -45.7893 -22.5099 -22.4215 -22.4214  -6.5403  -6.4351  -6.1057  -4.9415
    -4.9333  -4.7211  -4.5661  -4.5144   3.0647   4.9658   5.0968   5.5241
     6.2779   6.3212   7.1975   9.4311   9.4534   9.5361

          k = 0.3750-0.5000 0.0000 (  2520 PWs)   bands (ev):

   -45.7896 -22.4715 -22.4333 -22.4228  -6.5996  -6.3155  -6.3142  -5.0036
    -4.9352  -4.7719  -4.7156  -4.6688   2.3502   5.5450   6.0447   6.8160
     7.1327   7.4219   7.4740   8.3832   8.9603   9.5957

          k = 0.3750-0.5000 0.1189 (  2522 PWs)   bands (ev):

   -45.7895 -22.4771 -22.4330 -22.4225  -6.5562  -6.3310  -6.3209  -4.9925
    -4.9332  -4.7509  -4.6891  -4.6490   2.4377   5.5356   5.9795   6.1929
     6.5527   7.7652   8.0446   8.3713   8.6612   9.5903

          k = 0.3750-0.5000 0.2378 (  2514 PWs)   bands (ev):

   -45.7893 -22.4905 -22.4323 -22.4219  -6.4948  -6.3667  -6.2885  -4.9659
    -4.9289  -4.7127  -4.6254  -4.5887   2.6777   5.4933   5.5007   5.6246
     6.2385   7.1020   7.7657   8.9410   8.9584   9.5836

          k = 0.3750-0.5000 0.3567 (  2508 PWs)   bands (ev):

   -45.7891 -22.5038 -22.4317 -22.4212  -6.4999  -6.4003  -6.1826  -4.9409
    -4.9236  -4.6815  -4.5621  -4.5204   2.9781   5.0418   5.2029   5.4438
     6.1640   6.5301   7.0191   9.3641   9.4371   9.5812

          k = 0.3750-0.5000-0.4756 (  2496 PWs)   bands (ev):

   -45.7891 -22.5094 -22.4314 -22.4210  -6.5103  -6.4137  -6.1288  -4.9330
    -4.9191  -4.6683  -4.5360  -4.4915   3.1310   4.8820   5.0546   5.3892
     6.1152   6.3678   6.6933   9.4913   9.5657   9.6195

          k =-0.5000-0.5000 0.0000 (  2496 PWs)   bands (ev):

   -45.7894 -22.4709 -22.4327 -22.4327  -6.5558  -6.3063  -6.3063  -4.9982
    -4.9097  -4.7191  -4.7191  -4.6688   2.2370   5.4325   5.9901   6.9704
     6.9704   7.4800   7.4800   8.2480   8.6617   9.7463

          k =-0.5000-0.5000 0.1189 (  2524 PWs)   bands (ev):

   -45.7893 -22.4765 -22.4325 -22.4325  -6.4991  -6.3275  -6.3275  -4.9871
    -4.9092  -4.6833  -4.6833  -4.6617   2.3368   5.4233   5.9918   6.3092
     6.3092   7.8584   8.1811   8.1811   8.2666   9.7419

          k =-0.5000-0.5000 0.2378 (  2508 PWs)   bands (ev):

   -45.7891 -22.4899 -22.4318 -22.4318  -6.3756  -6.3756  -6.3598  -4.9602
    -4.9079  -4.6422  -4.5993  -4.5993   2.6176   5.3909   5.6083   5.6083
     5.9963   7.0757   7.3820   8.9596   8.9596   9.7314

          k =-0.5000-0.5000 0.3567 (  2512 PWs)   bands (ev):

   -45.7890 -22.5033 -22.4312 -22.4312  -6.4201  -6.4201  -6.2176  -4.9334
    -4.9066  -4.6185  -4.5180  -4.5180   2.9908   5.1457   5.1457   5.3275
     6.0008   6.4460   6.5046   9.4634   9.4634   9.7209

          k =-0.5000-0.5000-0.4756 (  2504 PWs)   bands (ev):

   -45.7889 -22.5088 -22.4309 -22.4309  -6.4376  -6.4376  -6.1578  -4.9223
    -4.9061  -4.6070  -4.4850  -4.4850   3.1965   4.9847   4.9847   5.2811
     6.0026   6.1102   6.2281   9.6286   9.6286   9.7166

     highest occupied level (ev):    10.3690

!    total energy              =    -380.57229005 Ry
     estimated scf accuracy    <          1.3E-11 Ry

     The total energy is the sum of the following terms:
     one-electron contribution =     -85.72331795 Ry
     hartree contribution      =      72.00509437 Ry
     xc contribution           =    -102.58441965 Ry
     ewald contribution        =    -264.26964683 Ry

     convergence has been achieved in   9 iterations

     negative rho (up, down):  1.555E-02 0.000E+00

     Forces acting on atoms (cartesian axes, Ry/au):

     atom    1 type  1   force =     0.00000000    0.00000000    0.00030298
     atom    2 type  2   force =     0.00000000    0.00000000   -0.00109036
     atom    3 type  3   force =     0.00000000    0.00000000   -0.00110008
     atom    4 type  3   force =     0.00000000    0.00000000    0.00094373
     atom    5 type  3   force =     0.00000000    0.00000000    0.00094373

     Total force =     0.002067     Total SCF correction =     0.000007


     Computing stress (Cartesian axis) and pressure


     negative rho (up, down):  1.555E-02 0.000E+00
          total   stress  (Ry/bohr**3)                   (kbar)     P=      -43.94
  -0.00034799   0.00000000   0.00000000          -51.19        0.00        0.00
   0.00000000  -0.00034799   0.00000000            0.00      -51.19        0.00
   0.00000000   0.00000000  -0.00020021            0.00        0.00      -29.45

     Energy error            =      1.4E-05 Ry
     Gradient error          =      1.1E-03 Ry/Bohr

     number of scf cycles    =   7
     number of bfgs steps    =   6

     energy             old  =    -380.5722756482 Ry
     energy             new  =    -380.5722900520 Ry

     CASE: energy            _new < energy            _old

     new trust radius        =       0.0031113963 bohr
     new conv_thr            =            1.0E-10 Ry


ATOMIC_POSITIONS (crystal)
Pb               0.0000000000        0.0000000000        0.9936018701
Ti               0.5000000000        0.5000000000        0.5384406514
O                0.5000000000        0.5000000000        0.1067507047
O                0.5000000000        0.0000000000        0.6142455309
O                0.0000000000        0.5000000000        0.6142455309



     Writing config-only to output data dir ./pto_k8.save/ :
     XML data file
     NEW-OLD atomic charge density approx. for the potential

     Check: negative core charge=   -0.000004

     negative rho (up, down):  1.554E-02 0.000E+00

     total cpu time spent up to now is      183.3 secs

     Self-consistent Calculation

     iteration #  1     ecut=    50.00 Ry     beta= 0.70
     CG style diagonalization
     ethr =  1.00E-06,  avg # of iterations =  2.9

     Threshold (ethr) on eigenvalues was too large:
     Diagonalizing with lowered threshold

     CG style diagonalization
     c_bands:  1 eigenvalues not converged
     c_bands:  1 eigenvalues not converged
     c_bands:  1 eigenvalues not converged
     c_bands:  1 eigenvalues not converged
     c_bands:  3 eigenvalues not converged
     c_bands:  1 eigenvalues not converged
     c_bands:  1 eigenvalues not converged
     c_bands:  1 eigenvalues not converged
     c_bands:  1 eigenvalues not converged
     c_bands:  1 eigenvalues not converged
     c_bands:  1 eigenvalues not converged
     c_bands:  2 eigenvalues not converged
     c_bands:  1 eigenvalues not converged
     c_bands:  1 eigenvalues not converged
     c_bands:  2 eigenvalues not converged
     c_bands:  1 eigenvalues not converged
     c_bands:  1 eigenvalues not converged
     c_bands:  1 eigenvalues not converged
     c_bands:  1 eigenvalues not converged
     ethr =  3.67E-09,  avg # of iterations =  6.9

     negative rho (up, down):  1.554E-02 0.000E+00

     total cpu time spent up to now is      188.4 secs

     total energy              =    -380.57229485 Ry
     estimated scf accuracy    <       0.00000333 Ry

     iteration #  2     ecut=    50.00 Ry     beta= 0.70
     CG style diagonalization
     ethr =  7.58E-09,  avg # of iterations =  4.7

     negative rho (up, down):  1.554E-02 0.000E+00

     total cpu time spent up to now is      190.6 secs

     total energy              =    -380.57229408 Ry
     estimated scf accuracy    <       0.00001290 Ry

     iteration #  3     ecut=    50.00 Ry     beta= 0.70
     CG style diagonalization
     ethr =  7.58E-09,  avg # of iterations =  4.3

     negative rho (up, down):  1.554E-02 0.000E+00

     total cpu time spent up to now is      192.6 secs

     total energy              =    -380.57229641 Ry
     estimated scf accuracy    <       0.00000051 Ry

     iteration #  4     ecut=    50.00 Ry     beta= 0.70
     CG style diagonalization
     ethr =  1.16E-09,  avg # of iterations =  3.7

     negative rho (up, down):  1.554E-02 0.000E+00

     total cpu time spent up to now is      194.2 secs

     total energy              =    -380.57229653 Ry
     estimated scf accuracy    <       0.00000006 Ry

     iteration #  5     ecut=    50.00 Ry     beta= 0.70
     CG style diagonalization
     ethr =  1.35E-10,  avg # of iterations =  4.2

     negative rho (up, down):  1.554E-02 0.000E+00

     total cpu time spent up to now is      196.2 secs

     total energy              =    -380.57229656 Ry
     estimated scf accuracy    <       0.00000001 Ry

     iteration #  6     ecut=    50.00 Ry     beta= 0.70
     CG style diagonalization
     ethr =  2.53E-11,  avg # of iterations =  4.0

     negative rho (up, down):  1.554E-02 0.000E+00

     total cpu time spent up to now is      198.1 secs

     total energy              =    -380.57229656 Ry
     estimated scf accuracy    <          1.6E-09 Ry

     iteration #  7     ecut=    50.00 Ry     beta= 0.70
     CG style diagonalization
     ethr =  3.53E-12,  avg # of iterations =  4.6

     negative rho (up, down):  1.554E-02 0.000E+00

     total cpu time spent up to now is      200.2 secs

     total energy              =    -380.57229657 Ry
     estimated scf accuracy    <          2.4E-10 Ry

     iteration #  8     ecut=    50.00 Ry     beta= 0.70
     CG style diagonalization
     ethr =  5.55E-13,  avg # of iterations =  5.3

     negative rho (up, down):  1.554E-02 0.000E+00

     total cpu time spent up to now is      202.7 secs

     End of self-consistent calculation

          k = 0.0000 0.0000 0.0000 (  2525 PWs)   bands (ev):

   -45.7951 -22.4789 -22.3705 -22.3705  -7.5751  -6.5138  -6.2057  -4.9917
    -4.9917  -4.9500  -4.8654  -4.6830   4.2126   6.2504   6.2504   6.7986
     8.1234   8.1234   8.4502   8.6314   8.8740   8.8740

          k = 0.0000 0.0000 0.1189 (  2541 PWs)   bands (ev):

   -45.7951 -22.4847 -22.3703 -22.3703  -7.5219  -6.4989  -6.1878  -4.9961
    -4.9961  -4.9496  -4.8612  -4.7014   3.9489   6.2643   6.2643   6.9873
     8.0518   8.0518   8.4248   8.5083   8.9091   8.9091

          k = 0.0000 0.0000 0.2378 (  2517 PWs)   bands (ev):

   -45.7949 -22.4985 -22.3697 -22.3697  -7.3892  -6.4617  -6.1456  -5.0067
    -5.0067  -4.9487  -4.8514  -4.7470   3.4645   6.2921   6.2921   6.8733
     7.9165   7.9165   8.3655   8.7856   8.9724   8.9724

          k = 0.0000 0.0000 0.3567 (  2526 PWs)   bands (ev):

   -45.7947 -22.5123 -22.3692 -22.3692  -7.2494  -6.4225  -6.1059  -5.0173
    -5.0173  -4.9478  -4.8419  -4.7947   3.0916   6.3102   6.3102   6.4171
     7.8195   7.8195   8.3078   9.0198   9.0198   9.5457

          k = 0.0000 0.0000-0.4756 (  2530 PWs)   bands (ev):

   -45.7946 -22.5179 -22.3689 -22.3689  -7.1890  -6.4056  -6.0905  -5.0216
    -5.0216  -4.9474  -4.8381  -4.8152   2.9574   6.2103   6.3145   6.3145
     7.7884   7.7884   8.2845   9.0369   9.0369   9.9896

          k = 0.0000 0.1250 0.0000 (  2525 PWs)   bands (ev):

   -45.7949 -22.4785 -22.3806 -22.3701  -7.4974  -6.4986  -6.1943  -5.0051
    -4.9908  -4.9574  -4.8595  -4.6759   3.9511   6.2924   6.3124   6.7974
     8.0848   8.1387   8.4523   8.5954   8.6500   8.9370

          k = 0.0000 0.1250 0.1189 (  2523 PWs)   bands (ev):

   -45.7949 -22.4842 -22.3804 -22.3698  -7.4463  -6.4860  -6.1757  -5.0058
    -4.9953  -4.9571  -4.8569  -4.6894   3.7479   6.2376   6.3280   6.9685
     7.9447   8.0563   8.4489   8.4966   8.6976   8.9906

          k = 0.0000 0.1250 0.2378 (  2519 PWs)   bands (ev):

   -45.7947 -22.4980 -22.3798 -22.3693  -7.3200  -6.4549  -6.1308  -5.0068
    -5.0061  -4.9564  -4.8516  -4.7224   3.3420   6.1554   6.3591   6.9571
     7.6731   7.9129   8.4074   8.5369   8.7738   9.2505

          k = 0.0000 0.1250 0.3567 (  2528 PWs)   bands (ev):

   -45.7945 -22.5117 -22.3792 -22.3687  -7.1891  -6.4219  -6.0860  -5.0169
    -5.0071  -4.9557  -4.8477  -4.7562   3.0104   6.0111   6.3791   6.6504
     7.5806   7.8167   8.4998   8.5370   8.8267   9.7258

          k = 0.0000 0.1250-0.4756 (  2514 PWs)   bands (ev):

   -45.7944 -22.5174 -22.3790 -22.3685  -7.1335  -6.4077  -6.0675  -5.0213
    -5.0072  -4.9554  -4.8463  -4.7705   2.8882   5.9057   6.3838   6.5401
     7.5614   7.7873   8.5264   8.5428   8.8452  10.0028

          k = 0.0000 0.2500 0.0000 (  2503 PWs)   bands (ev):

   -45.7945 -22.4774 -22.4051 -22.3690  -7.2995  -6.4617  -6.1720  -5.0285
    -4.9888  -4.9752  -4.8432  -4.6714   3.4793   6.2248   6.4851   6.6058
     8.0974   8.1288   8.2284   8.3580   8.6087   9.1708

          k = 0.0000 0.2500 0.1189 (  2505 PWs)   bands (ev):

   -45.7944 -22.4831 -22.4048 -22.3688  -7.2561  -6.4532  -6.1507  -5.0221
    -4.9935  -4.9751  -4.8418  -4.6735   3.3540   6.1367   6.5055   6.6863
     7.8901   7.9913   8.2826   8.3340   8.5407   9.3160

          k = 0.0000 0.2500 0.2378 (  2512 PWs)   bands (ev):

   -45.7942 -22.4967 -22.4041 -22.3682  -7.1536  -6.4304  -6.0949  -5.0048
    -5.0046  -4.9749  -4.8445  -4.6755   3.0766   5.9672   6.5455   6.7243
     7.5357   7.8396   7.8675   8.4286   8.7825   9.5365

          k = 0.0000 0.2500 0.3567 (  2512 PWs)   bands (ev):

   -45.7940 -22.5103 -22.4034 -22.3677  -7.0561  -6.4021  -6.0321  -5.0160
    -4.9841  -4.9747  -4.8551  -4.6745   2.8278   5.7440   6.5691   6.6130
     7.3034   7.7107   7.7588   8.4823   8.9494   9.7137

          k = 0.0000 0.2500-0.4756 (  2508 PWs)   bands (ev):

   -45.7940 -22.5159 -22.4031 -22.3674  -7.0180  -6.3881  -6.0038  -5.0206
    -4.9746  -4.9746  -4.8615  -4.6736   2.7318   5.6224   6.5479   6.5733
     7.2421   7.6931   7.7392   8.5000   8.9961   9.7843

          k = 0.0000 0.3750 0.0000 (  2500 PWs)   bands (ev):

   -45.7940 -22.4762 -22.4294 -22.3680  -7.0838  -6.4154  -6.1698  -5.0452
    -4.9930  -4.9866  -4.8075  -4.6957   3.1354   5.8086   6.7295   6.7342
     7.6425   7.6944   8.2391   8.2550   8.6761   9.9012

          k = 0.0000 0.3750 0.1189 (  2506 PWs)   bands (ev):

   -45.7939 -22.4819 -22.4291 -22.3678  -7.0554  -6.4041  -6.1447  -5.0355
    -4.9933  -4.9914  -4.8036  -4.6867   3.0507   5.7914   6.6800   6.7605
     7.4129   7.6402   8.2588   8.3766   8.4944   9.8927

          k = 0.0000 0.3750 0.2378 (  2511 PWs)   bands (ev):

   -45.7938 -22.4954 -22.4283 -22.3672  -6.9977  -6.3715  -6.0716  -5.0103
    -5.0034  -4.9933  -4.8114  -4.6519   2.8551   5.7202   6.5093   6.8188
     7.0687   7.5515   7.8794   8.2918   8.8799   9.7765

          k = 0.0000 0.3750 0.3567 (  2518 PWs)   bands (ev):

   -45.7936 -22.5088 -22.4275 -22.3666  -6.9561  -6.3302  -5.9804  -5.0151
    -4.9936  -4.9810  -4.8344  -4.6099   2.6709   5.5526   6.2788   6.8420
     6.9784   7.4853   7.5233   8.3139   9.2085   9.5859

          k = 0.0000 0.3750-0.4756 (  2518 PWs)   bands (ev):

   -45.7935 -22.5144 -22.4272 -22.3664  -6.9435  -6.3106  -5.9371  -5.0199
    -4.9937  -4.9664  -4.8480  -4.5922   2.5977   5.4389   6.2060   6.8392
     6.9830   7.3459   7.5302   8.3213   9.3079   9.5129

          k = 0.0000-0.5000 0.0000 (  2488 PWs)   bands (ev):

   -45.7938 -22.4757 -22.4395 -22.3676  -6.9881  -6.3847  -6.1847  -5.0511
    -5.0002  -4.9858  -4.7524  -4.7480   3.0199   5.6047   6.9057   6.9113
     7.3296   7.4396   8.2048   8.2590   8.6923  10.3700

          k = 0.0000-0.5000 0.1189 (  2506 PWs)   bands (ev):

   -45.7938 -22.4813 -22.4391 -22.3674  -6.9705  -6.3667  -6.1585  -5.0413
    -5.0004  -4.9908  -4.7578  -4.7228   2.9470   5.5985   6.8415   6.9592
     7.0856   7.3779   8.2671   8.4309   8.4415  10.2255

          k = 0.0000-0.5000 0.2378 (  2506 PWs)   bands (ev):

   -45.7936 -22.4948 -22.4383 -22.3668  -6.9413  -6.3224  -6.0750  -5.0163
    -5.0028  -5.0009  -4.7836  -4.6541   2.7774   5.5632   6.5536   6.7691
     7.0932   7.2404   7.9440   8.2818   8.8779   9.8840

          k = 0.0000-0.5000 0.3567 (  2526 PWs)   bands (ev):

   -45.7934 -22.5082 -22.4375 -22.3662  -6.9283  -6.2763  -5.9645  -5.0147
    -5.0014  -4.9879  -4.8142  -4.5894   2.6160   5.4520   6.1370   6.7728
     7.1151   7.2345   7.5429   8.2920   9.2037   9.5905

          k = 0.0000-0.5000-0.4756 (  2516 PWs)   bands (ev):

   -45.7933 -22.5137 -22.4371 -22.3659  -6.9266  -6.2566  -5.9116  -5.0196
    -5.0016  -4.9741  -4.8293  -4.5637   2.5514   5.3588   6.0209   6.7912
     7.0662   7.2955   7.3952   8.2954   9.2207   9.5703

          k = 0.1250 0.1250 0.0000 (  2509 PWs)   bands (ev):

   -45.7948 -22.4780 -22.3803 -22.3801  -7.4204  -6.4830  -6.1893  -5.0069
    -5.0006  -4.9636  -4.8446  -4.6691   3.7423   6.2619   6.4064   6.8058
     7.8069   8.1252   8.3508   8.5212   8.8650   9.0005

          k = 0.1250 0.1250 0.1189 (  2511 PWs)   bands (ev):

   -45.7947 -22.4838 -22.3801 -22.3798  -7.3710  -6.4731  -6.1705  -5.0056
    -5.0037  -4.9634  -4.8423  -4.6784   3.5877   6.2309   6.2983   6.9748
     7.7487   8.0094   8.2798   8.5599   8.8705   9.0071

          k = 0.1250 0.1250 0.2378 (  2521 PWs)   bands (ev):

   -45.7945 -22.4975 -22.3795 -22.3793  -7.2501  -6.4486  -6.1240  -5.0171
    -4.9937  -4.9629  -4.8385  -4.7020   3.2535   6.1491   6.2000   6.9709
     7.6587   7.6882   8.2613   8.6145   8.8826   9.2674

          k = 0.1250 0.1250 0.3567 (  2515 PWs)   bands (ev):

   -45.7943 -22.5112 -22.3788 -22.3787  -7.1267  -6.4235  -6.0752  -5.0275
    -4.9795  -4.9628  -4.8383  -4.7274   2.9623   6.0428   6.0609   6.7444
     7.6073   7.6119   8.2428   8.6378   8.8961   9.6865

          k = 0.1250 0.1250-0.4756 (  2512 PWs)   bands (ev):

   -45.7942 -22.5168 -22.3786 -22.3785  -7.0749  -6.4128  -6.0540  -5.0314
    -4.9713  -4.9637  -4.8396  -4.7385   2.8518   5.9207   6.0232   6.6841
     7.6008   7.6018   8.2360   8.6411   8.9029   9.8889

          k = 0.1250 0.2500 0.0000 (  2507 PWs)   bands (ev):

   -45.7943 -22.4770 -22.4046 -22.3791  -7.2249  -6.4459  -6.1829  -5.0282
    -4.9966  -4.9664  -4.8191  -4.6645   3.3335   6.1973   6.5141   6.6508
     7.6125   7.7955   8.3413   8.5535   8.7585   9.3352

          k = 0.1250 0.2500 0.1189 (  2500 PWs)   bands (ev):

   -45.7942 -22.4826 -22.4043 -22.3789  -7.1822  -6.4409  -6.1625  -5.0220
    -4.9997  -4.9646  -4.8160  -4.6636   3.2498   6.1276   6.3153   6.7774
     7.5048   7.8135   8.2806   8.5760   8.7076   9.3681

          k = 0.1250 0.2500 0.2378 (  2499 PWs)   bands (ev):

   -45.7940 -22.4962 -22.4036 -22.3783  -7.0821  -6.4274  -6.1078  -5.0163
    -4.9957  -4.9578  -4.8137  -4.6609   3.0454   5.9410   6.1815   6.7456
     7.2355   7.6151   8.2846   8.5699   8.8440   9.4624

          k = 0.1250 0.2500 0.3567 (  2521 PWs)   bands (ev):

   -45.7938 -22.5098 -22.4030 -22.3777  -6.9881  -6.4112  -6.0438  -5.0219
    -4.9814  -4.9417  -4.8205  -4.6573   2.8431   5.7244   6.1188   6.5427
     7.0559   7.5131   8.2442   8.6111   8.9980   9.5383

          k = 0.1250 0.2500-0.4756 (  2512 PWs)   bands (ev):

   -45.7938 -22.5154 -22.4027 -22.3775  -6.9517  -6.4033  -6.0139  -5.0243
    -4.9771  -4.9293  -4.8275  -4.6558   2.7611   5.6153   6.0730   6.4669
     7.0315   7.4898   8.2154   8.6318   9.0453   9.5569

          k = 0.1250 0.3750 0.0000 (  2515 PWs)   bands (ev):

   -45.7938 -22.4758 -22.4288 -22.3781  -7.0121  -6.4013  -6.1958  -5.0398
    -4.9891  -4.9616  -4.7870  -4.6871   3.0159   5.8176   6.5741   6.8712
     7.2067   7.7893   7.9661   8.5401   8.7873   9.8593

          k = 0.1250 0.3750 0.1189 (  2508 PWs)   bands (ev):

   -45.7938 -22.4814 -22.4285 -22.3778  -6.9831  -6.3949  -6.1728  -5.0313
    -4.9917  -4.9584  -4.7809  -4.6757   2.9723   5.7980   6.3250   6.8088
     7.2069   7.7901   8.0019   8.5953   8.6680   9.7858

          k = 0.1250 0.3750 0.2378 (  2508 PWs)   bands (ev):

   -45.7936 -22.4949 -22.4278 -22.3772  -6.9248  -6.3752  -6.1039  -5.0169
    -4.9904  -4.9491  -4.7796  -4.6390   2.8569   5.7153   6.0867   6.5272
     6.9190   7.7262   8.1226   8.4420   8.9261   9.5727

          k = 0.1250 0.3750 0.3567 (  2512 PWs)   bands (ev):

   -45.7934 -22.5083 -22.4270 -22.3766  -6.8846  -6.3489  -6.0151  -5.0168
    -4.9754  -4.9323  -4.7922  -4.5966   2.7307   5.5313   6.0185   6.3221
     6.5538   7.6230   8.2589   8.3588   9.0937   9.4170

          k = 0.1250 0.3750-0.4756 (  2522 PWs)   bands (ev):

   -45.7933 -22.5139 -22.4267 -22.3764  -6.8729  -6.3365  -5.9723  -5.0182
    -4.9689  -4.9204  -4.8016  -4.5788   2.6763   5.4162   6.0223   6.2632
     6.4159   7.5929   8.2999   8.3339   9.0234   9.4669

          k = 0.1250-0.5000 0.0000 (  2524 PWs)   bands (ev):

   -45.7937 -22.4752 -22.4389 -22.3776  -6.9177  -6.3714  -6.2172  -5.0416
    -4.9859  -4.9582  -4.7377  -4.7372   2.9057   5.6158   6.6639   7.0082
     7.1256   7.4508   7.9913   8.5137   8.8022  10.1553

          k = 0.1250-0.5000 0.1189 (  2518 PWs)   bands (ev):

   -45.7936 -22.4808 -22.4386 -22.3774  -6.8988  -6.3591  -6.1939  -5.0326
    -4.9881  -4.9554  -4.7416  -4.7089   2.8741   5.6083   6.3418   6.8159
     7.2792   7.4998   8.0133   8.6259   8.6315   9.9822

          k = 0.1250-0.5000 0.2378 (  2510 PWs)   bands (ev):

   -45.7934 -22.4943 -22.4378 -22.3768  -6.8686  -6.3291  -6.1153  -5.0169
    -4.9845  -4.9492  -4.7547  -4.6412   2.7880   5.5677   6.0617   6.3797
     6.9357   7.8741   7.8748   8.4641   8.9236   9.5916

          k = 0.1250-0.5000 0.3567 (  2514 PWs)   bands (ev):

   -45.7932 -22.5077 -22.4370 -22.3762  -6.8571  -6.2991  -6.0087  -5.0156
    -4.9612  -4.9422  -4.7727  -4.5766   2.6901   5.4431   5.9760   6.0447
     6.5875   7.7501   8.0650   8.3903   8.9570   9.4777

          k = 0.1250-0.5000-0.4756 (  2532 PWs)   bands (ev):

   -45.7931 -22.5132 -22.4366 -22.3759  -6.8565  -6.2866  -5.9575  -5.0169
    -4.9474  -4.9388  -4.7824  -4.5510   2.6468   5.3434   5.9556   5.9748
     6.4499   7.7120   8.1260   8.3628   8.8117   9.5776

          k = 0.2500 0.2500 0.0000 (  2528 PWs)   bands (ev):

   -45.7938 -22.4759 -22.4036 -22.4032  -7.0375  -6.4091  -6.2118  -5.0251
    -4.9972  -4.9406  -4.7735  -4.6580   3.0126   6.1869   6.3405   6.7867
     7.1862   7.4024   8.2804   8.5638   8.9630   9.5408

          k = 0.2500 0.2500 0.1189 (  2512 PWs)   bands (ev):

   -45.7938 -22.4815 -22.4033 -22.4029  -6.9980  -6.4116  -6.1931  -5.0161
    -4.9992  -4.9348  -4.7666  -4.6495   2.9992   6.0763   6.1695   6.5376
     7.2601   7.4474   8.4219   8.5101   8.9799   9.4424

          k = 0.2500 0.2500 0.2378 (  2504 PWs)   bands (ev):

   -45.7936 -22.4950 -22.4026 -22.4023  -6.9089  -6.4177  -6.1381  -5.0026
    -4.9946  -4.9169  -4.7522  -4.6304   2.9461   5.8137   5.8476   6.3978
     7.1135   7.1460   8.5270   8.8147   9.0504   9.2467

          k = 0.2500 0.2500 0.3567 (  2513 PWs)   bands (ev):

   -45.7934 -22.5085 -22.4019 -22.4017  -6.8309  -6.4240  -6.0664  -5.0039
    -4.9756  -4.8892  -4.7439  -4.6131   2.8644   5.5723   5.6980   6.1714
     6.7976   7.0555   8.6023   8.9269   9.0941   9.1789

          k = 0.2500 0.2500-0.4756 (  2520 PWs)   bands (ev):

   -45.7933 -22.5140 -22.4017 -22.4015  -6.8025  -6.4267  -6.0311  -5.0040
    -4.9690  -4.8728  -4.7438  -4.6065   2.8230   5.4792   5.6542   6.0436
     6.7152   7.0417   8.5743   8.9490   9.0436   9.2330

          k = 0.2500 0.3750 0.0000 (  2521 PWs)   bands (ev):

   -45.7934 -22.4747 -22.4275 -22.4022  -6.8376  -6.3690  -6.2517  -5.0216
    -4.9809  -4.8970  -4.7366  -4.6748   2.7320   5.8358   6.3281   6.8271
     7.0179   7.4504   7.8415   8.6233   9.0864   9.6200

          k = 0.2500 0.3750 0.1189 (  2518 PWs)   bands (ev):

   -45.7933 -22.4803 -22.4273 -22.4019  -6.8057  -6.3745  -6.2349  -5.0117
    -4.9804  -4.8874  -4.7260  -4.6569   2.7616   5.8052   6.1143   6.3390
     7.0315   7.5644   8.1252   8.5778   9.0994   9.4381

          k = 0.2500 0.3750 0.2378 (  2508 PWs)   bands (ev):

   -45.7931 -22.4937 -22.4265 -22.4013  -6.7453  -6.3851  -6.1757  -4.9926
    -4.9731  -4.8644  -4.7033  -4.6117   2.8235   5.6160   5.6960   6.0346
     6.7508   7.2437   8.4693   8.8438   9.0778   9.1709

          k = 0.2500 0.3750 0.3567 (  2507 PWs)   bands (ev):

   -45.7929 -22.5071 -22.4258 -22.4007  -6.7098  -6.3926  -6.0885  -4.9857
    -4.9527  -4.8379  -4.6848  -4.5652   2.8648   5.3894   5.4182   5.8759
     6.4030   7.0036   8.2866   8.9734   9.0532   9.3728

          k = 0.2500 0.3750-0.4756 (  2508 PWs)   bands (ev):

   -45.7929 -22.5126 -22.4256 -22.4005  -6.7016  -6.3951  -6.0446  -4.9842
    -4.9428  -4.8248  -4.6786  -4.5460   2.8736   5.2923   5.3450   5.7954
     6.2593   6.9594   8.1079   9.0009   9.0768   9.4824

          k = 0.2500-0.5000 0.0000 (  2530 PWs)   bands (ev):

   -45.7932 -22.4741 -22.4376 -22.4017  -6.7499  -6.3421  -6.2817  -5.0189
    -4.9728  -4.8649  -4.7192  -4.6996   2.6270   5.6300   6.4208   6.6270
     7.2875   7.4586   7.5375   8.6769   9.0854   9.6298

          k = 0.2500-0.5000 0.1189 (  2512 PWs)   bands (ev):

   -45.7931 -22.4797 -22.4373 -22.4015  -6.7247  -6.3435  -6.2675  -5.0089
    -4.9715  -4.8544  -4.7098  -4.6740   2.6696   5.6221   6.1087   6.2801
     7.0094   7.7462   7.8541   8.6295   9.0996   9.4005

          k = 0.2500-0.5000 0.2378 (  2506 PWs)   bands (ev):

   -45.7929 -22.4931 -22.4365 -22.4009  -6.6886  -6.3474  -6.2027  -4.9895
    -4.9616  -4.8322  -4.6879  -4.6098   2.7701   5.5569   5.5745   5.9054
     6.6807   7.3319   8.3253   8.8458   9.0038   9.2038

          k = 0.2500-0.5000 0.3567 (  2506 PWs)   bands (ev):

   -45.7927 -22.5065 -22.4358 -22.4002  -6.6820  -6.3517  -6.1009  -4.9808
    -4.9389  -4.8104  -4.6670  -4.5453   2.8611   5.2647   5.3839   5.6726
     6.3352   7.0720   7.9836   9.0015   9.0394   9.4576

          k = 0.2500-0.5000-0.4756 (  2504 PWs)   bands (ev):

   -45.7927 -22.5120 -22.4355 -22.4000  -6.6850  -6.3536  -6.0509  -4.9787
    -4.9273  -4.8006  -4.6585  -4.5191   2.8935   5.1933   5.2553   5.6161
     6.1833   7.0213   7.7547   9.0406   9.0622   9.5982

          k = 0.3750 0.3750 0.0000 (  2512 PWs)   bands (ev):

   -45.7929 -22.4735 -22.4263 -22.4262  -6.6659  -6.3366  -6.2966  -5.0072
    -4.9511  -4.8241  -4.6869  -4.6845   2.4592   5.7102   6.0449   6.8768
     7.1131   7.2152   7.7075   8.4209   9.1976   9.4715

          k = 0.3750 0.3750 0.1189 (  2519 PWs)   bands (ev):

   -45.7929 -22.4790 -22.4260 -22.4259  -6.6276  -6.3523  -6.2916  -4.9961
    -4.9491  -4.8069  -4.6718  -4.6589   2.5339   5.6912   5.9504   6.2209
     6.6675   7.6164   8.2756   8.2897   8.9399   9.4717

          k = 0.3750 0.3750 0.2378 (  2509 PWs)   bands (ev):

   -45.7927 -22.4924 -22.4254 -22.4253  -6.5631  -6.3883  -6.2472  -4.9693
    -4.9450  -4.7695  -4.6304  -4.5978   2.7316   5.4830   5.5954   5.7155
     6.3933   7.0702   8.0951   8.9458   8.9492   9.4730

          k = 0.3750 0.3750 0.3567 (  2498 PWs)   bands (ev):

   -45.7925 -22.5058 -22.4247 -22.4246  -6.5415  -6.4223  -6.1542  -4.9428
    -4.9413  -4.7343  -4.5843  -4.5377   2.9599   5.0945   5.2340   5.5940
     6.3344   6.4849   7.4710   9.3104   9.3683   9.4830

          k = 0.3750 0.3750-0.4756 (  2500 PWs)   bands (ev):

   -45.7924 -22.5113 -22.4244 -22.4244  -6.5412  -6.4359  -6.1055  -4.9399
    -4.9318  -4.7191  -4.5646  -4.5131   3.0650   4.9668   5.0978   5.5220
     6.2809   6.3239   7.1998   9.4318   9.4527   9.5366

          k = 0.3750-0.5000 0.0000 (  2520 PWs)   bands (ev):

   -45.7927 -22.4729 -22.4362 -22.4257  -6.6000  -6.3167  -6.3147  -5.0022
    -4.9336  -4.7701  -4.7141  -4.6670   2.3502   5.5459   6.0460   6.8166
     7.1335   7.4246   7.4766   8.3848   8.9615   9.5951

          k = 0.3750-0.5000 0.1189 (  2522 PWs)   bands (ev):

   -45.7927 -22.4785 -22.4359 -22.4254  -6.5567  -6.3321  -6.3212  -4.9911
    -4.9316  -4.7491  -4.6876  -4.6472   2.4377   5.5363   5.9805   6.1943
     6.5550   7.7666   8.0468   8.3728   8.6621   9.5897

          k = 0.3750-0.5000 0.2378 (  2514 PWs)   bands (ev):

   -45.7925 -22.4919 -22.4353 -22.4248  -6.4957  -6.3677  -6.2883  -4.9645
    -4.9273  -4.7108  -4.6241  -4.5871   2.6777   5.4933   5.5022   5.6256
     6.2411   7.1039   7.7672   8.9420   8.9594   9.5831

          k = 0.3750-0.5000 0.3567 (  2508 PWs)   bands (ev):

   -45.7923 -22.5052 -22.4346 -22.4242  -6.5008  -6.4013  -6.1824  -4.9395
    -4.9220  -4.6794  -4.5609  -4.5190   2.9781   5.0433   5.2040   5.4429
     6.1663   6.5330   7.0206   9.3648   9.4378   9.5808

          k = 0.3750-0.5000-0.4756 (  2496 PWs)   bands (ev):

   -45.7922 -22.5107 -22.4343 -22.4239  -6.5110  -6.4147  -6.1286  -4.9315
    -4.9176  -4.6661  -4.5348  -4.4902   3.1310   4.8834   5.0559   5.3876
     6.1175   6.3712   6.6949   9.4918   9.5651   9.6202

          k =-0.5000-0.5000 0.0000 (  2496 PWs)   bands (ev):

   -45.7926 -22.4723 -22.4356 -22.4356  -6.5556  -6.3075  -6.3075  -4.9967
    -4.9081  -4.7176  -4.7176  -4.6666   2.2370   5.4335   5.9924   6.9706
     6.9706   7.4828   7.4828   8.2494   8.6632   9.7457

          k =-0.5000-0.5000 0.1189 (  2524 PWs)   bands (ev):

   -45.7925 -22.4779 -22.4354 -22.4354  -6.4989  -6.3286  -6.3286  -4.9857
    -4.9075  -4.6818  -4.6818  -4.6595   2.3368   5.4241   5.9942   6.3106
     6.3106   7.8598   8.1827   8.1827   8.2679   9.7413

          k =-0.5000-0.5000 0.2378 (  2508 PWs)   bands (ev):

   -45.7923 -22.4913 -22.4347 -22.4347  -6.3766  -6.3766  -6.3597  -4.9588
    -4.9062  -4.6400  -4.5979  -4.5979   2.6175   5.3912   5.6100   5.6100
     5.9987   7.0773   7.3832   8.9607   8.9607   9.7308

          k =-0.5000-0.5000 0.3567 (  2512 PWs)   bands (ev):

   -45.7921 -22.5046 -22.4341 -22.4341  -6.4210  -6.4210  -6.2174  -4.9320
    -4.9050  -4.6162  -4.5168  -4.5168   2.9905   5.1476   5.1476   5.3266
     6.0031   6.4486   6.5058   9.4642   9.4642   9.7203

          k =-0.5000-0.5000-0.4756 (  2504 PWs)   bands (ev):

   -45.7920 -22.5102 -22.4338 -22.4338  -6.4385  -6.4385  -6.1577  -4.9209
    -4.9044  -4.6047  -4.4838  -4.4838   3.1961   4.9865   4.9865   5.2796
     6.0050   6.1116   6.2312   9.6293   9.6293   9.7161

     highest occupied level (ev):    10.3700

!    total energy              =    -380.57229657 Ry
     estimated scf accuracy    <          1.6E-11 Ry

     The total energy is the sum of the following terms:
     one-electron contribution =     -85.69884395 Ry
     hartree contribution      =      71.99250142 Ry
     xc contribution           =    -102.58355799 Ry
     ewald contribution        =    -264.28239604 Ry

     convergence has been achieved in   8 iterations

     negative rho (up, down):  1.554E-02 0.000E+00

     Forces acting on atoms (cartesian axes, Ry/au):

     atom    1 type  1   force =     0.00000000    0.00000000    0.00024236
     atom    2 type  2   force =     0.00000000    0.00000000   -0.00127935
     atom    3 type  3   force =     0.00000000    0.00000000    0.00010124
     atom    4 type  3   force =     0.00000000    0.00000000    0.00046788
     atom    5 type  3   force =     0.00000000    0.00000000    0.00046788

     Total force =     0.001464     Total SCF correction =     0.000014


     Computing stress (Cartesian axis) and pressure


     negative rho (up, down):  1.554E-02 0.000E+00
          total   stress  (Ry/bohr**3)                   (kbar)     P=      -44.48
  -0.00035024   0.00000000   0.00000000          -51.52        0.00        0.00
   0.00000000  -0.00035024   0.00000000            0.00      -51.52        0.00
   0.00000000   0.00000000  -0.00020668            0.00        0.00      -30.40

     Energy error            =      6.5E-06 Ry
     Gradient error          =      1.3E-03 Ry/Bohr

     number of scf cycles    =   8
     number of bfgs steps    =   7

     energy             old  =    -380.5722900520 Ry
     energy             new  =    -380.5722965657 Ry

     CASE: energy            _new < energy            _old

     new trust radius        =       0.0019887780 bohr
     new conv_thr            =            1.0E-10 Ry


ATOMIC_POSITIONS (crystal)
Pb               0.0000000000        0.0000000000        0.9936283939
Ti               0.5000000000        0.5000000000        0.5381839646
O                0.5000000000        0.5000000000        0.1065581052
O                0.5000000000        0.0000000000        0.6144569122
O                0.0000000000        0.5000000000        0.6144569122



     Writing config-only to output data dir ./pto_k8.save/ :
     XML data file
     NEW-OLD atomic charge density approx. for the potential

     Check: negative core charge=   -0.000004

     negative rho (up, down):  1.553E-02 0.000E+00

     total cpu time spent up to now is      205.1 secs

     Self-consistent Calculation

     iteration #  1     ecut=    50.00 Ry     beta= 0.70
     CG style diagonalization
     ethr =  1.00E-06,  avg # of iterations =  2.9

     Threshold (ethr) on eigenvalues was too large:
     Diagonalizing with lowered threshold

     CG style diagonalization
     c_bands:  2 eigenvalues not converged
     c_bands:  1 eigenvalues not converged
     c_bands:  2 eigenvalues not converged
     c_bands:  1 eigenvalues not converged
     c_bands:  1 eigenvalues not converged
     c_bands:  1 eigenvalues not converged
     c_bands:  1 eigenvalues not converged
     c_bands:  1 eigenvalues not converged
     c_bands:  1 eigenvalues not converged
     c_bands:  2 eigenvalues not converged
     c_bands:  3 eigenvalues not converged
     c_bands:  2 eigenvalues not converged
     c_bands:  2 eigenvalues not converged
     c_bands:  1 eigenvalues not converged
     c_bands:  1 eigenvalues not converged
     c_bands:  1 eigenvalues not converged
     c_bands:  1 eigenvalues not converged
     c_bands:  3 eigenvalues not converged
     c_bands:  2 eigenvalues not converged
     c_bands:  1 eigenvalues not converged
     c_bands:  1 eigenvalues not converged
     c_bands:  1 eigenvalues not converged
     c_bands:  3 eigenvalues not converged
     c_bands:  2 eigenvalues not converged
     c_bands:  1 eigenvalues not converged
     c_bands:  2 eigenvalues not converged
     c_bands:  2 eigenvalues not converged
     c_bands:  1 eigenvalues not converged
     c_bands:  1 eigenvalues not converged
     c_bands:  1 eigenvalues not converged
     c_bands:  2 eigenvalues not converged
     c_bands:  1 eigenvalues not converged
     c_bands:  1 eigenvalues not converged
     c_bands:  1 eigenvalues not converged
     c_bands:  1 eigenvalues not converged
     c_bands:  1 eigenvalues not converged
     c_bands:  2 eigenvalues not converged
     ethr =  1.53E-09,  avg # of iterations =  7.8

     negative rho (up, down):  1.553E-02 0.000E+00

     total cpu time spent up to now is      210.6 secs

     total energy              =    -380.57229881 Ry
     estimated scf accuracy    <       0.00000080 Ry

     iteration #  2     ecut=    50.00 Ry     beta= 0.70
     CG style diagonalization
     ethr =  1.82E-09,  avg # of iterations =  4.4

     negative rho (up, down):  1.553E-02 0.000E+00

     total cpu time spent up to now is      212.7 secs

     total energy              =    -380.57229868 Ry
     estimated scf accuracy    <       0.00000209 Ry

     iteration #  3     ecut=    50.00 Ry     beta= 0.70
     CG style diagonalization
     ethr =  1.82E-09,  avg # of iterations =  4.1

     negative rho (up, down):  1.553E-02 0.000E+00

     total cpu time spent up to now is      214.6 secs

     total energy              =    -380.57229911 Ry
     estimated scf accuracy    <       0.00000016 Ry

     iteration #  4     ecut=    50.00 Ry     beta= 0.70
     CG style diagonalization
     ethr =  3.55E-10,  avg # of iterations =  3.6

     negative rho (up, down):  1.553E-02 0.000E+00

     total cpu time spent up to now is      216.2 secs

     total energy              =    -380.57229914 Ry
     estimated scf accuracy    <          7.5E-09 Ry

     iteration #  5     ecut=    50.00 Ry     beta= 0.70
     CG style diagonalization
     ethr =  1.71E-11,  avg # of iterations =  5.0

     negative rho (up, down):  1.553E-02 0.000E+00

     total cpu time spent up to now is      218.6 secs

     total energy              =    -380.57229915 Ry
     estimated scf accuracy    <          3.8E-09 Ry

     iteration #  6     ecut=    50.00 Ry     beta= 0.70
     CG style diagonalization
     ethr =  8.57E-12,  avg # of iterations =  3.8

     negative rho (up, down):  1.553E-02 0.000E+00

     total cpu time spent up to now is      220.3 secs

     total energy              =    -380.57229915 Ry
     estimated scf accuracy    <          7.8E-10 Ry

     iteration #  7     ecut=    50.00 Ry     beta= 0.70
     CG style diagonalization
     ethr =  1.76E-12,  avg # of iterations =  4.6

     negative rho (up, down):  1.553E-02 0.000E+00

     total cpu time spent up to now is      222.5 secs

     total energy              =    -380.57229915 Ry
     estimated scf accuracy    <          4.5E-10 Ry

     iteration #  8     ecut=    50.00 Ry     beta= 0.70
     CG style diagonalization
     ethr =  1.02E-12,  avg # of iterations =  4.0

     negative rho (up, down):  1.553E-02 0.000E+00

     total cpu time spent up to now is      224.3 secs

     End of self-consistent calculation

          k = 0.0000 0.0000 0.0000 (  2525 PWs)   bands (ev):

   -45.7953 -22.4793 -22.3704 -22.3704  -7.5755  -6.5130  -6.2057  -4.9906
    -4.9906  -4.9487  -4.8644  -4.6812   4.2143   6.2490   6.2490   6.7979
     8.1197   8.1197   8.4485   8.6297   8.8736   8.8736

          k = 0.0000 0.0000 0.1189 (  2541 PWs)   bands (ev):

   -45.7952 -22.4851 -22.3701 -22.3701  -7.5222  -6.4982  -6.1878  -4.9951
    -4.9951  -4.9484  -4.8602  -4.6996   3.9503   6.2625   6.2625   6.9866
     8.0490   8.0490   8.4232   8.5073   8.9088   8.9088

          k = 0.0000 0.0000 0.2378 (  2517 PWs)   bands (ev):

   -45.7950 -22.4989 -22.3696 -22.3696  -7.3893  -6.4610  -6.1458  -5.0057
    -5.0057  -4.9475  -4.8504  -4.7452   3.4655   6.2891   6.2891   6.8725
     7.9158   7.9158   8.3638   8.7857   8.9723   8.9723

          k = 0.0000 0.0000 0.3567 (  2526 PWs)   bands (ev):

   -45.7948 -22.5127 -22.3690 -22.3690  -7.2493  -6.4218  -6.1064  -5.0162
    -5.0162  -4.9466  -4.8409  -4.7929   3.0923   6.3058   6.3058   6.4166
     7.8209   7.8209   8.3062   9.0198   9.0198   9.5463

          k = 0.0000 0.0000-0.4756 (  2530 PWs)   bands (ev):

   -45.7947 -22.5184 -22.3688 -22.3688  -7.1888  -6.4049  -6.0912  -5.0206
    -5.0206  -4.9462  -4.8370  -4.8133   2.9579   6.2099   6.3095   6.3095
     7.7907   7.7907   8.2828   9.0369   9.0369   9.9904

          k = 0.0000 0.1250 0.0000 (  2525 PWs)   bands (ev):

   -45.7951 -22.4789 -22.3805 -22.3700  -7.4978  -6.4979  -6.1943  -5.0040
    -4.9898  -4.9562  -4.8585  -4.6741   3.9523   6.2921   6.3112   6.7960
     8.0831   8.1351   8.4506   8.5941   8.6495   8.9368

          k = 0.0000 0.1250 0.1189 (  2523 PWs)   bands (ev):

   -45.7950 -22.4846 -22.3803 -22.3697  -7.4466  -6.4854  -6.1758  -5.0047
    -4.9943  -4.9559  -4.8559  -4.6876   3.7490   6.2367   6.3263   6.9672
     7.9437   8.0536   8.4482   8.4948   8.6972   8.9906

          k = 0.0000 0.1250 0.2378 (  2519 PWs)   bands (ev):

   -45.7948 -22.4984 -22.3797 -22.3692  -7.3201  -6.4542  -6.1311  -5.0057
    -5.0051  -4.9552  -4.8506  -4.7206   3.3428   6.1532   6.3562   6.9562
     7.6729   7.9121   8.4078   8.5349   8.7738   9.2511

          k = 0.0000 0.1250 0.3567 (  2528 PWs)   bands (ev):

   -45.7946 -22.5121 -22.3791 -22.3686  -7.1891  -6.4213  -6.0865  -5.0159
    -5.0060  -4.9545  -4.8466  -4.7544   3.0110   6.0083   6.3748   6.6493
     7.5820   7.8179   8.5000   8.5350   8.8269   9.7272

          k = 0.0000 0.1250-0.4756 (  2514 PWs)   bands (ev):

   -45.7945 -22.5178 -22.3789 -22.3684  -7.1333  -6.4071  -6.0682  -5.0203
    -5.0061  -4.9542  -4.8453  -4.7688   2.8887   5.9032   6.3789   6.5385
     7.5635   7.7894   8.5252   8.5421   8.8455  10.0044

          k = 0.0000 0.2500 0.0000 (  2503 PWs)   bands (ev):

   -45.7946 -22.4778 -22.4049 -22.3689  -7.3000  -6.4613  -6.1722  -5.0274
    -4.9878  -4.9740  -4.8422  -4.6697   3.4799   6.2250   6.4842   6.6062
     8.0988   8.1282   8.2249   8.3569   8.6069   9.1703

          k = 0.0000 0.2500 0.1189 (  2505 PWs)   bands (ev):

   -45.7945 -22.4835 -22.4046 -22.3687  -7.2565  -6.4529  -6.1509  -5.0210
    -4.9925  -4.9739  -4.8408  -4.6718   3.3546   6.1368   6.5042   6.6863
     7.8915   7.9893   8.2818   8.3328   8.5395   9.3156

          k = 0.0000 0.2500 0.2378 (  2512 PWs)   bands (ev):

   -45.7943 -22.4972 -22.4039 -22.3681  -7.1537  -6.4301  -6.0953  -5.0038
    -5.0035  -4.9737  -4.8435  -4.6738   3.0771   5.9662   6.5430   6.7246
     7.5367   7.8385   7.8678   8.4288   8.7810   9.5372

          k = 0.0000 0.2500 0.3567 (  2512 PWs)   bands (ev):

   -45.7941 -22.5107 -22.4033 -22.3676  -7.0560  -6.4019  -6.0328  -5.0150
    -4.9829  -4.9735  -4.8540  -4.6728   2.8283   5.7419   6.5652   6.6145
     7.3039   7.7113   7.7593   8.4832   8.9474   9.7157

          k = 0.0000 0.2500-0.4756 (  2508 PWs)   bands (ev):

   -45.7941 -22.5163 -22.4030 -22.3673  -7.0177  -6.3879  -6.0046  -5.0196
    -4.9735  -4.9734  -4.8604  -4.6719   2.7323   5.6201   6.5495   6.5687
     7.2430   7.6934   7.7405   8.5011   8.9938   9.7868

          k = 0.0000 0.3750 0.0000 (  2500 PWs)   bands (ev):

   -45.7941 -22.4767 -22.4292 -22.3679  -7.0841  -6.4156  -6.1701  -5.0441
    -4.9918  -4.9856  -4.8063  -4.6942   3.1356   5.8105   6.7293   6.7361
     7.6445   7.6936   8.2353   8.2537   8.6743   9.9008

          k = 0.0000 0.3750 0.1189 (  2506 PWs)   bands (ev):

   -45.7941 -22.4823 -22.4289 -22.3677  -7.0556  -6.4043  -6.1450  -5.0344
    -4.9921  -4.9903  -4.8024  -4.6851   3.0510   5.7931   6.6812   6.7600
     7.4147   7.6387   8.2566   8.3756   8.4935   9.8923

          k = 0.0000 0.3750 0.2378 (  2511 PWs)   bands (ev):

   -45.7939 -22.4958 -22.4281 -22.3671  -6.9976  -6.3718  -6.0722  -5.0091
    -5.0024  -4.9921  -4.8102  -4.6504   2.8556   5.7210   6.5102   6.8171
     7.0705   7.5498   7.8790   8.2919   8.8796   9.7765

          k = 0.0000 0.3750 0.3567 (  2518 PWs)   bands (ev):

   -45.7937 -22.5093 -22.4273 -22.3665  -6.9557  -6.3307  -5.9813  -5.0141
    -4.9924  -4.9798  -4.8332  -4.6084   2.6716   5.5518   6.2816   6.8385
     6.9791   7.4853   7.5228   8.3156   9.2082   9.5866

          k = 0.0000 0.3750-0.4756 (  2518 PWs)   bands (ev):

   -45.7936 -22.5148 -22.4270 -22.3663  -6.9430  -6.3112  -5.9381  -5.0189
    -4.9925  -4.9652  -4.8467  -4.5907   2.5984   5.4374   6.2096   6.8349
     6.9834   7.3459   7.5303   8.3235   9.3070   9.5145

          k = 0.0000-0.5000 0.0000 (  2488 PWs)   bands (ev):

   -45.7939 -22.4761 -22.4393 -22.3675  -6.9883  -6.3852  -6.1849  -5.0500
    -4.9990  -4.9848  -4.7509  -4.7468   3.0199   5.6076   6.9065   6.9144
     7.3305   7.4378   8.2034   8.2553   8.6904  10.3699

          k = 0.0000-0.5000 0.1189 (  2506 PWs)   bands (ev):

   -45.7939 -22.4817 -22.4390 -22.3673  -6.9706  -6.3673  -6.1589  -5.0402
    -4.9993  -4.9898  -4.7566  -4.7213   2.9472   5.6012   6.8439   6.9601
     7.0864   7.3752   8.2647   8.4302   8.4402  10.2254

          k = 0.0000-0.5000 0.2378 (  2506 PWs)   bands (ev):

   -45.7937 -22.4952 -22.4381 -22.3667  -6.9410  -6.3230  -6.0757  -5.0151
    -5.0018  -4.9997  -4.7823  -4.6526   2.7779   5.5651   6.5546   6.7704
     7.0941   7.2362   7.9436   8.2819   8.8781   9.8838

          k = 0.0000-0.5000 0.3567 (  2526 PWs)   bands (ev):

   -45.7935 -22.5086 -22.4373 -22.3661  -6.9277  -6.2770  -5.9656  -5.0137
    -5.0002  -4.9867  -4.8129  -4.5879   2.6168   5.4521   6.1395   6.7735
     7.1100   7.2355   7.5429   8.2938   9.2050   9.5897

          k = 0.0000-0.5000-0.4756 (  2516 PWs)   bands (ev):

   -45.7934 -22.5142 -22.4369 -22.3658  -6.9260  -6.2574  -5.9128  -5.0186
    -5.0004  -4.9729  -4.8279  -4.5622   2.5523   5.3580   6.0243   6.7916
     7.0608   7.2965   7.3954   8.2979   9.2224   9.5694

          k = 0.1250 0.1250 0.0000 (  2509 PWs)   bands (ev):

   -45.7949 -22.4785 -22.3802 -22.3800  -7.4208  -6.4824  -6.1893  -5.0058
    -4.9996  -4.9624  -4.8436  -4.6674   3.7433   6.2607   6.4068   6.8040
     7.8046   8.1248   8.3492   8.5194   8.8660   8.9989

          k = 0.1250 0.1250 0.1189 (  2511 PWs)   bands (ev):

   -45.7948 -22.4842 -22.3799 -22.3797  -7.3715  -6.4725  -6.1706  -5.0046
    -5.0026  -4.9622  -4.8413  -4.6766   3.5886   6.2292   6.2979   6.9731
     7.7475   8.0090   8.2786   8.5579   8.8713   9.0066

          k = 0.1250 0.1250 0.2378 (  2521 PWs)   bands (ev):

   -45.7946 -22.4979 -22.3793 -22.3792  -7.2504  -6.4481  -6.1244  -5.0161
    -4.9926  -4.9617  -4.8375  -4.7002   3.2542   6.1464   6.1986   6.9699
     7.6596   7.6873   8.2611   8.6127   8.8830   9.2685

          k = 0.1250 0.1250 0.3567 (  2515 PWs)   bands (ev):

   -45.7944 -22.5116 -22.3787 -22.3786  -7.1267  -6.4229  -6.0758  -5.0264
    -4.9784  -4.9617  -4.8372  -4.7256   2.9628   6.0405   6.0573   6.7442
     7.6060   7.6143   8.2436   8.6360   8.8963   9.6883

          k = 0.1250 0.1250-0.4756 (  2512 PWs)   bands (ev):

   -45.7943 -22.5172 -22.3785 -22.3784  -7.0748  -6.4123  -6.0547  -5.0304
    -4.9702  -4.9625  -4.8386  -4.7368   2.8523   5.9185   6.0193   6.6835
     7.6008   7.6037   8.2370   8.6393   8.9030   9.8909

          k = 0.1250 0.2500 0.0000 (  2507 PWs)   bands (ev):

   -45.7944 -22.4774 -22.4044 -22.3790  -7.2254  -6.4457  -6.1830  -5.0271
    -4.9956  -4.9652  -4.8180  -4.6627   3.3340   6.1972   6.5132   6.6514
     7.6119   7.7942   8.3425   8.5519   8.7586   9.3341

          k = 0.1250 0.2500 0.1189 (  2500 PWs)   bands (ev):

   -45.7943 -22.4830 -22.4041 -22.3788  -7.1827  -6.4406  -6.1627  -5.0209
    -4.9987  -4.9634  -4.8150  -4.6619   3.2503   6.1273   6.3149   6.7768
     7.5045   7.8136   8.2809   8.5748   8.7072   9.3679

          k = 0.1250 0.2500 0.2378 (  2499 PWs)   bands (ev):

   -45.7941 -22.4967 -22.4035 -22.3782  -7.0823  -6.4272  -6.1082  -5.0152
    -4.9945  -4.9567  -4.8126  -4.6592   3.0459   5.9398   6.1805   6.7445
     7.2365   7.6163   8.2838   8.5702   8.8427   9.4634

          k = 0.1250 0.2500 0.3567 (  2521 PWs)   bands (ev):

   -45.7940 -22.5102 -22.4028 -22.3776  -6.9881  -6.4110  -6.0445  -5.0208
    -4.9802  -4.9406  -4.8194  -4.6556   2.8436   5.7223   6.1168   6.5436
     7.0566   7.5143   8.2441   8.6115   8.9962   9.5403

          k = 0.1250 0.2500-0.4756 (  2512 PWs)   bands (ev):

   -45.7939 -22.5158 -22.4025 -22.3773  -6.9516  -6.4031  -6.0147  -5.0232
    -4.9759  -4.9281  -4.8264  -4.6541   2.7615   5.6131   6.0704   6.4688
     7.0319   7.4908   8.2159   8.6322   9.0433   9.5593

          k = 0.1250 0.3750 0.0000 (  2515 PWs)   bands (ev):

   -45.7940 -22.4762 -22.4287 -22.3780  -7.0126  -6.4016  -6.1961  -5.0387
    -4.9880  -4.9604  -4.7858  -4.6855   3.0161   5.8195   6.5735   6.8731
     7.2058   7.7915   7.9640   8.5388   8.7861   9.8590

          k = 0.1250 0.3750 0.1189 (  2508 PWs)   bands (ev):

   -45.7939 -22.4818 -22.4284 -22.3777  -6.9834  -6.3952  -6.1732  -5.0302
    -4.9906  -4.9572  -4.7798  -4.6741   2.9726   5.7996   6.3254   6.8082
     7.2068   7.7920   8.0014   8.5936   8.6673   9.7857

          k = 0.1250 0.3750 0.2378 (  2508 PWs)   bands (ev):

   -45.7937 -22.4953 -22.4276 -22.3771  -6.9249  -6.3755  -6.1045  -5.0158
    -4.9893  -4.9479  -4.7784  -4.6374   2.8574   5.7160   6.0870   6.5272
     6.9182   7.7278   8.1240   8.4402   8.9258   9.5727

          k = 0.1250 0.3750 0.3567 (  2512 PWs)   bands (ev):

   -45.7935 -22.5088 -22.4268 -22.3765  -6.8843  -6.3494  -6.0160  -5.0157
    -4.9742  -4.9311  -4.7909  -4.5951   2.7314   5.5304   6.0189   6.3239
     6.5526   7.6244   8.2600   8.3578   9.0946   9.4163

          k = 0.1250 0.3750-0.4756 (  2522 PWs)   bands (ev):

   -45.7934 -22.5143 -22.4265 -22.3763  -6.8726  -6.3370  -5.9733  -5.0172
    -4.9678  -4.9193  -4.8003  -4.5773   2.6770   5.4148   6.0229   6.2658
     6.4142   7.5939   8.3009   8.3334   9.0246   9.4662

          k = 0.1250-0.5000 0.0000 (  2524 PWs)   bands (ev):

   -45.7938 -22.4757 -22.4387 -22.3775  -6.9181  -6.3720  -6.2175  -5.0405
    -4.9849  -4.9570  -4.7362  -4.7359   2.9058   5.6187   6.6643   7.0066
     7.1287   7.4521   7.9887   8.5127   8.8007  10.1554

          k = 0.1250-0.5000 0.1189 (  2518 PWs)   bands (ev):

   -45.7937 -22.4813 -22.4384 -22.3773  -6.8990  -6.3597  -6.1942  -5.0315
    -4.9870  -4.9543  -4.7403  -4.7074   2.8743   5.6110   6.3429   6.8144
     7.2795   7.5019   8.0125   8.6251   8.6299   9.9821

          k = 0.1250-0.5000 0.2378 (  2510 PWs)   bands (ev):

   -45.7935 -22.4947 -22.4376 -22.3767  -6.8685  -6.3298  -6.1160  -5.0158
    -4.9834  -4.9480  -4.7534  -4.6397   2.7884   5.5696   6.0627   6.3795
     6.9342   7.8755   7.8765   8.4622   8.9238   9.5911

          k = 0.1250-0.5000 0.3567 (  2514 PWs)   bands (ev):

   -45.7933 -22.5081 -22.4368 -22.3761  -6.8567  -6.2998  -6.0097  -5.0146
    -4.9601  -4.9411  -4.7714  -4.5752   2.6908   5.4432   5.9768   6.0464
     6.5857   7.7518   8.0660   8.3892   8.9586   9.4763

          k = 0.1250-0.5000-0.4756 (  2532 PWs)   bands (ev):

   -45.7932 -22.5137 -22.4365 -22.3758  -6.8560  -6.2873  -5.9586  -5.0158
    -4.9462  -4.9377  -4.7811  -4.5495   2.6476   5.3426   5.9582   5.9755
     6.4482   7.7133   8.1268   8.3623   8.8132   9.5766

          k = 0.2500 0.2500 0.0000 (  2528 PWs)   bands (ev):

   -45.7940 -22.4763 -22.4035 -22.4030  -7.0383  -6.4090  -6.2120  -5.0241
    -4.9961  -4.9394  -4.7724  -4.6563   3.0130   6.1870   6.3397   6.7882
     7.1859   7.4012   8.2826   8.5645   8.9630   9.5399

          k = 0.2500 0.2500 0.1189 (  2512 PWs)   bands (ev):

   -45.7939 -22.4819 -22.4032 -22.4028  -6.9987  -6.4115  -6.1934  -5.0150
    -4.9982  -4.9336  -4.7655  -4.6478   2.9996   6.0757   6.1692   6.5379
     7.2610   7.4475   8.4226   8.5108   8.9798   9.4420

          k = 0.2500 0.2500 0.2378 (  2504 PWs)   bands (ev):

   -45.7937 -22.4954 -22.4025 -22.4022  -6.9093  -6.4177  -6.1386  -5.0015
    -4.9935  -4.9158  -4.7511  -4.6287   2.9465   5.8124   5.8478   6.3965
     7.1166   7.1474   8.5269   8.8145   9.0498   9.2474

          k = 0.2500 0.2500 0.3567 (  2513 PWs)   bands (ev):

   -45.7935 -22.5089 -22.4018 -22.4016  -6.8312  -6.4240  -6.0671  -5.0029
    -4.9745  -4.8881  -4.7428  -4.6115   2.8648   5.5707   5.6978   6.1701
     6.7993   7.0593   8.6019   8.9268   9.0955   9.1776

          k = 0.2500 0.2500-0.4756 (  2520 PWs)   bands (ev):

   -45.7934 -22.5145 -22.4015 -22.4013  -6.8026  -6.4266  -6.0319  -5.0029
    -4.9678  -4.8717  -4.7426  -4.6048   2.8234   5.4776   5.6533   6.0435
     6.7163   7.0458   8.5741   8.9490   9.0449   9.2315

          k = 0.2500 0.3750 0.0000 (  2521 PWs)   bands (ev):

   -45.7935 -22.4751 -22.4274 -22.4021  -6.8385  -6.3693  -6.2520  -5.0205
    -4.9798  -4.8957  -4.7355  -4.6732   2.7322   5.8376   6.3278   6.8265
     7.0202   7.4490   7.8443   8.6239   9.0861   9.6200

          k = 0.2500 0.3750 0.1189 (  2518 PWs)   bands (ev):

   -45.7934 -22.4807 -22.4271 -22.4018  -6.8065  -6.3748  -6.2352  -5.0106
    -4.9793  -4.8862  -4.7249  -4.6553   2.7619   5.8067   6.1142   6.3392
     7.0330   7.5647   8.1269   8.5779   9.0989   9.4381

          k = 0.2500 0.3750 0.2378 (  2508 PWs)   bands (ev):

   -45.7932 -22.4941 -22.4264 -22.4012  -6.7457  -6.3855  -6.1763  -4.9915
    -4.9720  -4.8632  -4.7021  -4.6102   2.8238   5.6164   5.6964   6.0342
     6.7529   7.2458   8.4713   8.8429   9.0775   9.1701

          k = 0.2500 0.3750 0.3567 (  2507 PWs)   bands (ev):

   -45.7930 -22.5075 -22.4257 -22.4006  -6.7099  -6.3930  -6.0893  -4.9847
    -4.9515  -4.8369  -4.6836  -4.5637   2.8652   5.3898   5.4177   5.8749
     6.4055   7.0070   8.2885   8.9720   9.0534   9.3715

          k = 0.2500 0.3750-0.4756 (  2508 PWs)   bands (ev):

   -45.7930 -22.5131 -22.4254 -22.4003  -6.7016  -6.3954  -6.0455  -4.9831
    -4.9417  -4.8238  -4.6774  -4.5446   2.8740   5.2915   5.3455   5.7938
     6.2624   6.9629   8.1097   8.9996   9.0768   9.4810

          k = 0.2500-0.5000 0.0000 (  2530 PWs)   bands (ev):

   -45.7933 -22.4745 -22.4374 -22.4016  -6.7507  -6.3427  -6.2819  -5.0178
    -4.9717  -4.8637  -4.7179  -4.6982   2.6272   5.6327   6.4209   6.6262
     7.2909   7.4604   7.5359   8.6774   9.0849   9.6305

          k = 0.2500-0.5000 0.1189 (  2512 PWs)   bands (ev):

   -45.7932 -22.4801 -22.4371 -22.4013  -6.7253  -6.3441  -6.2679  -5.0078
    -4.9704  -4.8532  -4.7085  -4.6726   2.6698   5.6247   6.1093   6.2793
     7.0112   7.7461   7.8563   8.6294   9.0989   9.4010

          k = 0.2500-0.5000 0.2378 (  2506 PWs)   bands (ev):

   -45.7930 -22.4935 -22.4363 -22.4007  -6.6889  -6.3480  -6.2034  -4.9884
    -4.9605  -4.8311  -4.6866  -4.6083   2.7703   5.5578   5.5763   5.9045
     6.6822   7.3341   8.3278   8.8444   9.0033   9.2031

          k = 0.2500-0.5000 0.3567 (  2506 PWs)   bands (ev):

   -45.7929 -22.5069 -22.4356 -22.4001  -6.6820  -6.3523  -6.1018  -4.9797
    -4.9378  -4.8094  -4.6657  -4.5439   2.8615   5.2655   5.3837   5.6728
     6.3366   7.0758   7.9853   8.9997   9.0397   9.4564

          k = 0.2500-0.5000-0.4756 (  2504 PWs)   bands (ev):

   -45.7928 -22.5124 -22.4353 -22.3999  -6.6849  -6.3542  -6.0518  -4.9777
    -4.9262  -4.7996  -4.6573  -4.5177   2.8940   5.1940   5.2547   5.6160
     6.1854   7.0252   7.7563   9.0388   9.0625   9.5971

          k = 0.3750 0.3750 0.0000 (  2512 PWs)   bands (ev):

   -45.7930 -22.4739 -22.4262 -22.4260  -6.6670  -6.3371  -6.2970  -5.0061
    -4.9500  -4.8228  -4.6857  -4.6829   2.4594   5.7114   6.0477   6.8752
     7.1112   7.2179   7.7108   8.4221   9.1984   9.4715

          k = 0.3750 0.3750 0.1189 (  2519 PWs)   bands (ev):

   -45.7930 -22.4795 -22.4259 -22.4257  -6.6286  -6.3527  -6.2920  -4.9950
    -4.9480  -4.8056  -4.6706  -4.6574   2.5340   5.6920   5.9521   6.2215
     6.6691   7.6170   8.2763   8.2915   8.9401   9.4717

          k = 0.3750 0.3750 0.2378 (  2509 PWs)   bands (ev):

   -45.7928 -22.4929 -22.4252 -22.4251  -6.5638  -6.3887  -6.2478  -4.9682
    -4.9438  -4.7684  -4.6292  -4.5964   2.7317   5.4832   5.5956   5.7165
     6.3973   7.0714   8.0971   8.9447   8.9489   9.4730

          k = 0.3750 0.3750 0.3567 (  2498 PWs)   bands (ev):

   -45.7926 -22.5062 -22.4246 -22.4245  -6.5419  -6.4227  -6.1550  -4.9416
    -4.9402  -4.7333  -4.5831  -4.5364   2.9600   5.0952   5.2342   5.5934
     6.3388   6.4872   7.4728   9.3091   9.3676   9.4828

          k = 0.3750 0.3750-0.4756 (  2500 PWs)   bands (ev):

   -45.7925 -22.5117 -22.4243 -22.4242  -6.5416  -6.4362  -6.1064  -4.9388
    -4.9307  -4.7182  -4.5634  -4.5118   3.0652   4.9675   5.0980   5.5207
     6.2837   6.3285   7.2017   9.4304   9.4527   9.5354

          k = 0.3750-0.5000 0.0000 (  2520 PWs)   bands (ev):

   -45.7929 -22.4733 -22.4360 -22.4255  -6.6010  -6.3174  -6.3151  -5.0011
    -4.9325  -4.7687  -4.7126  -4.6657   2.3503   5.5477   6.0493   6.8147
     7.1311   7.4279   7.4796   8.3858   8.9629   9.5952

          k = 0.3750-0.5000 0.1189 (  2522 PWs)   bands (ev):

   -45.7928 -22.4789 -22.4358 -22.4253  -6.5577  -6.3328  -6.3217  -4.9900
    -4.9305  -4.7478  -4.6862  -4.6459   2.4378   5.5380   5.9829   6.1944
     6.5563   7.7671   8.0485   8.3735   8.6627   9.5898

          k = 0.3750-0.5000 0.2378 (  2514 PWs)   bands (ev):

   -45.7926 -22.4923 -22.4351 -22.4247  -6.4963  -6.3683  -6.2890  -4.9634
    -4.9262  -4.7097  -4.6227  -4.5858   2.6778   5.4941   5.5030   5.6264
     6.2450   7.1052   7.7690   8.9415   8.9588   9.5832

          k = 0.3750-0.5000 0.3567 (  2508 PWs)   bands (ev):

   -45.7924 -22.5056 -22.4344 -22.4240  -6.5011  -6.4018  -6.1833  -4.9384
    -4.9209  -4.6784  -4.5597  -4.5177   2.9780   5.0442   5.2042   5.4432
     6.1701   6.5358   7.0222   9.3635   9.4371   9.5808

          k = 0.3750-0.5000-0.4756 (  2496 PWs)   bands (ev):

   -45.7923 -22.5111 -22.4341 -22.4238  -6.5113  -6.4151  -6.1295  -4.9304
    -4.9164  -4.6652  -4.5337  -4.4889   3.1309   4.8844   5.0563   5.3871
     6.1211   6.3750   6.6964   9.4904   9.5653   9.6191

          k =-0.5000-0.5000 0.0000 (  2496 PWs)   bands (ev):

   -45.7927 -22.4727 -22.4355 -22.4355  -6.5566  -6.3082  -6.3082  -4.9956
    -4.9069  -4.7160  -4.7160  -4.6655   2.2371   5.4354   5.9969   6.9678
     6.9678   7.4862   7.4862   8.2502   8.6654   9.7459

          k =-0.5000-0.5000 0.1189 (  2524 PWs)   bands (ev):

   -45.7926 -22.4783 -22.4352 -22.4352  -6.4999  -6.3293  -6.3293  -4.9845
    -4.9064  -4.6803  -4.6803  -4.6585   2.3368   5.4258   5.9987   6.3104
     6.3104   7.8605   8.1834   8.1834   8.2699   9.7415

          k =-0.5000-0.5000 0.2378 (  2508 PWs)   bands (ev):

   -45.7924 -22.4917 -22.4346 -22.4346  -6.3772  -6.3772  -6.3606  -4.9577
    -4.9051  -4.6390  -4.5966  -4.5966   2.6175   5.3924   5.6105   5.6105
     6.0032   7.0784   7.3849   8.9604   8.9604   9.7310

          k =-0.5000-0.5000 0.3567 (  2512 PWs)   bands (ev):

   -45.7922 -22.5051 -22.4339 -22.4339  -6.4215  -6.4215  -6.2183  -4.9309
    -4.9038  -4.6152  -4.5156  -4.5156   2.9903   5.1485   5.1485   5.3270
     6.0077   6.4506   6.5075   9.4633   9.4633   9.7205

          k =-0.5000-0.5000-0.4756 (  2504 PWs)   bands (ev):

   -45.7921 -22.5106 -22.4337 -22.4337  -6.4389  -6.4389  -6.1586  -4.9198
    -4.9033  -4.6037  -4.4827  -4.4827   3.1957   4.9875   4.9875   5.2794
     6.0096   6.1133   6.2338   9.6281   9.6281   9.7163

     highest occupied level (ev):    10.3699

!    total energy              =    -380.57229915 Ry
     estimated scf accuracy    <          1.3E-11 Ry

     The total energy is the sum of the following terms:
     one-electron contribution =     -85.69162866 Ry
     hartree contribution      =      71.98933081 Ry
     xc contribution           =    -102.58352360 Ry
     ewald contribution        =    -264.28647770 Ry

     convergence has been achieved in   8 iterations

     negative rho (up, down):  1.553E-02 0.000E+00

     Forces acting on atoms (cartesian axes, Ry/au):

     atom    1 type  1   force =     0.00000000    0.00000000    0.00009180
     atom    2 type  2   force =     0.00000000    0.00000000   -0.00071864
     atom    3 type  3   force =     0.00000000    0.00000000    0.00040747
     atom    4 type  3   force =     0.00000000    0.00000000    0.00010969
     atom    5 type  3   force =     0.00000000    0.00000000    0.00010969

     Total force =     0.000846     Total SCF correction =     0.000008


     Computing stress (Cartesian axis) and pressure


     negative rho (up, down):  1.553E-02 0.000E+00
          total   stress  (Ry/bohr**3)                   (kbar)     P=      -44.56
  -0.00035165   0.00000000   0.00000000          -51.73        0.00        0.00
   0.00000000  -0.00035165   0.00000000            0.00      -51.73        0.00
   0.00000000   0.00000000  -0.00020544            0.00        0.00      -30.22

     Energy error            =      2.6E-06 Ry
     Gradient error          =      7.2E-04 Ry/Bohr

     bfgs converged in   9 scf cycles and   8 bfgs steps
     (criteria: energy <  1.0E-04 Ry, force <  1.0E-03 Ry/Bohr)

     End of BFGS Geometry Optimization

     Final energy             =    -380.5722991518 Ry

     File ./pto_k8.bfgs deleted, as requested
Begin final coordinates

ATOMIC_POSITIONS (crystal)
Pb               0.0000000000        0.0000000000        0.9936283939
Ti               0.5000000000        0.5000000000        0.5381839646
O                0.5000000000        0.5000000000        0.1065581052
O                0.5000000000        0.0000000000        0.6144569122
O                0.0000000000        0.5000000000        0.6144569122
End final coordinates



     Writing all to output data dir ./pto_k8.save/ :
     XML data file, charge density, pseudopotentials, collected wavefunctions
 
     init_run     :      0.61s CPU      0.70s WALL (       1 calls)
     electrons    :    192.50s CPU    204.58s WALL (       9 calls)
     update_pot   :      0.03s CPU      0.03s WALL (       8 calls)
     forces       :      1.58s CPU      1.61s WALL (       9 calls)
     stress       :     18.71s CPU     18.86s WALL (       9 calls)

     Called by init_run:
     wfcinit      :      0.39s CPU      0.42s WALL (       1 calls)
     potinit      :      0.01s CPU      0.01s WALL (       1 calls)
     hinit0       :      0.11s CPU      0.14s WALL (       1 calls)

     Called by electrons:
     c_bands      :    173.61s CPU    184.45s WALL (      91 calls)
     sum_band     :     14.94s CPU     15.55s WALL (      91 calls)
     v_of_rho     :      0.14s CPU      0.15s WALL (      96 calls)
     newd         :      3.99s CPU      4.50s WALL (      96 calls)
     mix_rho      :      0.10s CPU      0.10s WALL (      91 calls)

     Called by c_bands:
     init_us_2    :      1.48s CPU      1.54s WALL (   15075 calls)
     init_us_2:cp :      1.45s CPU      1.51s WALL (   15075 calls)
     ccgdiagg     :    156.49s CPU    166.48s WALL (    6825 calls)
     wfcrot       :     16.32s CPU     17.11s WALL (    5925 calls)

     Called by *cgdiagg:
     h_psi        :     95.58s CPU    101.46s WALL (  587789 calls)
     s_psi        :     13.14s CPU     14.03s WALL ( 1169653 calls)

     Called by h_psi:
     h_psi:calbec :     15.38s CPU     16.33s WALL (  587789 calls)
     vloc_psi     :     68.11s CPU     72.30s WALL (  587789 calls)
     add_vuspsi   :      7.40s CPU      7.89s WALL (  587789 calls)
     hs_1psi      :     92.54s CPU     98.40s WALL (  581864 calls)
     s_1psi       :     22.04s CPU     23.42s WALL (  581864 calls)

     General routines
     calbec       :     28.06s CPU     29.83s WALL ( 1179853 calls)
     fft          :      0.18s CPU      0.20s WALL (     642 calls)
     ffts         :      0.01s CPU      0.01s WALL (     187 calls)
     fftw         :     57.85s CPU     61.21s WALL ( 1575928 calls)
     interpolate  :      0.04s CPU      0.04s WALL (      96 calls)
 
     Parallel routines
 
     PWSCF        :   3m34.11s CPU   3m47.31s WALL

 
   This run was terminated on:   2:36:18  15Nov2025            

=------------------------------------------------------------------------------=
   JOB DONE.
=------------------------------------------------------------------------------=
TACC:  Shutdown complete. Exiting. 
