TACC:  Starting up job 2388097 
TACC:  Starting parallel tasks... 

     Program PWSCF v.7.3 starts on 19Sep2025 at 17:24:23 

     This program is part of the open-source Quantum ESPRESSO suite
     for quantum simulation of materials; please cite
         "P. Giannozzi et al., J. Phys.:Condens. Matter 21 395502 (2009);
         "P. Giannozzi et al., J. Phys.:Condens. Matter 29 465901 (2017);
         "P. Giannozzi et al., J. Chem. Phys. 152 154105 (2020);
          URL http://www.quantum-espresso.org", 
     in publications or presentations arising from this work. More details at
     http://www.quantum-espresso.org/quote

     Parallel version (MPI & OpenMP), running on      10 processor cores
     Number of MPI processes:                10
     Threads/MPI process:                     1

     MPI processes distributed on     1 nodes
     187071 MiB available memory on the printing compute node when the environment starts
 
     Waiting for input...
     Reading input from standard input
Warning: card &CELL ignored
Warning: card  CELL_DYNAMICS = 'BFGS', ignored
Warning: card  PRESS=0.D0, ignored
Warning: card / ignored
     Message from routine read_cards :
     DEPRECATED: no units specified in ATOMIC_POSITIONS card
     Message from routine read_cards :
     ATOMIC_POSITIONS: units set to alat

     Current dimensions of program PWSCF are:
     Max number of different atomic species (ntypx) = 10
     Max number of k-points (npk) =  40000
     Max angular momentum in pseudopotentials (lmaxx) =  4
 
     R & G space division:  proc/nbgrp/npool/nimage =      10
     Subspace diagonalization in iterative solution of the eigenvalue problem:
     a serial algorithm will be used

 
     Parallelization info
     --------------------
     sticks:   dense  smooth     PW     G-vecs:    dense   smooth      PW
     Min         130      51     16                 3502      882     157
     Max         131      53     18                 3505      883     159
     Sum        1305     517    169                35033     8829    1575
 
     Using Slab Decomposition
 


     bravais-lattice index     =            1
     lattice parameter (alat)  =       7.3573  a.u.
     unit-cell volume          =     398.2496 (a.u.)^3
     number of atoms/cell      =            5
     number of atomic types    =            3
     number of electrons       =        40.00
     number of Kohn-Sham states=           20
     kinetic-energy cutoff     =      30.0000  Ry
     charge density cutoff     =     300.0000  Ry
     scf convergence threshold =      1.0E-08
     mixing beta               =       0.7000
     number of iterations used =            8  plain     mixing
     Exchange-correlation= SLA  PZ   NOGX NOGC
                           (   1   1   0   0   0   0   0)

     celldm(1)=   7.357300  celldm(2)=   0.000000  celldm(3)=   0.000000
     celldm(4)=   0.000000  celldm(5)=   0.000000  celldm(6)=   0.000000

     crystal axes: (cart. coord. in units of alat)
               a(1) = (   1.000000   0.000000   0.000000 )  
               a(2) = (   0.000000   1.000000   0.000000 )  
               a(3) = (   0.000000   0.000000   1.000000 )  

     reciprocal axes: (cart. coord. in units 2 pi/alat)
               b(1) = (  1.000000  0.000000  0.000000 )  
               b(2) = (  0.000000  1.000000  0.000000 )  
               b(3) = (  0.000000  0.000000  1.000000 )  


     PseudoPot. # 1 for Ca read from file:
     /scratch/11018/zhc/assisgnment1/CaTiO3/Ca_LDA.UPF
     MD5 check sum: d2d4e7693e10d071152e9eeb7dd009f3
     Pseudo is Ultrasoft + core correction, Zval = 10.0
     Generated by new atomic code, or converted to UPF format
     Using radial grid of  845 points,  6 beta functions with: 
                l(1) =   0
                l(2) =   0
                l(3) =   1
                l(4) =   1
                l(5) =   2
                l(6) =   2
     Q(r) pseudized with  8 coefficients,  rinner =    1.500   1.500   1.500
                                                       1.500   1.500

     PseudoPot. # 2 for Ti read from file:
     /scratch/11018/zhc/assisgnment1/CaTiO3/Ti_LDA.UPF
     MD5 check sum: 0d9f225c038fe889ca2a701dcc8d72cb
     Pseudo is Ultrasoft + core correction, Zval = 12.0
     Generated by new atomic code, or converted to UPF format
     Using radial grid of  851 points,  6 beta functions with: 
                l(1) =   0
                l(2) =   0
                l(3) =   1
                l(4) =   1
                l(5) =   2
                l(6) =   2
     Q(r) pseudized with  6 coefficients,  rinner =    1.000   1.000   1.000
                                                       1.000   1.000

     PseudoPot. # 3 for O  read from file:
     /scratch/11018/zhc/assisgnment1/CaTiO3/O_LDA.UPF
     MD5 check sum: 194b818514d2a7dbb603bb78519a4f40
     Pseudo is Ultrasoft + core correction, Zval =  6.0
     Generated by new atomic code, or converted to UPF format
     Using radial grid of  737 points,  5 beta functions with: 
                l(1) =   0
                l(2) =   0
                l(3) =   1
                l(4) =   1
                l(5) =   2
     Q(r) pseudized with  8 coefficients,  rinner =    0.900   0.900   0.900
                                                       0.900   0.900

     atomic species   valence    mass     pseudopotential
     Ca               10.00    40.07800     Ca( 1.00)
     Ti               12.00    47.88000     Ti( 1.00)
     O                 6.00    16.00000     O ( 1.00)

      8 Sym. Ops. (no inversion) found



   Cartesian axes

     site n.     atom                  positions (alat units)
         1        Ca     tau(   1) = (   0.0000000   0.0000000   0.0500000  )
         2        Ti     tau(   2) = (   0.5000000   0.5000000   0.5000000  )
         3        O      tau(   3) = (   0.5000000   0.5000000   0.0000000  )
         4        O      tau(   4) = (   0.5000000   0.0000000   0.5000000  )
         5        O      tau(   5) = (   0.0000000   0.5000000   0.5000000  )

     number of k points=    40
                       cart. coord. in units 2pi/alat
        k(    1) = (   0.0000000   0.0000000   0.0000000), wk =   0.0092593
        k(    2) = (   0.0000000   0.0000000   0.1666667), wk =   0.0185185
        k(    3) = (   0.0000000   0.0000000   0.3333333), wk =   0.0185185
        k(    4) = (   0.0000000   0.0000000  -0.5000000), wk =   0.0092593
        k(    5) = (   0.0000000   0.1666667   0.1666667), wk =   0.0740741
        k(    6) = (   0.0000000   0.1666667   0.3333333), wk =   0.0740741
        k(    7) = (   0.0000000   0.1666667  -0.5000000), wk =   0.0370370
        k(    8) = (   0.0000000   0.3333333   0.3333333), wk =   0.0740741
        k(    9) = (   0.0000000   0.3333333  -0.5000000), wk =   0.0370370
        k(   10) = (   0.0000000  -0.5000000  -0.5000000), wk =   0.0185185
        k(   11) = (   0.1666667   0.1666667   0.1666667), wk =   0.0740741
        k(   12) = (   0.1666667   0.1666667   0.3333333), wk =   0.0740741
        k(   13) = (   0.1666667   0.1666667  -0.5000000), wk =   0.0370370
        k(   14) = (   0.1666667   0.3333333   0.3333333), wk =   0.1481481
        k(   15) = (   0.1666667   0.3333333  -0.5000000), wk =   0.0740741
        k(   16) = (   0.1666667  -0.5000000  -0.5000000), wk =   0.0370370
        k(   17) = (   0.3333333   0.3333333   0.3333333), wk =   0.0740741
        k(   18) = (   0.3333333   0.3333333  -0.5000000), wk =   0.0370370
        k(   19) = (   0.3333333  -0.5000000  -0.5000000), wk =   0.0370370
        k(   20) = (  -0.5000000  -0.5000000  -0.5000000), wk =   0.0092593
        k(   21) = (   0.1666667   0.0000000   0.0000000), wk =   0.0370370
        k(   22) = (   0.3333333   0.0000000   0.0000000), wk =   0.0370370
        k(   23) = (  -0.5000000   0.0000000   0.0000000), wk =   0.0185185
        k(   24) = (   0.1666667  -0.1666667   0.0000000), wk =   0.0370370
        k(   25) = (   0.3333333  -0.1666667   0.0000000), wk =   0.0740741
        k(   26) = (   0.0000000   0.3333333   0.1666667), wk =   0.0740741
        k(   27) = (  -0.5000000  -0.1666667   0.0000000), wk =   0.0370370
        k(   28) = (   0.0000000  -0.5000000   0.1666667), wk =   0.0370370
        k(   29) = (   0.3333333  -0.3333333   0.0000000), wk =   0.0370370
        k(   30) = (  -0.5000000  -0.3333333   0.0000000), wk =   0.0370370
        k(   31) = (   0.0000000  -0.5000000   0.3333333), wk =   0.0370370
        k(   32) = (  -0.5000000   0.5000000   0.0000000), wk =   0.0092593
        k(   33) = (   0.3333333  -0.1666667   0.1666667), wk =   0.1481481
        k(   34) = (  -0.5000000  -0.1666667   0.1666667), wk =   0.0740741
        k(   35) = (   0.3333333  -0.3333333   0.1666667), wk =   0.0740741
        k(   36) = (  -0.5000000  -0.3333333   0.1666667), wk =   0.0740741
        k(   37) = (  -0.1666667  -0.5000000   0.3333333), wk =   0.0740741
        k(   38) = (  -0.5000000   0.5000000   0.1666667), wk =   0.0185185
        k(   39) = (  -0.5000000  -0.3333333   0.3333333), wk =   0.0740741
        k(   40) = (  -0.5000000   0.5000000   0.3333333), wk =   0.0185185

     Dense  grid:    35033 G-vectors     FFT dimensions: (  45,  45,  45)

     Smooth grid:     8829 G-vectors     FFT dimensions: (  25,  25,  25)

     Estimated max dynamical RAM per process >      18.77 MB

     Estimated total dynamical RAM >     187.71 MB

     Check: negative core charge=   -0.000007

     Initial potential from superposition of free atoms

     starting charge      38.9952, renormalised to      40.0000
     Starting wfcs are   32 randomized atomic wfcs

     total cpu time spent up to now is        0.6 secs

     Self-consistent Calculation

     iteration #  1     ecut=    30.00 Ry     beta= 0.70
     CG style diagonalization
     ethr =  1.00E-02,  avg # of iterations =  2.2

     negative rho (up, down):  1.080E-03 0.000E+00

     total cpu time spent up to now is        1.1 secs

     total energy              =    -291.28091280 Ry
     estimated scf accuracy    <       0.81207714 Ry

     iteration #  2     ecut=    30.00 Ry     beta= 0.70
     CG style diagonalization
     ethr =  2.03E-03,  avg # of iterations =  5.3

     total cpu time spent up to now is        2.0 secs

     total energy              =    -290.61985659 Ry
     estimated scf accuracy    <       6.35655670 Ry

     iteration #  3     ecut=    30.00 Ry     beta= 0.70
     CG style diagonalization
     ethr =  2.03E-03,  avg # of iterations =  4.5

     total cpu time spent up to now is        2.8 secs

     total energy              =    -291.70188677 Ry
     estimated scf accuracy    <       0.18489069 Ry

     iteration #  4     ecut=    30.00 Ry     beta= 0.70
     CG style diagonalization
     ethr =  4.62E-04,  avg # of iterations =  3.4

     total cpu time spent up to now is        3.4 secs

     total energy              =    -291.71049226 Ry
     estimated scf accuracy    <       0.04994404 Ry

     iteration #  5     ecut=    30.00 Ry     beta= 0.70
     CG style diagonalization
     ethr =  1.25E-04,  avg # of iterations =  3.6

     total cpu time spent up to now is        4.1 secs

     total energy              =    -291.72009388 Ry
     estimated scf accuracy    <       0.00056293 Ry

     iteration #  6     ecut=    30.00 Ry     beta= 0.70
     CG style diagonalization
     ethr =  1.41E-06,  avg # of iterations =  4.8

     total cpu time spent up to now is        4.9 secs

     total energy              =    -291.72114770 Ry
     estimated scf accuracy    <       0.00095086 Ry

     iteration #  7     ecut=    30.00 Ry     beta= 0.70
     CG style diagonalization
     ethr =  1.41E-06,  avg # of iterations =  3.6

     total cpu time spent up to now is        5.5 secs

     total energy              =    -291.72116962 Ry
     estimated scf accuracy    <       0.00022877 Ry

     iteration #  8     ecut=    30.00 Ry     beta= 0.70
     CG style diagonalization
     ethr =  5.72E-07,  avg # of iterations =  3.3

     total cpu time spent up to now is        6.1 secs

     total energy              =    -291.72117081 Ry
     estimated scf accuracy    <       0.00005542 Ry

     iteration #  9     ecut=    30.00 Ry     beta= 0.70
     CG style diagonalization
     ethr =  1.39E-07,  avg # of iterations =  3.7

     total cpu time spent up to now is        6.7 secs

     total energy              =    -291.72118626 Ry
     estimated scf accuracy    <       0.00000179 Ry

     iteration # 10     ecut=    30.00 Ry     beta= 0.70
     CG style diagonalization
     ethr =  4.47E-09,  avg # of iterations =  4.1

     total cpu time spent up to now is        7.5 secs

     total energy              =    -291.72118755 Ry
     estimated scf accuracy    <       0.00000094 Ry

     iteration # 11     ecut=    30.00 Ry     beta= 0.70
     CG style diagonalization
     ethr =  2.35E-09,  avg # of iterations =  3.5

     total cpu time spent up to now is        8.1 secs

     total energy              =    -291.72118766 Ry
     estimated scf accuracy    <       0.00000009 Ry

     iteration # 12     ecut=    30.00 Ry     beta= 0.70
     CG style diagonalization
     ethr =  2.22E-10,  avg # of iterations =  3.9

     total cpu time spent up to now is        8.8 secs

     End of self-consistent calculation

          k = 0.0000 0.0000 0.0000 (  1141 PWs)   bands (ev):

   -47.1807 -30.1494 -23.7770 -23.7770 -23.7683 -11.3721 -11.3501 -11.3501
    -8.5869  -7.5128  -7.4627   5.5461   5.5507   5.5507   7.4382   7.4445
     7.4445   8.1706   8.1706   8.1861

          k = 0.0000 0.0000 0.1667 (  1109 PWs)   bands (ev):

   -47.1800 -30.1479 -23.7861 -23.7762 -23.7762 -11.4339 -11.3473 -11.3473
    -8.4296  -7.5028  -7.3856   5.2502   5.5679   5.5679   7.1084   7.1084
     7.2271   7.3876   8.0337   8.0337

          k = 0.0000 0.0000 0.3333 (  1113 PWs)   bands (ev):

   -47.1796 -30.1450 -23.8214 -23.7744 -23.7744 -11.5489 -11.3417 -11.3417
    -8.1137  -7.4827  -7.2224   4.6037   5.6484   5.6484   6.2888   6.4684
     6.4684   6.8488   7.9074   7.9074

          k = 0.0000 0.0000-0.5000 (  1108 PWs)   bands (ev):

   -47.1795 -30.1435 -23.8389 -23.7735 -23.7735 -11.6028 -11.3389 -11.3389
    -7.9565  -7.4726  -7.1326   4.2335   5.7937   5.7937   5.8950   6.0933
     6.0933   6.6828   7.8634   7.8634

          k = 0.0000 0.1667 0.1667 (  1113 PWs)   bands (ev):

   -47.1799 -30.1464 -23.7942 -23.7854 -23.7753 -11.4375 -11.3905 -11.3445
    -8.2851  -7.4532  -7.3534   5.0753   5.4199   5.5783   6.3989   6.8696
     7.2669   7.3786   7.7055   7.8074

          k = 0.0000 0.1667 0.3333 (  1104 PWs)   bands (ev):

   -47.1792 -30.1434 -23.8209 -23.7926 -23.7736 -11.5288 -11.3841 -11.3386
    -8.0121  -7.4262  -7.1899   4.5585   5.1699   5.6497   5.6502   6.3618
     6.6098   7.3204   7.5918   7.6092

          k = 0.0000 0.1667-0.5000 (  1106 PWs)   bands (ev):

   -47.1791 -30.1419 -23.8385 -23.7919 -23.7727 -11.5757 -11.3774 -11.3356
    -7.8852  -7.4102  -7.0918   4.2318   4.9138   5.5087   5.7821   6.0200
     6.3907   7.3114   7.5102   7.5281

          k = 0.0000 0.3333 0.3333 (  1095 PWs)   bands (ev):

   -47.1787 -30.1402 -23.8287 -23.8197 -23.7719 -11.4987 -11.4562 -11.3322
    -7.8706  -7.2454  -7.1115   4.2517   4.7177   4.7842   5.6815   6.0869
     6.6678   6.8436   7.1981   8.1910

          k = 0.0000 0.3333-0.5000 (  1102 PWs)   bands (ev):

   -47.1786 -30.1386 -23.8375 -23.8281 -23.7711 -11.5216 -11.4521 -11.3290
    -7.8349  -7.1727  -7.0092   4.0875   4.2046   4.6994   5.7616   5.8790
     6.6105   6.8037   7.0557   8.3278

          k = 0.0000-0.5000-0.5000 (  1092 PWs)   bands (ev):

   -47.1783 -30.1369 -23.8461 -23.8371 -23.7702 -11.4921 -11.4909 -11.3257
    -7.8388  -7.0109  -6.9690   3.7912   4.0636   4.3654   5.7489   5.8119
     6.6910   6.7195   6.8759   8.5833

          k = 0.1667 0.1667 0.1667 (  1093 PWs)   bands (ev):

   -47.1794 -30.1448 -23.7935 -23.7932 -23.7846 -11.4391 -11.3848 -11.3819
    -8.1472  -7.3871  -7.3481   4.9138   5.4082   5.4123   6.3040   6.3086
     6.7681   7.6132   7.6533   7.7292

          k = 0.1667 0.1667 0.3333 (  1103 PWs)   bands (ev):

   -47.1790 -30.1418 -23.8202 -23.7919 -23.7917 -11.5112 -11.3849 -11.3701
    -7.8911  -7.3845  -7.1747   4.5119   5.0826   5.3265   5.5323   5.7895
     6.5931   7.4078   7.5446   7.7409

          k = 0.1667 0.1667-0.5000 (  1120 PWs)   bands (ev):

   -47.1791 -30.1403 -23.8379 -23.7912 -23.7908 -11.5522 -11.3785 -11.3642
    -7.7738  -7.3833  -7.0667   4.2299   4.8038   5.2176   5.3134   5.6788
     6.6506   7.2571   7.5104   7.6604

          k = 0.1667 0.3333 0.3333 (  1104 PWs)   bands (ev):

   -47.1786 -30.1386 -23.8278 -23.8189 -23.7901 -11.4846 -11.4449 -11.3643
    -7.7127  -7.2352  -7.1262   4.2751   4.7461   4.7867   5.1977   5.4455
     6.1402   7.4430   7.5164   8.2052

          k = 0.1667 0.3333-0.5000 (  1108 PWs)   bands (ev):

   -47.1785 -30.1370 -23.8366 -23.8272 -23.7893 -11.5051 -11.4417 -11.3589
    -7.6691  -7.1903  -7.0157   4.1808   4.2063   4.6924   5.1417   5.2953
     6.1357   7.4380   7.4600   8.3425

          k = 0.1667-0.5000-0.5000 (  1092 PWs)   bands (ev):

   -47.1781 -30.1354 -23.8451 -23.8360 -23.7884 -11.4789 -11.4780 -11.3535
    -7.6660  -7.0313  -6.9904   3.9164   4.0702   4.3705   5.1251   5.1662
     6.0894   7.4272   7.4799   8.5998

          k = 0.3333 0.3333 0.3333 (  1112 PWs)   bands (ev):

   -47.1783 -30.1354 -23.8262 -23.8260 -23.8171 -11.4607 -11.4251 -11.4203
    -7.4151  -7.1791  -7.1509   4.2398   4.6819   4.6891   4.8465   4.8997
     4.9256   7.9811   8.0301   8.3114

          k = 0.3333 0.3333-0.5000 (  1088 PWs)   bands (ev):

   -47.1777 -30.1339 -23.8348 -23.8254 -23.8250 -11.4720 -11.4245 -11.4140
    -7.3469  -7.1941  -7.0278   4.1872   4.3153   4.5310   4.5741   4.8398
     4.9248   8.0521   8.2163   8.4389

          k = 0.3333-0.5000-0.5000 (  1096 PWs)   bands (ev):

   -47.1777 -30.1324 -23.8430 -23.8338 -23.8243 -11.4521 -11.4517 -11.4085
    -7.2953  -7.0727  -7.0337   4.0543   4.1706   4.3799   4.5032   4.5321
     4.8205   8.2646   8.3240   8.6357

          k =-0.5000-0.5000-0.5000 (  1088 PWs)   bands (ev):

   -47.1774 -30.1309 -23.8420 -23.8420 -23.8327 -11.4386 -11.4386 -11.4355
    -7.0938  -7.0938  -7.0567   3.9376   4.2797   4.3038   4.3038   4.3680
     4.3892   8.5959   8.6515   8.6515

          k = 0.1667 0.0000 0.0000 (  1109 PWs)   bands (ev):

   -47.1800 -30.1479 -23.7949 -23.7761 -23.7674 -11.4190 -11.3638 -11.3474
    -8.4256  -7.4748  -7.4158   5.2437   5.5667   5.5683   7.0894   7.0993
     7.2449   7.3825   8.0548   8.0623

          k = 0.3333 0.0000 0.0000 (  1113 PWs)   bands (ev):

   -47.1796 -30.1449 -23.8304 -23.7744 -23.7658 -11.5394 -11.3553 -11.3420
    -8.0994  -7.4541  -7.2612   4.5778   5.6533   5.6588   6.2878   6.4341
     6.4505   6.9026   7.9435   7.9449

          k =-0.5000 0.0000 0.0000 (  1108 PWs)   bands (ev):

   -47.1795 -30.1434 -23.8480 -23.7735 -23.7649 -11.5959 -11.3508 -11.3393
    -7.9352  -7.4460  -7.1753   4.2005   5.8313   5.8579   5.8937   6.0246
     6.0252   6.7510   7.9026   7.9033

          k = 0.1667-0.1667 0.0000 (  1113 PWs)   bands (ev):

   -47.1799 -30.1464 -23.7944 -23.7939 -23.7666 -11.4284 -11.3877 -11.3578
    -8.2807  -7.4209  -7.3885   5.0620   5.4203   5.5798   6.3903   6.8773
     7.3017   7.4033   7.6544   7.8287

          k = 0.3333-0.1667 0.0000 (  1104 PWs)   bands (ev):

   -47.1792 -30.1433 -23.8299 -23.7926 -23.7649 -11.5200 -11.3865 -11.3489
    -7.9950  -7.4013  -7.2276   4.5295   5.1420   5.6289   5.7037   6.3627
     6.6470   7.3654   7.5591   7.6304

          k = 0.0000 0.3333 0.1667 (  1104 PWs)   bands (ev):

   -47.1792 -30.1433 -23.8298 -23.7839 -23.7736 -11.5209 -11.3945 -11.3387
    -8.0032  -7.3996  -7.2228   4.5359   5.1574   5.6541   5.6923   6.3369
     6.5884   7.3540   7.6154   7.6279

          k =-0.5000-0.1667 0.0000 (  1106 PWs)   bands (ev):

   -47.1791 -30.1417 -23.8476 -23.7919 -23.7641 -11.5693 -11.3801 -11.3442
    -7.8594  -7.3905  -7.1319   4.1959   4.8836   5.5255   5.8447   5.9827
     6.4318   7.3609   7.4645   7.5669

          k = 0.0000-0.5000 0.1667 (  1106 PWs)   bands (ev):

   -47.1791 -30.1418 -23.8475 -23.7831 -23.7727 -11.5699 -11.3867 -11.3359
    -7.8725  -7.3772  -7.1337   4.1974   4.9066   5.5620   5.8244   5.9528
     6.3699   7.3501   7.5327   7.5574

          k = 0.3333-0.3333 0.0000 (  1095 PWs)   bands (ev):

   -47.1787 -30.1400 -23.8291 -23.8286 -23.7633 -11.4922 -11.4576 -11.3409
    -7.8441  -7.2440  -7.1348   4.2308   4.7005   4.7635   5.7096   6.1043
     6.7108   6.8777   7.2285   8.1168

          k =-0.5000-0.3333 0.0000 (  1102 PWs)   bands (ev):

   -47.1786 -30.1384 -23.8467 -23.8283 -23.7624 -11.5165 -11.4541 -11.3368
    -7.8018  -7.1624  -7.0464   4.0737   4.1618   4.6994   5.8181   5.8651
     6.6349   6.8558   7.0940   8.2552

          k = 0.0000-0.5000 0.3333 (  1102 PWs)   bands (ev):

   -47.1786 -30.1385 -23.8465 -23.8192 -23.7711 -11.5180 -11.4567 -11.3291
    -7.8330  -7.1311  -7.0516   4.0867   4.1703   4.7372   5.8147   5.8163
     6.5865   6.8372   7.0662   8.3339

          k =-0.5000 0.5000 0.0000 (  1092 PWs)   bands (ev):

   -47.1782 -30.1367 -23.8463 -23.8463 -23.7616 -11.4902 -11.4902 -11.3329
    -7.8037  -7.0043  -7.0043   3.7828   4.0333   4.3492   5.8023   5.8023
     6.7375   6.7375   6.9144   8.5049

          k = 0.3333-0.1667 0.1667 (  1103 PWs)   bands (ev):

   -47.1790 -30.1417 -23.8292 -23.7918 -23.7830 -11.5038 -11.3946 -11.3704
    -7.8794  -7.3590  -7.2091   4.4866   5.0669   5.3172   5.5502   5.8167
     6.6195   7.3783   7.5939   7.7325

          k =-0.5000-0.1667 0.1667 (  1120 PWs)   bands (ev):

   -47.1791 -30.1402 -23.8470 -23.7910 -23.7822 -11.5467 -11.3883 -11.3636
    -7.7556  -7.3580  -7.1062   4.1932   4.7803   5.2073   5.3536   5.7100
     6.6834   7.2238   7.5655   7.6517

          k = 0.3333-0.3333 0.1667 (  1104 PWs)   bands (ev):

   -47.1786 -30.1385 -23.8281 -23.8278 -23.7813 -11.4791 -11.4469 -11.3703
    -7.6890  -7.2326  -7.1495   4.2552   4.7379   4.7601   5.2177   5.4588
     6.1796   7.4925   7.5269   8.1417

          k =-0.5000-0.3333 0.1667 (  1108 PWs)   bands (ev):

   -47.1785 -30.1369 -23.8458 -23.8273 -23.7805 -11.5005 -11.4446 -11.3641
    -7.6364  -7.1816  -7.0526   4.1634   4.1656   4.6955   5.1404   5.3354
     6.1767   7.4478   7.5147   8.2759

          k =-0.1667-0.5000 0.3333 (  1108 PWs)   bands (ev):

   -47.1785 -30.1370 -23.8457 -23.8182 -23.7893 -11.5015 -11.4469 -11.3585
    -7.6665  -7.1514  -7.0559   4.1719   4.1787   4.7297   5.1057   5.3336
     6.1420   7.3904   7.5106   8.3467

          k =-0.5000 0.5000 0.1667 (  1092 PWs)   bands (ev):

   -47.1781 -30.1352 -23.8452 -23.8452 -23.7796 -11.4775 -11.4775 -11.3588
    -7.6301  -7.0264  -7.0264   3.9048   4.0428   4.3542   5.1644   5.1644
     6.1287   7.4847   7.4847   8.5267

          k =-0.5000-0.3333 0.3333 (  1088 PWs)   bands (ev):

   -47.1777 -30.1339 -23.8440 -23.8253 -23.8161 -11.4683 -11.4336 -11.4097
    -7.3312  -7.1704  -7.0657   4.1568   4.2982   4.5216   4.5948   4.8542
     4.9540   8.1151   8.1778   8.4160

          k =-0.5000 0.5000 0.3333 (  1096 PWs)   bands (ev):

   -47.1777 -30.1323 -23.8431 -23.8431 -23.8152 -11.4517 -11.4517 -11.4101
    -7.2578  -7.0712  -7.0712   4.0350   4.1512   4.3636   4.5312   4.5312
     4.8551   8.3242   8.3242   8.5733

     highest occupied level (ev):     8.6515

!    total energy              =    -291.72118768 Ry
     estimated scf accuracy    <          2.8E-09 Ry

     The total energy is the sum of the following terms:
     one-electron contribution =     -93.98135554 Ry
     hartree contribution      =      66.19384376 Ry
     xc contribution           =     -51.21375954 Ry
     ewald contribution        =    -212.71991636 Ry

     convergence has been achieved in  12 iterations

     Forces acting on atoms (cartesian axes, Ry/au):

     atom    1 type  1   force =     0.00000000    0.00000000   -0.00157334
     atom    2 type  2   force =     0.00000000    0.00000000    0.01674520
     atom    3 type  3   force =     0.00000000    0.00000000    0.00786963
     atom    4 type  3   force =     0.00000000    0.00000000   -0.01152074
     atom    5 type  3   force =     0.00000000    0.00000000   -0.01152074

     Total force =     0.024704     Total SCF correction =     0.000082


     Computing stress (Cartesian axis) and pressure

          total   stress  (Ry/bohr**3)                   (kbar)     P=     -192.68
  -0.00131065   0.00000000   0.00000000         -192.80        0.00        0.00
   0.00000000  -0.00131065   0.00000000            0.00     -192.80        0.00
   0.00000000   0.00000000  -0.00130814            0.00        0.00     -192.43


     Writing all to output data dir ./CTO.save/ :
     XML data file, charge density, pseudopotentials, collected wavefunctions
 
     init_run     :      0.27s CPU      0.35s WALL (       1 calls)
     electrons    :      7.59s CPU      8.17s WALL (       1 calls)
     forces       :      0.06s CPU      0.06s WALL (       1 calls)
     stress       :      0.54s CPU      0.55s WALL (       1 calls)

     Called by init_run:
     wfcinit      :      0.15s CPU      0.17s WALL (       1 calls)
     potinit      :      0.01s CPU      0.01s WALL (       1 calls)
     hinit0       :      0.08s CPU      0.12s WALL (       1 calls)

     Called by electrons:
     c_bands      :      6.58s CPU      7.09s WALL (      12 calls)
     sum_band     :      0.75s CPU      0.79s WALL (      12 calls)
     v_of_rho     :      0.01s CPU      0.01s WALL (      13 calls)
     newd         :      0.24s CPU      0.27s WALL (      13 calls)
     mix_rho      :      0.01s CPU      0.01s WALL (      12 calls)

     Called by c_bands:
     init_us_2    :      0.05s CPU      0.06s WALL (    1080 calls)
     init_us_2:cp :      0.05s CPU      0.05s WALL (    1080 calls)
     ccgdiagg     :      5.74s CPU      6.18s WALL (     480 calls)
     wfcrot       :      0.93s CPU      1.01s WALL (     480 calls)

     Called by *cgdiagg:
     h_psi        :      3.70s CPU      3.98s WALL (   28456 calls)
     s_psi        :      0.48s CPU      0.52s WALL (   56432 calls)

     Called by h_psi:
     h_psi:calbec :      0.59s CPU      0.64s WALL (   28456 calls)
     vloc_psi     :      2.64s CPU      2.84s WALL (   28456 calls)
     add_vuspsi   :      0.26s CPU      0.28s WALL (   28456 calls)
     hs_1psi      :      3.36s CPU      3.62s WALL (   27976 calls)
     s_1psi       :      0.85s CPU      0.91s WALL (   27976 calls)

     General routines
     calbec       :      1.08s CPU      1.16s WALL (   57112 calls)
     fft          :      0.02s CPU      0.03s WALL (      84 calls)
     ffts         :      0.00s CPU      0.00s WALL (      25 calls)
     fftw         :      2.43s CPU      2.60s WALL (   85712 calls)
     interpolate  :      0.00s CPU      0.01s WALL (      13 calls)
 
     Parallel routines
 
     PWSCF        :      8.70s CPU      9.72s WALL

 
   This run was terminated on:  17:24:33  19Sep2025            

=------------------------------------------------------------------------------=
   JOB DONE.
=------------------------------------------------------------------------------=
TACC:  Shutdown complete. Exiting. 
