TACC:  Starting up job 2552575 
TACC:  Starting parallel tasks... 

     Program PWSCF v.7.3 starts on 14Nov2025 at 20:32: 8 

     This program is part of the open-source Quantum ESPRESSO suite
     for quantum simulation of materials; please cite
         "P. Giannozzi et al., J. Phys.:Condens. Matter 21 395502 (2009);
         "P. Giannozzi et al., J. Phys.:Condens. Matter 29 465901 (2017);
         "P. Giannozzi et al., J. Chem. Phys. 152 154105 (2020);
          URL http://www.quantum-espresso.org", 
     in publications or presentations arising from this work. More details at
     http://www.quantum-espresso.org/quote

     Parallel version (MPI & OpenMP), running on      10 processor cores
     Number of MPI processes:                10
     Threads/MPI process:                     1

     MPI processes distributed on     1 nodes
     186144 MiB available memory on the printing compute node when the environment starts
 
     Waiting for input...
     Reading input from standard input
Warning: card &CELL ignored
Warning: card  CELL_DYNAMICS = 'BFGS', ignored
Warning: card  PRESS=0.D0, ignored
Warning: card / ignored

     Current dimensions of program PWSCF are:
     Max number of different atomic species (ntypx) = 10
     Max number of k-points (npk) =  40000
     Max angular momentum in pseudopotentials (lmaxx) =  4
     Message from routine setup:
     using ibrav=0 with symmetry is DISCOURAGED, use correct ibrav instead
 
     R & G space division:  proc/nbgrp/npool/nimage =      10
     Subspace diagonalization in iterative solution of the eigenvalue problem:
     a serial algorithm will be used

 
     Parallelization info
     --------------------
     sticks:   dense  smooth     PW     G-vecs:    dense   smooth      PW
     Min         604     241     67                37210     9417    1405
     Max         605     242     68                37211     9420    1410
     Sum        6041    2417    673               372101    94195   14071
 
     Using Slab Decomposition
 


     bravais-lattice index     =            0
     lattice parameter (alat)  =       7.3699  a.u.
     unit-cell volume          =     420.8329 (a.u.)^3
     number of atoms/cell      =            5
     number of atomic types    =            3
     number of electrons       =        44.00
     number of Kohn-Sham states=           22
     kinetic-energy cutoff     =     140.0000  Ry
     charge density cutoff     =    1400.0000  Ry
     scf convergence threshold =      1.0E-08
     mixing beta               =       0.7000
     number of iterations used =            8  plain     mixing
     energy convergence thresh.=      1.0E-04
     force convergence thresh. =      1.0E-03
     Exchange-correlation= SLA  PZ   NOGX NOGC
                           (   1   1   0   0   0   0   0)
     nstep                     =           50


     celldm(1)=   7.369932  celldm(2)=   0.000000  celldm(3)=   0.000000
     celldm(4)=   0.000000  celldm(5)=   0.000000  celldm(6)=   0.000000

     crystal axes: (cart. coord. in units of alat)
               a(1) = (   1.000000   0.000000   0.000000 )  
               a(2) = (   0.000000   1.000000   0.000000 )  
               a(3) = (   0.000000   0.000000   1.051282 )  

     reciprocal axes: (cart. coord. in units 2 pi/alat)
               b(1) = (  1.000000  0.000000  0.000000 )  
               b(2) = (  0.000000  1.000000  0.000000 )  
               b(3) = (  0.000000  0.000000  0.951220 )  


     PseudoPot. # 1 for Pb read from file:
     /scratch/11018/zhc/assisgnment3/input_files/Pb_LDA.UPF
     MD5 check sum: 062a37469794d955244864f8fe2e5624
     Pseudo is Ultrasoft + core correction, Zval = 14.0
     Generated by new atomic code, or converted to UPF format
     Using radial grid of  899 points,  6 beta functions with: 
                l(1) =   0
                l(2) =   0
                l(3) =   1
                l(4) =   1
                l(5) =   2
                l(6) =   2
     Q(r) pseudized with  6 coefficients,  rinner =    1.000   1.000   1.000
                                                       1.000   1.000

     PseudoPot. # 2 for Ti read from file:
     /scratch/11018/zhc/assisgnment3/input_files/Ti_LDA.UPF
     MD5 check sum: 0d9f225c038fe889ca2a701dcc8d72cb
     Pseudo is Ultrasoft + core correction, Zval = 12.0
     Generated by new atomic code, or converted to UPF format
     Using radial grid of  851 points,  6 beta functions with: 
                l(1) =   0
                l(2) =   0
                l(3) =   1
                l(4) =   1
                l(5) =   2
                l(6) =   2
     Q(r) pseudized with  6 coefficients,  rinner =    1.000   1.000   1.000
                                                       1.000   1.000

     PseudoPot. # 3 for O  read from file:
     /scratch/11018/zhc/assisgnment3/input_files/O_LDA.UPF
     MD5 check sum: 194b818514d2a7dbb603bb78519a4f40
     Pseudo is Ultrasoft + core correction, Zval =  6.0
     Generated by new atomic code, or converted to UPF format
     Using radial grid of  737 points,  5 beta functions with: 
                l(1) =   0
                l(2) =   0
                l(3) =   1
                l(4) =   1
                l(5) =   2
     Q(r) pseudized with  8 coefficients,  rinner =    0.900   0.900   0.900
                                                       0.900   0.900

     atomic species   valence    mass     pseudopotential
     Pb               14.00   207.20000     Pb( 1.00)
     Ti               12.00    47.88000     Ti( 1.00)
     O                 6.00    16.00000     O ( 1.00)

      8 Sym. Ops. (no inversion) found



   Cartesian axes

     site n.     atom                  positions (alat units)
         1        Pb     tau(   1) = (   0.0000000   0.0000000   1.0580339  )
         2        Ti     tau(   2) = (   0.5000000   0.5000000   0.5681377  )
         3        O      tau(   3) = (   0.5000000   0.5000000   0.1036357  )
         4        O      tau(   4) = (   0.5000000   0.0000000   0.6422586  )
         5        O      tau(   5) = (   0.0000000   0.5000000   0.6422586  )

     number of k points=    30
                       cart. coord. in units 2pi/alat
        k(    1) = (   0.0000000   0.0000000   0.0000000), wk =   0.0138889
        k(    2) = (   0.0000000   0.0000000   0.2378049), wk =   0.0277778
        k(    3) = (   0.0000000   0.0000000  -0.4756098), wk =   0.0138889
        k(    4) = (   0.0000000   0.1666667   0.0000000), wk =   0.0555556
        k(    5) = (   0.0000000   0.1666667   0.2378049), wk =   0.1111111
        k(    6) = (   0.0000000   0.1666667  -0.4756098), wk =   0.0555556
        k(    7) = (   0.0000000   0.3333333   0.0000000), wk =   0.0555556
        k(    8) = (   0.0000000   0.3333333   0.2378049), wk =   0.1111111
        k(    9) = (   0.0000000   0.3333333  -0.4756098), wk =   0.0555556
        k(   10) = (   0.0000000  -0.5000000   0.0000000), wk =   0.0277778
        k(   11) = (   0.0000000  -0.5000000   0.2378049), wk =   0.0555556
        k(   12) = (   0.0000000  -0.5000000  -0.4756098), wk =   0.0277778
        k(   13) = (   0.1666667   0.1666667   0.0000000), wk =   0.0555556
        k(   14) = (   0.1666667   0.1666667   0.2378049), wk =   0.1111111
        k(   15) = (   0.1666667   0.1666667  -0.4756098), wk =   0.0555556
        k(   16) = (   0.1666667   0.3333333   0.0000000), wk =   0.1111111
        k(   17) = (   0.1666667   0.3333333   0.2378049), wk =   0.2222222
        k(   18) = (   0.1666667   0.3333333  -0.4756098), wk =   0.1111111
        k(   19) = (   0.1666667  -0.5000000   0.0000000), wk =   0.0555556
        k(   20) = (   0.1666667  -0.5000000   0.2378049), wk =   0.1111111
        k(   21) = (   0.1666667  -0.5000000  -0.4756098), wk =   0.0555556
        k(   22) = (   0.3333333   0.3333333   0.0000000), wk =   0.0555556
        k(   23) = (   0.3333333   0.3333333   0.2378049), wk =   0.1111111
        k(   24) = (   0.3333333   0.3333333  -0.4756098), wk =   0.0555556
        k(   25) = (   0.3333333  -0.5000000   0.0000000), wk =   0.0555556
        k(   26) = (   0.3333333  -0.5000000   0.2378049), wk =   0.1111111
        k(   27) = (   0.3333333  -0.5000000  -0.4756098), wk =   0.0555556
        k(   28) = (  -0.5000000  -0.5000000   0.0000000), wk =   0.0138889
        k(   29) = (  -0.5000000  -0.5000000   0.2378049), wk =   0.0277778
        k(   30) = (  -0.5000000  -0.5000000  -0.4756098), wk =   0.0138889

     Dense  grid:   372101 G-vectors     FFT dimensions: (  90,  90,  96)

     Smooth grid:    94195 G-vectors     FFT dimensions: (  60,  60,  60)

     Estimated max dynamical RAM per process >     159.81 MB

     Estimated total dynamical RAM >       1.56 GB

     Initial potential from superposition of free atoms

     starting charge      42.9982, renormalised to      44.0000

     negative rho (up, down):  1.725E-02 0.000E+00
     Starting wfcs are   31 randomized atomic wfcs

     total cpu time spent up to now is        1.4 secs

     Self-consistent Calculation

     iteration #  1     ecut=   140.00 Ry     beta= 0.70
     CG style diagonalization
     ethr =  1.00E-02,  avg # of iterations =  2.1

     negative rho (up, down):  1.456E-02 0.000E+00

     total cpu time spent up to now is        3.3 secs

     total energy              =    -380.04615522 Ry
     estimated scf accuracy    <       1.03812689 Ry

     iteration #  2     ecut=   140.00 Ry     beta= 0.70
     CG style diagonalization
     ethr =  2.36E-03,  avg # of iterations =  4.9

     negative rho (up, down):  1.472E-02 0.000E+00

     total cpu time spent up to now is        6.6 secs

     total energy              =    -379.61958367 Ry
     estimated scf accuracy    <       4.78573689 Ry

     iteration #  3     ecut=   140.00 Ry     beta= 0.70
     CG style diagonalization
     ethr =  2.36E-03,  avg # of iterations =  4.5

     negative rho (up, down):  1.549E-02 0.000E+00

     total cpu time spent up to now is        9.7 secs

     total energy              =    -380.53565030 Ry
     estimated scf accuracy    <       0.30423363 Ry

     iteration #  4     ecut=   140.00 Ry     beta= 0.70
     CG style diagonalization
     ethr =  6.91E-04,  avg # of iterations =  3.5

     negative rho (up, down):  1.564E-02 0.000E+00

     total cpu time spent up to now is       12.1 secs

     total energy              =    -380.55215860 Ry
     estimated scf accuracy    <       0.07424985 Ry

     iteration #  5     ecut=   140.00 Ry     beta= 0.70
     CG style diagonalization
     ethr =  1.69E-04,  avg # of iterations =  3.7

     negative rho (up, down):  1.565E-02 0.000E+00

     total cpu time spent up to now is       14.7 secs

     total energy              =    -380.57180903 Ry
     estimated scf accuracy    <       0.00405962 Ry

     iteration #  6     ecut=   140.00 Ry     beta= 0.70
     CG style diagonalization
     ethr =  9.23E-06,  avg # of iterations =  4.4

     negative rho (up, down):  1.562E-02 0.000E+00

     total cpu time spent up to now is       17.7 secs

     total energy              =    -380.57499307 Ry
     estimated scf accuracy    <       0.00990069 Ry

     iteration #  7     ecut=   140.00 Ry     beta= 0.70
     CG style diagonalization
     ethr =  9.23E-06,  avg # of iterations =  3.3

     negative rho (up, down):  1.560E-02 0.000E+00

     total cpu time spent up to now is       20.0 secs

     total energy              =    -380.57389651 Ry
     estimated scf accuracy    <       0.00458500 Ry

     iteration #  8     ecut=   140.00 Ry     beta= 0.70
     CG style diagonalization
     ethr =  9.23E-06,  avg # of iterations =  3.6

     negative rho (up, down):  1.562E-02 0.000E+00

     total cpu time spent up to now is       22.5 secs

     total energy              =    -380.57473327 Ry
     estimated scf accuracy    <       0.00001207 Ry

     iteration #  9     ecut=   140.00 Ry     beta= 0.70
     CG style diagonalization
     ethr =  2.74E-08,  avg # of iterations =  7.7

     negative rho (up, down):  1.565E-02 0.000E+00

     total cpu time spent up to now is       27.5 secs

     total energy              =    -380.57480578 Ry
     estimated scf accuracy    <       0.00001352 Ry

     iteration # 10     ecut=   140.00 Ry     beta= 0.70
     CG style diagonalization
     ethr =  2.74E-08,  avg # of iterations =  3.4

     negative rho (up, down):  1.572E-02 0.000E+00

     total cpu time spent up to now is       29.9 secs

     total energy              =    -380.57480389 Ry
     estimated scf accuracy    <       0.00000927 Ry

     iteration # 11     ecut=   140.00 Ry     beta= 0.70
     CG style diagonalization
     ethr =  2.11E-08,  avg # of iterations =  3.8

     negative rho (up, down):  1.573E-02 0.000E+00

     total cpu time spent up to now is       32.6 secs

     total energy              =    -380.57480608 Ry
     estimated scf accuracy    <       0.00000029 Ry

     iteration # 12     ecut=   140.00 Ry     beta= 0.70
     CG style diagonalization
     ethr =  6.52E-10,  avg # of iterations =  9.5

     negative rho (up, down):  1.573E-02 0.000E+00

     total cpu time spent up to now is       38.6 secs

     total energy              =    -380.57480763 Ry
     estimated scf accuracy    <       0.00000028 Ry

     iteration # 13     ecut=   140.00 Ry     beta= 0.70
     CG style diagonalization
     ethr =  6.46E-10,  avg # of iterations =  4.1

     negative rho (up, down):  1.574E-02 0.000E+00

     total cpu time spent up to now is       41.5 secs

     total energy              =    -380.57480770 Ry
     estimated scf accuracy    <       0.00000004 Ry

     iteration # 14     ecut=   140.00 Ry     beta= 0.70
     CG style diagonalization
     ethr =  8.27E-11,  avg # of iterations =  6.0

     negative rho (up, down):  1.575E-02 0.000E+00

     total cpu time spent up to now is       45.4 secs

     total energy              =    -380.57480774 Ry
     estimated scf accuracy    <       0.00000001 Ry

     iteration # 15     ecut=   140.00 Ry     beta= 0.70
     CG style diagonalization
     ethr =  2.95E-11,  avg # of iterations =  6.2

     negative rho (up, down):  1.574E-02 0.000E+00

     total cpu time spent up to now is       49.4 secs

     End of self-consistent calculation

          k = 0.0000 0.0000 0.0000 ( 11733 PWs)   bands (ev):

   -45.8569 -22.4925 -22.4304 -22.4304  -7.5123  -6.4330  -6.1998  -5.0273
    -5.0273  -4.9923  -4.8707  -4.7661   4.2240   6.3074   6.3074   6.6260
     8.2743   8.2743   8.4908   8.7787   8.9393   8.9393

          k = 0.0000 0.0000 0.2378 ( 11745 PWs)   bands (ev):

   -45.8566 -22.5120 -22.4296 -22.4296  -7.3195  -6.3741  -6.1420  -5.0425
    -5.0425  -4.9910  -4.8630  -4.8374   3.4622   6.3768   6.3768   6.7880
     8.0077   8.0077   8.4067   8.8272   9.0454   9.0454

          k = 0.0000 0.0000-0.4756 ( 11758 PWs)   bands (ev):

   -45.8563 -22.5314 -22.4289 -22.4289  -7.1088  -6.3092  -6.0921  -5.0576
    -5.0576  -4.9898  -4.9145  -4.8572   2.9644   6.1478   6.4332   6.4332
     7.8239   7.8239   8.3265   9.1155   9.1155   9.9981

          k = 0.0000 0.1667 0.0000 ( 11794 PWs)   bands (ev):

   -45.8565 -22.4919 -22.4475 -22.4297  -7.3774  -6.4037  -6.1708  -5.0480
    -5.0259  -5.0051  -4.8757  -4.7569   3.7955   6.3508   6.4164   6.6728
     8.1858   8.2980   8.4910   8.5693   8.6704   9.0378

          k = 0.0000 0.1667 0.2378 ( 11770 PWs)   bands (ev):

   -45.8563 -22.5112 -22.4467 -22.4289  -7.2003  -6.3605  -6.1077  -5.0460
    -5.0416  -5.0043  -4.8729  -4.7935   3.2508   6.1627   6.4930   6.8883
     7.6640   7.9986   8.2715   8.6923   8.7195   9.3659

          k = 0.0000 0.1667-0.4756 ( 11786 PWs)   bands (ev):

   -45.8560 -22.5305 -22.4459 -22.4281  -7.0163  -6.3115  -6.0435  -5.0571
    -5.0415  -5.0035  -4.8806  -4.8266   2.8358   5.8584   6.5523   6.5784
     7.4663   7.8267   8.3376   8.7467   8.7940   9.9271

          k = 0.0000 0.3333 0.0000 ( 11768 PWs)   bands (ev):

   -45.8559 -22.4907 -22.4813 -22.4282  -7.0838  -6.3407  -6.1269  -5.0810
    -5.0305  -5.0231  -4.8735  -4.7651   3.2187   5.9803   6.6724   6.7022
     7.8542   7.8756   8.3454   8.4078   8.7753   9.6131

          k = 0.0000 0.3333 0.2378 ( 11770 PWs)   bands (ev):

   -45.8556 -22.5095 -22.4807 -22.4274  -6.9695  -6.3017  -6.0441  -5.0511
    -5.0398  -5.0305  -4.8699  -4.7392   2.8949   5.8682   6.5586   6.7994
     7.3089   7.7474   7.8606   8.4048   8.9364   9.6814

          k = 0.0000 0.3333-0.4756 ( 11744 PWs)   bands (ev):

   -45.8554 -22.5285 -22.4797 -22.4266  -6.8848  -6.2392  -5.9339  -5.0562
    -5.0307  -5.0131  -4.9066  -4.6901   2.6069   5.5743   6.3161   6.8543
     7.2006   7.3655   7.6887   8.4116   9.3277   9.5157

          k = 0.0000-0.5000 0.0000 ( 11772 PWs)   bands (ev):

   -45.8556 -22.4989 -22.4894 -22.4275  -6.9212  -6.2939  -6.1284  -5.0964
    -5.0431  -5.0218  -4.8472  -4.7992   3.0106   5.6180   6.9599   6.9703
     7.3494   7.4681   8.2684   8.4482   8.8113  10.3556

          k = 0.0000-0.5000 0.2378 ( 11772 PWs)   bands (ev):

   -45.8553 -22.5084 -22.4977 -22.4267  -6.8694  -6.2227  -6.0359  -5.0639
    -5.0436  -5.0389  -4.8402  -4.7353   2.7516   5.5902   6.5913   6.8577
     7.1643   7.3160   7.9698   8.3931   8.9296   9.8615

          k = 0.0000-0.5000-0.4756 ( 11784 PWs)   bands (ev):

   -45.8550 -22.5273 -22.4966 -22.4259  -6.8547  -6.1462  -5.8818  -5.0558
    -5.0442  -5.0240  -4.8932  -4.6341   2.5124   5.4244   6.0396   6.9189
     7.1683   7.3704   7.3742   8.3567   9.1469   9.6526

          k = 0.1667 0.1667 0.0000 ( 11785 PWs)   bands (ev):

   -45.8562 -22.4912 -22.4469 -22.4466  -7.2451  -6.3734  -6.1634  -5.0535
    -5.0400  -5.0073  -4.8544  -4.7481   3.4993   6.2922   6.5219   6.7210
     7.7668   7.8508   8.5440   8.5672   8.8865   9.2655

          k = 0.1667 0.1667 0.2378 ( 11761 PWs)   bands (ev):

   -45.8559 -22.5104 -22.4460 -22.4458  -7.0790  -6.3496  -6.1009  -5.0560
    -5.0355  -5.0005  -4.8459  -4.7624   3.1377   6.1078   6.1884   6.8514
     7.5501   7.5526   8.3746   8.7464   8.9711   9.3173

          k = 0.1667 0.1667-0.4756 ( 11752 PWs)   bands (ev):

   -45.8557 -22.5295 -22.4452 -22.4450  -6.9131  -6.3255  -6.0283  -5.0670
    -5.0167  -4.9775  -4.8534  -4.7819   2.8089   5.9085   5.9188   6.5852
     7.4559   7.4704   8.2674   8.8165   9.0312   9.6352

          k = 0.1667 0.3333 0.0000 ( 11763 PWs)   bands (ev):

   -45.8556 -22.4900 -22.4805 -22.4452  -6.9605  -6.3117  -6.1627  -5.0757
    -5.0303  -4.9906  -4.8316  -4.7557   3.0304   5.9849   6.5403   6.8248
     7.2112   7.8042   8.0605   8.7211   8.8990   9.6940

          k = 0.1667 0.3333 0.2378 ( 11775 PWs)   bands (ev):

   -45.8553 -22.5087 -22.4798 -22.4444  -6.8438  -6.3049  -6.0935  -5.0539
    -5.0309  -4.9671  -4.8137  -4.7152   2.9028   5.8351   6.0045   6.4891
     6.9293   7.5759   8.4100   8.7013   9.0257   9.4107

          k = 0.1667 0.3333-0.4756 ( 11772 PWs)   bands (ev):

   -45.8550 -22.5276 -22.4789 -22.4436  -6.7621  -6.2848  -5.9890  -5.0508
    -5.0081  -4.9282  -4.8261  -4.6642   2.7381   5.5160   5.9213   6.2221
     6.4315   7.4286   8.5141   8.7396   8.9209   9.4490

          k = 0.1667-0.5000 0.0000 ( 11780 PWs)   bands (ev):

   -45.8553 -22.4979 -22.4887 -22.4445  -6.8044  -6.2669  -6.1856  -5.0789
    -5.0232  -4.9687  -4.8123  -4.7903   2.8440   5.6345   6.6961   6.8502
     7.1889   7.4648   7.9753   8.7806   8.8786   9.9758

          k = 0.1667-0.5000 0.2378 ( 11764 PWs)   bands (ev):

   -45.8550 -22.5076 -22.4969 -22.4436  -6.7432  -6.2358  -6.1143  -5.0527
    -5.0187  -4.9445  -4.7951  -4.7086   2.7939   5.5961   5.9119   6.2776
     6.8763   7.7192   8.1786   8.7161   9.0170   9.3824

          k = 0.1667-0.5000-0.4756 ( 11780 PWs)   bands (ev):

   -45.8547 -22.5265 -22.4958 -22.4428  -6.7316  -6.2061  -5.9743  -5.0461
    -4.9813  -4.9209  -4.8105  -4.6088   2.7035   5.3939   5.7822   5.8873
     6.3057   7.5400   8.3015   8.6574   8.6649   9.6606

          k = 0.3333 0.3333 0.0000 ( 11806 PWs)   bands (ev):

   -45.8550 -22.4888 -22.4790 -22.4784  -6.7167  -6.2543  -6.2161  -5.0582
    -5.0125  -4.9223  -4.7590  -4.7526   2.6716   5.9489   6.0847   6.9496
     7.0869   7.2642   7.8799   8.5179   9.3844   9.4056

          k = 0.3333 0.3333 0.2378 ( 11769 PWs)   bands (ev):

   -45.8547 -22.5071 -22.4781 -22.4781  -6.5940  -6.3029  -6.1819  -5.0219
    -5.0060  -4.8624  -4.7083  -4.6819   2.8537   5.5995   5.6627   5.9392
     6.6059   7.0668   8.3839   8.9904   9.0194   9.4006

          k = 0.3333 0.3333-0.4756 ( 11776 PWs)   bands (ev):

   -45.8544 -22.5258 -22.4773 -22.4773  -6.5325  -6.3478  -6.0762  -4.9997
    -4.9856  -4.7975  -4.6635  -4.6075   3.0203   5.2160   5.2355   5.7012
     6.3518   6.5130   7.6501   9.3555   9.3694   9.5310

          k = 0.3333-0.5000 0.0000 ( 11804 PWs)   bands (ev):

   -45.8546 -22.4960 -22.4875 -22.4778  -6.6064  -6.2325  -6.2177  -5.0510
    -4.9910  -4.8605  -4.7919  -4.7187   2.5044   5.6144   6.1200   6.7798
     7.3015   7.4043   7.4991   8.4933   9.0783   9.5721

          k = 0.3333-0.5000 0.2378 ( 11796 PWs)   bands (ev):

   -45.8544 -22.5061 -22.4951 -22.4773  -6.4870  -6.2652  -6.2381  -5.0139
    -4.9806  -4.7724  -4.7111  -4.6493   2.7972   5.4972   5.5740   5.6824
     6.3892   7.1407   7.9041   8.9869   9.0179   9.5528

          k = 0.3333-0.5000-0.4756 ( 11756 PWs)   bands (ev):

   -45.8541 -22.5248 -22.4941 -22.4765  -6.4812  -6.3091  -6.1143  -4.9858
    -4.9631  -4.7091  -4.6301  -4.5548   3.1662   4.9602   5.1462   5.4568
     6.1408   6.5282   6.8808   9.4553   9.5247   9.6824

          k =-0.5000-0.5000 0.0000 ( 11808 PWs)   bands (ev):

   -45.8543 -22.4951 -22.4951 -22.4861  -6.5562  -6.1959  -6.1959  -5.0414
    -4.9492  -4.8094  -4.8094  -4.6715   2.3352   5.4593   5.9625   6.9989
     6.9989   7.5183   7.5183   8.2479   8.5810   9.8295

          k =-0.5000-0.5000 0.2378 ( 11816 PWs)   bands (ev):

   -45.8541 -22.5050 -22.4942 -22.4942  -6.3662  -6.2810  -6.2810  -5.0032
    -4.9474  -4.6709  -4.6709  -4.6375   2.7451   5.4128   5.6164   5.6164
     5.9687   7.0815   7.2556   9.0187   9.0187   9.8140

          k =-0.5000-0.5000-0.4756 ( 11784 PWs)   bands (ev):

   -45.8538 -22.5238 -22.4933 -22.4933  -6.3546  -6.3546  -6.1721  -4.9651
    -4.9456  -4.5925  -4.5420  -4.5420   3.4109   4.9824   4.9824   5.2900
     5.8876   5.9748   6.2463   9.6932   9.6932   9.7986

     highest occupied level (ev):    10.3556

!    total energy              =    -380.57480776 Ry
     estimated scf accuracy    <          7.0E-09 Ry

     The total energy is the sum of the following terms:
     one-electron contribution =     -84.09023441 Ry
     hartree contribution      =      71.17258217 Ry
     xc contribution           =    -102.54299608 Ry
     ewald contribution        =    -265.11415945 Ry

     convergence has been achieved in  15 iterations

     negative rho (up, down):  1.574E-02 0.000E+00

     Forces acting on atoms (cartesian axes, Ry/au):

     atom    1 type  1   force =     0.00000000    0.00000000   -0.00773924
     atom    2 type  2   force =     0.00000000    0.00000000   -0.01235555
     atom    3 type  3   force =     0.00000000    0.00000000    0.02041175
     atom    4 type  3   force =     0.00000000    0.00000000   -0.00015847
     atom    5 type  3   force =     0.00000000    0.00000000   -0.00015847

     Total force =     0.025085     Total SCF correction =     0.000159


     Computing stress (Cartesian axis) and pressure


     negative rho (up, down):  1.574E-02 0.000E+00
          total   stress  (Ry/bohr**3)                   (kbar)     P=      -63.83
  -0.00042256   0.00000000   0.00000000          -62.16        0.00        0.00
   0.00000000  -0.00042256   0.00000000            0.00      -62.16        0.00
   0.00000000   0.00000000  -0.00045668            0.00        0.00      -67.18


     BFGS Geometry Optimization
     Energy error            =      0.0E+00 Ry
     Gradient error          =      2.0E-02 Ry/Bohr

     number of scf cycles    =   1
     number of bfgs steps    =   0

     energy             new  =    -380.5748077571 Ry

     new trust radius        =       0.0204117452 bohr
     new conv_thr            =       0.0000000100 Ry


ATOMIC_POSITIONS (crystal)
Pb               0.0000000000        0.0000000000        1.0054236224
Ti               0.5000000000        0.5000000000        0.5388289952
O                0.5000000000        0.5000000000        0.1012147962
O                0.5000000000        0.0000000000        0.6109084371
O                0.0000000000        0.5000000000        0.6109084371



     Writing config-only to output data dir ./pto_140.save/ :
     XML data file
     NEW-OLD atomic charge density approx. for the potential

     negative rho (up, down):  1.576E-02 0.000E+00

     total cpu time spent up to now is       54.7 secs

     Self-consistent Calculation

     iteration #  1     ecut=   140.00 Ry     beta= 0.70
     CG style diagonalization
     c_bands:  3 eigenvalues not converged
     c_bands:  1 eigenvalues not converged
     c_bands:  1 eigenvalues not converged
     c_bands:  1 eigenvalues not converged
     ethr =  1.00E-06,  avg # of iterations =  6.8

     negative rho (up, down):  1.573E-02 0.000E+00

     total cpu time spent up to now is       59.5 secs

     total energy              =    -380.57516372 Ry
     estimated scf accuracy    <       0.00024526 Ry

     iteration #  2     ecut=   140.00 Ry     beta= 0.70
     CG style diagonalization
     ethr =  5.57E-07,  avg # of iterations =  4.7

     negative rho (up, down):  1.574E-02 0.000E+00

     total cpu time spent up to now is       62.6 secs

     total energy              =    -380.57516166 Ry
     estimated scf accuracy    <       0.00066953 Ry

     iteration #  3     ecut=   140.00 Ry     beta= 0.70
     CG style diagonalization
     ethr =  5.57E-07,  avg # of iterations =  4.4

     negative rho (up, down):  1.574E-02 0.000E+00

     total cpu time spent up to now is       65.6 secs

     total energy              =    -380.57529250 Ry
     estimated scf accuracy    <       0.00004409 Ry

     iteration #  4     ecut=   140.00 Ry     beta= 0.70
     CG style diagonalization
     ethr =  1.00E-07,  avg # of iterations =  3.8

     negative rho (up, down):  1.574E-02 0.000E+00

     total cpu time spent up to now is       68.3 secs

     total energy              =    -380.57530288 Ry
     estimated scf accuracy    <       0.00000603 Ry

     iteration #  5     ecut=   140.00 Ry     beta= 0.70
     CG style diagonalization
     ethr =  1.37E-08,  avg # of iterations =  4.4

     negative rho (up, down):  1.574E-02 0.000E+00

     total cpu time spent up to now is       71.3 secs

     total energy              =    -380.57530627 Ry
     estimated scf accuracy    <       0.00000082 Ry

     iteration #  6     ecut=   140.00 Ry     beta= 0.70
     CG style diagonalization
     ethr =  1.86E-09,  avg # of iterations =  4.4

     negative rho (up, down):  1.574E-02 0.000E+00

     total cpu time spent up to now is       74.2 secs

     total energy              =    -380.57530662 Ry
     estimated scf accuracy    <       0.00000031 Ry

     iteration #  7     ecut=   140.00 Ry     beta= 0.70
     CG style diagonalization
     ethr =  7.00E-10,  avg # of iterations =  4.1

     negative rho (up, down):  1.574E-02 0.000E+00

     total cpu time spent up to now is       77.0 secs

     total energy              =    -380.57530671 Ry
     estimated scf accuracy    <       0.00000007 Ry

     iteration #  8     ecut=   140.00 Ry     beta= 0.70
     CG style diagonalization
     ethr =  1.57E-10,  avg # of iterations =  4.6

     negative rho (up, down):  1.574E-02 0.000E+00

     total cpu time spent up to now is       80.2 secs

     End of self-consistent calculation

          k = 0.0000 0.0000 0.0000 ( 11733 PWs)   bands (ev):

   -45.8217 -22.4798 -22.3946 -22.3946  -7.5093  -6.4266  -6.2105  -5.0299
    -5.0299  -4.9968  -4.8782  -4.7640   4.2143   6.3112   6.3112   6.6558
     8.2061   8.2061   8.4923   8.7214   8.9482   8.9482

          k = 0.0000 0.0000 0.2378 ( 11745 PWs)   bands (ev):

   -45.8214 -22.4994 -22.3938 -22.3938  -7.3136  -6.3675  -6.1551  -5.0451
    -5.0451  -4.9955  -4.8704  -4.8354   3.4480   6.3709   6.3709   6.8032
     7.9649   7.9649   8.4078   8.8089   9.0512   9.0512

          k = 0.0000 0.0000-0.4756 ( 11758 PWs)   bands (ev):

   -45.8211 -22.5188 -22.3931 -22.3931  -7.0987  -6.3025  -6.1089  -5.0601
    -5.0601  -4.9943  -4.9127  -4.8646   2.9430   6.1609   6.4145   6.4145
     7.8035   7.8035   8.3271   9.1211   9.1211  10.0013

          k = 0.0000 0.1667 0.0000 ( 11794 PWs)   bands (ev):

   -45.8214 -22.4791 -22.4118 -22.3939  -7.3749  -6.3979  -6.1826  -5.0511
    -5.0286  -5.0095  -4.8811  -4.7548   3.7905   6.3531   6.4210   6.6850
     8.1539   8.2312   8.4837   8.5763   8.6505   9.0147

          k = 0.0000 0.1667 0.2378 ( 11770 PWs)   bands (ev):

   -45.8211 -22.4985 -22.4110 -22.3931  -7.1948  -6.3548  -6.1220  -5.0488
    -5.0442  -5.0088  -4.8787  -4.7914   3.2410   6.1546   6.4883   6.9005
     7.6415   7.9584   8.2699   8.6762   8.7221   9.3647

          k = 0.0000 0.1667-0.4756 ( 11786 PWs)   bands (ev):

   -45.8208 -22.5178 -22.4101 -22.3923  -7.0069  -6.3058  -6.0612  -5.0597
    -5.0440  -5.0080  -4.8862  -4.8251   2.8201   5.8456   6.5345   6.5891
     7.4555   7.8066   8.3444   8.7302   8.7992   9.9345

          k = 0.0000 0.3333 0.0000 ( 11768 PWs)   bands (ev):

   -45.8207 -22.4776 -22.4461 -22.3925  -7.0819  -6.3366  -6.1412  -5.0839
    -5.0349  -5.0257  -4.8749  -4.7637   3.2166   5.9886   6.6703   6.7092
     7.8507   7.8834   8.3360   8.3463   8.7399   9.6004

          k = 0.0000 0.3333 0.2378 ( 11770 PWs)   bands (ev):

   -45.8205 -22.4967 -22.4450 -22.3917  -6.9642  -6.2988  -6.0608  -5.0538
    -5.0424  -5.0349  -4.8725  -4.7368   2.8911   5.8673   6.5587   6.7980
     7.3040   7.7340   7.8598   8.3755   8.9217   9.6749

          k = 0.0000 0.3333-0.4756 ( 11744 PWs)   bands (ev):

   -45.8202 -22.5158 -22.4440 -22.3908  -6.8766  -6.2359  -5.9537  -5.0588
    -5.0351  -5.0154  -4.9095  -4.6877   2.6009   5.5568   6.3286   6.8382
     7.1967   7.3778   7.6796   8.4025   9.2929   9.5283

          k = 0.0000-0.5000 0.0000 ( 11772 PWs)   bands (ev):

   -45.8204 -22.4766 -22.4632 -22.3918  -6.9191  -6.2904  -6.1453  -5.0984
    -5.0474  -5.0244  -4.8447  -4.8006   3.0084   5.6343   6.9430   6.9805
     7.3609   7.4750   8.2682   8.3725   8.7744  10.3430

          k = 0.0000-0.5000 0.2378 ( 11772 PWs)   bands (ev):

   -45.8201 -22.4957 -22.4621 -22.3909  -6.8637  -6.2195  -6.0564  -5.0658
    -5.0480  -5.0414  -4.8415  -4.7329   2.7495   5.6018   6.5854   6.8488
     7.1750   7.3022   7.9696   8.3505   8.9233   9.8449

          k = 0.0000-0.5000-0.4756 ( 11784 PWs)   bands (ev):

   -45.8199 -22.5147 -22.4609 -22.3901  -6.8472  -6.1435  -5.9041  -5.0583
    -5.0486  -5.0256  -4.8945  -4.6318   2.5107   5.4174   6.0407   6.9144
     7.1416   7.3856   7.3877   8.3362   9.1438   9.6267

          k = 0.1667 0.1667 0.0000 ( 11785 PWs)   bands (ev):

   -45.8210 -22.4783 -22.4112 -22.4109  -7.2435  -6.3680  -6.1756  -5.0565
    -5.0430  -5.0111  -4.8594  -4.7459   3.4962   6.3008   6.5254   6.7211
     7.7169   7.8501   8.5067   8.5716   8.8928   9.2239

          k = 0.1667 0.1667 0.2378 ( 11761 PWs)   bands (ev):

   -45.8208 -22.4977 -22.4103 -22.4101  -7.0742  -6.3441  -6.1159  -5.0591
    -5.0384  -5.0041  -4.8513  -4.7601   3.1301   6.1020   6.1830   6.8543
     7.5380   7.5502   8.3347   8.7434   8.9694   9.3148

          k = 0.1667 0.1667-0.4756 ( 11752 PWs)   bands (ev):

   -45.8205 -22.5169 -22.4094 -22.4093  -6.9045  -6.3199  -6.0467  -5.0704
    -5.0205  -4.9796  -4.8596  -4.7793   2.7959   5.8988   5.9038   6.5973
     7.4494   7.4730   8.2387   8.8138   9.0266   9.6426

          k = 0.1667 0.3333 0.0000 ( 11763 PWs)   bands (ev):

   -45.8204 -22.4768 -22.4452 -22.4095  -6.9605  -6.3079  -6.1749  -5.0782
    -5.0332  -4.9948  -4.8346  -4.7538   3.0288   5.9961   6.5370   6.8310
     7.2082   7.7551   8.0634   8.7069   8.8927   9.6719

          k = 0.1667 0.3333 0.2378 ( 11775 PWs)   bands (ev):

   -45.8201 -22.4959 -22.4442 -22.4087  -6.8398  -6.3017  -6.1088  -5.0568
    -5.0335  -4.9719  -4.8168  -4.7129   2.8991   5.8335   6.0003   6.4934
     6.9242   7.5743   8.3975   8.6828   9.0151   9.4031

          k = 0.1667 0.3333-0.4756 ( 11772 PWs)   bands (ev):

   -45.8199 -22.5149 -22.4432 -22.4078  -6.7550  -6.2811  -6.0075  -5.0543
    -5.0112  -4.9328  -4.8289  -4.6620   2.7318   5.4992   5.9190   6.2267
     6.4403   7.4366   8.4808   8.7429   8.9225   9.4317

          k = 0.1667-0.5000 0.0000 ( 11780 PWs)   bands (ev):

   -45.8201 -22.4759 -22.4623 -22.4087  -6.8051  -6.2637  -6.1984  -5.0810
    -5.0260  -4.9739  -4.8115  -4.7908   2.8424   5.6510   6.6767   6.8628
     7.2000   7.4730   7.9087   8.7792   8.8597   9.9690

          k = 0.1667-0.5000 0.2378 ( 11764 PWs)   bands (ev):

   -45.8198 -22.4949 -22.4612 -22.4079  -6.7390  -6.2329  -6.1314  -5.0554
    -5.0210  -4.9513  -4.7953  -4.7070   2.7917   5.6073   5.9093   6.2710
     6.8730   7.7140   8.1800   8.6856   9.0191   9.3636

          k = 0.1667-0.5000-0.4756 ( 11780 PWs)   bands (ev):

   -45.8196 -22.5139 -22.4601 -22.4071  -6.7252  -6.2034  -5.9929  -5.0494
    -4.9834  -4.9292  -4.8102  -4.6070   2.7010   5.3831   5.7833   5.8903
     6.3077   7.5511   8.2964   8.6358   8.6654   9.6375

          k = 0.3333 0.3333 0.0000 ( 11806 PWs)   bands (ev):

   -45.8198 -22.4753 -22.4435 -22.4433  -6.7225  -6.2511  -6.2231  -5.0600
    -5.0158  -4.9248  -4.7587  -4.7567   2.6702   5.9550   6.1063   6.9331
     7.0872   7.2156   7.9030   8.5050   9.3877   9.3953

          k = 0.3333 0.3333 0.2378 ( 11769 PWs)   bands (ev):

   -45.8195 -22.4942 -22.4426 -22.4424  -6.5938  -6.2997  -6.1942  -5.0238
    -5.0098  -4.8672  -4.7134  -4.6793   2.8508   5.5933   5.6597   5.9459
     6.6173   7.0654   8.3805   8.9788   8.9949   9.4021

          k = 0.3333 0.3333-0.4756 ( 11776 PWs)   bands (ev):

   -45.8192 -22.5131 -22.4417 -22.4416  -6.5277  -6.3445  -6.0919  -5.0038
    -4.9877  -4.8056  -4.6669  -4.6048   3.0144   5.2068   5.2337   5.7044
     6.3555   6.5350   7.6484   9.3285   9.3759   9.5104

          k = 0.3333-0.5000 0.0000 ( 11804 PWs)   bands (ev):

   -45.8195 -22.4743 -22.4604 -22.4425  -6.6167  -6.2352  -6.2154  -5.0527
    -4.9944  -4.8613  -4.7905  -4.7258   2.5027   5.6274   6.1423   6.7528
     7.2616   7.4147   7.5019   8.4892   9.0785   9.5784

          k = 0.3333-0.5000 0.2378 ( 11796 PWs)   bands (ev):

   -45.8192 -22.4933 -22.4594 -22.4417  -6.4887  -6.2629  -6.2483  -5.0159
    -4.9843  -4.7794  -4.7094  -4.6519   2.7946   5.4909   5.5836   5.6809
     6.4016   7.1370   7.9097   8.9699   8.9964   9.5574

          k = 0.3333-0.5000-0.4756 ( 11756 PWs)   bands (ev):

   -45.8189 -22.5121 -22.4585 -22.4408  -6.4774  -6.3067  -6.1286  -4.9891
    -4.9659  -4.7214  -4.6283  -4.5544   3.1614   4.9596   5.1332   5.4694
     6.1511   6.5410   6.8833   9.4304   9.5316   9.6604

          k =-0.5000-0.5000 0.0000 ( 11808 PWs)   bands (ev):

   -45.8191 -22.4733 -22.4594 -22.4594  -6.5715  -6.1941  -6.1941  -5.0431
    -4.9534  -4.8063  -4.8063  -4.6838   2.3330   5.4703   5.9918   6.9653
     6.9653   7.5253   7.5253   8.2424   8.5939   9.8365

          k =-0.5000-0.5000 0.2378 ( 11816 PWs)   bands (ev):

   -45.8189 -22.4923 -22.4585 -22.4585  -6.3804  -6.2790  -6.2790  -5.0051
    -4.9516  -4.6682  -4.6682  -4.6516   2.7421   5.4249   5.6051   5.6051
     5.9980   7.0772   7.2663   9.0013   9.0013   9.8211

          k =-0.5000-0.5000-0.4756 ( 11784 PWs)   bands (ev):

   -45.8186 -22.5112 -22.4576 -22.4576  -6.3524  -6.3524  -6.1848  -4.9670
    -4.9497  -4.6090  -4.5397  -4.5397   3.4046   4.9739   4.9739   5.3035
     5.9002   6.0043   6.2420   9.6721   9.6721   9.8057

     highest occupied level (ev):    10.3430

!    total energy              =    -380.57530675 Ry
     estimated scf accuracy    <          6.8E-09 Ry

     The total energy is the sum of the following terms:
     one-electron contribution =     -84.30625773 Ry
     hartree contribution      =      71.28996826 Ry
     xc contribution           =    -102.55279069 Ry
     ewald contribution        =    -265.00622659 Ry

     convergence has been achieved in   8 iterations

     negative rho (up, down):  1.574E-02 0.000E+00

     Forces acting on atoms (cartesian axes, Ry/au):

     atom    1 type  1   force =     0.00000000    0.00000000   -0.00859960
     atom    2 type  2   force =     0.00000000    0.00000000   -0.00505575
     atom    3 type  3   force =     0.00000000    0.00000000    0.01143110
     atom    4 type  3   force =     0.00000000    0.00000000    0.00111213
     atom    5 type  3   force =     0.00000000    0.00000000    0.00111213

     Total force =     0.015253     Total SCF correction =     0.000162


     Computing stress (Cartesian axis) and pressure


     negative rho (up, down):  1.574E-02 0.000E+00
          total   stress  (Ry/bohr**3)                   (kbar)     P=      -58.47
  -0.00041098   0.00000000   0.00000000          -60.46        0.00        0.00
   0.00000000  -0.00041098   0.00000000            0.00      -60.46        0.00
   0.00000000   0.00000000  -0.00037043            0.00        0.00      -54.49

     Energy error            =      5.0E-04 Ry
     Gradient error          =      1.1E-02 Ry/Bohr

     number of scf cycles    =   2
     number of bfgs steps    =   1

     energy             old  =    -380.5748077571 Ry
     energy             new  =    -380.5753067463 Ry

     CASE: energy            _new < energy            _old

     new trust radius        =       0.0224529197 bohr
     new conv_thr            =       0.0000000005 Ry


ATOMIC_POSITIONS (crystal)
Pb               0.0000000000        0.0000000000        1.0033951078
Ti               0.5000000000        0.5000000000        0.5374810500
O                0.5000000000        0.5000000000        0.1041127410
O                0.5000000000        0.0000000000        0.6111476947
O                0.0000000000        0.5000000000        0.6111476947



     Writing config-only to output data dir ./pto_140.save/ :
     XML data file
     NEW-OLD atomic charge density approx. for the potential

     negative rho (up, down):  1.576E-02 0.000E+00

     total cpu time spent up to now is       85.5 secs

     Self-consistent Calculation

     iteration #  1     ecut=   140.00 Ry     beta= 0.70
     CG style diagonalization
     c_bands:  1 eigenvalues not converged
     c_bands:  1 eigenvalues not converged
     c_bands:  1 eigenvalues not converged
     c_bands:  1 eigenvalues not converged
     c_bands:  1 eigenvalues not converged
     ethr =  1.00E-06,  avg # of iterations =  7.0

     negative rho (up, down):  1.572E-02 0.000E+00

     total cpu time spent up to now is       90.3 secs

     total energy              =    -380.57544460 Ry
     estimated scf accuracy    <       0.00024107 Ry

     iteration #  2     ecut=   140.00 Ry     beta= 0.70
     CG style diagonalization
     ethr =  5.48E-07,  avg # of iterations =  4.7

     negative rho (up, down):  1.573E-02 0.000E+00

     total cpu time spent up to now is       93.5 secs

     total energy              =    -380.57546613 Ry
     estimated scf accuracy    <       0.00061705 Ry

     iteration #  3     ecut=   140.00 Ry     beta= 0.70
     CG style diagonalization
     ethr =  5.48E-07,  avg # of iterations =  4.3

     negative rho (up, down):  1.572E-02 0.000E+00

     total cpu time spent up to now is       96.5 secs

     total energy              =    -380.57559292 Ry
     estimated scf accuracy    <       0.00004676 Ry

     iteration #  4     ecut=   140.00 Ry     beta= 0.70
     CG style diagonalization
     ethr =  1.06E-07,  avg # of iterations =  3.7

     negative rho (up, down):  1.572E-02 0.000E+00

     total cpu time spent up to now is       99.1 secs

     total energy              =    -380.57560274 Ry
     estimated scf accuracy    <       0.00000596 Ry

     iteration #  5     ecut=   140.00 Ry     beta= 0.70
     CG style diagonalization
     ethr =  1.35E-08,  avg # of iterations =  4.4

     negative rho (up, down):  1.572E-02 0.000E+00

     total cpu time spent up to now is      102.1 secs

     total energy              =    -380.57560625 Ry
     estimated scf accuracy    <       0.00000087 Ry

     iteration #  6     ecut=   140.00 Ry     beta= 0.70
     CG style diagonalization
     ethr =  1.97E-09,  avg # of iterations =  4.5

     negative rho (up, down):  1.572E-02 0.000E+00

     total cpu time spent up to now is      105.1 secs

     total energy              =    -380.57560668 Ry
     estimated scf accuracy    <       0.00000035 Ry

     iteration #  7     ecut=   140.00 Ry     beta= 0.70
     CG style diagonalization
     ethr =  7.85E-10,  avg # of iterations =  4.1

     negative rho (up, down):  1.572E-02 0.000E+00

     total cpu time spent up to now is      107.9 secs

     total energy              =    -380.57560678 Ry
     estimated scf accuracy    <       0.00000007 Ry

     iteration #  8     ecut=   140.00 Ry     beta= 0.70
     CG style diagonalization
     ethr =  1.56E-10,  avg # of iterations =  4.8

     negative rho (up, down):  1.572E-02 0.000E+00

     total cpu time spent up to now is      111.2 secs

     total energy              =    -380.57560683 Ry
     estimated scf accuracy    <          7.6E-09 Ry

     iteration #  9     ecut=   140.00 Ry     beta= 0.70
     CG style diagonalization
     ethr =  1.72E-11,  avg # of iterations =  5.8

     negative rho (up, down):  1.572E-02 0.000E+00

     total cpu time spent up to now is      115.0 secs

     End of self-consistent calculation

          k = 0.0000 0.0000 0.0000 ( 11733 PWs)   bands (ev):

   -45.7864 -22.4688 -22.3589 -22.3589  -7.5123  -6.4290  -6.2190  -5.0290
    -5.0290  -4.9968  -4.8838  -4.7551   4.2049   6.3093   6.3093   6.6960
     8.1378   8.1378   8.4901   8.6620   8.9495   8.9495

          k = 0.0000 0.0000 0.2378 ( 11745 PWs)   bands (ev):

   -45.7861 -22.4885 -22.3582 -22.3582  -7.3149  -6.3705  -6.1653  -5.0441
    -5.0441  -4.9955  -4.8755  -4.8258   3.4363   6.3585   6.3585   6.8235
     7.9218   7.9218   8.4052   8.7902   9.0493   9.0493

          k = 0.0000 0.0000-0.4756 ( 11758 PWs)   bands (ev):

   -45.7859 -22.5080 -22.3574 -22.3574  -7.0979  -6.3061  -6.1213  -5.0591
    -5.0591  -4.9943  -4.9024  -4.8689   2.9247   6.1776   6.3887   6.3887
     7.7832   7.7832   8.3242   9.1183   9.1183  10.0029

          k = 0.0000 0.1667 0.0000 ( 11794 PWs)   bands (ev):

   -45.7861 -22.4681 -22.3762 -22.3582  -7.3783  -6.4010  -6.1928  -5.0507
    -5.0276  -5.0095  -4.8838  -4.7457   3.7862   6.3514   6.4196   6.6994
     8.1214   8.1629   8.4746   8.5777   8.6216   8.9934

          k = 0.0000 0.1667 0.2378 ( 11770 PWs)   bands (ev):

   -45.7858 -22.4876 -22.3754 -22.3574  -7.1966  -6.3584  -6.1337  -5.0476
    -5.0432  -5.0087  -4.8815  -4.7821   3.2335   6.1421   6.4768   6.9136
     7.6170   7.9166   8.2628   8.6582   8.7188   9.3621

          k = 0.0000 0.1667-0.4756 ( 11786 PWs)   bands (ev):

   -45.7855 -22.5070 -22.3745 -22.3566  -7.0066  -6.3100  -6.0750  -5.0586
    -5.0420  -5.0079  -4.8882  -4.8164   2.8074   5.8306   6.5095   6.5981
     7.4427   7.7857   8.3419   8.7114   8.7974   9.9425

          k = 0.0000 0.3333 0.0000 ( 11768 PWs)   bands (ev):

   -45.7854 -22.4665 -22.4106 -22.3568  -7.0860  -6.3417  -6.1555  -5.0827
    -5.0347  -5.0247  -4.8714  -4.7555   3.2154   5.9919   6.6665   6.7095
     7.8419   7.8852   8.2634   8.3431   8.7004   9.5928

          k = 0.0000 0.3333 0.2378 ( 11770 PWs)   bands (ev):

   -45.7852 -22.4858 -22.4095 -22.3560  -6.9663  -6.3048  -6.0761  -5.0522
    -5.0414  -5.0347  -4.8707  -4.7275   2.8895   5.8610   6.5568   6.7892
     7.2921   7.7138   7.8576   8.3457   8.9028   9.6720

          k = 0.0000 0.3333-0.4756 ( 11744 PWs)   bands (ev):

   -45.7849 -22.5049 -22.4085 -22.3552  -6.8770  -6.2424  -5.9707  -5.0577
    -5.0350  -5.0130  -4.9074  -4.6792   2.5982   5.5354   6.3391   6.8149
     7.1847   7.3859   7.6654   8.3902   9.2579   9.5427

          k = 0.0000-0.5000 0.0000 ( 11772 PWs)   bands (ev):

   -45.7851 -22.4656 -22.4277 -22.3561  -6.9231  -6.2955  -6.1633  -5.0962
    -5.0472  -5.0233  -4.8340  -4.7973   3.0074   5.6454   6.9216   6.9825
     7.3687   7.4782   8.2632   8.2951   8.7336  10.3337

          k = 0.0000-0.5000 0.2378 ( 11772 PWs)   bands (ev):

   -45.7848 -22.4848 -22.4266 -22.3553  -6.8656  -6.2257  -6.0753  -5.0632
    -5.0478  -5.0403  -4.8376  -4.7238   2.7500   5.6078   6.5774   6.8319
     7.1768   7.2832   7.9671   8.3070   8.9120   9.8345

          k = 0.0000-0.5000-0.4756 ( 11784 PWs)   bands (ev):

   -45.7846 -22.5038 -22.4254 -22.3544  -6.8479  -6.1511  -5.9235  -5.0572
    -5.0484  -5.0225  -4.8899  -4.6238   2.5124   5.4046   6.0408   6.8980
     7.1104   7.3872   7.4036   8.3139   9.1437   9.6013

          k = 0.1667 0.1667 0.0000 ( 11785 PWs)   bands (ev):

   -45.7858 -22.4673 -22.3756 -22.3753  -7.2475  -6.3717  -6.1868  -5.0558
    -5.0423  -5.0106  -4.8608  -4.7366   3.4928   6.3044   6.5254   6.7209
     7.6661   7.8427   8.4713   8.5721   8.8920   9.1828

          k = 0.1667 0.1667 0.2378 ( 11761 PWs)   bands (ev):

   -45.7855 -22.4868 -22.3747 -22.3745  -7.0766  -6.3479  -6.1288  -5.0583
    -5.0372  -5.0035  -4.8533  -4.7507   3.1240   6.0914   6.1730   6.8560
     7.5219   7.5441   8.2942   8.7346   8.9624   9.3132

          k = 0.1667 0.1667-0.4756 ( 11752 PWs)   bands (ev):

   -45.7852 -22.5060 -22.3738 -22.3736  -6.9049  -6.3240  -6.0613  -5.0698
    -5.0199  -4.9779  -4.8621  -4.7696   2.7855   5.8848   5.8874   6.6049
     7.4337   7.4736   8.2106   8.8044   9.0167   9.6518

          k = 0.1667 0.3333 0.0000 ( 11763 PWs)   bands (ev):

   -45.7851 -22.4658 -22.4097 -22.3739  -6.9659  -6.3135  -6.1878  -5.0765
    -5.0322  -4.9945  -4.8326  -4.7449   3.0260   6.0020   6.5291   6.8345
     7.2007   7.7035   8.0650   8.6893   8.8800   9.6531

          k = 0.1667 0.3333 0.2378 ( 11775 PWs)   bands (ev):

   -45.7848 -22.4850 -22.4087 -22.3731  -6.8430  -6.3075  -6.1228  -5.0556
    -5.0321  -4.9726  -4.8154  -4.7039   2.8959   5.8267   5.9906   6.4944
     6.9170   7.5701   8.3769   8.6632   8.9995   9.3994

          k = 0.1667 0.3333-0.4756 ( 11772 PWs)   bands (ev):

   -45.7846 -22.5041 -22.4077 -22.3722  -6.7565  -6.2867  -6.0225  -5.0538
    -5.0102  -4.9338  -4.8268  -4.6537   2.7273   5.4792   5.9095   6.2292
     6.4439   7.4409   8.4461   8.7390   8.9259   9.4133

          k = 0.1667-0.5000 0.0000 ( 11780 PWs)   bands (ev):

   -45.7848 -22.4649 -22.4268 -22.3731  -6.8109  -6.2695  -6.2131  -5.0789
    -5.0248  -4.9747  -4.8031  -4.7860   2.8393   5.6624   6.6522   6.8702
     7.2076   7.4783   7.8435   8.7713   8.8360   9.9655

          k = 0.1667-0.5000 0.2378 ( 11764 PWs)   bands (ev):

   -45.7845 -22.4840 -22.4257 -22.3723  -6.7422  -6.2392  -6.1468  -5.0540
    -5.0192  -4.9542  -4.7902  -4.6989   2.7895   5.6129   5.8999   6.2615
     6.8682   7.7059   8.1746   8.6530   9.0145   9.3517

          k = 0.1667-0.5000-0.4756 ( 11780 PWs)   bands (ev):

   -45.7843 -22.5030 -22.4246 -22.3714  -6.7269  -6.2102  -6.0078  -5.0488
    -4.9813  -4.9338  -4.8043  -4.5996   2.7000   5.3669   5.7738   5.8923
     6.3081   7.5579   8.2945   8.6053   8.6680   9.6123

          k = 0.3333 0.3333 0.0000 ( 11806 PWs)   bands (ev):

   -45.7845 -22.4642 -22.4081 -22.4078  -6.7308  -6.2580  -6.2337  -5.0577
    -5.0149  -4.9224  -4.7600  -4.7470   2.6639   5.9557   6.1234   6.9098
     7.0897   7.1698   7.9204   8.4913   9.3825   9.3890

          k = 0.3333 0.3333 0.2378 ( 11769 PWs)   bands (ev):

   -45.7842 -22.4833 -22.4071 -22.4069  -6.5995  -6.3055  -6.2058  -5.0215
    -5.0094  -4.8684  -4.7135  -4.6702   2.8434   5.5830   5.6539   5.9484
     6.6271   7.0636   8.3783   8.9634   8.9717   9.3957

          k = 0.3333 0.3333-0.4756 ( 11776 PWs)   bands (ev):

   -45.7839 -22.5022 -22.4061 -22.4060  -6.5314  -6.3495  -6.1035  -5.0038
    -4.9857  -4.8110  -4.6655  -4.5964   3.0050   5.1968   5.2238   5.7053
     6.3580   6.5541   7.6549   9.2992   9.3730   9.4869

          k = 0.3333-0.5000 0.0000 ( 11804 PWs)   bands (ev):

   -45.7842 -22.4632 -22.4249 -22.4070  -6.6267  -6.2448  -6.2230  -5.0504
    -4.9934  -4.8565  -4.7824  -4.7274   2.4947   5.6352   6.1604   6.7249
     7.2193   7.4214   7.5059   8.4833   9.0837   9.5759

          k = 0.3333-0.5000 0.2378 ( 11796 PWs)   bands (ev):

   -45.7839 -22.4823 -22.4239 -22.4061  -6.4952  -6.2695  -6.2587  -5.0137
    -4.9838  -4.7835  -4.7019  -4.6484   2.7849   5.4826   5.5871   5.6783
     6.4121   7.1330   7.9210   8.9515   8.9724   9.5533

          k = 0.3333-0.5000-0.4756 ( 11756 PWs)   bands (ev):

   -45.7836 -22.5013 -22.4229 -22.4053  -6.4816  -6.3126  -6.1385  -4.9882
    -4.9645  -4.7313  -4.6217  -4.5490   3.1487   4.9539   5.1193   5.4788
     6.1587   6.5514   6.8985   9.4030   9.5290   9.6362

          k =-0.5000-0.5000 0.0000 ( 11808 PWs)   bands (ev):

   -45.7838 -22.4623 -22.4239 -22.4239  -6.5827  -6.2028  -6.2028  -5.0407
    -4.9531  -4.7954  -4.7954  -4.6932   2.3224   5.4762   6.0171   6.9322
     6.9322   7.5298   7.5298   8.2375   8.6109   9.8342

          k =-0.5000-0.5000 0.2378 ( 11816 PWs)   bands (ev):

   -45.7836 -22.4814 -22.4230 -22.4230  -6.3903  -6.2859  -6.2859  -5.0027
    -4.9513  -4.6631  -4.6596  -4.6596   2.7280   5.4324   5.5941   5.5941
     6.0234   7.0729   7.2859   8.9817   8.9817   9.8188

          k =-0.5000-0.5000-0.4756 ( 11784 PWs)   bands (ev):

   -45.7833 -22.5003 -22.4221 -22.4221  -6.3580  -6.3580  -6.1929  -4.9648
    -4.9495  -4.6232  -4.5328  -4.5328   3.3793   4.9663   4.9663   5.3139
     5.9310   6.0297   6.2362   9.6486   9.6486   9.8035

     highest occupied level (ev):    10.3337

!    total energy              =    -380.57560684 Ry
     estimated scf accuracy    <          3.6E-10 Ry

     The total energy is the sum of the following terms:
     one-electron contribution =     -84.64513046 Ry
     hartree contribution      =      71.46864220 Ry
     xc contribution           =    -102.56503939 Ry
     ewald contribution        =    -264.83407920 Ry

     convergence has been achieved in   9 iterations

     negative rho (up, down):  1.572E-02 0.000E+00

     Forces acting on atoms (cartesian axes, Ry/au):

     atom    1 type  1   force =     0.00000000    0.00000000   -0.00857921
     atom    2 type  2   force =     0.00000000    0.00000000    0.00275176
     atom    3 type  3   force =     0.00000000    0.00000000    0.00128570
     atom    4 type  3   force =     0.00000000    0.00000000    0.00227087
     atom    5 type  3   force =     0.00000000    0.00000000    0.00227087

     Total force =     0.009651     Total SCF correction =     0.000063


     Computing stress (Cartesian axis) and pressure


     negative rho (up, down):  1.572E-02 0.000E+00
          total   stress  (Ry/bohr**3)                   (kbar)     P=      -52.06
  -0.00039496   0.00000000   0.00000000          -58.10        0.00        0.00
   0.00000000  -0.00039496   0.00000000            0.00      -58.10        0.00
   0.00000000   0.00000000  -0.00027187            0.00        0.00      -39.99

     Energy error            =      3.0E-04 Ry
     Gradient error          =      8.6E-03 Ry/Bohr

     number of scf cycles    =   3
     number of bfgs steps    =   2

     energy             old  =    -380.5753067463 Ry
     energy             new  =    -380.5756068433 Ry

     CASE: energy            _new < energy            _old

     new trust radius        =       0.0189970255 bohr
     new conv_thr            =       0.0000000003 Ry


ATOMIC_POSITIONS (crystal)
Pb               0.0000000000        0.0000000000        1.0009432070
Ti               0.5000000000        0.5000000000        0.5372180261
O                0.5000000000        0.5000000000        0.1058420823
O                0.5000000000        0.0000000000        0.6116404863
O                0.0000000000        0.5000000000        0.6116404863



     Writing config-only to output data dir ./pto_140.save/ :
     XML data file
     NEW-OLD atomic charge density approx. for the potential

     negative rho (up, down):  1.575E-02 0.000E+00

     total cpu time spent up to now is      120.2 secs

     Self-consistent Calculation

     iteration #  1     ecut=   140.00 Ry     beta= 0.70
     CG style diagonalization
     ethr =  1.00E-06,  avg # of iterations =  5.6

     negative rho (up, down):  1.572E-02 0.000E+00

     total cpu time spent up to now is      124.3 secs

     total energy              =    -380.57566930 Ry
     estimated scf accuracy    <       0.00005614 Ry

     iteration #  2     ecut=   140.00 Ry     beta= 0.70
     CG style diagonalization
     ethr =  1.28E-07,  avg # of iterations =  4.8

     negative rho (up, down):  1.572E-02 0.000E+00

     total cpu time spent up to now is      127.5 secs

     total energy              =    -380.57571812 Ry
     estimated scf accuracy    <       0.00011445 Ry

     iteration #  3     ecut=   140.00 Ry     beta= 0.70
     CG style diagonalization
     ethr =  1.28E-07,  avg # of iterations =  4.4

     negative rho (up, down):  1.571E-02 0.000E+00

     total cpu time spent up to now is      130.5 secs

     total energy              =    -380.57574683 Ry
     estimated scf accuracy    <       0.00001702 Ry

     iteration #  4     ecut=   140.00 Ry     beta= 0.70
     CG style diagonalization
     ethr =  3.87E-08,  avg # of iterations =  3.7

     negative rho (up, down):  1.571E-02 0.000E+00

     total cpu time spent up to now is      133.1 secs

     total energy              =    -380.57575047 Ry
     estimated scf accuracy    <       0.00000181 Ry

     iteration #  5     ecut=   140.00 Ry     beta= 0.70
     CG style diagonalization
     ethr =  4.11E-09,  avg # of iterations =  4.4

     negative rho (up, down):  1.571E-02 0.000E+00

     total cpu time spent up to now is      136.1 secs

     total energy              =    -380.57575170 Ry
     estimated scf accuracy    <       0.00000014 Ry

     iteration #  6     ecut=   140.00 Ry     beta= 0.70
     CG style diagonalization
     ethr =  3.07E-10,  avg # of iterations =  5.2

     negative rho (up, down):  1.571E-02 0.000E+00

     total cpu time spent up to now is      139.6 secs

     total energy              =    -380.57575182 Ry
     estimated scf accuracy    <       0.00000013 Ry

     iteration #  7     ecut=   140.00 Ry     beta= 0.70
     CG style diagonalization
     ethr =  2.98E-10,  avg # of iterations =  3.9

     negative rho (up, down):  1.571E-02 0.000E+00

     total cpu time spent up to now is      142.3 secs

     total energy              =    -380.57575185 Ry
     estimated scf accuracy    <       0.00000004 Ry

     iteration #  8     ecut=   140.00 Ry     beta= 0.70
     CG style diagonalization
     ethr =  8.60E-11,  avg # of iterations =  4.2

     negative rho (up, down):  1.571E-02 0.000E+00

     total cpu time spent up to now is      145.2 secs

     total energy              =    -380.57575186 Ry
     estimated scf accuracy    <          2.0E-09 Ry

     iteration #  9     ecut=   140.00 Ry     beta= 0.70
     CG style diagonalization
     c_bands:  1 eigenvalues not converged
     ethr =  4.55E-12,  avg # of iterations =  6.9

     negative rho (up, down):  1.571E-02 0.000E+00

     total cpu time spent up to now is      149.8 secs

     total energy              =    -380.57575187 Ry
     estimated scf accuracy    <          6.5E-10 Ry

     iteration # 10     ecut=   140.00 Ry     beta= 0.70
     CG style diagonalization
     ethr =  1.47E-12,  avg # of iterations =  4.7

     negative rho (up, down):  1.571E-02 0.000E+00

     total cpu time spent up to now is      152.9 secs

     End of self-consistent calculation

          k = 0.0000 0.0000 0.0000 ( 11733 PWs)   bands (ev):

   -45.7730 -22.4665 -22.3459 -22.3459  -7.5226  -6.4433  -6.2199  -5.0232
    -5.0232  -4.9899  -4.8837  -4.7408   4.2014   6.3000   6.3000   6.7297
     8.1086   8.1086   8.4836   8.6331   8.9383   8.9383

          k = 0.0000 0.0000 0.2378 ( 11745 PWs)   bands (ev):

   -45.7727 -22.4862 -22.3451 -22.3451  -7.3266  -6.3861  -6.1656  -5.0382
    -5.0382  -4.9886  -4.8742  -4.8101   3.4353   6.3444   6.3444   6.8405
     7.9031   7.9031   8.3986   8.7816   9.0363   9.0363

          k = 0.0000 0.0000-0.4756 ( 11758 PWs)   bands (ev):

   -45.7724 -22.5057 -22.3444 -22.3444  -7.1117  -6.3235  -6.1204  -5.0532
    -5.0532  -4.9873  -4.8850  -4.8662   2.9219   6.1903   6.3687   6.3687
     7.7741   7.7741   8.3175   9.1042   9.1042  10.0009

          k = 0.0000 0.1667 0.0000 ( 11794 PWs)   bands (ev):

   -45.7727 -22.4658 -22.3632 -22.3452  -7.3887  -6.4159  -6.1955  -5.0450
    -5.0218  -5.0025  -4.8808  -4.7311   3.7854   6.3440   6.4102   6.7105
     8.1105   8.1332   8.4645   8.5675   8.6017   8.9812

          k = 0.0000 0.1667 0.2378 ( 11770 PWs)   bands (ev):

   -45.7724 -22.4853 -22.3624 -22.3444  -7.2083  -6.3742  -6.1357  -5.0410
    -5.0373  -5.0017  -4.8783  -4.7670   3.2342   6.1301   6.4627   6.9213
     7.6048   7.8973   8.2520   8.6462   8.7070   9.3588

          k = 0.0000 0.1667-0.4756 ( 11786 PWs)   bands (ev):

   -45.7721 -22.5047 -22.3615 -22.3436  -7.0204  -6.3268  -6.0756  -5.0527
    -5.0344  -5.0010  -4.8837  -4.8015   2.8071   5.8209   6.4897   6.6002
     7.4351   7.7751   8.3269   8.6995   8.7853   9.9473

          k = 0.0000 0.3333 0.0000 ( 11768 PWs)   bands (ev):

   -45.7720 -22.4642 -22.3977 -22.3438  -7.0966  -6.3576  -6.1627  -5.0761
    -5.0277  -5.0188  -4.8625  -4.7414   3.2167   5.9854   6.6636   6.6996
     7.8312   7.8789   8.2289   8.3343   8.6784   9.5969

          k = 0.0000 0.3333 0.2378 ( 11770 PWs)   bands (ev):

   -45.7718 -22.4835 -22.3966 -22.3430  -6.9783  -6.3210  -6.0817  -5.0449
    -5.0355  -5.0277  -4.8632  -4.7129   2.8929   5.8503   6.5532   6.7757
     7.2772   7.6982   7.8548   8.3281   8.8892   9.6756

          k = 0.0000 0.3333-0.4756 ( 11744 PWs)   bands (ev):

   -45.7715 -22.5026 -22.3955 -22.3421  -6.8902  -6.2600  -5.9743  -5.0517
    -5.0280  -5.0048  -4.8990  -4.6661   2.6025   5.5204   6.3401   6.7961
     7.1676   7.3838   7.6518   8.3785   9.2436   9.5516

          k = 0.0000-0.5000 0.0000 ( 11772 PWs)   bands (ev):

   -45.7717 -22.4633 -22.4149 -22.3431  -6.9341  -6.3110  -6.1739  -5.0886
    -5.0401  -5.0174  -4.8172  -4.7887   3.0092   5.6422   6.9082   6.9708
     7.3658   7.4745   8.2530   8.2585   8.7107  10.3355

          k = 0.0000-0.5000 0.2378 ( 11772 PWs)   bands (ev):

   -45.7714 -22.4825 -22.4137 -22.3422  -6.8779  -6.2429  -6.0821  -5.0552
    -5.0408  -5.0344  -4.8280  -4.7095   2.7545   5.6021   6.5700   6.8135
     7.1638   7.2701   7.9628   8.2849   8.9011   9.8384

          k = 0.0000-0.5000-0.4756 ( 11784 PWs)   bands (ev):

   -45.7712 -22.5015 -22.4125 -22.3414  -6.8606  -6.1702  -5.9282  -5.0513
    -5.0414  -5.0140  -4.8789  -4.6116   2.5191   5.3920   6.0365   6.8734
     7.0927   7.3728   7.4089   8.3004   9.1536   9.5872

          k = 0.1667 0.1667 0.0000 ( 11785 PWs)   bands (ev):

   -45.7724 -22.4650 -22.3627 -22.3623  -7.2579  -6.3873  -6.1909  -5.0498
    -5.0363  -5.0036  -4.8562  -4.7217   3.4911   6.2984   6.5195   6.7218
     7.6443   7.8309   8.4570   8.5667   8.8798   9.1668

          k = 0.1667 0.1667 0.2378 ( 11761 PWs)   bands (ev):

   -45.7721 -22.4845 -22.3617 -22.3615  -7.0886  -6.3639  -6.1316  -5.0520
    -5.0303  -4.9968  -4.8491  -4.7357   3.1241   6.0808   6.1617   6.8558
     7.5133   7.5332   8.2753   8.7232   8.9492   9.3142

          k = 0.1667 0.1667-0.4756 ( 11752 PWs)   bands (ev):

   -45.7718 -22.5038 -22.3608 -22.3606  -6.9189  -6.3403  -6.0623  -5.0634
    -5.0129  -4.9713  -4.8577  -4.7544   2.7853   5.8718   5.8795   6.6018
     7.4148   7.4712   8.1985   8.7919   9.0024   9.6589

          k = 0.1667 0.3333 0.0000 ( 11763 PWs)   bands (ev):

   -45.7717 -22.4634 -22.3968 -22.3609  -6.9761  -6.3301  -6.1954  -5.0695
    -5.0259  -4.9876  -4.8244  -4.7303   3.0231   5.9966   6.5205   6.8326
     7.1895   7.6825   8.0606   8.6769   8.8647   9.6501

          k = 0.1667 0.3333 0.2378 ( 11775 PWs)   bands (ev):

   -45.7714 -22.4827 -22.3958 -22.3601  -6.8552  -6.3236  -6.1277  -5.0488
    -5.0252  -4.9666  -4.8079  -4.6897   2.8952   5.8168   5.9789   6.4903
     6.9106   7.5655   8.3605   8.6489   8.9860   9.4026

          k = 0.1667 0.3333-0.4756 ( 11772 PWs)   bands (ev):

   -45.7712 -22.5018 -22.3947 -22.3592  -6.7701  -6.3031  -6.0243  -5.0475
    -5.0033  -4.9285  -4.8184  -4.6408   2.7284   5.4659   5.8952   6.2280
     6.4374   7.4376   8.4309   8.7251   8.9320   9.4023

          k = 0.1667-0.5000 0.0000 ( 11780 PWs)   bands (ev):

   -45.7714 -22.4625 -22.4139 -22.3602  -6.8208  -6.2860  -6.2233  -5.0715
    -5.0184  -4.9684  -4.7879  -4.7758   2.8359   5.6594   6.6364   6.8655
     7.2046   7.4762   7.8174   8.7579   8.8200   9.9695

          k = 0.1667-0.5000 0.2378 ( 11764 PWs)   bands (ev):

   -45.7711 -22.4817 -22.4128 -22.3593  -6.7546  -6.2562  -6.1517  -5.0470
    -5.0123  -4.9495  -4.7798  -4.6854   2.7888   5.6074   5.8863   6.2534
     6.8636   7.6995   8.1632   8.6347   9.0042   9.3554

          k = 0.1667-0.5000-0.4756 ( 11780 PWs)   bands (ev):

   -45.7708 -22.5007 -22.4117 -22.3584  -6.7401  -6.2277  -6.0094  -5.0425
    -4.9742  -4.9302  -4.7932  -4.5880   2.7022   5.3540   5.7538   5.8892
     6.3068   7.5549   8.2994   8.5900   8.6620   9.5978

          k = 0.3333 0.3333 0.0000 ( 11806 PWs)   bands (ev):

   -45.7711 -22.4618 -22.3952 -22.3948  -6.7382  -6.2762  -6.2443  -5.0504
    -5.0079  -4.9139  -4.7533  -4.7315   2.6539   5.9481   6.1240   6.8985
     7.0865   7.1559   7.9190   8.4847   9.3671   9.3927

          k = 0.3333 0.3333 0.2378 ( 11769 PWs)   bands (ev):

   -45.7708 -22.4809 -22.3942 -22.3940  -6.6106  -6.3220  -6.2104  -5.0141
    -5.0029  -4.8632  -4.7065  -4.6565   2.8333   5.5737   5.6492   5.9424
     6.6285   7.0628   8.3819   8.9516   8.9621   9.3803

          k = 0.3333 0.3333-0.4756 ( 11776 PWs)   bands (ev):

   -45.7705 -22.4999 -22.3932 -22.3931  -6.5458  -6.3645  -6.1026  -4.9975
    -4.9784  -4.8088  -4.6581  -4.5842   2.9957   5.1923   5.2079   5.7021
     6.3571   6.5577   7.6718   9.2834   9.3582   9.4727

          k = 0.3333-0.5000 0.0000 ( 11804 PWs)   bands (ev):

   -45.7707 -22.4609 -22.4120 -22.3941  -6.6305  -6.2599  -6.2416  -5.0430
    -4.9863  -4.8460  -4.7686  -4.7202   2.4815   5.6308   6.1612   6.7156
     7.2067   7.4166   7.5016   8.4790   9.0933   9.5616

          k = 0.3333-0.5000 0.2378 ( 11796 PWs)   bands (ev):

   -45.7705 -22.4800 -22.4110 -22.3932  -6.5051  -6.2863  -6.2640  -5.0064
    -4.9771  -4.7803  -4.6899  -4.6382   2.7698   5.4776   5.5816   5.6752
     6.4125   7.1315   7.9359   8.9414   8.9582   9.5382

          k = 0.3333-0.5000-0.4756 ( 11756 PWs)   bands (ev):

   -45.7702 -22.4989 -22.4100 -22.3923  -6.4957  -6.3278  -6.1364  -4.9815
    -4.9574  -4.7318  -4.6114  -4.5390   3.1312   4.9447   5.1133   5.4780
     6.1581   6.5519   6.9252   9.3883   9.5135   9.6228

          k =-0.5000-0.5000 0.0000 ( 11808 PWs)   bands (ev):

   -45.7704 -22.4600 -22.4110 -22.4110  -6.5818  -6.2224  -6.2224  -5.0333
    -4.9464  -4.7791  -4.7791  -4.6933   2.3047   5.4709   6.0216   6.9252
     6.9252   7.5227   7.5227   8.2371   8.6248   9.8190

          k =-0.5000-0.5000 0.2378 ( 11816 PWs)   bands (ev):

   -45.7701 -22.4790 -22.4101 -22.4101  -6.3883  -6.3025  -6.3025  -4.9954
    -4.9445  -4.6645  -4.6468  -4.6468   2.7049   5.4284   5.5916   5.5916
     6.0279   7.0713   7.3084   8.9702   8.9702   9.8038

          k =-0.5000-0.5000-0.4756 ( 11784 PWs)   bands (ev):

   -45.7699 -22.4980 -22.4092 -22.4092  -6.3724  -6.3724  -6.1894  -4.9574
    -4.9427  -4.6264  -4.5227  -4.5227   3.3395   4.9657   4.9657   5.3132
     5.9719   6.0342   6.2315   9.6360   9.6360   9.7886

     highest occupied level (ev):    10.3355

!    total energy              =    -380.57575187 Ry
     estimated scf accuracy    <          3.9E-11 Ry

     The total energy is the sum of the following terms:
     one-electron contribution =     -84.96128210 Ry
     hartree contribution      =      71.63018243 Ry
     xc contribution           =    -102.57344100 Ry
     ewald contribution        =    -264.67121119 Ry

     convergence has been achieved in  10 iterations

     negative rho (up, down):  1.571E-02 0.000E+00

     Forces acting on atoms (cartesian axes, Ry/au):

     atom    1 type  1   force =     0.00000000    0.00000000   -0.00719075
     atom    2 type  2   force =     0.00000000    0.00000000    0.00542422
     atom    3 type  3   force =     0.00000000    0.00000000   -0.00359612
     atom    4 type  3   force =     0.00000000    0.00000000    0.00268133
     atom    5 type  3   force =     0.00000000    0.00000000    0.00268133

     Total force =     0.010413     Total SCF correction =     0.000012


     Computing stress (Cartesian axis) and pressure


     negative rho (up, down):  1.571E-02 0.000E+00
          total   stress  (Ry/bohr**3)                   (kbar)     P=      -47.70
  -0.00037856   0.00000000   0.00000000          -55.69        0.00        0.00
   0.00000000  -0.00037856   0.00000000            0.00      -55.69        0.00
   0.00000000   0.00000000  -0.00021565            0.00        0.00      -31.72

     Energy error            =      1.5E-04 Ry
     Gradient error          =      7.2E-03 Ry/Bohr

     number of scf cycles    =   4
     number of bfgs steps    =   3

     energy             old  =    -380.5756068433 Ry
     energy             new  =    -380.5757518714 Ry

     CASE: energy            _new < energy            _old

     new trust radius        =       0.0208967281 bohr
     new conv_thr            =       0.0000000001 Ry


ATOMIC_POSITIONS (crystal)
Pb               0.0000000000        0.0000000000        0.9982461162
Ti               0.5000000000        0.5000000000        0.5374936612
O                0.5000000000        0.5000000000        0.1069107603
O                0.5000000000        0.0000000000        0.6123168751
O                0.0000000000        0.5000000000        0.6123168751



     Writing config-only to output data dir ./pto_140.save/ :
     XML data file
     NEW-OLD atomic charge density approx. for the potential

     negative rho (up, down):  1.579E-02 0.000E+00

     total cpu time spent up to now is      158.2 secs

     Self-consistent Calculation

     iteration #  1     ecut=   140.00 Ry     beta= 0.70
     CG style diagonalization
     ethr =  1.00E-06,  avg # of iterations =  5.5

     Threshold (ethr) on eigenvalues was too large:
     Diagonalizing with lowered threshold

     CG style diagonalization
     c_bands:  1 eigenvalues not converged
     c_bands:  2 eigenvalues not converged
     c_bands:  1 eigenvalues not converged
     c_bands:  1 eigenvalues not converged
     c_bands:  1 eigenvalues not converged
     c_bands:  2 eigenvalues not converged
     c_bands:  1 eigenvalues not converged
     c_bands:  1 eigenvalues not converged
     ethr =  4.32E-08,  avg # of iterations =  6.0

     negative rho (up, down):  1.576E-02 0.000E+00

     total cpu time spent up to now is      166.2 secs

     total energy              =    -380.57582484 Ry
     estimated scf accuracy    <       0.00002075 Ry

     iteration #  2     ecut=   140.00 Ry     beta= 0.70
     CG style diagonalization
     ethr =  4.72E-08,  avg # of iterations =  4.3

     negative rho (up, down):  1.575E-02 0.000E+00

     total cpu time spent up to now is      169.1 secs

     total energy              =    -380.57587028 Ry
     estimated scf accuracy    <       0.00001393 Ry

     iteration #  3     ecut=   140.00 Ry     beta= 0.70
     CG style diagonalization
     ethr =  3.17E-08,  avg # of iterations =  4.3

     negative rho (up, down):  1.574E-02 0.000E+00

     total cpu time spent up to now is      172.0 secs

     total energy              =    -380.57587811 Ry
     estimated scf accuracy    <       0.00001047 Ry

     iteration #  4     ecut=   140.00 Ry     beta= 0.70
     CG style diagonalization
     ethr =  2.38E-08,  avg # of iterations =  3.5

     negative rho (up, down):  1.574E-02 0.000E+00

     total cpu time spent up to now is      174.5 secs

     total energy              =    -380.57587999 Ry
     estimated scf accuracy    <       0.00000014 Ry

     iteration #  5     ecut=   140.00 Ry     beta= 0.70
     CG style diagonalization
     ethr =  3.10E-10,  avg # of iterations =  5.7

     negative rho (up, down):  1.574E-02 0.000E+00

     total cpu time spent up to now is      178.3 secs

     total energy              =    -380.57588031 Ry
     estimated scf accuracy    <       0.00000021 Ry

     iteration #  6     ecut=   140.00 Ry     beta= 0.70
     CG style diagonalization
     ethr =  3.10E-10,  avg # of iterations =  3.9

     negative rho (up, down):  1.574E-02 0.000E+00

     total cpu time spent up to now is      181.0 secs

     total energy              =    -380.57588034 Ry
     estimated scf accuracy    <       0.00000003 Ry

     iteration #  7     ecut=   140.00 Ry     beta= 0.70
     CG style diagonalization
     ethr =  6.57E-11,  avg # of iterations =  4.3

     negative rho (up, down):  1.574E-02 0.000E+00

     total cpu time spent up to now is      183.9 secs

     total energy              =    -380.57588035 Ry
     estimated scf accuracy    <          9.1E-09 Ry

     iteration #  8     ecut=   140.00 Ry     beta= 0.70
     CG style diagonalization
     ethr =  2.08E-11,  avg # of iterations =  4.7

     negative rho (up, down):  1.574E-02 0.000E+00

     total cpu time spent up to now is      187.1 secs

     total energy              =    -380.57588036 Ry
     estimated scf accuracy    <          7.1E-10 Ry

     iteration #  9     ecut=   140.00 Ry     beta= 0.70
     CG style diagonalization
     ethr =  1.61E-12,  avg # of iterations =  6.8

     negative rho (up, down):  1.574E-02 0.000E+00

     total cpu time spent up to now is      191.5 secs

     total energy              =    -380.57588036 Ry
     estimated scf accuracy    <          1.5E-10 Ry

     iteration # 10     ecut=   140.00 Ry     beta= 0.70
     CG style diagonalization
     ethr =  3.49E-13,  avg # of iterations =  5.3

     negative rho (up, down):  1.574E-02 0.000E+00

     total cpu time spent up to now is      195.0 secs

     End of self-consistent calculation

          k = 0.0000 0.0000 0.0000 ( 11733 PWs)   bands (ev):

   -45.7720 -22.4686 -22.3458 -22.3458  -7.5376  -6.4648  -6.2165  -5.0143
    -5.0143  -4.9787  -4.8801  -4.7228   4.2015   6.2860   6.2860   6.7601
     8.1004   8.1004   8.4742   8.6208   8.9195   8.9195

          k = 0.0000 0.0000 0.2378 ( 11745 PWs)   bands (ev):

   -45.7717 -22.4882 -22.3450 -22.3450  -7.3446  -6.4093  -6.1606  -5.0293
    -5.0293  -4.9775  -4.8692  -4.7904   3.4407   6.3285   6.3285   6.8558
     7.8978   7.8978   8.3893   8.7785   9.0167   9.0167

          k = 0.0000 0.0000-0.4756 ( 11758 PWs)   bands (ev):

   -45.7714 -22.5078 -22.3442 -22.3442  -7.1342  -6.3489  -6.1124  -5.0443
    -5.0443  -4.9762  -4.8629  -4.8594   2.9279   6.2009   6.3508   6.3508
     7.7717   7.7717   8.3082   9.0832   9.0832   9.9971

          k = 0.0000 0.1667 0.0000 ( 11794 PWs)   bands (ev):

   -45.7716 -22.4678 -22.3632 -22.3451  -7.4036  -6.4379  -6.1942  -5.0361
    -5.0129  -4.9914  -4.8744  -4.7128   3.7866   6.3329   6.3957   6.7204
     8.1117   8.1249   8.4524   8.5500   8.5879   8.9730

          k = 0.0000 0.1667 0.2378 ( 11770 PWs)   bands (ev):

   -45.7714 -22.4874 -22.3623 -22.3443  -7.2264  -6.3972  -6.1324  -5.0310
    -5.0284  -4.9906  -4.8714  -4.7481   3.2398   6.1176   6.4465   6.9263
     7.5997   7.8904   8.2389   8.6367   8.6898   9.3555

          k = 0.0000 0.1667-0.4756 ( 11786 PWs)   bands (ev):

   -45.7711 -22.5067 -22.3614 -22.3435  -7.0425  -6.3513  -6.0691  -5.0438
    -5.0234  -4.9898  -4.8753  -4.7825   2.8139   5.8136   6.4718   6.5984
     7.4310   7.7706   8.3042   8.6909   8.7670   9.9507

          k = 0.0000 0.3333 0.0000 ( 11768 PWs)   bands (ev):

   -45.7710 -22.4662 -22.3976 -22.3437  -7.1117  -6.3801  -6.1662  -5.0661
    -5.0165  -5.0099  -4.8503  -4.7234   3.2194   5.9733   6.6622   6.6835
     7.8197   7.8681   8.2143   8.3214   8.6660   9.6075

          k = 0.0000 0.3333 0.2378 ( 11770 PWs)   bands (ev):

   -45.7707 -22.4855 -22.3966 -22.3428  -6.9966  -6.3435  -6.0819  -5.0341
    -5.0265  -5.0166  -4.8521  -4.6948   2.8991   5.8369   6.5490   6.7588
     7.2609   7.6856   7.8514   8.3161   8.8785   9.6831

          k = 0.0000 0.3333-0.4756 ( 11744 PWs)   bands (ev):

   -45.7704 -22.5047 -22.3955 -22.3420  -6.9109  -6.2846  -5.9707  -5.0428
    -5.0168  -4.9931  -4.8866  -4.6499   2.6110   5.5085   6.3362   6.7792
     7.1467   7.3767   7.6384   8.3669   9.2405   9.5583

          k = 0.0000-0.5000 0.0000 ( 11772 PWs)   bands (ev):

   -45.7707 -22.4654 -22.4148 -22.3429  -6.9496  -6.3331  -6.1803  -5.0777
    -5.0289  -5.0085  -4.7963  -4.7766   3.0125   5.6311   6.9007   6.9510
     7.3564   7.4665   8.2390   8.2438   8.6974  10.3437

          k = 0.0000-0.5000 0.2378 ( 11772 PWs)   bands (ev):

   -45.7704 -22.4845 -22.4137 -22.3421  -6.8966  -6.2669  -6.0824  -5.0438
    -5.0296  -5.0255  -4.8147  -4.6919   2.7613   5.5902   6.5628   6.7948
     7.1422   7.2601   7.9571   8.2740   8.8909   9.8502

          k = 0.0000-0.5000-0.4756 ( 11784 PWs)   bands (ev):

   -45.7701 -22.5035 -22.4125 -22.3413  -6.8804  -6.1966  -5.9251  -5.0423
    -5.0302  -5.0022  -4.8639  -4.5965   2.5287   5.3798   6.0294   6.8442
     7.0819   7.3490   7.4084   8.2919   9.1714   9.5778

          k = 0.1667 0.1667 0.0000 ( 11785 PWs)   bands (ev):

   -45.7713 -22.4671 -22.3626 -22.3622  -7.2726  -6.4099  -6.1912  -5.0406
    -5.0270  -4.9928  -4.8480  -4.7032   3.4903   6.2866   6.5097   6.7241
     7.6386   7.8169   8.4537   8.5580   8.8609   9.1646

          k = 0.1667 0.1667 0.2378 ( 11761 PWs)   bands (ev):

   -45.7710 -22.4865 -22.3616 -22.3614  -7.1065  -6.3871  -6.1291  -5.0423
    -5.0200  -4.9863  -4.8411  -4.7171   3.1276   6.0698   6.1492   6.8546
     7.5094   7.5198   8.2680   8.7096   8.9323   9.3173

          k = 0.1667 0.1667-0.4756 ( 11752 PWs)   bands (ev):

   -45.7708 -22.5058 -22.3607 -22.3605  -6.9410  -6.3640  -6.0560  -5.0535
    -5.0018  -4.9615  -4.8493  -4.7355   2.7910   5.8617   5.8728   6.5930
     7.3940   7.4678   8.1952   8.7768   8.9855   9.6653

          k = 0.1667 0.3333 0.0000 ( 11763 PWs)   bands (ev):

   -45.7707 -22.4655 -22.3967 -22.3608  -6.9898  -6.3535  -6.1999  -5.0592
    -5.0163  -4.9767  -4.8124  -4.7118   3.0200   5.9848   6.5114   6.8283
     7.1756   7.6793   8.0526   8.6669   8.8478   9.6560

          k = 0.1667 0.3333 0.2378 ( 11775 PWs)   bands (ev):

   -45.7704 -22.4847 -22.3957 -22.3600  -6.8731  -6.3461  -6.1274  -5.0384
    -5.0150  -4.9567  -4.7967  -4.6720   2.8960   5.8050   5.9659   6.4830
     6.9047   7.5613   8.3473   8.6361   8.9737   9.4096

          k = 0.1667 0.3333-0.4756 ( 11772 PWs)   bands (ev):

   -45.7701 -22.5038 -22.3947 -22.3591  -6.7911  -6.3263  -6.0189  -5.0377
    -4.9927  -4.9193  -4.8064  -4.6248   2.7326   5.4559   5.8776   6.2251
     6.4254   7.4305   8.4265   8.7048   8.9411   9.3947

          k = 0.1667-0.5000 0.0000 ( 11780 PWs)   bands (ev):

   -45.7703 -22.4646 -22.4139 -22.3601  -6.8341  -6.3091  -6.2307  -5.0609
    -5.0086  -4.9579  -4.7685  -4.7621   2.8320   5.6486   6.6261   6.8533
     7.1963   7.4699   7.8127   8.7406   8.8087   9.9780

          k = 0.1667-0.5000 0.2378 ( 11764 PWs)   bands (ev):

   -45.7701 -22.4837 -22.4128 -22.3592  -6.7729  -6.2799  -6.1507  -5.0366
    -5.0021  -4.9402  -4.7661  -4.6685   2.7887   5.5960   5.8709   6.2460
     6.8587   7.6948   8.1487   8.6236   8.9913   9.3672

          k = 0.1667-0.5000-0.4756 ( 11780 PWs)   bands (ev):

   -45.7698 -22.5027 -22.4117 -22.3583  -6.7601  -6.2518  -6.0039  -5.0327
    -4.9639  -4.9218  -4.7788  -4.5735   2.7062   5.3431   5.7281   5.8828
     6.3048   7.5469   8.3073   8.5829   8.6531   9.5887

          k = 0.3333 0.3333 0.0000 ( 11806 PWs)   bands (ev):

   -45.7700 -22.4638 -22.3951 -22.3948  -6.7462  -6.3013  -6.2547  -5.0399
    -4.9973  -4.9015  -4.7420  -4.7123   2.6412   5.9356   6.1153   6.8951
     7.0796   7.1598   7.9075   8.4824   9.3455   9.4023

          k = 0.3333 0.3333 0.2378 ( 11769 PWs)   bands (ev):

   -45.7697 -22.4829 -22.3941 -22.3939  -6.6261  -6.3449  -6.2107  -5.0035
    -4.9926  -4.8538  -4.6952  -4.6395   2.8211   5.5652   5.6453   5.9313
     6.6259   7.0630   8.3899   8.9414   8.9596   9.3594

          k = 0.3333 0.3333-0.4756 ( 11776 PWs)   bands (ev):

   -45.7695 -22.5019 -22.3932 -22.3930  -6.5668  -6.3855  -6.0949  -4.9875
    -4.9678  -4.8021  -4.6472  -4.5693   2.9861   5.1891   5.1910   5.6959
     6.3547   6.5534   7.6957   9.2745   9.3359   9.4638

          k = 0.3333-0.5000 0.0000 ( 11804 PWs)   bands (ev):

   -45.7697 -22.4629 -22.4120 -22.3941  -6.6320  -6.2778  -6.2668  -5.0324
    -4.9754  -4.8319  -4.7513  -4.7074   2.4648   5.6196   6.1523   6.7175
     7.2117   7.4054   7.4916   8.4763   9.1056   9.5402

          k = 0.3333-0.5000 0.2378 ( 11796 PWs)   bands (ev):

   -45.7694 -22.4820 -22.4110 -22.3932  -6.5187  -6.3093  -6.2656  -4.9958
    -4.9667  -4.7725  -4.6750  -4.6239   2.7509   5.4749   5.5717   5.6714
     6.4075   7.1319   7.9538   8.9358   8.9491   9.5165

          k = 0.3333-0.5000-0.4756 ( 11756 PWs)   bands (ev):

   -45.7692 -22.5009 -22.4100 -22.3923  -6.5158  -6.3489  -6.1278  -4.9712
    -4.9470  -4.7268  -4.5987  -4.5262   3.1101   4.9345   5.1119   5.4710
     6.1534   6.5475   6.9592   9.3803   9.4904   9.6153

          k =-0.5000-0.5000 0.0000 ( 11808 PWs)   bands (ev):

   -45.7694 -22.4620 -22.4110 -22.4110  -6.5743  -6.2488  -6.2488  -5.0227
    -4.9356  -4.7592  -4.7592  -4.6878   2.2823   5.4595   6.0148   6.9338
     6.9338   7.5087   7.5087   8.2395   8.6379   9.7961

          k =-0.5000-0.5000 0.2378 ( 11816 PWs)   bands (ev):

   -45.7691 -22.4811 -22.4101 -22.4101  -6.3799  -6.3252  -6.3252  -4.9848
    -4.9338  -4.6601  -4.6311  -4.6311   2.6759   5.4179   5.5943   5.5943
     6.0211   7.0715   7.3334   8.9629   8.9629   9.7810

          k =-0.5000-0.5000-0.4756 ( 11784 PWs)   bands (ev):

   -45.7688 -22.5000 -22.4092 -22.4092  -6.3925  -6.3925  -6.1798  -4.9469
    -4.9319  -4.6233  -4.5103  -4.5103   3.2909   4.9695   4.9695   5.3059
     6.0193   6.0275   6.2281   9.6294   9.6294   9.7660

     highest occupied level (ev):    10.3437

!    total energy              =    -380.57588036 Ry
     estimated scf accuracy    <          6.7E-12 Ry

     The total energy is the sum of the following terms:
     one-electron contribution =     -85.26535262 Ry
     hartree contribution      =      71.78238018 Ry
     xc contribution           =    -102.57964131 Ry
     ewald contribution        =    -264.51326662 Ry

     convergence has been achieved in  10 iterations

     negative rho (up, down):  1.574E-02 0.000E+00

     Forces acting on atoms (cartesian axes, Ry/au):

     atom    1 type  1   force =     0.00000000    0.00000000   -0.00493844
     atom    2 type  2   force =     0.00000000    0.00000000    0.00490082
     atom    3 type  3   force =     0.00000000    0.00000000   -0.00512358
     atom    4 type  3   force =     0.00000000    0.00000000    0.00258060
     atom    5 type  3   force =     0.00000000    0.00000000    0.00258060

     Total force =     0.009380     Total SCF correction =     0.000010


     Computing stress (Cartesian axis) and pressure


     negative rho (up, down):  1.574E-02 0.000E+00
          total   stress  (Ry/bohr**3)                   (kbar)     P=      -44.62
  -0.00036239   0.00000000   0.00000000          -53.31        0.00        0.00
   0.00000000  -0.00036239   0.00000000            0.00      -53.31        0.00
   0.00000000   0.00000000  -0.00018520            0.00        0.00      -27.24

     Energy error            =      1.3E-04 Ry
     Gradient error          =      5.1E-03 Ry/Bohr

     number of scf cycles    =   5
     number of bfgs steps    =   4

     energy             old  =    -380.5757518714 Ry
     energy             new  =    -380.5758803594 Ry

     CASE: energy            _new < energy            _old

     new trust radius        =       0.0313450921 bohr
     new conv_thr            =       0.0000000001 Ry


ATOMIC_POSITIONS (crystal)
Pb               0.0000000000        0.0000000000        0.9942004800
Ti               0.5000000000        0.5000000000        0.5382746545
O                0.5000000000        0.5000000000        0.1077160776
O                0.5000000000        0.0000000000        0.6135465379
O                0.0000000000        0.5000000000        0.6135465379



     Writing config-only to output data dir ./pto_140.save/ :
     XML data file
     NEW-OLD atomic charge density approx. for the potential

     negative rho (up, down):  1.587E-02 0.000E+00

     total cpu time spent up to now is      200.3 secs

     Self-consistent Calculation

     iteration #  1     ecut=   140.00 Ry     beta= 0.70
     CG style diagonalization
     c_bands:  1 eigenvalues not converged
     c_bands:  1 eigenvalues not converged
     c_bands:  1 eigenvalues not converged
     c_bands:  1 eigenvalues not converged
     ethr =  1.00E-06,  avg # of iterations =  6.9

     negative rho (up, down):  1.583E-02 0.000E+00

     total cpu time spent up to now is      205.1 secs

     total energy              =    -380.57585623 Ry
     estimated scf accuracy    <       0.00004554 Ry

     iteration #  2     ecut=   140.00 Ry     beta= 0.70
     CG style diagonalization
     ethr =  1.03E-07,  avg # of iterations =  4.6

     negative rho (up, down):  1.581E-02 0.000E+00

     total cpu time spent up to now is      208.2 secs

     total energy              =    -380.57597783 Ry
     estimated scf accuracy    <       0.00003289 Ry

     iteration #  3     ecut=   140.00 Ry     beta= 0.70
     CG style diagonalization
     ethr =  7.48E-08,  avg # of iterations =  4.3

     negative rho (up, down):  1.580E-02 0.000E+00

     total cpu time spent up to now is      211.1 secs

     total energy              =    -380.57599659 Ry
     estimated scf accuracy    <       0.00001904 Ry

     iteration #  4     ecut=   140.00 Ry     beta= 0.70
     CG style diagonalization
     ethr =  4.33E-08,  avg # of iterations =  3.6

     negative rho (up, down):  1.579E-02 0.000E+00

     total cpu time spent up to now is      213.6 secs

     total energy              =    -380.57600097 Ry
     estimated scf accuracy    <       0.00000104 Ry

     iteration #  5     ecut=   140.00 Ry     beta= 0.70
     CG style diagonalization
     ethr =  2.35E-09,  avg # of iterations =  4.8

     negative rho (up, down):  1.579E-02 0.000E+00

     total cpu time spent up to now is      216.8 secs

     total energy              =    -380.57600192 Ry
     estimated scf accuracy    <       0.00000036 Ry

     iteration #  6     ecut=   140.00 Ry     beta= 0.70
     CG style diagonalization
     ethr =  8.15E-10,  avg # of iterations =  4.4

     negative rho (up, down):  1.579E-02 0.000E+00

     total cpu time spent up to now is      219.8 secs

     total energy              =    -380.57600209 Ry
     estimated scf accuracy    <       0.00000006 Ry

     iteration #  7     ecut=   140.00 Ry     beta= 0.70
     CG style diagonalization
     ethr =  1.32E-10,  avg # of iterations =  5.3

     negative rho (up, down):  1.580E-02 0.000E+00

     total cpu time spent up to now is      223.3 secs

     total energy              =    -380.57600209 Ry
     estimated scf accuracy    <          9.2E-09 Ry

     iteration #  8     ecut=   140.00 Ry     beta= 0.70
     CG style diagonalization
     ethr =  2.08E-11,  avg # of iterations =  5.7

     negative rho (up, down):  1.580E-02 0.000E+00

     total cpu time spent up to now is      227.1 secs

     total energy              =    -380.57600210 Ry
     estimated scf accuracy    <          1.6E-09 Ry

     iteration #  9     ecut=   140.00 Ry     beta= 0.70
     CG style diagonalization
     ethr =  3.74E-12,  avg # of iterations =  5.7

     negative rho (up, down):  1.580E-02 0.000E+00

     total cpu time spent up to now is      230.9 secs

     total energy              =    -380.57600210 Ry
     estimated scf accuracy    <          1.4E-10 Ry

     iteration # 10     ecut=   140.00 Ry     beta= 0.70
     CG style diagonalization
     ethr =  3.13E-13,  avg # of iterations =  7.1

     negative rho (up, down):  1.580E-02 0.000E+00

     total cpu time spent up to now is      235.6 secs

     End of self-consistent calculation

          k = 0.0000 0.0000 0.0000 ( 11733 PWs)   bands (ev):

   -45.7825 -22.4757 -22.3582 -22.3582  -7.5646  -6.5027  -6.2077  -4.9985
    -4.9985  -4.9585  -4.8714  -4.6926   4.2056   6.2603   6.2603   6.8001
     8.1077   8.1077   8.4571   8.6183   8.8849   8.8849

          k = 0.0000 0.0000 0.2378 ( 11745 PWs)   bands (ev):

   -45.7823 -22.4953 -22.3574 -22.3574  -7.3772  -6.4500  -6.1483  -5.0135
    -5.0135  -4.9572  -4.8581  -4.7574   3.4549   6.3021   6.3021   6.8759
     7.9032   7.9032   8.3724   8.7795   8.9818   8.9818

          k = 0.0000 0.0000-0.4756 ( 11758 PWs)   bands (ev):

   -45.7820 -22.5148 -22.3566 -22.3566  -7.1749  -6.3929  -6.0945  -5.0284
    -5.0284  -4.9560  -4.8455  -4.8264   2.9455   6.2137   6.3245   6.3245
     7.7761   7.7761   8.2915   9.0464   9.0464   9.9901

          k = 0.0000 0.1667 0.0000 ( 11794 PWs)   bands (ev):

   -45.7822 -22.4749 -22.3755 -22.3574  -7.4305  -6.4765  -6.1882  -5.0200
    -4.9970  -4.9711  -4.8618  -4.6823   3.7906   6.3125   6.3689   6.7341
     8.1239   8.1322   8.4321   8.5171   8.5733   8.9661

          k = 0.0000 0.1667 0.2378 ( 11770 PWs)   bands (ev):

   -45.7819 -22.4944 -22.3747 -22.3566  -7.2589  -6.4375  -6.1224  -5.0134
    -5.0125  -4.9704  -4.8579  -4.7166   3.2525   6.0979   6.4194   6.9313
     7.5986   7.8924   8.2180   8.6248   8.6600   9.3517

          k = 0.0000 0.1667-0.4756 ( 11786 PWs)   bands (ev):

   -45.7817 -22.5138 -22.3738 -22.3559  -7.0827  -6.3938  -6.0533  -5.0279
    -5.0044  -4.9696  -4.8595  -4.7506   2.8308   5.8037   6.4453   6.5917
     7.4292   7.7711   8.2647   8.6810   8.7352   9.9553

          k = 0.0000 0.3333 0.0000 ( 11768 PWs)   bands (ev):

   -45.7816 -22.4733 -22.4101 -22.3560  -7.1386  -6.4193  -6.1670  -5.0482
    -4.9964  -4.9939  -4.8297  -4.6931   3.2240   5.9510   6.6536   6.6632
     7.8032   7.8471   8.2120   8.2978   8.6571   9.6292

          k = 0.0000 0.3333 0.2378 ( 11770 PWs)   bands (ev):

   -45.7813 -22.4926 -22.4090 -22.3552  -7.0295  -6.3828  -6.0769  -5.0150
    -5.0106  -4.9964  -4.8325  -4.6649   2.9105   5.8150   6.5427   6.7301
     7.2371   7.6694   7.8456   8.3052   8.8659   9.6977

          k = 0.0000 0.3333-0.4756 ( 11744 PWs)   bands (ev):

   -45.7810 -22.5117 -22.4079 -22.3544  -6.9482  -6.3272  -5.9589  -5.0269
    -4.9966  -4.9726  -4.8649  -4.6229   2.6272   5.4932   6.3278   6.7542
     7.1121   7.3633   7.6195   8.3519   9.2451   9.5679

          k = 0.0000-0.5000 0.0000 ( 11772 PWs)   bands (ev):

   -45.7812 -22.4724 -22.4273 -22.3553  -6.9776  -6.3718  -6.1847  -5.0587
    -5.0087  -4.9927  -4.7624  -4.7557   3.0181   5.6088   6.8982   6.9149
     7.3369   7.4492   8.2139   8.2428   8.6873  10.3619

          k = 0.0000-0.5000 0.2378 ( 11772 PWs)   bands (ev):

   -45.7810 -22.4915 -22.4261 -22.3545  -6.9302  -6.3087  -6.0767  -5.0240
    -5.0096  -5.0093  -4.7918  -4.6629   2.7731   5.5678   6.5529   6.7687
     7.1032   7.2465   7.9474   8.2697   8.8775   9.8744

          k = 0.0000-0.5000-0.4756 ( 11784 PWs)   bands (ev):

   -45.7807 -22.5105 -22.4249 -22.3536  -6.9157  -6.2419  -5.9139  -5.0264
    -5.0100  -4.9819  -4.8383  -4.5716   2.5453   5.3622   6.0181   6.7987
     7.0704   7.3063   7.4018   8.2857   9.2057   9.5682

          k = 0.1667 0.1667 0.0000 ( 11785 PWs)   bands (ev):

   -45.7819 -22.4742 -22.3749 -22.3746  -7.2988  -6.4495  -6.1877  -5.0239
    -5.0103  -4.9732  -4.8325  -4.6723   3.4898   6.2631   6.4914   6.7290
     7.6450   7.7945   8.4588   8.5422   8.8279   9.1744

          k = 0.1667 0.1667 0.2378 ( 11761 PWs)   bands (ev):

   -45.7816 -22.4935 -22.3740 -22.3737  -7.1389  -6.4274  -6.1202  -5.0250
    -5.0016  -4.9675  -4.8260  -4.6862   3.1362   6.0520   6.1291   6.8516
     7.4982   7.5091   8.2681   8.6866   8.9054   9.3246

          k = 0.1667 0.1667-0.4756 ( 11752 PWs)   bands (ev):

   -45.7813 -22.5128 -22.3731 -22.3729  -6.9808  -6.4052  -6.0404  -5.0360
    -4.9820  -4.9443  -4.8332  -4.7041   2.8051   5.8480   5.8626   6.5757
     7.3617   7.4635   8.1994   8.7507   8.9599   9.6752

          k = 0.1667 0.3333 0.0000 ( 11763 PWs)   bands (ev):

   -45.7812 -22.4726 -22.4092 -22.3732  -7.0146  -6.3938  -6.2028  -5.0410
    -4.9992  -4.9569  -4.7914  -4.6810   3.0146   5.9623   6.4969   6.8210
     7.1534   7.6912   8.0382   8.6539   8.8225   9.6729

          k = 0.1667 0.3333 0.2378 ( 11775 PWs)   bands (ev):

   -45.7810 -22.4917 -22.4081 -22.3723  -6.9052  -6.3854  -6.1217  -5.0202
    -4.9969  -4.9382  -4.7769  -4.6427   2.8979   5.7860   5.9462   6.4689
     6.8974   7.5570   8.3311   8.6188   8.9571   9.4242

          k = 0.1667 0.3333-0.4756 ( 11772 PWs)   bands (ev):

   -45.7807 -22.5108 -22.4071 -22.3715  -6.8285  -6.3666  -6.0048  -5.0202
    -4.9738  -4.9022  -4.7854  -4.5983   2.7415   5.4437   5.8484   6.2191
     6.4049   7.4175   8.4293   8.6695   8.9592   9.3866

          k = 0.1667-0.5000 0.0000 ( 11780 PWs)   bands (ev):

   -45.7809 -22.4716 -22.4263 -22.3724  -6.8583  -6.3493  -6.2373  -5.0422
    -4.9915  -4.9384  -4.7388  -4.7365   2.8253   5.6268   6.6168   6.8279
     7.1811   7.4573   7.8259   8.7110   8.7972   9.9952

          k = 0.1667-0.5000 0.2378 ( 11764 PWs)   bands (ev):

   -45.7806 -22.4907 -22.4252 -22.3716  -6.8055  -6.3209  -6.1438  -5.0184
    -4.9842  -4.9223  -4.7427  -4.6406   2.7885   5.5748   5.8476   6.2352
     6.8509   7.6909   8.1254   8.6139   8.9708   9.3913

          k = 0.1667-0.5000-0.4756 ( 11780 PWs)   bands (ev):

   -45.7804 -22.5097 -22.4241 -22.3707  -6.7955  -6.2935  -5.9897  -5.0153
    -4.9458  -4.9049  -4.7546  -4.5494   2.7133   5.3289   5.6866   5.8706
     6.3013   7.5317   8.3166   8.5797   8.6430   9.5805

          k = 0.3333 0.3333 0.0000 ( 11806 PWs)   bands (ev):

   -45.7806 -22.4709 -22.4075 -22.4072  -6.7612  -6.3443  -6.2675  -5.0215
    -4.9784  -4.8801  -4.7210  -4.6809   2.6197   5.9132   6.0945   6.8960
     7.0689   7.1821   7.8828   8.4841   9.3085   9.4220

          k = 0.3333 0.3333 0.2378 ( 11769 PWs)   bands (ev):

   -45.7803 -22.4900 -22.4066 -22.4063  -6.6545  -6.3845  -6.2062  -4.9848
    -4.9742  -4.8363  -4.6749  -4.6116   2.8008   5.5543   5.6397   5.9106
     6.6200   7.0651   8.4064   8.9281   8.9628   9.3245

          k = 0.3333 0.3333-0.4756 ( 11776 PWs)   bands (ev):

   -45.7800 -22.5089 -22.4056 -22.4054  -6.6038  -6.4222  -6.0781  -4.9695
    -4.9492  -4.7878  -4.6280  -4.5446   2.9707   5.1605   5.1919   5.6829
     6.3516   6.5414   7.7380   9.2680   9.2962   9.4561

          k = 0.3333-0.5000 0.0000 ( 11804 PWs)   bands (ev):

   -45.7803 -22.4700 -22.4244 -22.4065  -6.6353  -6.3100  -6.3035  -5.0139
    -4.9561  -4.8086  -4.7228  -4.6835   2.4367   5.5980   6.1312   6.7302
     7.2342   7.3851   7.4736   8.4748   9.1265   9.5029

          k = 0.3333-0.5000 0.2378 ( 11796 PWs)   bands (ev):

   -45.7800 -22.4890 -22.4234 -22.4056  -6.5450  -6.3489  -6.2620  -4.9773
    -4.9480  -4.7568  -4.6503  -4.5993   2.7192   5.4741   5.5531   5.6654
     6.3965   7.1354   7.9832   8.9319   8.9410   9.4789

          k = 0.3333-0.5000-0.4756 ( 11756 PWs)   bands (ev):

   -45.7797 -22.5079 -22.4225 -22.4047  -6.5510  -6.3855  -6.1100  -4.9527
    -4.9284  -4.7142  -4.5775  -4.5046   3.0749   4.9206   5.1141   5.4546
     6.1442   6.5385   7.0155   9.3747   9.4500   9.6098

          k =-0.5000-0.5000 0.0000 ( 11808 PWs)   bands (ev):

   -45.7799 -22.4690 -22.4235 -22.4235  -6.5581  -6.2935  -6.2935  -5.0041
    -4.9162  -4.7270  -4.7270  -4.6747   2.2448   5.4378   5.9963   6.9593
     6.9593   7.4840   7.4840   8.2462   8.6574   9.7558

          k =-0.5000-0.5000 0.2378 ( 11816 PWs)   bands (ev):

   -45.7797 -22.4881 -22.4226 -22.4226  -6.3643  -6.3643  -6.3624  -4.9663
    -4.9144  -4.6481  -4.6055  -4.6055   2.6278   5.3971   5.6033   5.6033
     6.0026   7.0743   7.3731   8.9569   8.9569   9.7409

          k =-0.5000-0.5000-0.4756 ( 11784 PWs)   bands (ev):

   -45.7794 -22.5070 -22.4216 -22.4216  -6.4273  -6.4273  -6.1607  -4.9283
    -4.9126  -4.6127  -4.4899  -4.4899   3.2130   4.9797   4.9797   5.2887
     6.0089   6.0938   6.2259   9.6252   9.6252   9.7261

     highest occupied level (ev):    10.3619

!    total energy              =    -380.57600210 Ry
     estimated scf accuracy    <          2.8E-11 Ry

     The total energy is the sum of the following terms:
     one-electron contribution =     -85.69264187 Ry
     hartree contribution      =      71.99311768 Ry
     xc contribution           =    -102.58643040 Ry
     ewald contribution        =    -264.29004751 Ry

     convergence has been achieved in  10 iterations

     negative rho (up, down):  1.580E-02 0.000E+00

     Forces acting on atoms (cartesian axes, Ry/au):

     atom    1 type  1   force =     0.00000000    0.00000000   -0.00079634
     atom    2 type  2   force =     0.00000000    0.00000000    0.00116858
     atom    3 type  3   force =     0.00000000    0.00000000   -0.00378796
     atom    4 type  3   force =     0.00000000    0.00000000    0.00170786
     atom    5 type  3   force =     0.00000000    0.00000000    0.00170786

     Total force =     0.004710     Total SCF correction =     0.000005


     Computing stress (Cartesian axis) and pressure


     negative rho (up, down):  1.580E-02 0.000E+00
          total   stress  (Ry/bohr**3)                   (kbar)     P=      -41.41
  -0.00033897   0.00000000   0.00000000          -49.86        0.00        0.00
   0.00000000  -0.00033897   0.00000000            0.00      -49.86        0.00
   0.00000000   0.00000000  -0.00016662            0.00        0.00      -24.51

     Energy error            =      1.2E-04 Ry
     Gradient error          =      3.8E-03 Ry/Bohr

     number of scf cycles    =   6
     number of bfgs steps    =   5

     energy             old  =    -380.5758803594 Ry
     energy             new  =    -380.5760021021 Ry

     CASE: energy            _new < energy            _old

     new trust radius        =       0.0060632498 bohr
     new conv_thr            =       0.0000000001 Ry


ATOMIC_POSITIONS (crystal)
Pb               0.0000000000        0.0000000000        0.9934179109
Ti               0.5000000000        0.5000000000        0.5384953449
O                0.5000000000        0.5000000000        0.1073861925
O                0.5000000000        0.0000000000        0.6139924198
O                0.0000000000        0.5000000000        0.6139924198



     Writing config-only to output data dir ./pto_140.save/ :
     XML data file
     NEW-OLD atomic charge density approx. for the potential

     negative rho (up, down):  1.581E-02 0.000E+00

     total cpu time spent up to now is      240.9 secs

     Self-consistent Calculation

     iteration #  1     ecut=   140.00 Ry     beta= 0.70
     CG style diagonalization
     ethr =  1.00E-06,  avg # of iterations =  3.9

     Threshold (ethr) on eigenvalues was too large:
     Diagonalizing with lowered threshold

     CG style diagonalization
     c_bands:  1 eigenvalues not converged
     c_bands:  1 eigenvalues not converged
     c_bands:  1 eigenvalues not converged
     c_bands:  1 eigenvalues not converged
     c_bands:  2 eigenvalues not converged
     c_bands:  1 eigenvalues not converged
     c_bands:  1 eigenvalues not converged
     c_bands:  1 eigenvalues not converged
     c_bands:  1 eigenvalues not converged
     c_bands:  2 eigenvalues not converged
     c_bands:  1 eigenvalues not converged
     ethr =  2.53E-08,  avg # of iterations =  6.3

     negative rho (up, down):  1.580E-02 0.000E+00

     total cpu time spent up to now is      248.1 secs

     total energy              =    -380.57600942 Ry
     estimated scf accuracy    <       0.00001176 Ry

     iteration #  2     ecut=   140.00 Ry     beta= 0.70
     CG style diagonalization
     ethr =  2.67E-08,  avg # of iterations =  4.6

     negative rho (up, down):  1.580E-02 0.000E+00

     total cpu time spent up to now is      251.2 secs

     total energy              =    -380.57601322 Ry
     estimated scf accuracy    <       0.00003064 Ry

     iteration #  3     ecut=   140.00 Ry     beta= 0.70
     CG style diagonalization
     ethr =  2.67E-08,  avg # of iterations =  4.2

     negative rho (up, down):  1.579E-02 0.000E+00

     total cpu time spent up to now is      254.1 secs

     total energy              =    -380.57601944 Ry
     estimated scf accuracy    <       0.00000209 Ry

     iteration #  4     ecut=   140.00 Ry     beta= 0.70
     CG style diagonalization
     ethr =  4.75E-09,  avg # of iterations =  3.6

     negative rho (up, down):  1.579E-02 0.000E+00

     total cpu time spent up to now is      256.6 secs

     total energy              =    -380.57601982 Ry
     estimated scf accuracy    <       0.00000027 Ry

     iteration #  5     ecut=   140.00 Ry     beta= 0.70
     CG style diagonalization
     ethr =  6.03E-10,  avg # of iterations =  4.2

     negative rho (up, down):  1.579E-02 0.000E+00

     total cpu time spent up to now is      259.5 secs

     total energy              =    -380.57601995 Ry
     estimated scf accuracy    <       0.00000004 Ry

     iteration #  6     ecut=   140.00 Ry     beta= 0.70
     CG style diagonalization
     ethr =  9.15E-11,  avg # of iterations =  4.6

     negative rho (up, down):  1.579E-02 0.000E+00

     total cpu time spent up to now is      262.6 secs

     total energy              =    -380.57601998 Ry
     estimated scf accuracy    <          8.8E-09 Ry

     iteration #  7     ecut=   140.00 Ry     beta= 0.70
     CG style diagonalization
     ethr =  1.99E-11,  avg # of iterations =  4.3

     negative rho (up, down):  1.579E-02 0.000E+00

     total cpu time spent up to now is      265.6 secs

     total energy              =    -380.57601998 Ry
     estimated scf accuracy    <          1.6E-09 Ry

     iteration #  8     ecut=   140.00 Ry     beta= 0.70
     CG style diagonalization
     ethr =  3.70E-12,  avg # of iterations =  5.1

     negative rho (up, down):  1.579E-02 0.000E+00

     total cpu time spent up to now is      269.0 secs

     total energy              =    -380.57601999 Ry
     estimated scf accuracy    <          5.6E-10 Ry

     iteration #  9     ecut=   140.00 Ry     beta= 0.70
     CG style diagonalization
     ethr =  1.27E-12,  avg # of iterations =  4.5

     negative rho (up, down):  1.579E-02 0.000E+00

     total cpu time spent up to now is      272.1 secs

     End of self-consistent calculation

          k = 0.0000 0.0000 0.0000 ( 11733 PWs)   bands (ev):

   -45.7907 -22.4792 -22.3668 -22.3668  -7.5719  -6.5122  -6.2040  -4.9937
    -4.9937  -4.9523  -4.8676  -4.6845   4.2092   6.2524   6.2524   6.8046
     8.1172   8.1172   8.4516   8.6252   8.8750   8.8750

          k = 0.0000 0.0000 0.2378 ( 11745 PWs)   bands (ev):

   -45.7904 -22.4988 -22.3660 -22.3660  -7.3861  -6.4601  -6.1437  -5.0087
    -5.0087  -4.9510  -4.8537  -4.7486   3.4611   6.2945   6.2945   6.8779
     7.9107   7.9107   8.3670   8.7824   8.9725   8.9725

          k = 0.0000 0.0000-0.4756 ( 11758 PWs)   bands (ev):

   -45.7902 -22.5183 -22.3652 -22.3652  -7.1859  -6.4038  -6.0884  -5.0236
    -5.0236  -4.9497  -4.8404  -4.8169   2.9533   6.2145   6.3173   6.3173
     7.7823   7.7823   8.2862   9.0367   9.0367   9.9885

          k = 0.0000 0.1667 0.0000 ( 11794 PWs)   bands (ev):

   -45.7904 -22.4785 -22.3841 -22.3660  -7.4378  -6.4862  -6.1850  -5.0151
    -4.9923  -4.9649  -4.8574  -4.6741   3.7928   6.3071   6.3609   6.7355
     8.1308   8.1421   8.4268   8.5073   8.5726   8.9677

          k = 0.0000 0.1667 0.2378 ( 11770 PWs)   bands (ev):

   -45.7901 -22.4980 -22.3832 -22.3652  -7.2678  -6.4475  -6.1182  -5.0081
    -5.0078  -4.9641  -4.8532  -4.7082   3.2574   6.0929   6.4116   6.9307
     7.6017   7.8985   8.2137   8.6230   8.6526   9.3517

          k = 0.0000 0.1667-0.4756 ( 11786 PWs)   bands (ev):

   -45.7898 -22.5173 -22.3824 -22.3645  -7.0935  -6.4044  -6.0476  -5.0231
    -4.9988  -4.9634  -4.8542  -4.7421   2.8375   5.8014   6.4381   6.5879
     7.4322   7.7760   8.2544   8.6796   8.7272   9.9568

          k = 0.0000 0.3333 0.0000 ( 11768 PWs)   bands (ev):

   -45.7897 -22.4769 -22.4186 -22.3646  -7.1459  -6.4292  -6.1652  -5.0428
    -4.9904  -4.9890  -4.8238  -4.6851   3.2254   5.9453   6.6451   6.6654
     7.8016   7.8404   8.2197   8.2907   8.6593   9.6359

          k = 0.0000 0.3333 0.2378 ( 11770 PWs)   bands (ev):

   -45.7895 -22.4961 -22.4176 -22.3638  -7.0383  -6.3928  -6.0736  -5.0094
    -5.0058  -4.9902  -4.8268  -4.6570   2.9140   5.8101   6.5420   6.7219
     7.2338   7.6670   7.8440   8.3070   8.8649   9.7022

          k = 0.0000 0.3333-0.4756 ( 11744 PWs)   bands (ev):

   -45.7892 -22.5152 -22.4165 -22.3630  -6.9580  -6.3382  -5.9540  -5.0221
    -4.9904  -4.9667  -4.8585  -4.6157   2.6323   5.4907   6.3265   6.7475
     7.1049   7.3584   7.6168   8.3513   9.2501   9.5702

          k = 0.0000-0.5000 0.0000 ( 11772 PWs)   bands (ev):

   -45.7894 -22.4760 -22.4358 -22.3639  -6.9851  -6.3820  -6.1833  -5.0531
    -5.0025  -4.9879  -4.7537  -4.7497   3.0195   5.6031   6.9036   6.9054
     7.3310   7.4425   8.2066   8.2515   8.6893  10.3681

          k = 0.0000-0.5000 0.2378 ( 11772 PWs)   bands (ev):

   -45.7891 -22.4951 -22.4347 -22.3631  -6.9389  -6.3196  -6.0730  -5.0183
    -5.0048  -5.0031  -4.7853  -4.6554   2.7764   5.5622   6.5521   6.7653
     7.0930   7.2426   7.9449   8.2751   8.8758   9.8821

          k = 0.0000-0.5000-0.4756 ( 11784 PWs)   bands (ev):

   -45.7889 -22.5141 -22.4335 -22.3622  -6.9248  -6.2537  -5.9091  -5.0216
    -5.0038  -4.9761  -4.8311  -4.5650   2.5501   5.3587   6.0173   6.7893
     7.0680   7.2952   7.3979   8.2892   9.2167   9.5682

          k = 0.1667 0.1667 0.0000 ( 11785 PWs)   bands (ev):

   -45.7901 -22.4778 -22.3835 -22.3831  -7.3060  -6.4594  -6.1851  -5.0188
    -5.0053  -4.9673  -4.8275  -4.6642   3.4905   6.2554   6.4870   6.7295
     7.6529   7.7896   8.4646   8.5373   8.8200   9.1821

          k = 0.1667 0.1667 0.2378 ( 11761 PWs)   bands (ev):

   -45.7898 -22.4971 -22.3826 -22.3823  -7.1477  -6.4376  -6.1162  -5.0198
    -4.9961  -4.9618  -4.8209  -4.6780   3.1396   6.0468   6.1246   6.8499
     7.4933   7.5127   8.2734   8.6804   8.8997   9.3280

          k = 0.1667 0.1667-0.4756 ( 11752 PWs)   bands (ev):

   -45.7895 -22.5163 -22.3817 -22.3815  -6.9916  -6.4155  -6.0348  -5.0307
    -4.9760  -4.9391  -4.8278  -4.6959   2.8106   5.8447   5.8600   6.5709
     7.3539   7.4648   8.2051   8.7437   8.9546   9.6782

          k = 0.1667 0.3333 0.0000 ( 11763 PWs)   bands (ev):

   -45.7894 -22.4762 -22.4177 -22.3818  -7.0214  -6.4041  -6.2016  -5.0356
    -4.9941  -4.9508  -4.7853  -4.6729   3.0135   5.9561   6.4931   6.8200
     7.1484   7.7014   8.0352   8.6520   8.8179   9.6798

          k = 0.1667 0.3333 0.2378 ( 11775 PWs)   bands (ev):

   -45.7891 -22.4953 -22.4167 -22.3809  -6.9138  -6.3955  -6.1184  -5.0147
    -4.9915  -4.9324  -4.7711  -4.6351   2.8991   5.7818   5.9423   6.4644
     6.8970   7.5581   8.3301   8.6164   8.9547   9.4290

          k = 0.1667 0.3333-0.4756 ( 11772 PWs)   bands (ev):

   -45.7889 -22.5143 -22.4157 -22.3801  -6.8383  -6.3770  -5.9996  -5.0149
    -4.9681  -4.8967  -4.7793  -4.5913   2.7448   5.4420   5.8416   6.2170
     6.4005   7.4148   8.4345   8.6609   8.9651   9.3862

          k = 0.1667-0.5000 0.0000 ( 11780 PWs)   bands (ev):

   -45.7891 -22.4752 -22.4349 -22.3810  -6.8649  -6.3598  -6.2368  -5.0367
    -4.9863  -4.9322  -4.7323  -4.7281   2.8238   5.6212   6.6178   6.8189
     7.1787   7.4541   7.8375   8.7034   8.7974  10.0006

          k = 0.1667-0.5000 0.2378 ( 11764 PWs)   bands (ev):

   -45.7888 -22.4943 -22.4338 -22.3802  -6.8141  -6.3315  -6.1401  -5.0129
    -4.9789  -4.9164  -4.7363  -4.6332   2.7888   5.5696   5.8435   6.2330
     6.8490   7.6929   8.1212   8.6148   8.9666   9.3986

          k = 0.1667-0.5000-0.4756 ( 11780 PWs)   bands (ev):

   -45.7885 -22.5132 -22.4327 -22.3793  -6.8046  -6.3043  -5.9846  -5.0101
    -4.9405  -4.8991  -4.7480  -4.5430   2.7157   5.3268   5.6775   5.8680
     6.3002   7.5285   8.3192   8.5824   8.6417   9.5813

          k = 0.3333 0.3333 0.0000 ( 11806 PWs)   bands (ev):

   -45.7888 -22.4745 -22.4161 -22.4158  -6.7655  -6.3553  -6.2691  -5.0162
    -4.9727  -4.8737  -4.7145  -4.6727   2.6148   5.9073   6.0876   6.8979
     7.0685   7.1939   7.8759   8.4876   9.2993   9.4284

          k = 0.3333 0.3333 0.2378 ( 11769 PWs)   bands (ev):

   -45.7885 -22.4936 -22.4151 -22.4149  -6.6624  -6.3946  -6.2034  -4.9794
    -4.9686  -4.8306  -4.6688  -4.6044   2.7963   5.5532   5.6386   5.9047
     6.6198   7.0671   8.4130   8.9266   8.9661   9.3161

          k = 0.3333 0.3333-0.4756 ( 11776 PWs)   bands (ev):

   -45.7882 -22.5125 -22.4141 -22.4140  -6.6135  -6.4316  -6.0727  -4.9640
    -4.9437  -4.7825  -4.6223  -4.5382   2.9678   5.1551   5.1932   5.6777
     6.3525   6.5386   7.7500   9.2696   9.2857   9.4569

          k = 0.3333-0.5000 0.0000 ( 11804 PWs)   bands (ev):

   -45.7884 -22.4736 -22.4330 -22.4150  -6.6365  -6.3211  -6.3085  -5.0085
    -4.9503  -4.8018  -4.7154  -4.6763   2.4301   5.5924   6.1243   6.7366
     7.2445   7.3813   7.4706   8.4764   9.1320   9.4934

          k = 0.3333-0.5000 0.2378 ( 11796 PWs)   bands (ev):

   -45.7882 -22.4926 -22.4320 -22.4142  -6.5524  -6.3592  -6.2594  -4.9719
    -4.9423  -4.7511  -4.6438  -4.5925   2.7119   5.4758   5.5482   5.6643
     6.3943   7.1382   7.9909   8.9333   8.9420   9.4693

          k = 0.3333-0.5000-0.4756 ( 11756 PWs)   bands (ev):

   -45.7879 -22.5115 -22.4310 -22.4133  -6.5601  -6.3951  -6.1045  -4.9472
    -4.9229  -4.7087  -4.5719  -4.4988   3.0670   4.9186   5.1166   5.4484
     6.1426   6.5377   7.0295   9.3763   9.4395   9.6112

          k =-0.5000-0.5000 0.0000 ( 11808 PWs)   bands (ev):

   -45.7881 -22.4726 -22.4320 -22.4320  -6.5529  -6.3049  -6.3049  -4.9988
    -4.9103  -4.7189  -4.7189  -4.6691   2.2361   5.4324   5.9907   6.9690
     6.9690   7.4795   7.4795   8.2494   8.6618   9.7453

          k =-0.5000-0.5000 0.2378 ( 11816 PWs)   bands (ev):

   -45.7878 -22.4916 -22.4311 -22.4311  -6.3743  -6.3743  -6.3570  -4.9609
    -4.9085  -4.6425  -4.5990  -4.5990   2.6166   5.3911   5.6077   5.6077
     5.9970   7.0766   7.3822   8.9582   8.9582   9.7305

          k =-0.5000-0.5000-0.4756 ( 11784 PWs)   bands (ev):

   -45.7876 -22.5105 -22.4302 -22.4302  -6.4364  -6.4364  -6.1552  -4.9229
    -4.9066  -4.6073  -4.4846  -4.4846   3.1952   4.9842   4.9842   5.2822
     6.0033   6.1108   6.2281   9.6270   9.6270   9.7157

     highest occupied level (ev):    10.3681

!    total energy              =    -380.57601999 Ry
     estimated scf accuracy    <          9.5E-12 Ry

     The total energy is the sum of the following terms:
     one-electron contribution =     -85.75351197 Ry
     hartree contribution      =      72.02161159 Ry
     xc contribution           =    -102.58639094 Ry
     ewald contribution        =    -264.25772866 Ry

     convergence has been achieved in   9 iterations

     negative rho (up, down):  1.579E-02 0.000E+00

     Forces acting on atoms (cartesian axes, Ry/au):

     atom    1 type  1   force =     0.00000000    0.00000000    0.00024201
     atom    2 type  2   force =     0.00000000    0.00000000   -0.00075898
     atom    3 type  3   force =     0.00000000    0.00000000   -0.00159014
     atom    4 type  3   force =     0.00000000    0.00000000    0.00105356
     atom    5 type  3   force =     0.00000000    0.00000000    0.00105356

     Total force =     0.002320     Total SCF correction =     0.000011


     Computing stress (Cartesian axis) and pressure


     negative rho (up, down):  1.579E-02 0.000E+00
          total   stress  (Ry/bohr**3)                   (kbar)     P=      -41.60
  -0.00033603   0.00000000   0.00000000          -49.43        0.00        0.00
   0.00000000  -0.00033603   0.00000000            0.00      -49.43        0.00
   0.00000000   0.00000000  -0.00017636            0.00        0.00      -25.94

     Energy error            =      1.8E-05 Ry
     Gradient error          =      1.6E-03 Ry/Bohr

     number of scf cycles    =   7
     number of bfgs steps    =   6

     energy             old  =    -380.5760021021 Ry
     energy             new  =    -380.5760199865 Ry

     CASE: energy            _new < energy            _old

     new trust radius        =       0.0032194283 bohr
     new conv_thr            =            1.0E-10 Ry


ATOMIC_POSITIONS (crystal)
Pb               0.0000000000        0.0000000000        0.9933991250
Ti               0.5000000000        0.5000000000        0.5384091685
O                0.5000000000        0.5000000000        0.1069706686
O                0.5000000000        0.0000000000        0.6142526630
O                0.0000000000        0.5000000000        0.6142526630



     Writing config-only to output data dir ./pto_140.save/ :
     XML data file
     NEW-OLD atomic charge density approx. for the potential

     negative rho (up, down):  1.579E-02 0.000E+00

     total cpu time spent up to now is      277.3 secs

     Self-consistent Calculation

     iteration #  1     ecut=   140.00 Ry     beta= 0.70
     CG style diagonalization
     ethr =  1.00E-06,  avg # of iterations =  2.7

     Threshold (ethr) on eigenvalues was too large:
     Diagonalizing with lowered threshold

     CG style diagonalization
     c_bands:  1 eigenvalues not converged
     c_bands:  1 eigenvalues not converged
     c_bands:  1 eigenvalues not converged
     c_bands:  1 eigenvalues not converged
     c_bands:  1 eigenvalues not converged
     ethr =  6.03E-09,  avg # of iterations =  5.9

     negative rho (up, down):  1.580E-02 0.000E+00

     total cpu time spent up to now is      283.6 secs

     total energy              =    -380.57602403 Ry
     estimated scf accuracy    <       0.00000456 Ry

     iteration #  2     ecut=   140.00 Ry     beta= 0.70
     CG style diagonalization
     ethr =  1.04E-08,  avg # of iterations =  4.6

     negative rho (up, down):  1.579E-02 0.000E+00

     total cpu time spent up to now is      286.7 secs

     total energy              =    -380.57602345 Ry
     estimated scf accuracy    <       0.00001582 Ry

     iteration #  3     ecut=   140.00 Ry     beta= 0.70
     CG style diagonalization
     ethr =  1.04E-08,  avg # of iterations =  4.3

     negative rho (up, down):  1.579E-02 0.000E+00

     total cpu time spent up to now is      289.7 secs

     total energy              =    -380.57602630 Ry
     estimated scf accuracy    <       0.00000055 Ry

     iteration #  4     ecut=   140.00 Ry     beta= 0.70
     CG style diagonalization
     ethr =  1.25E-09,  avg # of iterations =  3.7

     negative rho (up, down):  1.579E-02 0.000E+00

     total cpu time spent up to now is      292.2 secs

     total energy              =    -380.57602642 Ry
     estimated scf accuracy    <       0.00000010 Ry

     iteration #  5     ecut=   140.00 Ry     beta= 0.70
     CG style diagonalization
     ethr =  2.18E-10,  avg # of iterations =  4.0

     negative rho (up, down):  1.579E-02 0.000E+00

     total cpu time spent up to now is      295.0 secs

     total energy              =    -380.57602645 Ry
     estimated scf accuracy    <       0.00000001 Ry

     iteration #  6     ecut=   140.00 Ry     beta= 0.70
     CG style diagonalization
     ethr =  2.59E-11,  avg # of iterations =  4.5

     negative rho (up, down):  1.579E-02 0.000E+00

     total cpu time spent up to now is      298.0 secs

     total energy              =    -380.57602646 Ry
     estimated scf accuracy    <          1.5E-09 Ry

     iteration #  7     ecut=   140.00 Ry     beta= 0.70
     CG style diagonalization
     ethr =  3.40E-12,  avg # of iterations =  4.7

     negative rho (up, down):  1.579E-02 0.000E+00

     total cpu time spent up to now is      301.2 secs

     total energy              =    -380.57602646 Ry
     estimated scf accuracy    <          5.0E-10 Ry

     iteration #  8     ecut=   140.00 Ry     beta= 0.70
     CG style diagonalization
     ethr =  1.13E-12,  avg # of iterations =  4.6

     negative rho (up, down):  1.579E-02 0.000E+00

     total cpu time spent up to now is      304.3 secs

     total energy              =    -380.57602646 Ry
     estimated scf accuracy    <          1.6E-10 Ry

     iteration #  9     ecut=   140.00 Ry     beta= 0.70
     CG style diagonalization
     ethr =  3.65E-13,  avg # of iterations =  4.5

     negative rho (up, down):  1.579E-02 0.000E+00

     total cpu time spent up to now is      307.4 secs

     End of self-consistent calculation

          k = 0.0000 0.0000 0.0000 ( 11733 PWs)   bands (ev):

   -45.7948 -22.4810 -22.3708 -22.3708  -7.5736  -6.5134  -6.2026  -4.9919
    -4.9919  -4.9499  -4.8656  -4.6819   4.2120   6.2497   6.2497   6.8023
     8.1205   8.1205   8.4491   8.6292   8.8724   8.8724

          k = 0.0000 0.0000 0.2378 ( 11745 PWs)   bands (ev):

   -45.7946 -22.5006 -22.3700 -22.3700  -7.3880  -6.4614  -6.1423  -5.0069
    -5.0069  -4.9487  -4.8516  -4.7459   3.4640   6.2910   6.2910   6.8764
     7.9145   7.9145   8.3646   8.7843   8.9706   8.9706

          k = 0.0000 0.0000-0.4756 ( 11758 PWs)   bands (ev):

   -45.7943 -22.5200 -22.3693 -22.3693  -7.1881  -6.4052  -6.0869  -5.0218
    -5.0218  -4.9474  -4.8382  -4.8139   2.9566   6.2133   6.3131   6.3131
     7.7871   7.7871   8.2838   9.0349   9.0349   9.9887

          k = 0.0000 0.1667 0.0000 ( 11794 PWs)   bands (ev):

   -45.7945 -22.4802 -22.3882 -22.3701  -7.4395  -6.4875  -6.1837  -5.0131
    -4.9904  -4.9626  -4.8554  -4.6715   3.7943   6.3062   6.3583   6.7340
     8.1335   8.1459   8.4250   8.5046   8.5731   8.9694

          k = 0.0000 0.1667 0.2378 ( 11770 PWs)   bands (ev):

   -45.7942 -22.4997 -22.3873 -22.3693  -7.2697  -6.4490  -6.1168  -5.0061
    -5.0059  -4.9618  -4.8511  -4.7056   3.2595   6.0911   6.4083   6.9293
     7.6039   7.9019   8.2138   8.6221   8.6513   9.3526

          k = 0.0000 0.1667-0.4756 ( 11786 PWs)   bands (ev):

   -45.7940 -22.5190 -22.3864 -22.3685  -7.0956  -6.4060  -6.0461  -5.0213
    -4.9968  -4.9611  -4.8520  -4.7395   2.8401   5.7998   6.4340   6.5859
     7.4354   7.7803   8.2524   8.6788   8.7261   9.9583

          k = 0.0000 0.3333 0.0000 ( 11768 PWs)   bands (ev):

   -45.7939 -22.4787 -22.4226 -22.3687  -7.1476  -6.4310  -6.1640  -5.0408
    -4.9882  -4.9870  -4.8218  -4.6826   3.2260   5.9449   6.6428   6.6675
     7.8036   7.8383   8.2228   8.2882   8.6608   9.6374

          k = 0.0000 0.3333 0.2378 ( 11770 PWs)   bands (ev):

   -45.7936 -22.4979 -22.4216 -22.3679  -7.0401  -6.3947  -6.0723  -5.0074
    -5.0040  -4.9879  -4.8247  -4.6546   2.9153   5.8095   6.5428   6.7190
     7.2354   7.6665   7.8435   8.3096   8.8654   9.7035

          k = 0.0000 0.3333-0.4756 ( 11744 PWs)   bands (ev):

   -45.7933 -22.5169 -22.4205 -22.3670  -6.9596  -6.3404  -5.9527  -5.0203
    -4.9881  -4.9646  -4.8563  -4.6134   2.6341   5.4900   6.3284   6.7438
     7.1047   7.3568   7.6175   8.3536   9.2518   9.5719

          k = 0.0000-0.5000 0.0000 ( 11772 PWs)   bands (ev):

   -45.7935 -22.4778 -22.4398 -22.3680  -6.9866  -6.3843  -6.1820  -5.0512
    -5.0002  -4.9860  -4.7513  -4.7476   3.0199   5.6037   6.9041   6.9090
     7.3299   7.4393   8.2041   8.2552   8.6908  10.3699

          k = 0.0000-0.5000 0.2378 ( 11772 PWs)   bands (ev):

   -45.7933 -22.4968 -22.4387 -22.3671  -6.9404  -6.3220  -6.0717  -5.0163
    -5.0030  -5.0009  -4.7831  -4.6531   2.7775   5.5623   6.5532   6.7669
     7.0915   7.2394   7.9442   8.2792   8.8765   9.8841

          k = 0.0000-0.5000-0.4756 ( 11784 PWs)   bands (ev):

   -45.7930 -22.5158 -22.4375 -22.3663  -6.9261  -6.2564  -5.9079  -5.0198
    -5.0015  -4.9741  -4.8288  -4.5629   2.5517   5.3582   6.0199   6.7887
     7.0648   7.2937   7.3963   8.2935   9.2207   9.5689

          k = 0.1667 0.1667 0.0000 ( 11785 PWs)   bands (ev):

   -45.7942 -22.4795 -22.3876 -22.3872  -7.3078  -6.4609  -6.1838  -5.0169
    -5.0034  -4.9650  -4.8255  -4.6616   3.4914   6.2527   6.4868   6.7283
     7.6564   7.7890   8.4674   8.5354   8.8196   9.1850

          k = 0.1667 0.1667 0.2378 ( 11761 PWs)   bands (ev):

   -45.7939 -22.4988 -22.3866 -22.3864  -7.1496  -6.4391  -6.1149  -5.0179
    -4.9940  -4.9596  -4.8189  -4.6754   3.1412   6.0444   6.1236   6.8484
     7.4929   7.5159   8.2764   8.6785   8.8991   9.3301

          k = 0.1667 0.1667-0.4756 ( 11752 PWs)   bands (ev):

   -45.7936 -22.5181 -22.3857 -22.3856  -6.9938  -6.4171  -6.0333  -5.0287
    -4.9738  -4.9372  -4.8256  -4.6933   2.8128   5.8425   5.8584   6.5703
     7.3517   7.4680   8.2086   8.7420   8.9537   9.6802

          k = 0.1667 0.3333 0.0000 ( 11763 PWs)   bands (ev):

   -45.7935 -22.4779 -22.4217 -22.3858  -7.0231  -6.4059  -6.2007  -5.0337
    -4.9921  -4.9485  -4.7832  -4.6704   3.0137   5.9555   6.4918   6.8212
     7.1475   7.7061   8.0360   8.6517   8.8178   9.6820

          k = 0.1667 0.3333 0.2378 ( 11775 PWs)   bands (ev):

   -45.7933 -22.4970 -22.4207 -22.3850  -6.9157  -6.3974  -6.1173  -5.0127
    -4.9896  -4.9301  -4.7690  -4.6327   2.8998   5.7812   5.9422   6.4628
     6.8981   7.5603   8.3319   8.6164   8.9546   9.4305

          k = 0.1667 0.3333-0.4756 ( 11772 PWs)   bands (ev):

   -45.7930 -22.5161 -22.4197 -22.3841  -6.8402  -6.3790  -5.9983  -5.0129
    -4.9660  -4.8946  -4.7771  -4.5890   2.7462   5.4416   5.8405   6.2161
     6.4013   7.4157   8.4374   8.6595   8.9672   9.3865

          k = 0.1667-0.5000 0.0000 ( 11780 PWs)   bands (ev):

   -45.7932 -22.4770 -22.4389 -22.3851  -6.8664  -6.3621  -6.2359  -5.0348
    -4.9844  -4.9298  -4.7302  -4.7257   2.8237   5.6217   6.6195   6.8153
     7.1807   7.4545   7.8423   8.7015   8.7984  10.0021

          k = 0.1667-0.5000 0.2378 ( 11764 PWs)   bands (ev):

   -45.7929 -22.4960 -22.4378 -22.3842  -6.8157  -6.3339  -6.1389  -5.0109
    -4.9770  -4.9140  -4.7341  -4.6309   2.7893   5.5697   5.8441   6.2325
     6.8486   7.6957   8.1222   8.6156   8.9664   9.4000

          k = 0.1667-0.5000-0.4756 ( 11780 PWs)   bands (ev):

   -45.7927 -22.5150 -22.4367 -22.3834  -6.8061  -6.3067  -5.9834  -5.0081
    -4.9386  -4.8967  -4.7459  -4.5408   2.7169   5.3267   5.6768   5.8685
     6.2999   7.5297   8.3212   8.5837   8.6419   9.5821

          k = 0.3333 0.3333 0.0000 ( 11806 PWs)   bands (ev):

   -45.7929 -22.4763 -22.4201 -22.4198  -6.7668  -6.3574  -6.2689  -5.0142
    -4.9706  -4.8713  -4.7121  -4.6703   2.6143   5.9065   6.0866   6.8985
     7.0708   7.1982   7.8761   8.4903   9.2976   9.4303

          k = 0.3333 0.3333 0.2378 ( 11769 PWs)   bands (ev):

   -45.7926 -22.4953 -22.4191 -22.4189  -6.6643  -6.3966  -6.2026  -4.9775
    -4.9665  -4.8282  -4.6666  -4.6021   2.7960   5.5539   5.6385   5.9034
     6.6224   7.0687   8.4166   8.9270   8.9669   9.3147

          k = 0.3333 0.3333-0.4756 ( 11776 PWs)   bands (ev):

   -45.7924 -22.5142 -22.4182 -22.4180  -6.6156  -6.4334  -6.0716  -4.9618
    -4.9418  -4.7801  -4.6203  -4.5362   2.9680   5.1552   5.1939   5.6749
     6.3550   6.5406   7.7538   9.2706   9.2837   9.4575

          k = 0.3333-0.5000 0.0000 ( 11804 PWs)   bands (ev):

   -45.7926 -22.4753 -22.4370 -22.4190  -6.6371  -6.3236  -6.3091  -5.0066
    -4.9482  -4.7993  -4.7131  -4.6737   2.4293   5.5925   6.1236   6.7384
     7.2473   7.3831   7.4723   8.4781   9.1335   9.4917

          k = 0.3333-0.5000 0.2378 ( 11796 PWs)   bands (ev):

   -45.7923 -22.4943 -22.4360 -22.4182  -6.5541  -6.3614  -6.2587  -4.9699
    -4.9402  -4.7485  -4.6418  -4.5903   2.7111   5.4773   5.5479   5.6643
     6.3960   7.1404   7.9934   8.9343   8.9432   9.4676

          k = 0.3333-0.5000-0.4756 ( 11756 PWs)   bands (ev):

   -45.7920 -22.5132 -22.4350 -22.4173  -6.5619  -6.3971  -6.1036  -4.9451
    -4.9209  -4.7061  -4.5702  -4.4968   3.0662   4.9194   5.1181   5.4460
     6.1443   6.5405   7.0327   9.3771   9.4377   9.6122

          k =-0.5000-0.5000 0.0000 ( 11808 PWs)   bands (ev):

   -45.7922 -22.4744 -22.4360 -22.4360  -6.5520  -6.3074  -6.3074  -4.9969
    -4.9081  -4.7165  -4.7165  -4.6664   2.2351   5.4324   5.9918   6.9707
     6.9707   7.4813   7.4813   8.2511   8.6635   9.7434

          k =-0.5000-0.5000 0.2378 ( 11816 PWs)   bands (ev):

   -45.7920 -22.4934 -22.4351 -22.4351  -6.3765  -6.3765  -6.3561  -4.9589
    -4.9062  -4.6398  -4.5970  -4.5970   2.6152   5.3905   5.6098   5.6098
     5.9981   7.0784   7.3843   8.9595   8.9595   9.7286

          k =-0.5000-0.5000-0.4756 ( 11784 PWs)   bands (ev):

   -45.7917 -22.5122 -22.4342 -22.4342  -6.4383  -6.4383  -6.1543  -4.9210
    -4.9044  -4.6044  -4.4830  -4.4830   3.1926   4.9865   4.9865   5.2800
     6.0044   6.1140   6.2311   9.6280   9.6280   9.7138

     highest occupied level (ev):    10.3699

!    total energy              =    -380.57602646 Ry
     estimated scf accuracy    <          4.4E-12 Ry

     The total energy is the sum of the following terms:
     one-electron contribution =     -85.73750116 Ry
     hartree contribution      =      72.01294971 Ry
     xc contribution           =    -102.58552997 Ry
     ewald contribution        =    -264.26594505 Ry

     convergence has been achieved in   9 iterations

     negative rho (up, down):  1.579E-02 0.000E+00

     Forces acting on atoms (cartesian axes, Ry/au):

     atom    1 type  1   force =     0.00000000    0.00000000    0.00032805
     atom    2 type  2   force =     0.00000000    0.00000000   -0.00125831
     atom    3 type  3   force =     0.00000000    0.00000000   -0.00016027
     atom    4 type  3   force =     0.00000000    0.00000000    0.00054526
     atom    5 type  3   force =     0.00000000    0.00000000    0.00054526

     Total force =     0.001520     Total SCF correction =     0.000006


     Computing stress (Cartesian axis) and pressure


     negative rho (up, down):  1.579E-02 0.000E+00
          total   stress  (Ry/bohr**3)                   (kbar)     P=      -42.16
  -0.00033775   0.00000000   0.00000000          -49.68        0.00        0.00
   0.00000000  -0.00033775   0.00000000            0.00      -49.68        0.00
   0.00000000   0.00000000  -0.00018419            0.00        0.00      -27.10

     Energy error            =      6.5E-06 Ry
     Gradient error          =      1.3E-03 Ry/Bohr

     number of scf cycles    =   8
     number of bfgs steps    =   7

     energy             old  =    -380.5760199865 Ry
     energy             new  =    -380.5760264622 Ry

     CASE: energy            _new < energy            _old

     new trust radius        =       0.0019832974 bohr
     new conv_thr            =            1.0E-10 Ry


ATOMIC_POSITIONS (crystal)
Pb               0.0000000000        0.0000000000        0.9934757988
Ti               0.5000000000        0.5000000000        0.5381741938
O                0.5000000000        0.5000000000        0.1067146891
O                0.5000000000        0.0000000000        0.6144598032
O                0.0000000000        0.5000000000        0.6144598032



     Writing config-only to output data dir ./pto_140.save/ :
     XML data file
     NEW-OLD atomic charge density approx. for the potential

     negative rho (up, down):  1.579E-02 0.000E+00

     total cpu time spent up to now is      312.7 secs

     Self-consistent Calculation

     iteration #  1     ecut=   140.00 Ry     beta= 0.70
     CG style diagonalization
     ethr =  1.00E-06,  avg # of iterations =  3.0

     Threshold (ethr) on eigenvalues was too large:
     Diagonalizing with lowered threshold

     CG style diagonalization
     c_bands:  1 eigenvalues not converged
     c_bands:  1 eigenvalues not converged
     c_bands:  1 eigenvalues not converged
     c_bands:  1 eigenvalues not converged
     c_bands:  1 eigenvalues not converged
     c_bands:  1 eigenvalues not converged
     c_bands:  3 eigenvalues not converged
     c_bands:  2 eigenvalues not converged
     c_bands:  1 eigenvalues not converged
     c_bands:  1 eigenvalues not converged
     c_bands:  1 eigenvalues not converged
     c_bands:  1 eigenvalues not converged
     c_bands:  1 eigenvalues not converged
     ethr =  1.90E-09,  avg # of iterations =  7.7

     negative rho (up, down):  1.579E-02 0.000E+00

     total cpu time spent up to now is      320.2 secs

     total energy              =    -380.57602930 Ry
     estimated scf accuracy    <       0.00000111 Ry

     iteration #  2     ecut=   140.00 Ry     beta= 0.70
     CG style diagonalization
     ethr =  2.52E-09,  avg # of iterations =  4.6

     negative rho (up, down):  1.579E-02 0.000E+00

     total cpu time spent up to now is      323.3 secs

     total energy              =    -380.57602922 Ry
     estimated scf accuracy    <       0.00000368 Ry

     iteration #  3     ecut=   140.00 Ry     beta= 0.70
     CG style diagonalization
     ethr =  2.52E-09,  avg # of iterations =  4.2

     negative rho (up, down):  1.579E-02 0.000E+00

     total cpu time spent up to now is      326.2 secs

     total energy              =    -380.57602986 Ry
     estimated scf accuracy    <       0.00000012 Ry

     iteration #  4     ecut=   140.00 Ry     beta= 0.70
     CG style diagonalization
     ethr =  2.68E-10,  avg # of iterations =  3.8

     negative rho (up, down):  1.579E-02 0.000E+00

     total cpu time spent up to now is      328.8 secs

     total energy              =    -380.57602988 Ry
     estimated scf accuracy    <       0.00000002 Ry

     iteration #  5     ecut=   140.00 Ry     beta= 0.70
     CG style diagonalization
     ethr =  4.24E-11,  avg # of iterations =  4.4

     negative rho (up, down):  1.579E-02 0.000E+00

     total cpu time spent up to now is      331.8 secs

     total energy              =    -380.57602989 Ry
     estimated scf accuracy    <          4.3E-09 Ry

     iteration #  6     ecut=   140.00 Ry     beta= 0.70
     CG style diagonalization
     ethr =  9.79E-12,  avg # of iterations =  4.2

     negative rho (up, down):  1.579E-02 0.000E+00

     total cpu time spent up to now is      334.7 secs

     total energy              =    -380.57602990 Ry
     estimated scf accuracy    <          7.7E-10 Ry

     iteration #  7     ecut=   140.00 Ry     beta= 0.70
     CG style diagonalization
     ethr =  1.75E-12,  avg # of iterations =  4.7

     negative rho (up, down):  1.579E-02 0.000E+00

     total cpu time spent up to now is      337.9 secs

     total energy              =    -380.57602990 Ry
     estimated scf accuracy    <          2.2E-10 Ry

     iteration #  8     ecut=   140.00 Ry     beta= 0.70
     CG style diagonalization
     ethr =  5.06E-13,  avg # of iterations =  4.7

     negative rho (up, down):  1.579E-02 0.000E+00

     total cpu time spent up to now is      341.0 secs

     End of self-consistent calculation

          k = 0.0000 0.0000 0.0000 ( 11733 PWs)   bands (ev):

   -45.7957 -22.4816 -22.3714 -22.3714  -7.5739  -6.5124  -6.2024  -4.9909
    -4.9909  -4.9487  -4.8644  -4.6803   4.2139   6.2484   6.2484   6.8006
     8.1181   8.1181   8.4476   8.6287   8.8720   8.8720

          k = 0.0000 0.0000 0.2378 ( 11745 PWs)   bands (ev):

   -45.7954 -22.5012 -22.3707 -22.3707  -7.3880  -6.4605  -6.1423  -5.0059
    -5.0059  -4.9475  -4.8504  -4.7443   3.4652   6.2883   6.2883   6.8752
     7.9146   7.9146   8.3630   8.7847   8.9705   8.9705

          k = 0.0000 0.0000-0.4756 ( 11758 PWs)   bands (ev):

   -45.7951 -22.5207 -22.3699 -22.3699  -7.1878  -6.4043  -6.0873  -5.0208
    -5.0208  -4.9462  -4.8371  -4.8124   2.9575   6.2125   6.3086   6.3086
     7.7899   7.7899   8.2821   9.0350   9.0350   9.9895

          k = 0.0000 0.1667 0.0000 ( 11794 PWs)   bands (ev):

   -45.7954 -22.4809 -22.3888 -22.3707  -7.4398  -6.4868  -6.1836  -5.0121
    -4.9894  -4.9614  -4.8544  -4.6700   3.7954   6.3063   6.3572   6.7325
     8.1334   8.1438   8.4236   8.5040   8.5723   8.9698

          k = 0.0000 0.1667 0.2378 ( 11770 PWs)   bands (ev):

   -45.7951 -22.5003 -22.3879 -22.3699  -7.2698  -6.4482  -6.1169  -5.0051
    -5.0049  -4.9606  -4.8501  -4.7040   3.2604   6.0895   6.4057   6.9284
     7.6044   7.9018   8.2147   8.6205   8.6516   9.3535

          k = 0.0000 0.1667-0.4756 ( 11786 PWs)   bands (ev):

   -45.7948 -22.5197 -22.3870 -22.3691  -7.0954  -6.4053  -6.0466  -5.0203
    -4.9958  -4.9599  -4.8509  -4.7380   2.8409   5.7975   6.4297   6.5849
     7.4377   7.7828   8.2527   8.6771   8.7267   9.9602

          k = 0.0000 0.3333 0.0000 ( 11768 PWs)   bands (ev):

   -45.7947 -22.4793 -22.4232 -22.3693  -7.1478  -6.4308  -6.1639  -5.0397
    -4.9871  -4.9860  -4.8208  -4.6812   3.2263   5.9462   6.6425   6.6692
     7.8060   7.8379   8.2204   8.2871   8.6598   9.6370

          k = 0.0000 0.3333 0.2378 ( 11770 PWs)   bands (ev):

   -45.7944 -22.4985 -22.4221 -22.3685  -7.0400  -6.3946  -6.0726  -5.0063
    -5.0030  -4.9867  -4.8236  -4.6532   2.9158   5.8098   6.5437   6.7172
     7.2376   7.6655   7.8431   8.3105   8.8653   9.7037

          k = 0.0000 0.3333-0.4756 ( 11744 PWs)   bands (ev):

   -45.7942 -22.5176 -22.4211 -22.3677  -6.9591  -6.3405  -5.9533  -5.0193
    -4.9870  -4.9635  -4.8552  -4.6120   2.6348   5.4886   6.3316   6.7399
     7.1055   7.3567   7.6183   8.3558   9.2505   9.5742

          k = 0.0000-0.5000 0.0000 ( 11772 PWs)   bands (ev):

   -45.7944 -22.4784 -22.4404 -22.3686  -6.9866  -6.3847  -6.1819  -5.0501
    -4.9990  -4.9850  -4.7501  -4.7465   3.0200   5.6064   6.9050   6.9127
     7.3307   7.4374   8.2028   8.2531   8.6897  10.3699

          k = 0.0000-0.5000 0.2378 ( 11772 PWs)   bands (ev):

   -45.7941 -22.4975 -22.4392 -22.3678  -6.9400  -6.3225  -6.0721  -5.0153
    -5.0020  -4.9997  -4.7819  -4.6519   2.7780   5.5642   6.5545   6.7687
     7.0925   7.2355   7.9438   8.2802   8.8770   9.8840

          k = 0.0000-0.5000-0.4756 ( 11784 PWs)   bands (ev):

   -45.7938 -22.5164 -22.4380 -22.3669  -6.9253  -6.2569  -5.9087  -5.0188
    -5.0004  -4.9730  -4.8276  -4.5615   2.5526   5.3578   6.0234   6.7896
     7.0600   7.2948   7.3961   8.2965   9.2223   9.5685

          k = 0.1667 0.1667 0.0000 ( 11785 PWs)   bands (ev):

   -45.7950 -22.4801 -22.3882 -22.3878  -7.3082  -6.4603  -6.1837  -5.0158
    -5.0024  -4.9639  -4.8244  -4.6601   3.4921   6.2517   6.4875   6.7267
     7.6557   7.7890   8.4673   8.5343   8.8211   9.1843

          k = 0.1667 0.1667 0.2378 ( 11761 PWs)   bands (ev):

   -45.7948 -22.4995 -22.3872 -22.3870  -7.1498  -6.4385  -6.1151  -5.0169
    -4.9930  -4.9585  -4.8178  -4.6740   3.1419   6.0422   6.1231   6.8471
     7.4932   7.5180   8.2764   8.6776   8.8993   9.3315

          k = 0.1667 0.1667-0.4756 ( 11752 PWs)   bands (ev):

   -45.7945 -22.5187 -22.3863 -22.3862  -6.9936  -6.4165  -6.0339  -5.0277
    -4.9727  -4.9362  -4.8245  -4.6918   2.8135   5.8397   5.8566   6.5714
     7.3503   7.4714   8.2096   8.7413   8.9531   9.6824

          k = 0.1667 0.3333 0.0000 ( 11763 PWs)   bands (ev):

   -45.7944 -22.4785 -22.4223 -22.3864  -7.0236  -6.4058  -6.2007  -5.0326
    -4.9911  -4.9473  -4.7821  -4.6690   3.0141   5.9567   6.4908   6.8231
     7.1472   7.7060   8.0379   8.6510   8.8180   9.6817

          k = 0.1667 0.3333 0.2378 ( 11775 PWs)   bands (ev):

   -45.7941 -22.4977 -22.4213 -22.3856  -6.9158  -6.3973  -6.1176  -5.0117
    -4.9885  -4.9289  -4.7679  -4.6313   2.9003   5.7813   5.9425   6.4621
     6.8992   7.5623   8.3332   8.6159   8.9543   9.4308

          k = 0.1667 0.3333-0.4756 ( 11772 PWs)   bands (ev):

   -45.7938 -22.5167 -22.4203 -22.3847  -6.8399  -6.3790  -5.9990  -5.0119
    -4.9650  -4.8935  -4.7760  -4.5876   2.7468   5.4404   5.8403   6.2155
     6.4038   7.4178   8.4378   8.6599   8.9682   9.3860

          k = 0.1667-0.5000 0.0000 ( 11780 PWs)   bands (ev):

   -45.7940 -22.4776 -22.4394 -22.3857  -6.8668  -6.3625  -6.2358  -5.0338
    -4.9833  -4.9286  -4.7290  -4.7244   2.8239   5.6244   6.6200   6.8138
     7.1839   7.4562   7.8414   8.7009   8.7981  10.0024

          k = 0.1667-0.5000 0.2378 ( 11764 PWs)   bands (ev):

   -45.7938 -22.4967 -22.4383 -22.3848  -6.8155  -6.3344  -6.1394  -5.0099
    -4.9759  -4.9129  -4.7330  -4.6297   2.7898   5.5716   5.8453   6.2319
     6.8484   7.6981   8.1242   8.6143   8.9669   9.3992

          k = 0.1667-0.5000-0.4756 ( 11780 PWs)   bands (ev):

   -45.7935 -22.5156 -22.4372 -22.3840  -6.8055  -6.3072  -5.9842  -5.0070
    -4.9375  -4.8956  -4.7448  -4.5396   2.7176   5.3263   5.6777   5.8700
     6.2997   7.5324   8.3227   8.5828   8.6425   9.5815

          k = 0.3333 0.3333 0.0000 ( 11806 PWs)   bands (ev):

   -45.7937 -22.4769 -22.4206 -22.4204  -6.7676  -6.3575  -6.2690  -5.0132
    -4.9696  -4.8701  -4.7110  -4.6689   2.6147   5.9071   6.0881   6.8978
     7.0733   7.1976   7.8790   8.4918   9.2977   9.4305

          k = 0.3333 0.3333 0.2378 ( 11769 PWs)   bands (ev):

   -45.7935 -22.4959 -22.4197 -22.4195  -6.6647  -6.3966  -6.2030  -4.9765
    -4.9655  -4.8271  -4.6654  -4.6009   2.7964   5.5545   5.6384   5.9037
     6.6261   7.0700   8.4190   8.9271   8.9659   9.3147

          k = 0.3333 0.3333-0.4756 ( 11776 PWs)   bands (ev):

   -45.7932 -22.5148 -22.4187 -22.4186  -6.6157  -6.4334  -6.0723  -4.9608
    -4.9408  -4.7790  -4.6191  -4.5350   2.9685   5.1561   5.1937   5.6730
     6.3579   6.5447   7.7556   9.2698   9.2839   9.4567

          k = 0.3333-0.5000 0.0000 ( 11804 PWs)   bands (ev):

   -45.7934 -22.4759 -22.4375 -22.4196  -6.6380  -6.3240  -6.3092  -5.0055
    -4.9471  -4.7980  -4.7118  -4.6725   2.4297   5.5945   6.1256   6.7374
     7.2457   7.3865   7.4752   8.4793   9.1342   9.4920

          k = 0.3333-0.5000 0.2378 ( 11796 PWs)   bands (ev):

   -45.7931 -22.4949 -22.4365 -22.4187  -6.5545  -6.3618  -6.2592  -4.9689
    -4.9391  -4.7473  -4.6407  -4.5891   2.7115   5.4783   5.5491   5.6646
     6.3992   7.1421   7.9951   8.9341   8.9429   9.4678

          k = 0.3333-0.5000-0.4756 ( 11756 PWs)   bands (ev):

   -45.7929 -22.5138 -22.4356 -22.4179  -6.5619  -6.3974  -6.1043  -4.9440
    -4.9199  -4.7050  -4.5691  -4.4957   3.0668   4.9204   5.1184   5.4453
     6.1473   6.5445   7.0338   9.3761   9.4382   9.6116

          k =-0.5000-0.5000 0.0000 ( 11808 PWs)   bands (ev):

   -45.7931 -22.4750 -22.4366 -22.4366  -6.5528  -6.3079  -6.3079  -4.9958
    -4.9069  -4.7152  -4.7152  -4.6652   2.2355   5.4343   5.9959   6.9685
     6.9685   7.4847   7.4847   8.2520   8.6654   9.7438

          k =-0.5000-0.5000 0.2378 ( 11816 PWs)   bands (ev):

   -45.7928 -22.4940 -22.4357 -22.4357  -6.3768  -6.3768  -6.3569  -4.9579
    -4.9051  -4.6385  -4.5959  -4.5959   2.6155   5.3917   5.6106   5.6106
     6.0022   7.0796   7.3855   8.9596   8.9596   9.7290

          k =-0.5000-0.5000-0.4756 ( 11784 PWs)   bands (ev):

   -45.7925 -22.5129 -22.4347 -22.4347  -6.4385  -6.4385  -6.1550  -4.9200
    -4.9033  -4.6032  -4.4820  -4.4820   3.1929   4.9877   4.9877   5.2796
     6.0085   6.1150   6.2339   9.6273   9.6273   9.7142

     highest occupied level (ev):    10.3699

!    total energy              =    -380.57602990 Ry
     estimated scf accuracy    <          1.0E-11 Ry

     The total energy is the sum of the following terms:
     one-electron contribution =     -85.72172044 Ry
     hartree contribution      =      72.00531994 Ry
     xc contribution           =    -102.58521301 Ry
     ewald contribution        =    -264.27441639 Ry

     convergence has been achieved in   8 iterations

     negative rho (up, down):  1.579E-02 0.000E+00

     Forces acting on atoms (cartesian axes, Ry/au):

     atom    1 type  1   force =     0.00000000    0.00000000    0.00016576
     atom    2 type  2   force =     0.00000000    0.00000000   -0.00086302
     atom    3 type  3   force =     0.00000000    0.00000000    0.00037301
     atom    4 type  3   force =     0.00000000    0.00000000    0.00016212
     atom    5 type  3   force =     0.00000000    0.00000000    0.00016212

     Total force =     0.000982     Total SCF correction =     0.000011


     Computing stress (Cartesian axis) and pressure


     negative rho (up, down):  1.579E-02 0.000E+00
          total   stress  (Ry/bohr**3)                   (kbar)     P=      -42.38
  -0.00033961   0.00000000   0.00000000          -49.96        0.00        0.00
   0.00000000  -0.00033961   0.00000000            0.00      -49.96        0.00
   0.00000000   0.00000000  -0.00018517            0.00        0.00      -27.24

     Energy error            =      3.4E-06 Ry
     Gradient error          =      8.6E-04 Ry/Bohr

     bfgs converged in   9 scf cycles and   8 bfgs steps
     (criteria: energy <  1.0E-04 Ry, force <  1.0E-03 Ry/Bohr)

     End of BFGS Geometry Optimization

     Final energy             =    -380.5760298966 Ry

     File ./pto_140.bfgs deleted, as requested
Begin final coordinates

ATOMIC_POSITIONS (crystal)
Pb               0.0000000000        0.0000000000        0.9934757988
Ti               0.5000000000        0.5000000000        0.5381741938
O                0.5000000000        0.5000000000        0.1067146891
O                0.5000000000        0.0000000000        0.6144598032
O                0.0000000000        0.5000000000        0.6144598032
End final coordinates



     Writing all to output data dir ./pto_140.save/ :
     XML data file, charge density, pseudopotentials, collected wavefunctions
 
     init_run     :      0.96s CPU      1.10s WALL (       1 calls)
     electrons    :    282.56s CPU    298.20s WALL (       9 calls)
     update_pot   :      0.12s CPU      0.13s WALL (       8 calls)
     forces       :      3.83s CPU      4.26s WALL (       9 calls)
     stress       :     38.54s CPU     39.85s WALL (       9 calls)

     Called by init_run:
     wfcinit      :      0.50s CPU      0.53s WALL (       1 calls)
     potinit      :      0.02s CPU      0.03s WALL (       1 calls)
     hinit0       :      0.18s CPU      0.21s WALL (       1 calls)

     Called by electrons:
     c_bands      :    229.66s CPU    235.74s WALL (      92 calls)
     sum_band     :     36.42s CPU     41.33s WALL (      92 calls)
     v_of_rho     :      0.59s CPU      0.59s WALL (      97 calls)
     newd         :     16.78s CPU     21.40s WALL (      97 calls)
     mix_rho      :      0.38s CPU      0.39s WALL (      92 calls)

     Called by c_bands:
     init_us_2    :      2.82s CPU      2.90s WALL (    6090 calls)
     init_us_2:cp :      2.81s CPU      2.89s WALL (    6090 calls)
     ccgdiagg     :    205.67s CPU    211.27s WALL (    2760 calls)
     wfcrot       :     22.60s CPU     23.02s WALL (    2400 calls)

     Called by *cgdiagg:
     h_psi        :    140.13s CPU    143.75s WALL (  238192 calls)
     s_psi        :     35.50s CPU     36.56s WALL (  473984 calls)

     Called by h_psi:
     h_psi:calbec :     21.48s CPU     22.05s WALL (  238192 calls)
     vloc_psi     :     97.76s CPU    100.26s WALL (  238192 calls)
     add_vuspsi   :     18.30s CPU     18.85s WALL (  238192 calls)
     hs_1psi      :    140.15s CPU    143.92s WALL (  235792 calls)
     s_1psi       :     38.48s CPU     39.48s WALL (  235792 calls)

     General routines
     calbec       :     42.29s CPU     43.56s WALL (  478094 calls)
     fft          :      0.81s CPU      0.83s WALL (     648 calls)
     ffts         :      0.04s CPU      0.04s WALL (     189 calls)
     fftw         :     74.91s CPU     76.65s WALL (  638444 calls)
     interpolate  :      0.17s CPU      0.17s WALL (      97 calls)
 
     Parallel routines
 
     PWSCF        :   5m27.71s CPU   5m47.19s WALL

 
   This run was terminated on:  20:37:55  14Nov2025            

=------------------------------------------------------------------------------=
   JOB DONE.
=------------------------------------------------------------------------------=
TACC:  Shutdown complete. Exiting. 
