TACC:  Starting up job 2477574 
TACC:  Starting parallel tasks... 

     Program PWSCF v.7.3 starts on 19Oct2025 at  0:46:48 

     This program is part of the open-source Quantum ESPRESSO suite
     for quantum simulation of materials; please cite
         "P. Giannozzi et al., J. Phys.:Condens. Matter 21 395502 (2009);
         "P. Giannozzi et al., J. Phys.:Condens. Matter 29 465901 (2017);
         "P. Giannozzi et al., J. Chem. Phys. 152 154105 (2020);
          URL http://www.quantum-espresso.org", 
     in publications or presentations arising from this work. More details at
     http://www.quantum-espresso.org/quote

     Parallel version (MPI & OpenMP), running on      10 processor cores
     Number of MPI processes:                10
     Threads/MPI process:                     1

     MPI processes distributed on     1 nodes
     182342 MiB available memory on the printing compute node when the environment starts
 
     Waiting for input...
     Reading input from standard input
Warning: card &CELL ignored
Warning: card  CELL_DYNAMICS = 'BFGS', ignored
Warning: card  PRESS=0.D0, ignored
Warning: card / ignored
     Message from routine read_cards :
     DEPRECATED: no units specified in ATOMIC_POSITIONS card
     Message from routine read_cards :
     ATOMIC_POSITIONS: units set to alat

     Current dimensions of program PWSCF are:
     Max number of different atomic species (ntypx) = 10
     Max number of k-points (npk) =  40000
     Max angular momentum in pseudopotentials (lmaxx) =  4
     Message from routine setup:
     using ibrav=0 with symmetry is DISCOURAGED, use correct ibrav instead
 
     R & G space division:  proc/nbgrp/npool/nimage =      10
     Subspace diagonalization in iterative solution of the eigenvalue problem:
     a serial algorithm will be used

 
     Parallelization info
     --------------------
     sticks:   dense  smooth     PW     G-vecs:    dense   smooth      PW
     Min         124      48     18                 2786      699     159
     Max         125      49     19                 2790      704     161
     Sum        1247     487    181                27883     7011    1601
 
     Using Slab Decomposition
 


     bravais-lattice index     =            0
     lattice parameter (alat)  =       6.6720  a.u.
     unit-cell volume          =     147.6041 (a.u.)^3
     number of atoms/cell      =            2
     number of atomic types    =            1
     number of electrons       =         8.00
     number of Kohn-Sham states=            4
     kinetic-energy cutoff     =      50.0000  Ry
     charge density cutoff     =     500.0000  Ry
     scf convergence threshold =      1.0E-08
     mixing beta               =       0.7000
     number of iterations used =            8  plain     mixing
     Exchange-correlation= SLA  PZ   NOGX NOGC
                           (   1   1   0   0   0   0   0)

     celldm(1)=   6.672000  celldm(2)=   0.000000  celldm(3)=   0.000000
     celldm(4)=   0.000000  celldm(5)=   0.000000  celldm(6)=   0.000000

     crystal axes: (cart. coord. in units of alat)
               a(1) = (  -0.498988   0.498988   0.498988 )  
               a(2) = (   0.498988  -0.498988   0.498988 )  
               a(3) = (   0.498988   0.498988  -0.498988 )  

     reciprocal axes: (cart. coord. in units 2 pi/alat)
               b(1) = (  0.000000  1.002028  1.002028 )  
               b(2) = (  1.002028  0.000000  1.002028 )  
               b(3) = (  1.002028  1.002028  0.000000 )  


     PseudoPot. # 1 for C  read from file:
     /scratch/11018/zhc/Assisgnment2/Q2/Diamond/Diamond/C_LDA.UPF
     MD5 check sum: 407c1fe918d93b14b177d5600f28733c
     Pseudo is Ultrasoft + core correction, Zval =  4.0
     Generated by new atomic code, or converted to UPF format
     Using radial grid of  721 points,  4 beta functions with: 
                l(1) =   0
                l(2) =   0
                l(3) =   1
                l(4) =   1
     Q(r) pseudized with  8 coefficients,  rinner =    1.100   1.100   1.100


     atomic species   valence    mass     pseudopotential
     C                 4.00    12.01100     C ( 1.00)

      6 Sym. Ops. (no inversion) found



   Cartesian axes

     site n.     atom                  positions (alat units)
         1        C      tau(   1) = (   0.0000000   0.0000000   0.0000000  )
         2        C      tau(   2) = (   0.2211023   0.2211023   0.2211023  )

     number of k points=    13
                       cart. coord. in units 2pi/alat
        k(    1) = (   0.0000000   0.0000000   0.0000000), wk =   0.0312500
        k(    2) = (   0.2505070   0.2505070   0.0000000), wk =   0.1875000
        k(    3) = (  -0.5010141  -0.5010141   0.0000000), wk =   0.0937500
        k(    4) = (   0.5010141   0.2505070   0.2505070), wk =   0.1875000
        k(    5) = (   0.5010141   0.5010141   0.5010141), wk =   0.0625000
        k(    6) = (   0.0000000   0.0000000   0.5010141), wk =   0.1875000
        k(    7) = (  -1.0020281  -0.2505070  -0.2505070), wk =   0.1875000
        k(    8) = (  -1.0020281  -1.0020281  -1.0020281), wk =   0.0312500
        k(    9) = (   0.2505070  -0.2505070   0.0000000), wk =   0.1875000
        k(   10) = (  -0.5010141   0.5010141   0.0000000), wk =   0.0937500
        k(   11) = (   0.2505070  -0.5010141   0.2505070), wk =   0.1875000
        k(   12) = (  -0.2505070   0.5010141   0.2505070), wk =   0.3750000
        k(   13) = (   0.2505070  -1.0020281  -0.2505070), wk =   0.1875000

     Dense  grid:    27883 G-vectors     FFT dimensions: (  45,  45,  45)

     Smooth grid:     7011 G-vectors     FFT dimensions: (  25,  25,  25)

     Estimated max dynamical RAM per process >       4.58 MB

     Estimated total dynamical RAM >      45.77 MB

     Initial potential from superposition of free atoms

     starting charge       7.9999, renormalised to       8.0000
     Starting wfcs are    8 randomized atomic wfcs

     total cpu time spent up to now is        0.2 secs

     Self-consistent Calculation

     iteration #  1     ecut=    50.00 Ry     beta= 0.70
     CG style diagonalization
     ethr =  1.00E-02,  avg # of iterations =  3.0

     total cpu time spent up to now is        0.3 secs

     total energy              =     -22.64066153 Ry
     estimated scf accuracy    <       0.11806528 Ry

     iteration #  2     ecut=    50.00 Ry     beta= 0.70
     CG style diagonalization
     ethr =  1.48E-03,  avg # of iterations =  3.9

     total cpu time spent up to now is        0.3 secs

     total energy              =     -22.66403212 Ry
     estimated scf accuracy    <       0.00339247 Ry

     iteration #  3     ecut=    50.00 Ry     beta= 0.70
     CG style diagonalization
     ethr =  4.24E-05,  avg # of iterations =  4.1

     total cpu time spent up to now is        0.3 secs

     total energy              =     -22.66516352 Ry
     estimated scf accuracy    <       0.00011150 Ry

     iteration #  4     ecut=    50.00 Ry     beta= 0.70
     CG style diagonalization
     ethr =  1.39E-06,  avg # of iterations =  4.1

     total cpu time spent up to now is        0.4 secs

     total energy              =     -22.66520698 Ry
     estimated scf accuracy    <       0.00000637 Ry

     iteration #  5     ecut=    50.00 Ry     beta= 0.70
     CG style diagonalization
     ethr =  7.96E-08,  avg # of iterations =  4.2

     total cpu time spent up to now is        0.4 secs

     total energy              =     -22.66520942 Ry
     estimated scf accuracy    <       0.00000005 Ry

     iteration #  6     ecut=    50.00 Ry     beta= 0.70
     CG style diagonalization
     c_bands:  1 eigenvalues not converged
     ethr =  6.71E-10,  avg # of iterations =  5.7

     total cpu time spent up to now is        0.5 secs

     total energy              =     -22.66520959 Ry
     estimated scf accuracy    <       0.00000002 Ry

     iteration #  7     ecut=    50.00 Ry     beta= 0.70
     CG style diagonalization
     ethr =  2.30E-10,  avg # of iterations =  4.5

     total cpu time spent up to now is        0.5 secs

     End of self-consistent calculation

          k = 0.0000 0.0000 0.0000 (   935 PWs)   bands (ev):

   -11.4792  -2.7814   3.1421   3.1421

          k = 0.2505 0.2505 0.0000 (   889 PWs)   bands (ev):

   -10.5657  -4.3627   2.7524   3.5902

          k =-0.5010-0.5010 0.0000 (   870 PWs)   bands (ev):

    -8.8808  -6.5643   2.5838   4.2827

          k = 0.5010 0.2505 0.2505 (   878 PWs)   bands (ev):

    -9.0147  -6.2630   1.7344   3.7298

          k = 0.5010 0.5010 0.5010 (   868 PWs)   bands (ev):

    -8.9698  -5.1210   0.1278   0.1278

          k = 0.0000 0.0000 0.5010 (   875 PWs)   bands (ev):

    -9.8877  -4.3056   0.9277   2.6524

          k =-1.0020-0.2505-0.2505 (   882 PWs)   bands (ev):

    -9.0253  -4.1939  -0.8412   1.7021

          k =-1.0020-1.0020-1.0020 (   856 PWs)   bands (ev):

    -8.0849  -5.5212   1.8847   1.8847

          k = 0.2505-0.2505 0.0000 (   889 PWs)   bands (ev):

   -10.7053  -2.9119   0.4759   2.5566

          k =-0.5010 0.5010 0.0000 (   870 PWs)   bands (ev):

    -9.6507  -2.9120  -2.0812   2.0441

          k = 0.2505-0.5010 0.2505 (   878 PWs)   bands (ev):

    -9.6909  -2.9604  -1.1042   0.6224

          k =-0.2505 0.5010 0.2505 (   878 PWs)   bands (ev):

    -9.4362  -4.7856  -0.3876   2.6813

          k = 0.2505-1.0020-0.2505 (   882 PWs)   bands (ev):

    -8.4988  -6.0637   1.7878   2.2599

     highest occupied level (ev):     4.2827

!    total energy              =     -22.66520959 Ry
     estimated scf accuracy    <          6.4E-09 Ry

     The total energy is the sum of the following terms:
     one-electron contribution =      -0.58576375 Ry
     hartree contribution      =       3.68585058 Ry
     xc contribution           =      -6.64912022 Ry
     ewald contribution        =     -19.11617620 Ry

     convergence has been achieved in   7 iterations

     Forces acting on atoms (cartesian axes, Ry/au):

     atom    1 type  1   force =     0.03768693    0.03768693    0.03768693
     atom    2 type  1   force =    -0.03768693   -0.03768693   -0.03768693

     Total force =     0.092314     Total SCF correction =     0.000027


     Computing stress (Cartesian axis) and pressure

          total   stress  (Ry/bohr**3)                   (kbar)     P=     -535.11
  -0.00363761  -0.00463012  -0.00463012         -535.11     -681.11     -681.11
  -0.00463012  -0.00363761  -0.00463012         -681.11     -535.11     -681.11
  -0.00463012  -0.00463012  -0.00363761         -681.11     -681.11     -535.11


     Writing all to output data dir ./diamond_isotropic_etam0p006.save/ :
     XML data file, charge density, pseudopotentials, collected wavefunctions
 
     init_run     :      0.06s CPU      0.12s WALL (       1 calls)
     electrons    :      0.31s CPU      0.36s WALL (       1 calls)
     forces       :      0.01s CPU      0.01s WALL (       1 calls)
     stress       :      0.02s CPU      0.02s WALL (       1 calls)

     Called by init_run:
     wfcinit      :      0.01s CPU      0.04s WALL (       1 calls)
     potinit      :      0.00s CPU      0.01s WALL (       1 calls)
     hinit0       :      0.02s CPU      0.04s WALL (       1 calls)

     Called by electrons:
     c_bands      :      0.25s CPU      0.27s WALL (       7 calls)
     sum_band     :      0.03s CPU      0.04s WALL (       7 calls)
     v_of_rho     :      0.01s CPU      0.01s WALL (       8 calls)
     newd         :      0.01s CPU      0.02s WALL (       8 calls)
     mix_rho      :      0.00s CPU      0.01s WALL (       7 calls)

     Called by c_bands:
     init_us_2    :      0.00s CPU      0.01s WALL (     221 calls)
     init_us_2:cp :      0.00s CPU      0.00s WALL (     221 calls)
     ccgdiagg     :      0.21s CPU      0.23s WALL (      91 calls)
     wfcrot       :      0.04s CPU      0.07s WALL (      91 calls)

     Called by *cgdiagg:
     h_psi        :      0.15s CPU      0.17s WALL (    1312 calls)
     s_psi        :      0.01s CPU      0.01s WALL (    2533 calls)

     Called by h_psi:
     h_psi:calbec :      0.02s CPU      0.03s WALL (    1312 calls)
     vloc_psi     :      0.11s CPU      0.13s WALL (    1312 calls)
     add_vuspsi   :      0.00s CPU      0.01s WALL (    1312 calls)
     hs_1psi      :      0.12s CPU      0.14s WALL (    1221 calls)
     s_1psi       :      0.02s CPU      0.03s WALL (    1221 calls)

     General routines
     calbec       :      0.03s CPU      0.04s WALL (    2689 calls)
     fft          :      0.01s CPU      0.03s WALL (      54 calls)
     ffts         :      0.00s CPU      0.00s WALL (      15 calls)
     fftw         :      0.10s CPU      0.11s WALL (    3638 calls)
     interpolate  :      0.00s CPU      0.01s WALL (       8 calls)
 
     Parallel routines
 
     PWSCF        :      0.44s CPU      0.69s WALL

 
   This run was terminated on:   0:46:49  19Oct2025            

=------------------------------------------------------------------------------=
   JOB DONE.
=------------------------------------------------------------------------------=
TACC:  Shutdown complete. Exiting. 
