TACC:  Starting up job 2552573 
TACC:  Starting parallel tasks... 

     Program PWSCF v.7.3 starts on 14Nov2025 at 20:27:22 

     This program is part of the open-source Quantum ESPRESSO suite
     for quantum simulation of materials; please cite
         "P. Giannozzi et al., J. Phys.:Condens. Matter 21 395502 (2009);
         "P. Giannozzi et al., J. Phys.:Condens. Matter 29 465901 (2017);
         "P. Giannozzi et al., J. Chem. Phys. 152 154105 (2020);
          URL http://www.quantum-espresso.org", 
     in publications or presentations arising from this work. More details at
     http://www.quantum-espresso.org/quote

     Parallel version (MPI & OpenMP), running on      10 processor cores
     Number of MPI processes:                10
     Threads/MPI process:                     1

     MPI processes distributed on     1 nodes
     184246 MiB available memory on the printing compute node when the environment starts
 
     Waiting for input...
     Reading input from standard input
Warning: card &CELL ignored
Warning: card  CELL_DYNAMICS = 'BFGS', ignored
Warning: card  PRESS=0.D0, ignored
Warning: card / ignored

     Current dimensions of program PWSCF are:
     Max number of different atomic species (ntypx) = 10
     Max number of k-points (npk) =  40000
     Max angular momentum in pseudopotentials (lmaxx) =  4
     Message from routine setup:
     using ibrav=0 with symmetry is DISCOURAGED, use correct ibrav instead
 
     R & G space division:  proc/nbgrp/npool/nimage =      10
     Subspace diagonalization in iterative solution of the eigenvalue problem:
     a serial algorithm will be used

 
     Parallelization info
     --------------------
     sticks:   dense  smooth     PW     G-vecs:    dense   smooth      PW
     Min         473     190     55                25933     6560    1001
     Max         476     191     56                25935     6562    1003
     Sum        4741    1901    553               259341    65607   10019
 
     Using Slab Decomposition
 


     bravais-lattice index     =            0
     lattice parameter (alat)  =       7.3699  a.u.
     unit-cell volume          =     420.8329 (a.u.)^3
     number of atoms/cell      =            5
     number of atomic types    =            3
     number of electrons       =        44.00
     number of Kohn-Sham states=           22
     kinetic-energy cutoff     =     110.0000  Ry
     charge density cutoff     =    1100.0000  Ry
     scf convergence threshold =      1.0E-08
     mixing beta               =       0.7000
     number of iterations used =            8  plain     mixing
     energy convergence thresh.=      1.0E-04
     force convergence thresh. =      1.0E-03
     Exchange-correlation= SLA  PZ   NOGX NOGC
                           (   1   1   0   0   0   0   0)
     nstep                     =           50


     celldm(1)=   7.369932  celldm(2)=   0.000000  celldm(3)=   0.000000
     celldm(4)=   0.000000  celldm(5)=   0.000000  celldm(6)=   0.000000

     crystal axes: (cart. coord. in units of alat)
               a(1) = (   1.000000   0.000000   0.000000 )  
               a(2) = (   0.000000   1.000000   0.000000 )  
               a(3) = (   0.000000   0.000000   1.051282 )  

     reciprocal axes: (cart. coord. in units 2 pi/alat)
               b(1) = (  1.000000  0.000000  0.000000 )  
               b(2) = (  0.000000  1.000000  0.000000 )  
               b(3) = (  0.000000  0.000000  0.951220 )  


     PseudoPot. # 1 for Pb read from file:
     /scratch/11018/zhc/assisgnment3/input_files/Pb_LDA.UPF
     MD5 check sum: 062a37469794d955244864f8fe2e5624
     Pseudo is Ultrasoft + core correction, Zval = 14.0
     Generated by new atomic code, or converted to UPF format
     Using radial grid of  899 points,  6 beta functions with: 
                l(1) =   0
                l(2) =   0
                l(3) =   1
                l(4) =   1
                l(5) =   2
                l(6) =   2
     Q(r) pseudized with  6 coefficients,  rinner =    1.000   1.000   1.000
                                                       1.000   1.000

     PseudoPot. # 2 for Ti read from file:
     /scratch/11018/zhc/assisgnment3/input_files/Ti_LDA.UPF
     MD5 check sum: 0d9f225c038fe889ca2a701dcc8d72cb
     Pseudo is Ultrasoft + core correction, Zval = 12.0
     Generated by new atomic code, or converted to UPF format
     Using radial grid of  851 points,  6 beta functions with: 
                l(1) =   0
                l(2) =   0
                l(3) =   1
                l(4) =   1
                l(5) =   2
                l(6) =   2
     Q(r) pseudized with  6 coefficients,  rinner =    1.000   1.000   1.000
                                                       1.000   1.000

     PseudoPot. # 3 for O  read from file:
     /scratch/11018/zhc/assisgnment3/input_files/O_LDA.UPF
     MD5 check sum: 194b818514d2a7dbb603bb78519a4f40
     Pseudo is Ultrasoft + core correction, Zval =  6.0
     Generated by new atomic code, or converted to UPF format
     Using radial grid of  737 points,  5 beta functions with: 
                l(1) =   0
                l(2) =   0
                l(3) =   1
                l(4) =   1
                l(5) =   2
     Q(r) pseudized with  8 coefficients,  rinner =    0.900   0.900   0.900
                                                       0.900   0.900

     atomic species   valence    mass     pseudopotential
     Pb               14.00   207.20000     Pb( 1.00)
     Ti               12.00    47.88000     Ti( 1.00)
     O                 6.00    16.00000     O ( 1.00)

      8 Sym. Ops. (no inversion) found



   Cartesian axes

     site n.     atom                  positions (alat units)
         1        Pb     tau(   1) = (   0.0000000   0.0000000   1.0580339  )
         2        Ti     tau(   2) = (   0.5000000   0.5000000   0.5681377  )
         3        O      tau(   3) = (   0.5000000   0.5000000   0.1036357  )
         4        O      tau(   4) = (   0.5000000   0.0000000   0.6422586  )
         5        O      tau(   5) = (   0.0000000   0.5000000   0.6422586  )

     number of k points=    30
                       cart. coord. in units 2pi/alat
        k(    1) = (   0.0000000   0.0000000   0.0000000), wk =   0.0138889
        k(    2) = (   0.0000000   0.0000000   0.2378049), wk =   0.0277778
        k(    3) = (   0.0000000   0.0000000  -0.4756098), wk =   0.0138889
        k(    4) = (   0.0000000   0.1666667   0.0000000), wk =   0.0555556
        k(    5) = (   0.0000000   0.1666667   0.2378049), wk =   0.1111111
        k(    6) = (   0.0000000   0.1666667  -0.4756098), wk =   0.0555556
        k(    7) = (   0.0000000   0.3333333   0.0000000), wk =   0.0555556
        k(    8) = (   0.0000000   0.3333333   0.2378049), wk =   0.1111111
        k(    9) = (   0.0000000   0.3333333  -0.4756098), wk =   0.0555556
        k(   10) = (   0.0000000  -0.5000000   0.0000000), wk =   0.0277778
        k(   11) = (   0.0000000  -0.5000000   0.2378049), wk =   0.0555556
        k(   12) = (   0.0000000  -0.5000000  -0.4756098), wk =   0.0277778
        k(   13) = (   0.1666667   0.1666667   0.0000000), wk =   0.0555556
        k(   14) = (   0.1666667   0.1666667   0.2378049), wk =   0.1111111
        k(   15) = (   0.1666667   0.1666667  -0.4756098), wk =   0.0555556
        k(   16) = (   0.1666667   0.3333333   0.0000000), wk =   0.1111111
        k(   17) = (   0.1666667   0.3333333   0.2378049), wk =   0.2222222
        k(   18) = (   0.1666667   0.3333333  -0.4756098), wk =   0.1111111
        k(   19) = (   0.1666667  -0.5000000   0.0000000), wk =   0.0555556
        k(   20) = (   0.1666667  -0.5000000   0.2378049), wk =   0.1111111
        k(   21) = (   0.1666667  -0.5000000  -0.4756098), wk =   0.0555556
        k(   22) = (   0.3333333   0.3333333   0.0000000), wk =   0.0555556
        k(   23) = (   0.3333333   0.3333333   0.2378049), wk =   0.1111111
        k(   24) = (   0.3333333   0.3333333  -0.4756098), wk =   0.0555556
        k(   25) = (   0.3333333  -0.5000000   0.0000000), wk =   0.0555556
        k(   26) = (   0.3333333  -0.5000000   0.2378049), wk =   0.1111111
        k(   27) = (   0.3333333  -0.5000000  -0.4756098), wk =   0.0555556
        k(   28) = (  -0.5000000  -0.5000000   0.0000000), wk =   0.0138889
        k(   29) = (  -0.5000000  -0.5000000   0.2378049), wk =   0.0277778
        k(   30) = (  -0.5000000  -0.5000000  -0.4756098), wk =   0.0138889

     Dense  grid:   259341 G-vectors     FFT dimensions: (  80,  80,  81)

     Smooth grid:    65607 G-vectors     FFT dimensions: (  50,  50,  54)

     Estimated max dynamical RAM per process >     113.15 MB

     Estimated total dynamical RAM >       1.11 GB

     Initial potential from superposition of free atoms

     starting charge      42.9982, renormalised to      44.0000

     negative rho (up, down):  1.710E-02 0.000E+00
     Starting wfcs are   31 randomized atomic wfcs

     total cpu time spent up to now is        1.2 secs

     Self-consistent Calculation

     iteration #  1     ecut=   110.00 Ry     beta= 0.70
     CG style diagonalization
     ethr =  1.00E-02,  avg # of iterations =  2.1

     negative rho (up, down):  1.447E-02 0.000E+00

     total cpu time spent up to now is        2.7 secs

     total energy              =    -380.04480854 Ry
     estimated scf accuracy    <       1.03940101 Ry

     iteration #  2     ecut=   110.00 Ry     beta= 0.70
     CG style diagonalization
     ethr =  2.36E-03,  avg # of iterations =  4.9

     negative rho (up, down):  1.459E-02 0.000E+00

     total cpu time spent up to now is        5.4 secs

     total energy              =    -379.57762491 Ry
     estimated scf accuracy    <       5.01552234 Ry

     iteration #  3     ecut=   110.00 Ry     beta= 0.70
     CG style diagonalization
     ethr =  2.36E-03,  avg # of iterations =  4.5

     negative rho (up, down):  1.533E-02 0.000E+00

     total cpu time spent up to now is        7.9 secs

     total energy              =    -380.53806729 Ry
     estimated scf accuracy    <       0.30714408 Ry

     iteration #  4     ecut=   110.00 Ry     beta= 0.70
     CG style diagonalization
     ethr =  6.98E-04,  avg # of iterations =  3.5

     negative rho (up, down):  1.547E-02 0.000E+00

     total cpu time spent up to now is        9.9 secs

     total energy              =    -380.55343796 Ry
     estimated scf accuracy    <       0.07854842 Ry

     iteration #  5     ecut=   110.00 Ry     beta= 0.70
     CG style diagonalization
     ethr =  1.79E-04,  avg # of iterations =  3.7

     negative rho (up, down):  1.549E-02 0.000E+00

     total cpu time spent up to now is       11.9 secs

     total energy              =    -380.57055754 Ry
     estimated scf accuracy    <       0.00477142 Ry

     iteration #  6     ecut=   110.00 Ry     beta= 0.70
     CG style diagonalization
     ethr =  1.08E-05,  avg # of iterations =  4.4

     negative rho (up, down):  1.547E-02 0.000E+00

     total cpu time spent up to now is       14.4 secs

     total energy              =    -380.57452290 Ry
     estimated scf accuracy    <       0.00849523 Ry

     iteration #  7     ecut=   110.00 Ry     beta= 0.70
     CG style diagonalization
     ethr =  1.08E-05,  avg # of iterations =  3.2

     negative rho (up, down):  1.545E-02 0.000E+00

     total cpu time spent up to now is       16.2 secs

     total energy              =    -380.57352683 Ry
     estimated scf accuracy    <       0.00422282 Ry

     iteration #  8     ecut=   110.00 Ry     beta= 0.70
     CG style diagonalization
     ethr =  9.60E-06,  avg # of iterations =  3.6

     negative rho (up, down):  1.547E-02 0.000E+00

     total cpu time spent up to now is       18.2 secs

     total energy              =    -380.57425712 Ry
     estimated scf accuracy    <       0.00002145 Ry

     iteration #  9     ecut=   110.00 Ry     beta= 0.70
     CG style diagonalization
     c_bands:  1 eigenvalues not converged
     c_bands:  1 eigenvalues not converged
     ethr =  4.88E-08,  avg # of iterations =  6.7

     negative rho (up, down):  1.550E-02 0.000E+00

     total cpu time spent up to now is       21.8 secs

     total energy              =    -380.57432759 Ry
     estimated scf accuracy    <       0.00000718 Ry

     iteration # 10     ecut=   110.00 Ry     beta= 0.70
     CG style diagonalization
     ethr =  1.63E-08,  avg # of iterations =  4.4

     negative rho (up, down):  1.556E-02 0.000E+00

     total cpu time spent up to now is       24.2 secs

     total energy              =    -380.57432906 Ry
     estimated scf accuracy    <       0.00000398 Ry

     iteration # 11     ecut=   110.00 Ry     beta= 0.70
     CG style diagonalization
     ethr =  9.05E-09,  avg # of iterations =  4.4

     negative rho (up, down):  1.557E-02 0.000E+00

     total cpu time spent up to now is       26.6 secs

     total energy              =    -380.57433049 Ry
     estimated scf accuracy    <       0.00000011 Ry

     iteration # 12     ecut=   110.00 Ry     beta= 0.70
     CG style diagonalization
     c_bands:  1 eigenvalues not converged
     c_bands:  1 eigenvalues not converged
     c_bands:  1 eigenvalues not converged
     ethr =  2.54E-10,  avg # of iterations = 10.9

     negative rho (up, down):  1.557E-02 0.000E+00

     total cpu time spent up to now is       32.3 secs

     total energy              =    -380.57433162 Ry
     estimated scf accuracy    <       0.00000006 Ry

     iteration # 13     ecut=   110.00 Ry     beta= 0.70
     CG style diagonalization
     ethr =  1.36E-10,  avg # of iterations =  4.5

     negative rho (up, down):  1.558E-02 0.000E+00

     total cpu time spent up to now is       34.7 secs

     total energy              =    -380.57433164 Ry
     estimated scf accuracy    <       0.00000003 Ry

     iteration # 14     ecut=   110.00 Ry     beta= 0.70
     CG style diagonalization
     ethr =  6.49E-11,  avg # of iterations =  4.7

     negative rho (up, down):  1.558E-02 0.000E+00

     total cpu time spent up to now is       37.3 secs

     End of self-consistent calculation

          k = 0.0000 0.0000 0.0000 (  8193 PWs)   bands (ev):

   -45.8570 -22.4926 -22.4304 -22.4304  -7.5125  -6.4332  -6.2000  -5.0271
    -5.0271  -4.9922  -4.8706  -4.7661   4.2241   6.3075   6.3075   6.6260
     8.2744   8.2744   8.4909   8.7788   8.9394   8.9394

          k = 0.0000 0.0000 0.2378 (  8214 PWs)   bands (ev):

   -45.8567 -22.5121 -22.4296 -22.4296  -7.3197  -6.3743  -6.1422  -5.0423
    -5.0423  -4.9909  -4.8629  -4.8373   3.4623   6.3768   6.3768   6.7881
     8.0078   8.0078   8.4068   8.8273   9.0455   9.0455

          k = 0.0000 0.0000-0.4756 (  8242 PWs)   bands (ev):

   -45.8564 -22.5314 -22.4289 -22.4289  -7.1090  -6.3094  -6.0923  -5.0574
    -5.0574  -4.9896  -4.9144  -4.8571   2.9645   6.1478   6.4333   6.4333
     7.8240   7.8240   8.3266   9.1156   9.1156   9.9982

          k = 0.0000 0.1667 0.0000 (  8193 PWs)   bands (ev):

   -45.8567 -22.4919 -22.4476 -22.4297  -7.3776  -6.4038  -6.1710  -5.0478
    -5.0258  -5.0049  -4.8756  -4.7568   3.7956   6.3508   6.4165   6.6729
     8.1859   8.2981   8.4911   8.5694   8.6706   9.0379

          k = 0.0000 0.1667 0.2378 (  8204 PWs)   bands (ev):

   -45.8564 -22.5112 -22.4467 -22.4289  -7.2005  -6.3607  -6.1079  -5.0459
    -5.0414  -5.0041  -4.8728  -4.7934   3.2508   6.1627   6.4931   6.8884
     7.6641   7.9986   8.2716   8.6924   8.7197   9.3660

          k = 0.0000 0.1667-0.4756 (  8208 PWs)   bands (ev):

   -45.8561 -22.5305 -22.4459 -22.4281  -7.0165  -6.3117  -6.0437  -5.0570
    -5.0414  -5.0034  -4.8805  -4.8265   2.8359   5.8585   6.5524   6.5785
     7.4664   7.8268   8.3377   8.7468   8.7941   9.9273

          k = 0.0000 0.3333 0.0000 (  8174 PWs)   bands (ev):

   -45.8560 -22.4908 -22.4814 -22.4283  -7.0840  -6.3408  -6.1271  -5.0808
    -5.0304  -5.0230  -4.8734  -4.7650   3.2188   5.9804   6.6725   6.7023
     7.8543   7.8757   8.3455   8.4079   8.7755   9.6132

          k = 0.0000 0.3333 0.2378 (  8196 PWs)   bands (ev):

   -45.8558 -22.5095 -22.4807 -22.4275  -6.9697  -6.3019  -6.0443  -5.0510
    -5.0397  -5.0304  -4.8698  -4.7391   2.8950   5.8682   6.5586   6.7995
     7.3090   7.7474   7.8607   8.4049   8.9366   9.6815

          k = 0.0000 0.3333-0.4756 (  8232 PWs)   bands (ev):

   -45.8555 -22.5285 -22.4797 -22.4266  -6.8850  -6.2394  -5.9341  -5.0561
    -5.0306  -5.0129  -4.9064  -4.6900   2.6069   5.5743   6.3161   6.8543
     7.2007   7.3656   7.6887   8.4117   9.3279   9.5158

          k = 0.0000-0.5000 0.0000 (  8180 PWs)   bands (ev):

   -45.8557 -22.4989 -22.4894 -22.4276  -6.9214  -6.2941  -6.1286  -5.0962
    -5.0429  -5.0216  -4.8471  -4.7991   3.0107   5.6180   6.9600   6.9704
     7.3495   7.4682   8.2685   8.4483   8.8115  10.3558

          k = 0.0000-0.5000 0.2378 (  8214 PWs)   bands (ev):

   -45.8554 -22.5084 -22.4978 -22.4267  -6.8696  -6.2229  -6.0362  -5.0638
    -5.0435  -5.0387  -4.8401  -4.7352   2.7516   5.5902   6.5914   6.8578
     7.1643   7.3160   7.9699   8.3932   8.9297   9.8616

          k = 0.0000-0.5000-0.4756 (  8212 PWs)   bands (ev):

   -45.8552 -22.5273 -22.4966 -22.4259  -6.8549  -6.1464  -5.8820  -5.0556
    -5.0441  -5.0238  -4.8931  -4.6340   2.5125   5.4244   6.0396   6.9190
     7.1684   7.3704   7.3743   8.3569   9.1470   9.6527

          k = 0.1667 0.1667 0.0000 (  8181 PWs)   bands (ev):

   -45.8563 -22.4912 -22.4469 -22.4467  -7.2453  -6.3736  -6.1636  -5.0533
    -5.0399  -5.0071  -4.8543  -4.7480   3.4994   6.2923   6.5220   6.7210
     7.7669   7.8509   8.5441   8.5673   8.8866   9.2656

          k = 0.1667 0.1667 0.2378 (  8197 PWs)   bands (ev):

   -45.8561 -22.5104 -22.4461 -22.4459  -7.0792  -6.3497  -6.1011  -5.0558
    -5.0353  -5.0004  -4.8458  -4.7624   3.1378   6.1078   6.1885   6.8515
     7.5502   7.5526   8.3746   8.7465   8.9713   9.3175

          k = 0.1667 0.1667-0.4756 (  8214 PWs)   bands (ev):

   -45.8558 -22.5296 -22.4452 -22.4451  -6.9133  -6.3257  -6.0285  -5.0669
    -5.0166  -4.9774  -4.8533  -4.7818   2.8090   5.9085   5.9188   6.5853
     7.4560   7.4705   8.2675   8.8166   9.0313   9.6353

          k = 0.1667 0.3333 0.0000 (  8184 PWs)   bands (ev):

   -45.8557 -22.4901 -22.4805 -22.4452  -6.9607  -6.3118  -6.1629  -5.0756
    -5.0302  -4.9905  -4.8315  -4.7556   3.0304   5.9850   6.5404   6.8249
     7.2112   7.8042   8.0606   8.7212   8.8991   9.6941

          k = 0.1667 0.3333 0.2378 (  8193 PWs)   bands (ev):

   -45.8554 -22.5087 -22.4798 -22.4444  -6.8440  -6.3051  -6.0936  -5.0537
    -5.0307  -4.9670  -4.8136  -4.7151   2.9028   5.8352   6.0046   6.4891
     6.9294   7.5760   8.4101   8.7014   9.0258   9.4109

          k = 0.1667 0.3333-0.4756 (  8188 PWs)   bands (ev):

   -45.8552 -22.5276 -22.4789 -22.4436  -6.7623  -6.2849  -5.9892  -5.0506
    -5.0079  -4.9280  -4.8260  -4.6642   2.7381   5.5160   5.9214   6.2222
     6.4316   7.4287   8.5142   8.7397   8.9210   9.4491

          k = 0.1667-0.5000 0.0000 (  8186 PWs)   bands (ev):

   -45.8554 -22.4980 -22.4887 -22.4445  -6.8046  -6.2670  -6.1858  -5.0787
    -5.0231  -4.9686  -4.8122  -4.7902   2.8441   5.6346   6.6961   6.8503
     7.1890   7.4649   7.9754   8.7807   8.8787   9.9760

          k = 0.1667-0.5000 0.2378 (  8198 PWs)   bands (ev):

   -45.8551 -22.5077 -22.4969 -22.4437  -6.7433  -6.2360  -6.1145  -5.0526
    -5.0185  -4.9443  -4.7950  -4.7085   2.7939   5.5961   5.9120   6.2776
     6.8763   7.7193   8.1787   8.7162   9.0171   9.3825

          k = 0.1667-0.5000-0.4756 (  8192 PWs)   bands (ev):

   -45.8549 -22.5265 -22.4958 -22.4428  -6.7317  -6.2062  -5.9745  -5.0459
    -4.9812  -4.9208  -4.8104  -4.6088   2.7035   5.3940   5.7822   5.8874
     6.3058   7.5401   8.3015   8.6575   8.6650   9.6608

          k = 0.3333 0.3333 0.0000 (  8198 PWs)   bands (ev):

   -45.8551 -22.4888 -22.4790 -22.4784  -6.7169  -6.2544  -6.2163  -5.0580
    -5.0124  -4.9222  -4.7589  -4.7525   2.6716   5.9490   6.0847   6.9496
     7.0870   7.2643   7.8800   8.5180   9.3845   9.4057

          k = 0.3333 0.3333 0.2378 (  8198 PWs)   bands (ev):

   -45.8548 -22.5071 -22.4782 -22.4782  -6.5942  -6.3031  -6.1820  -5.0218
    -5.0058  -4.8623  -4.7082  -4.6818   2.8538   5.5996   5.6628   5.9392
     6.6059   7.0669   8.3840   8.9905   9.0195   9.4007

          k = 0.3333 0.3333-0.4756 (  8174 PWs)   bands (ev):

   -45.8545 -22.5259 -22.4773 -22.4773  -6.5326  -6.3479  -6.0764  -4.9995
    -4.9855  -4.7974  -4.6634  -4.6074   3.0204   5.2160   5.2356   5.7012
     6.3519   6.5130   7.6502   9.3557   9.3696   9.5312

          k = 0.3333-0.5000 0.0000 (  8196 PWs)   bands (ev):

   -45.8548 -22.4961 -22.4875 -22.4778  -6.6066  -6.2327  -6.2179  -5.0508
    -4.9909  -4.8604  -4.7918  -4.7186   2.5045   5.6144   6.1200   6.7798
     7.3016   7.4044   7.4992   8.4934   9.0784   9.5723

          k = 0.3333-0.5000 0.2378 (  8208 PWs)   bands (ev):

   -45.8545 -22.5061 -22.4951 -22.4773  -6.4872  -6.2654  -6.2382  -5.0138
    -4.9805  -4.7723  -4.7110  -4.6492   2.7973   5.4972   5.5740   5.6825
     6.3893   7.1408   7.9042   8.9870   9.0180   9.5530

          k = 0.3333-0.5000-0.4756 (  8200 PWs)   bands (ev):

   -45.8542 -22.5248 -22.4942 -22.4765  -6.4814  -6.3092  -6.1144  -4.9857
    -4.9629  -4.7091  -4.6300  -4.5547   3.1662   4.9603   5.1462   5.4568
     6.1408   6.5282   6.8808   9.4554   9.5248   9.6825

          k =-0.5000-0.5000 0.0000 (  8180 PWs)   bands (ev):

   -45.8544 -22.4951 -22.4951 -22.4861  -6.5564  -6.1961  -6.1961  -5.0412
    -4.9491  -4.8093  -4.8093  -4.6714   2.3353   5.4593   5.9625   6.9989
     6.9989   7.5183   7.5183   8.2480   8.5811   9.8296

          k =-0.5000-0.5000 0.2378 (  8188 PWs)   bands (ev):

   -45.8542 -22.5050 -22.4942 -22.4942  -6.3664  -6.2812  -6.2812  -5.0031
    -4.9473  -4.6708  -4.6708  -4.6375   2.7452   5.4129   5.6165   5.6165
     5.9687   7.0815   7.2557   9.0188   9.0188   9.8142

          k =-0.5000-0.5000-0.4756 (  8208 PWs)   bands (ev):

   -45.8539 -22.5239 -22.4934 -22.4934  -6.3547  -6.3547  -6.1722  -4.9649
    -4.9454  -4.5925  -4.5419  -4.5419   3.4109   4.9825   4.9825   5.2900
     5.8876   5.9749   6.2463   9.6934   9.6934   9.7988

     highest occupied level (ev):    10.3558

!    total energy              =    -380.57433165 Ry
     estimated scf accuracy    <          4.4E-09 Ry

     The total energy is the sum of the following terms:
     one-electron contribution =     -84.08952097 Ry
     hartree contribution      =      71.17220787 Ry
     xc contribution           =    -102.54285910 Ry
     ewald contribution        =    -265.11415945 Ry

     convergence has been achieved in  14 iterations

     negative rho (up, down):  1.558E-02 0.000E+00

     Forces acting on atoms (cartesian axes, Ry/au):

     atom    1 type  1   force =     0.00000000    0.00000000   -0.00784713
     atom    2 type  2   force =     0.00000000    0.00000000   -0.01233352
     atom    3 type  3   force =     0.00000000    0.00000000    0.02044144
     atom    4 type  3   force =     0.00000000    0.00000000   -0.00013040
     atom    5 type  3   force =     0.00000000    0.00000000   -0.00013040

     Total force =     0.025131     Total SCF correction =     0.000145


     Computing stress (Cartesian axis) and pressure


     negative rho (up, down):  1.558E-02 0.000E+00
          total   stress  (Ry/bohr**3)                   (kbar)     P=      -63.46
  -0.00042003   0.00000000   0.00000000          -61.79        0.00        0.00
   0.00000000  -0.00042003   0.00000000            0.00      -61.79        0.00
   0.00000000   0.00000000  -0.00045417            0.00        0.00      -66.81


     BFGS Geometry Optimization
     Energy error            =      0.0E+00 Ry
     Gradient error          =      2.0E-02 Ry/Bohr

     number of scf cycles    =   1
     number of bfgs steps    =   0

     energy             new  =    -380.5743316512 Ry

     new trust radius        =       0.0204414408 bohr
     new conv_thr            =       0.0000000100 Ry


ATOMIC_POSITIONS (crystal)
Pb               0.0000000000        0.0000000000        1.0054096973
Ti               0.5000000000        0.5000000000        0.5388318396
O                0.5000000000        0.5000000000        0.1012186290
O                0.5000000000        0.0000000000        0.6109120610
O                0.0000000000        0.5000000000        0.6109120610



     Writing config-only to output data dir ./pto_110.save/ :
     XML data file
     NEW-OLD atomic charge density approx. for the potential

     negative rho (up, down):  1.558E-02 0.000E+00

     total cpu time spent up to now is       41.0 secs

     Self-consistent Calculation

     iteration #  1     ecut=   110.00 Ry     beta= 0.70
     CG style diagonalization
     c_bands:  3 eigenvalues not converged
     c_bands:  1 eigenvalues not converged
     c_bands:  1 eigenvalues not converged
     c_bands:  1 eigenvalues not converged
     ethr =  1.00E-06,  avg # of iterations =  6.8

     negative rho (up, down):  1.555E-02 0.000E+00

     total cpu time spent up to now is       44.9 secs

     total energy              =    -380.57469663 Ry
     estimated scf accuracy    <       0.00024217 Ry

     iteration #  2     ecut=   110.00 Ry     beta= 0.70
     CG style diagonalization
     ethr =  5.50E-07,  avg # of iterations =  4.7

     negative rho (up, down):  1.556E-02 0.000E+00

     total cpu time spent up to now is       47.5 secs

     total energy              =    -380.57468476 Ry
     estimated scf accuracy    <       0.00067116 Ry

     iteration #  3     ecut=   110.00 Ry     beta= 0.70
     CG style diagonalization
     ethr =  5.50E-07,  avg # of iterations =  4.4

     negative rho (up, down):  1.556E-02 0.000E+00

     total cpu time spent up to now is       49.9 secs

     total energy              =    -380.57481696 Ry
     estimated scf accuracy    <       0.00004557 Ry

     iteration #  4     ecut=   110.00 Ry     beta= 0.70
     CG style diagonalization
     ethr =  1.04E-07,  avg # of iterations =  3.8

     negative rho (up, down):  1.556E-02 0.000E+00

     total cpu time spent up to now is       52.1 secs

     total energy              =    -380.57482783 Ry
     estimated scf accuracy    <       0.00000614 Ry

     iteration #  5     ecut=   110.00 Ry     beta= 0.70
     CG style diagonalization
     ethr =  1.40E-08,  avg # of iterations =  4.3

     negative rho (up, down):  1.556E-02 0.000E+00

     total cpu time spent up to now is       54.5 secs

     total energy              =    -380.57483100 Ry
     estimated scf accuracy    <       0.00000076 Ry

     iteration #  6     ecut=   110.00 Ry     beta= 0.70
     CG style diagonalization
     ethr =  1.72E-09,  avg # of iterations =  4.5

     negative rho (up, down):  1.556E-02 0.000E+00

     total cpu time spent up to now is       56.9 secs

     total energy              =    -380.57483138 Ry
     estimated scf accuracy    <       0.00000029 Ry

     iteration #  7     ecut=   110.00 Ry     beta= 0.70
     CG style diagonalization
     ethr =  6.65E-10,  avg # of iterations =  4.1

     negative rho (up, down):  1.556E-02 0.000E+00

     total cpu time spent up to now is       59.2 secs

     total energy              =    -380.57483146 Ry
     estimated scf accuracy    <       0.00000007 Ry

     iteration #  8     ecut=   110.00 Ry     beta= 0.70
     CG style diagonalization
     ethr =  1.55E-10,  avg # of iterations =  4.5

     negative rho (up, down):  1.556E-02 0.000E+00

     total cpu time spent up to now is       61.7 secs

     End of self-consistent calculation

          k = 0.0000 0.0000 0.0000 (  8193 PWs)   bands (ev):

   -45.8217 -22.4797 -22.3945 -22.3945  -7.5096  -6.4269  -6.2107  -5.0298
    -5.0298  -4.9967  -4.8781  -4.7639   4.2143   6.3112   6.3112   6.6560
     8.2062   8.2062   8.4923   8.7215   8.9482   8.9482

          k = 0.0000 0.0000 0.2378 (  8214 PWs)   bands (ev):

   -45.8214 -22.4993 -22.3937 -22.3937  -7.3139  -6.3679  -6.1553  -5.0450
    -5.0450  -4.9954  -4.8704  -4.8353   3.4480   6.3709   6.3709   6.8033
     7.9651   7.9651   8.4078   8.8089   9.0512   9.0512

          k = 0.0000 0.0000-0.4756 (  8242 PWs)   bands (ev):

   -45.8211 -22.5187 -22.3930 -22.3930  -7.0991  -6.3028  -6.1090  -5.0600
    -5.0600  -4.9942  -4.9126  -4.8645   2.9431   6.1611   6.4145   6.4145
     7.8037   7.8037   8.3271   9.1211   9.1211  10.0014

          k = 0.0000 0.1667 0.0000 (  8193 PWs)   bands (ev):

   -45.8214 -22.4790 -22.4117 -22.3938  -7.3752  -6.3982  -6.1828  -5.0510
    -5.0285  -5.0094  -4.8811  -4.7547   3.7906   6.3531   6.4209   6.6851
     8.1540   8.2313   8.4837   8.5763   8.6506   9.0147

          k = 0.0000 0.1667 0.2378 (  8204 PWs)   bands (ev):

   -45.8211 -22.4984 -22.4109 -22.3930  -7.1951  -6.3551  -6.1221  -5.0487
    -5.0441  -5.0086  -4.8786  -4.7913   3.2410   6.1546   6.4883   6.9006
     7.6416   7.9585   8.2699   8.6763   8.7221   9.3648

          k = 0.0000 0.1667-0.4756 (  8208 PWs)   bands (ev):

   -45.8208 -22.5177 -22.4100 -22.3922  -7.0072  -6.3061  -6.0613  -5.0596
    -5.0439  -5.0079  -4.8861  -4.8250   2.8201   5.8456   6.5345   6.5892
     7.4555   7.8067   8.3443   8.7303   8.7993   9.9346

          k = 0.0000 0.3333 0.0000 (  8174 PWs)   bands (ev):

   -45.8207 -22.4775 -22.4459 -22.3924  -7.0822  -6.3370  -6.1414  -5.0838
    -5.0348  -5.0256  -4.8748  -4.7636   3.2166   5.9886   6.6704   6.7091
     7.8508   7.8834   8.3361   8.3463   8.7400   9.6006

          k = 0.0000 0.3333 0.2378 (  8196 PWs)   bands (ev):

   -45.8204 -22.4966 -22.4449 -22.3916  -6.9645  -6.2991  -6.0610  -5.0537
    -5.0423  -5.0348  -4.8724  -4.7367   2.8911   5.8673   6.5587   6.7979
     7.3040   7.7340   7.8599   8.3755   8.9218   9.6750

          k = 0.0000 0.3333-0.4756 (  8232 PWs)   bands (ev):

   -45.8202 -22.5157 -22.4439 -22.3907  -6.8770  -6.2363  -5.9539  -5.0587
    -5.0350  -5.0153  -4.9094  -4.6876   2.6010   5.5568   6.3286   6.8382
     7.1967   7.3778   7.6796   8.4025   9.2930   9.5284

          k = 0.0000-0.5000 0.0000 (  8180 PWs)   bands (ev):

   -45.8204 -22.4765 -22.4631 -22.3917  -6.9194  -6.2907  -6.1455  -5.0983
    -5.0473  -5.0243  -4.8445  -4.8005   3.0084   5.6343   6.9430   6.9805
     7.3610   7.4751   8.2682   8.3726   8.7745  10.3432

          k = 0.0000-0.5000 0.2378 (  8214 PWs)   bands (ev):

   -45.8201 -22.4956 -22.4620 -22.3908  -6.8640  -6.2198  -6.0566  -5.0657
    -5.0479  -5.0413  -4.8414  -4.7328   2.7496   5.6018   6.5855   6.8488
     7.1749   7.3022   7.9696   8.3506   8.9234   9.8452

          k = 0.0000-0.5000-0.4756 (  8212 PWs)   bands (ev):

   -45.8199 -22.5146 -22.4608 -22.3900  -6.8475  -6.1438  -5.9043  -5.0582
    -5.0485  -5.0255  -4.8944  -4.6317   2.5108   5.4174   6.0407   6.9143
     7.1417   7.3855   7.3877   8.3363   9.1440   9.6268

          k = 0.1667 0.1667 0.0000 (  8181 PWs)   bands (ev):

   -45.8210 -22.4782 -22.4111 -22.4108  -7.2438  -6.3683  -6.1758  -5.0564
    -5.0429  -5.0110  -4.8593  -4.7458   3.4962   6.3008   6.5254   6.7212
     7.7170   7.8501   8.5069   8.5717   8.8928   9.2240

          k = 0.1667 0.1667 0.2378 (  8197 PWs)   bands (ev):

   -45.8208 -22.4976 -22.4102 -22.4100  -7.0746  -6.3444  -6.1161  -5.0590
    -5.0383  -5.0040  -4.8513  -4.7600   3.1301   6.1020   6.1830   6.8544
     7.5381   7.5502   8.3348   8.7434   8.9695   9.3149

          k = 0.1667 0.1667-0.4756 (  8214 PWs)   bands (ev):

   -45.8205 -22.5168 -22.4093 -22.4092  -6.9048  -6.3203  -6.0468  -5.0703
    -5.0204  -4.9795  -4.8595  -4.7792   2.7960   5.8988   5.9038   6.5973
     7.4494   7.4731   8.2388   8.8139   9.0267   9.6427

          k = 0.1667 0.3333 0.0000 (  8184 PWs)   bands (ev):

   -45.8204 -22.4767 -22.4451 -22.4094  -6.9608  -6.3082  -6.1751  -5.0780
    -5.0331  -4.9947  -4.8345  -4.7537   3.0288   5.9961   6.5370   6.8311
     7.2082   7.7552   8.0635   8.7069   8.8928   9.6721

          k = 0.1667 0.3333 0.2378 (  8193 PWs)   bands (ev):

   -45.8201 -22.4958 -22.4441 -22.4086  -6.8402  -6.3020  -6.1090  -5.0567
    -5.0334  -4.9718  -4.8168  -4.7128   2.8992   5.8335   6.0003   6.4935
     6.9242   7.5743   8.3975   8.6828   9.0152   9.4032

          k = 0.1667 0.3333-0.4756 (  8188 PWs)   bands (ev):

   -45.8199 -22.5148 -22.4431 -22.4077  -6.7554  -6.2814  -6.0076  -5.0542
    -5.0111  -4.9327  -4.8289  -4.6619   2.7319   5.4992   5.9189   6.2267
     6.4403   7.4366   8.4810   8.7429   8.9227   9.4318

          k = 0.1667-0.5000 0.0000 (  8186 PWs)   bands (ev):

   -45.8201 -22.4758 -22.4622 -22.4086  -6.8053  -6.2640  -6.1986  -5.0809
    -5.0258  -4.9738  -4.8114  -4.7907   2.8424   5.6510   6.6768   6.8628
     7.2001   7.4731   7.9088   8.7792   8.8598   9.9691

          k = 0.1667-0.5000 0.2378 (  8198 PWs)   bands (ev):

   -45.8198 -22.4948 -22.4611 -22.4078  -6.7393  -6.2332  -6.1315  -5.0553
    -5.0208  -4.9512  -4.7952  -4.7069   2.7917   5.6073   5.9093   6.2710
     6.8731   7.7140   8.1800   8.6856   9.0191   9.3638

          k = 0.1667-0.5000-0.4756 (  8192 PWs)   bands (ev):

   -45.8195 -22.5138 -22.4600 -22.4070  -6.7255  -6.2038  -5.9930  -5.0493
    -4.9832  -4.9291  -4.8101  -4.6069   2.7011   5.3831   5.7832   5.8904
     6.3078   7.5511   8.2966   8.6359   8.6654   9.6376

          k = 0.3333 0.3333 0.0000 (  8198 PWs)   bands (ev):

   -45.8198 -22.4752 -22.4434 -22.4432  -6.7227  -6.2515  -6.2234  -5.0599
    -5.0157  -4.9247  -4.7587  -4.7566   2.6701   5.9550   6.1063   6.9332
     7.0873   7.2158   7.9030   8.5052   9.3877   9.3955

          k = 0.3333 0.3333 0.2378 (  8198 PWs)   bands (ev):

   -45.8195 -22.4941 -22.4425 -22.4423  -6.5941  -6.3000  -6.1943  -5.0237
    -5.0096  -4.8672  -4.7133  -4.6792   2.8508   5.5933   5.6597   5.9459
     6.6174   7.0655   8.3806   8.9789   8.9950   9.4021

          k = 0.3333 0.3333-0.4756 (  8174 PWs)   bands (ev):

   -45.8192 -22.5130 -22.4416 -22.4415  -6.5281  -6.3448  -6.0920  -5.0037
    -4.9876  -4.8055  -4.6669  -4.6047   3.0144   5.2069   5.2336   5.7044
     6.3556   6.5350   7.6487   9.3286   9.3758   9.5105

          k = 0.3333-0.5000 0.0000 (  8196 PWs)   bands (ev):

   -45.8194 -22.4742 -22.4603 -22.4424  -6.6169  -6.2355  -6.2157  -5.0526
    -4.9943  -4.8612  -4.7904  -4.7257   2.5026   5.6274   6.1423   6.7529
     7.2618   7.4147   7.5019   8.4893   9.0786   9.5784

          k = 0.3333-0.5000 0.2378 (  8208 PWs)   bands (ev):

   -45.8192 -22.4932 -22.4593 -22.4416  -6.4889  -6.2632  -6.2485  -5.0158
    -4.9842  -4.7794  -4.7093  -4.6519   2.7946   5.4909   5.5836   5.6810
     6.4016   7.1371   7.9098   8.9700   8.9965   9.5574

          k = 0.3333-0.5000-0.4756 (  8200 PWs)   bands (ev):

   -45.8189 -22.5120 -22.4584 -22.4407  -6.4777  -6.3070  -6.1287  -4.9889
    -4.9658  -4.7214  -4.6282  -4.5544   3.1613   4.9596   5.1332   5.4694
     6.1511   6.5410   6.8835   9.4305   9.5316   9.6605

          k =-0.5000-0.5000 0.0000 (  8180 PWs)   bands (ev):

   -45.8191 -22.4732 -22.4593 -22.4593  -6.5716  -6.1945  -6.1945  -5.0430
    -4.9533  -4.8062  -4.8062  -4.6838   2.3329   5.4702   5.9918   6.9654
     6.9654   7.5253   7.5253   8.2425   8.5940   9.8365

          k =-0.5000-0.5000 0.2378 (  8188 PWs)   bands (ev):

   -45.8189 -22.4922 -22.4584 -22.4584  -6.3805  -6.2793  -6.2793  -5.0049
    -4.9514  -4.6682  -4.6682  -4.6516   2.7420   5.4249   5.6052   5.6052
     5.9980   7.0773   7.2665   9.0014   9.0014   9.8211

          k =-0.5000-0.5000-0.4756 (  8208 PWs)   bands (ev):

   -45.8186 -22.5111 -22.4575 -22.4575  -6.3526  -6.3526  -6.1849  -4.9669
    -4.9496  -4.6089  -4.5397  -4.5397   3.4044   4.9740   4.9740   5.3035
     5.9005   6.0043   6.2421   9.6722   9.6722   9.8057

     highest occupied level (ev):    10.3432

!    total energy              =    -380.57483150 Ry
     estimated scf accuracy    <          5.4E-09 Ry

     The total energy is the sum of the following terms:
     one-electron contribution =     -84.30684753 Ry
     hartree contribution      =      71.29022324 Ry
     xc contribution           =    -102.55269347 Ry
     ewald contribution        =    -265.00551373 Ry

     convergence has been achieved in   8 iterations

     negative rho (up, down):  1.556E-02 0.000E+00

     Forces acting on atoms (cartesian axes, Ry/au):

     atom    1 type  1   force =     0.00000000    0.00000000   -0.00860987
     atom    2 type  2   force =     0.00000000    0.00000000   -0.00505642
     atom    3 type  3   force =     0.00000000    0.00000000    0.01143573
     atom    4 type  3   force =     0.00000000    0.00000000    0.00111528
     atom    5 type  3   force =     0.00000000    0.00000000    0.00111528

     Total force =     0.015263     Total SCF correction =     0.000165


     Computing stress (Cartesian axis) and pressure


     negative rho (up, down):  1.556E-02 0.000E+00
          total   stress  (Ry/bohr**3)                   (kbar)     P=      -58.07
  -0.00040828   0.00000000   0.00000000          -60.06        0.00        0.00
   0.00000000  -0.00040828   0.00000000            0.00      -60.06        0.00
   0.00000000   0.00000000  -0.00036764            0.00        0.00      -54.08

     Energy error            =      5.0E-04 Ry
     Gradient error          =      1.1E-02 Ry/Bohr

     number of scf cycles    =   2
     number of bfgs steps    =   1

     energy             old  =    -380.5743316512 Ry
     energy             new  =    -380.5748314973 Ry

     CASE: energy            _new < energy            _old

     new trust radius        =       0.0224855849 bohr
     new conv_thr            =       0.0000000005 Ry


ATOMIC_POSITIONS (crystal)
Pb               0.0000000000        0.0000000000        1.0033716760
Ti               0.5000000000        0.5000000000        0.5374844093
O                0.5000000000        0.5000000000        0.1041207897
O                0.5000000000        0.0000000000        0.6111537065
O                0.0000000000        0.5000000000        0.6111537065



     Writing config-only to output data dir ./pto_110.save/ :
     XML data file
     NEW-OLD atomic charge density approx. for the potential

     negative rho (up, down):  1.554E-02 0.000E+00

     total cpu time spent up to now is       65.4 secs

     Self-consistent Calculation

     iteration #  1     ecut=   110.00 Ry     beta= 0.70
     CG style diagonalization
     c_bands:  1 eigenvalues not converged
     c_bands:  1 eigenvalues not converged
     c_bands:  1 eigenvalues not converged
     ethr =  1.00E-06,  avg # of iterations =  7.0

     negative rho (up, down):  1.550E-02 0.000E+00

     total cpu time spent up to now is       69.3 secs

     total energy              =    -380.57499206 Ry
     estimated scf accuracy    <       0.00023991 Ry

     iteration #  2     ecut=   110.00 Ry     beta= 0.70
     CG style diagonalization
     ethr =  5.45E-07,  avg # of iterations =  4.7

     negative rho (up, down):  1.551E-02 0.000E+00

     total cpu time spent up to now is       71.9 secs

     total energy              =    -380.57498880 Ry
     estimated scf accuracy    <       0.00062567 Ry

     iteration #  3     ecut=   110.00 Ry     beta= 0.70
     CG style diagonalization
     ethr =  5.45E-07,  avg # of iterations =  4.3

     negative rho (up, down):  1.551E-02 0.000E+00

     total cpu time spent up to now is       74.3 secs

     total energy              =    -380.57511618 Ry
     estimated scf accuracy    <       0.00005183 Ry

     iteration #  4     ecut=   110.00 Ry     beta= 0.70
     CG style diagonalization
     ethr =  1.18E-07,  avg # of iterations =  3.7

     negative rho (up, down):  1.550E-02 0.000E+00

     total cpu time spent up to now is       76.4 secs

     total energy              =    -380.57512702 Ry
     estimated scf accuracy    <       0.00000628 Ry

     iteration #  5     ecut=   110.00 Ry     beta= 0.70
     CG style diagonalization
     ethr =  1.43E-08,  avg # of iterations =  4.3

     negative rho (up, down):  1.550E-02 0.000E+00

     total cpu time spent up to now is       78.8 secs

     total energy              =    -380.57513058 Ry
     estimated scf accuracy    <       0.00000087 Ry

     iteration #  6     ecut=   110.00 Ry     beta= 0.70
     CG style diagonalization
     ethr =  1.99E-09,  avg # of iterations =  4.4

     negative rho (up, down):  1.550E-02 0.000E+00

     total cpu time spent up to now is       81.3 secs

     total energy              =    -380.57513100 Ry
     estimated scf accuracy    <       0.00000029 Ry

     iteration #  7     ecut=   110.00 Ry     beta= 0.70
     CG style diagonalization
     ethr =  6.66E-10,  avg # of iterations =  4.3

     negative rho (up, down):  1.550E-02 0.000E+00

     total cpu time spent up to now is       83.6 secs

     total energy              =    -380.57513110 Ry
     estimated scf accuracy    <       0.00000007 Ry

     iteration #  8     ecut=   110.00 Ry     beta= 0.70
     CG style diagonalization
     ethr =  1.63E-10,  avg # of iterations =  4.7

     negative rho (up, down):  1.550E-02 0.000E+00

     total cpu time spent up to now is       86.2 secs

     total energy              =    -380.57513115 Ry
     estimated scf accuracy    <          3.7E-09 Ry

     iteration #  9     ecut=   110.00 Ry     beta= 0.70
     CG style diagonalization
     c_bands:  1 eigenvalues not converged
     c_bands:  1 eigenvalues not converged
     ethr =  8.38E-12,  avg # of iterations =  7.0

     negative rho (up, down):  1.550E-02 0.000E+00

     total cpu time spent up to now is       89.9 secs

     total energy              =    -380.57513117 Ry
     estimated scf accuracy    <          6.6E-10 Ry

     iteration # 10     ecut=   110.00 Ry     beta= 0.70
     CG style diagonalization
     ethr =  1.50E-12,  avg # of iterations =  5.7

     negative rho (up, down):  1.550E-02 0.000E+00

     total cpu time spent up to now is       93.0 secs

     End of self-consistent calculation

          k = 0.0000 0.0000 0.0000 (  8193 PWs)   bands (ev):

   -45.7864 -22.4687 -22.3588 -22.3588  -7.5126  -6.4293  -6.2192  -5.0289
    -5.0289  -4.9966  -4.8838  -4.7550   4.2049   6.3092   6.3092   6.6963
     8.1379   8.1379   8.4901   8.6620   8.9495   8.9495

          k = 0.0000 0.0000 0.2378 (  8214 PWs)   bands (ev):

   -45.7861 -22.4884 -22.3581 -22.3581  -7.3153  -6.3708  -6.1654  -5.0440
    -5.0440  -4.9954  -4.8755  -4.8257   3.4363   6.3585   6.3585   6.8236
     7.9219   7.9219   8.4053   8.7903   9.0492   9.0492

          k = 0.0000 0.0000-0.4756 (  8242 PWs)   bands (ev):

   -45.7858 -22.5079 -22.3573 -22.3573  -7.0984  -6.3065  -6.1214  -5.0590
    -5.0590  -4.9941  -4.9022  -4.8688   2.9248   6.1778   6.3887   6.3887
     7.7832   7.7832   8.3242   9.1183   9.1183  10.0030

          k = 0.0000 0.1667 0.0000 (  8193 PWs)   bands (ev):

   -45.7861 -22.4680 -22.3761 -22.3581  -7.3786  -6.4013  -6.1930  -5.0506
    -5.0275  -5.0093  -4.8837  -4.7455   3.7862   6.3514   6.4196   6.6995
     8.1215   8.1630   8.4746   8.5777   8.6216   8.9934

          k = 0.0000 0.1667 0.2378 (  8204 PWs)   bands (ev):

   -45.7858 -22.4875 -22.3752 -22.3573  -7.1969  -6.3588  -6.1339  -5.0475
    -5.0431  -5.0085  -4.8814  -4.7820   3.2336   6.1421   6.4767   6.9137
     7.6171   7.9167   8.2628   8.6582   8.7188   9.3622

          k = 0.0000 0.1667-0.4756 (  8208 PWs)   bands (ev):

   -45.7855 -22.5069 -22.3744 -22.3565  -7.0070  -6.3104  -6.0752  -5.0585
    -5.0418  -5.0078  -4.8881  -4.8162   2.8075   5.8306   6.5095   6.5982
     7.4427   7.7857   8.3419   8.7114   8.7974   9.9426

          k = 0.0000 0.3333 0.0000 (  8174 PWs)   bands (ev):

   -45.7854 -22.4664 -22.4105 -22.3567  -7.0863  -6.3421  -6.1557  -5.0826
    -5.0346  -5.0246  -4.8713  -4.7553   3.2154   5.9919   6.6665   6.7095
     7.8419   7.8852   8.2635   8.3431   8.7004   9.5930

          k = 0.0000 0.3333 0.2378 (  8196 PWs)   bands (ev):

   -45.7851 -22.4857 -22.4094 -22.3559  -6.9666  -6.3052  -6.0763  -5.0521
    -5.0413  -5.0346  -4.8706  -4.7273   2.8896   5.8610   6.5568   6.7892
     7.2920   7.7138   7.8577   8.3457   8.9028   9.6721

          k = 0.0000 0.3333-0.4756 (  8232 PWs)   bands (ev):

   -45.7849 -22.5048 -22.4084 -22.3550  -6.8774  -6.2428  -5.9709  -5.0576
    -5.0348  -5.0129  -4.9073  -4.6791   2.5983   5.5353   6.3391   6.8148
     7.1846   7.3859   7.6654   8.3902   9.2580   9.5428

          k = 0.0000-0.5000 0.0000 (  8180 PWs)   bands (ev):

   -45.7851 -22.4655 -22.4276 -22.3560  -6.9235  -6.2958  -6.1636  -5.0961
    -5.0470  -5.0232  -4.8339  -4.7972   3.0074   5.6454   6.9216   6.9824
     7.3688   7.4783   8.2632   8.2951   8.7336  10.3339

          k = 0.0000-0.5000 0.2378 (  8214 PWs)   bands (ev):

   -45.7848 -22.4847 -22.4265 -22.3551  -6.8659  -6.2261  -6.0756  -5.0631
    -5.0476  -5.0402  -4.8375  -4.7237   2.7501   5.6077   6.5774   6.8318
     7.1767   7.2832   7.9672   8.3070   8.9120   9.8347

          k = 0.0000-0.5000-0.4756 (  8212 PWs)   bands (ev):

   -45.7845 -22.5037 -22.4253 -22.3543  -6.8482  -6.1515  -5.9238  -5.0571
    -5.0483  -5.0224  -4.8898  -4.6237   2.5125   5.4045   6.0408   6.8978
     7.1104   7.3870   7.4037   8.3140   9.1440   9.6013

          k = 0.1667 0.1667 0.0000 (  8181 PWs)   bands (ev):

   -45.7857 -22.4672 -22.3755 -22.3752  -7.2479  -6.3721  -6.1870  -5.0557
    -5.0422  -5.0104  -4.8607  -4.7364   3.4928   6.3044   6.5255   6.7210
     7.6662   7.8427   8.4714   8.5721   8.8919   9.1830

          k = 0.1667 0.1667 0.2378 (  8197 PWs)   bands (ev):

   -45.7855 -22.4867 -22.3746 -22.3743  -7.0770  -6.3483  -6.1290  -5.0582
    -5.0371  -5.0033  -4.8533  -4.7505   3.1241   6.0914   6.1730   6.8561
     7.5219   7.5441   8.2943   8.7346   8.9624   9.3133

          k = 0.1667 0.1667-0.4756 (  8214 PWs)   bands (ev):

   -45.7852 -22.5060 -22.3737 -22.3735  -6.9053  -6.3244  -6.0615  -5.0697
    -5.0198  -4.9778  -4.8620  -4.7694   2.7855   5.8848   5.8874   6.6049
     7.4336   7.4737   8.2106   8.8044   9.0167   9.6520

          k = 0.1667 0.3333 0.0000 (  8184 PWs)   bands (ev):

   -45.7851 -22.4657 -22.4096 -22.3738  -6.9662  -6.3139  -6.1881  -5.0764
    -5.0321  -4.9944  -4.8325  -4.7448   3.0260   6.0020   6.5291   6.8345
     7.2007   7.7036   8.0651   8.6894   8.8800   9.6533

          k = 0.1667 0.3333 0.2378 (  8193 PWs)   bands (ev):

   -45.7848 -22.4849 -22.4086 -22.3729  -6.8434  -6.3079  -6.1230  -5.0555
    -5.0320  -4.9724  -4.8153  -4.7038   2.8959   5.8267   5.9906   6.4944
     6.9170   7.5701   8.3769   8.6632   8.9995   9.3996

          k = 0.1667 0.3333-0.4756 (  8188 PWs)   bands (ev):

   -45.7845 -22.5040 -22.4076 -22.3721  -6.7568  -6.2870  -6.0227  -5.0537
    -5.0100  -4.9337  -4.8267  -4.6536   2.7274   5.4791   5.9095   6.2292
     6.4439   7.4409   8.4462   8.7389   8.9261   9.4133

          k = 0.1667-0.5000 0.0000 (  8186 PWs)   bands (ev):

   -45.7848 -22.4648 -22.4267 -22.3730  -6.8112  -6.2699  -6.2134  -5.0788
    -5.0247  -4.9746  -4.8029  -4.7859   2.8393   5.6623   6.6522   6.8702
     7.2076   7.4784   7.8436   8.7713   8.8360   9.9657

          k = 0.1667-0.5000 0.2378 (  8198 PWs)   bands (ev):

   -45.7845 -22.4839 -22.4256 -22.3722  -6.7426  -6.2396  -6.1470  -5.0538
    -5.0191  -4.9541  -4.7901  -4.6987   2.7895   5.6129   5.8998   6.2615
     6.8683   7.7060   8.1746   8.6530   9.0145   9.3519

          k = 0.1667-0.5000-0.4756 (  8192 PWs)   bands (ev):

   -45.7842 -22.5029 -22.4245 -22.3713  -6.7273  -6.2106  -6.0080  -5.0486
    -4.9812  -4.9337  -4.8041  -4.5995   2.7001   5.3669   5.7736   5.8924
     6.3082   7.5580   8.2946   8.6054   8.6680   9.6124

          k = 0.3333 0.3333 0.0000 (  8198 PWs)   bands (ev):

   -45.7844 -22.4641 -22.4079 -22.4077  -6.7311  -6.2584  -6.2340  -5.0576
    -5.0147  -4.9223  -4.7599  -4.7468   2.6639   5.9557   6.1234   6.9099
     7.0897   7.1699   7.9204   8.4914   9.3825   9.3892

          k = 0.3333 0.3333 0.2378 (  8198 PWs)   bands (ev):

   -45.7842 -22.4831 -22.4070 -22.4068  -6.5998  -6.3059  -6.2060  -5.0214
    -5.0092  -4.8683  -4.7134  -4.6701   2.8433   5.5830   5.6540   5.9484
     6.6271   7.0637   8.3785   8.9634   8.9718   9.3956

          k = 0.3333 0.3333-0.4756 (  8174 PWs)   bands (ev):

   -45.7839 -22.5021 -22.4060 -22.4059  -6.5317  -6.3499  -6.1036  -5.0036
    -4.9856  -4.8109  -4.6654  -4.5963   3.0049   5.1968   5.2237   5.7053
     6.3581   6.5542   7.6552   9.2993   9.3730   9.4869

          k = 0.3333-0.5000 0.0000 (  8196 PWs)   bands (ev):

   -45.7841 -22.4631 -22.4248 -22.4069  -6.6270  -6.2451  -6.2234  -5.0502
    -4.9932  -4.8564  -4.7822  -4.7274   2.4946   5.6352   6.1604   6.7250
     7.2194   7.4214   7.5060   8.4834   9.0839   9.5759

          k = 0.3333-0.5000 0.2378 (  8208 PWs)   bands (ev):

   -45.7839 -22.4822 -22.4238 -22.4060  -6.4955  -6.2699  -6.2589  -5.0136
    -4.9837  -4.7834  -4.7018  -4.6483   2.7848   5.4827   5.5871   5.6784
     6.4121   7.1330   7.9212   8.9516   8.9725   9.5533

          k = 0.3333-0.5000-0.4756 (  8200 PWs)   bands (ev):

   -45.7836 -22.5011 -22.4228 -22.4052  -6.4820  -6.3129  -6.1386  -4.9881
    -4.9643  -4.7313  -4.6216  -4.5489   3.1486   4.9539   5.1194   5.4788
     6.1587   6.5514   6.8988   9.4031   9.5289   9.6362

          k =-0.5000-0.5000 0.0000 (  8180 PWs)   bands (ev):

   -45.7838 -22.4622 -22.4238 -22.4238  -6.5828  -6.2032  -6.2032  -5.0406
    -4.9530  -4.7953  -4.7953  -4.6932   2.3222   5.4762   6.0172   6.9323
     6.9323   7.5297   7.5297   8.2377   8.6111   9.8342

          k =-0.5000-0.5000 0.2378 (  8188 PWs)   bands (ev):

   -45.7835 -22.4813 -22.4229 -22.4229  -6.3904  -6.2862  -6.2862  -5.0026
    -4.9512  -4.6631  -4.6595  -4.6595   2.7278   5.4323   5.5942   5.5942
     6.0235   7.0730   7.2862   8.9818   8.9818   9.8188

          k =-0.5000-0.5000-0.4756 (  8208 PWs)   bands (ev):

   -45.7833 -22.5002 -22.4220 -22.4220  -6.3583  -6.3583  -6.1929  -4.9646
    -4.9493  -4.6232  -4.5328  -4.5328   3.3790   4.9664   4.9664   5.3139
     5.9314   6.0298   6.2363   9.6487   9.6487   9.8035

     highest occupied level (ev):    10.3339

!    total energy              =    -380.57513117 Ry
     estimated scf accuracy    <          7.5E-11 Ry

     The total energy is the sum of the following terms:
     one-electron contribution =     -84.64676795 Ry
     hartree contribution      =      71.46941185 Ry
     xc contribution           =    -102.56496601 Ry
     ewald contribution        =    -264.83280906 Ry

     convergence has been achieved in  10 iterations

     negative rho (up, down):  1.550E-02 0.000E+00

     Forces acting on atoms (cartesian axes, Ry/au):

     atom    1 type  1   force =     0.00000000    0.00000000   -0.00857207
     atom    2 type  2   force =     0.00000000    0.00000000    0.00275490
     atom    3 type  3   force =     0.00000000    0.00000000    0.00127682
     atom    4 type  3   force =     0.00000000    0.00000000    0.00227017
     atom    5 type  3   force =     0.00000000    0.00000000    0.00227017

     Total force =     0.009644     Total SCF correction =     0.000008


     Computing stress (Cartesian axis) and pressure


     negative rho (up, down):  1.550E-02 0.000E+00
          total   stress  (Ry/bohr**3)                   (kbar)     P=      -51.65
  -0.00039216   0.00000000   0.00000000          -57.69        0.00        0.00
   0.00000000  -0.00039216   0.00000000            0.00      -57.69        0.00
   0.00000000   0.00000000  -0.00026899            0.00        0.00      -39.57

     Energy error            =      3.0E-04 Ry
     Gradient error          =      8.6E-03 Ry/Bohr

     number of scf cycles    =   3
     number of bfgs steps    =   2

     energy             old  =    -380.5748314973 Ry
     energy             new  =    -380.5751311660 Ry

     CASE: energy            _new < energy            _old

     new trust radius        =       0.0190641607 bohr
     new conv_thr            =       0.0000000003 Ry


ATOMIC_POSITIONS (crystal)
Pb               0.0000000000        0.0000000000        1.0009111103
Ti               0.5000000000        0.5000000000        0.5372241075
O                0.5000000000        0.5000000000        0.1058511298
O                0.5000000000        0.0000000000        0.6116489702
O                0.0000000000        0.5000000000        0.6116489702



     Writing config-only to output data dir ./pto_110.save/ :
     XML data file
     NEW-OLD atomic charge density approx. for the potential

     negative rho (up, down):  1.556E-02 0.000E+00

     total cpu time spent up to now is       96.7 secs

     Self-consistent Calculation

     iteration #  1     ecut=   110.00 Ry     beta= 0.70
     CG style diagonalization
     c_bands:  1 eigenvalues not converged
     ethr =  1.00E-06,  avg # of iterations =  5.6

     negative rho (up, down):  1.552E-02 0.000E+00

     total cpu time spent up to now is      100.0 secs

     total energy              =    -380.57522213 Ry
     estimated scf accuracy    <       0.00005632 Ry

     iteration #  2     ecut=   110.00 Ry     beta= 0.70
     CG style diagonalization
     ethr =  1.28E-07,  avg # of iterations =  4.8

     negative rho (up, down):  1.552E-02 0.000E+00

     total cpu time spent up to now is      102.6 secs

     total energy              =    -380.57524268 Ry
     estimated scf accuracy    <       0.00012070 Ry

     iteration #  3     ecut=   110.00 Ry     beta= 0.70
     CG style diagonalization
     ethr =  1.28E-07,  avg # of iterations =  4.3

     negative rho (up, down):  1.551E-02 0.000E+00

     total cpu time spent up to now is      105.0 secs

     total energy              =    -380.57527011 Ry
     estimated scf accuracy    <       0.00001719 Ry

     iteration #  4     ecut=   110.00 Ry     beta= 0.70
     CG style diagonalization
     ethr =  3.91E-08,  avg # of iterations =  3.7

     negative rho (up, down):  1.551E-02 0.000E+00

     total cpu time spent up to now is      107.1 secs

     total energy              =    -380.57527373 Ry
     estimated scf accuracy    <       0.00000194 Ry

     iteration #  5     ecut=   110.00 Ry     beta= 0.70
     CG style diagonalization
     ethr =  4.41E-09,  avg # of iterations =  4.4

     negative rho (up, down):  1.551E-02 0.000E+00

     total cpu time spent up to now is      109.5 secs

     total energy              =    -380.57527495 Ry
     estimated scf accuracy    <       0.00000013 Ry

     iteration #  6     ecut=   110.00 Ry     beta= 0.70
     CG style diagonalization
     ethr =  2.98E-10,  avg # of iterations =  5.3

     negative rho (up, down):  1.551E-02 0.000E+00

     total cpu time spent up to now is      112.4 secs

     total energy              =    -380.57527507 Ry
     estimated scf accuracy    <       0.00000015 Ry

     iteration #  7     ecut=   110.00 Ry     beta= 0.70
     CG style diagonalization
     ethr =  2.98E-10,  avg # of iterations =  3.9

     negative rho (up, down):  1.551E-02 0.000E+00

     total cpu time spent up to now is      114.6 secs

     total energy              =    -380.57527509 Ry
     estimated scf accuracy    <       0.00000004 Ry

     iteration #  8     ecut=   110.00 Ry     beta= 0.70
     CG style diagonalization
     ethr =  9.20E-11,  avg # of iterations =  4.2

     negative rho (up, down):  1.551E-02 0.000E+00

     total cpu time spent up to now is      116.9 secs

     total energy              =    -380.57527511 Ry
     estimated scf accuracy    <          1.6E-09 Ry

     iteration #  9     ecut=   110.00 Ry     beta= 0.70
     CG style diagonalization
     c_bands:  1 eigenvalues not converged
     ethr =  3.54E-12,  avg # of iterations =  7.2

     negative rho (up, down):  1.551E-02 0.000E+00

     total cpu time spent up to now is      120.8 secs

     total energy              =    -380.57527512 Ry
     estimated scf accuracy    <          7.0E-10 Ry

     iteration # 10     ecut=   110.00 Ry     beta= 0.70
     CG style diagonalization
     ethr =  1.60E-12,  avg # of iterations =  4.3

     negative rho (up, down):  1.551E-02 0.000E+00

     total cpu time spent up to now is      123.1 secs

     End of self-consistent calculation

          k = 0.0000 0.0000 0.0000 (  8193 PWs)   bands (ev):

   -45.7731 -22.4665 -22.3459 -22.3459  -7.5230  -6.4438  -6.2200  -5.0230
    -5.0230  -4.9896  -4.8836  -4.7405   4.2015   6.2999   6.2999   6.7301
     8.1087   8.1087   8.4836   8.6332   8.9382   8.9382

          k = 0.0000 0.0000 0.2378 (  8214 PWs)   bands (ev):

   -45.7728 -22.4862 -22.3451 -22.3451  -7.3270  -6.3866  -6.1657  -5.0380
    -5.0380  -4.9884  -4.8741  -4.8099   3.4354   6.3443   6.3443   6.8407
     7.9032   7.9032   8.3986   8.7817   9.0362   9.0362

          k = 0.0000 0.0000-0.4756 (  8242 PWs)   bands (ev):

   -45.7725 -22.5057 -22.3444 -22.3444  -7.1122  -6.3240  -6.1205  -5.0530
    -5.0530  -4.9871  -4.8847  -4.8661   2.9220   6.1905   6.3685   6.3685
     7.7742   7.7742   8.3175   9.1041   9.1041  10.0010

          k = 0.0000 0.1667 0.0000 (  8193 PWs)   bands (ev):

   -45.7728 -22.4658 -22.3632 -22.3452  -7.3891  -6.4164  -6.1957  -5.0448
    -5.0216  -5.0023  -4.8807  -4.7309   3.7854   6.3440   6.4101   6.7106
     8.1106   8.1333   8.4645   8.5674   8.6017   8.9813

          k = 0.0000 0.1667 0.2378 (  8204 PWs)   bands (ev):

   -45.7725 -22.4853 -22.3624 -22.3444  -7.2088  -6.3747  -6.1359  -5.0408
    -5.0371  -5.0015  -4.8781  -4.7668   3.2344   6.1300   6.4626   6.9214
     7.6049   7.8973   8.2520   8.6462   8.7070   9.3589

          k = 0.0000 0.1667-0.4756 (  8208 PWs)   bands (ev):

   -45.7722 -22.5047 -22.3615 -22.3436  -7.0209  -6.3273  -6.0757  -5.0525
    -5.0342  -5.0008  -4.8835  -4.8012   2.8073   5.8209   6.4896   6.6002
     7.4352   7.7752   8.3267   8.6995   8.7852   9.9474

          k = 0.0000 0.3333 0.0000 (  8174 PWs)   bands (ev):

   -45.7721 -22.4642 -22.3977 -22.3438  -7.0970  -6.3581  -6.1629  -5.0759
    -5.0275  -5.0186  -4.8623  -4.7412   3.2168   5.9853   6.6637   6.6995
     7.8311   7.8788   8.2290   8.3342   8.6785   9.5972

          k = 0.0000 0.3333 0.2378 (  8196 PWs)   bands (ev):

   -45.7718 -22.4835 -22.3966 -22.3430  -6.9788  -6.3215  -6.0819  -5.0447
    -5.0353  -5.0275  -4.8630  -4.7126   2.8930   5.8502   6.5532   6.7755
     7.2770   7.6982   7.8549   8.3281   8.8892   9.6759

          k = 0.0000 0.3333-0.4756 (  8232 PWs)   bands (ev):

   -45.7716 -22.5026 -22.3955 -22.3421  -6.8906  -6.2605  -5.9744  -5.0515
    -5.0278  -5.0046  -4.8988  -4.6659   2.6027   5.5203   6.3401   6.7960
     7.1674   7.3837   7.6517   8.3785   9.2437   9.5517

          k = 0.0000-0.5000 0.0000 (  8180 PWs)   bands (ev):

   -45.7718 -22.4633 -22.4149 -22.3431  -6.9345  -6.3114  -6.1742  -5.0884
    -5.0399  -5.0172  -4.8169  -4.7885   3.0093   5.6420   6.9082   6.9706
     7.3657   7.4745   8.2529   8.2585   8.7107  10.3358

          k = 0.0000-0.5000 0.2378 (  8214 PWs)   bands (ev):

   -45.7715 -22.4825 -22.4137 -22.3422  -6.8784  -6.2434  -6.0823  -5.0550
    -5.0405  -5.0342  -4.8278  -4.7093   2.7546   5.6020   6.5700   6.8133
     7.1636   7.2701   7.9628   8.2849   8.9011   9.8387

          k = 0.0000-0.5000-0.4756 (  8212 PWs)   bands (ev):

   -45.7712 -22.5015 -22.4125 -22.3414  -6.8610  -6.1708  -5.9284  -5.0511
    -5.0412  -5.0138  -4.8787  -4.6114   2.5192   5.3919   6.0365   6.8731
     7.0927   7.3725   7.4090   8.3005   9.1540   9.5872

          k = 0.1667 0.1667 0.0000 (  8181 PWs)   bands (ev):

   -45.7724 -22.4650 -22.3627 -22.3623  -7.2583  -6.3878  -6.1911  -5.0496
    -5.0361  -5.0034  -4.8561  -4.7215   3.4911   6.2983   6.5195   6.7219
     7.6444   7.8308   8.4571   8.5667   8.8797   9.1670

          k = 0.1667 0.1667 0.2378 (  8197 PWs)   bands (ev):

   -45.7722 -22.4844 -22.3617 -22.3615  -7.0890  -6.3644  -6.1318  -5.0518
    -5.0301  -4.9966  -4.8489  -4.7355   3.1241   6.0807   6.1617   6.8558
     7.5134   7.5331   8.2754   8.7231   8.9491   9.3144

          k = 0.1667 0.1667-0.4756 (  8214 PWs)   bands (ev):

   -45.7719 -22.5037 -22.3608 -22.3606  -6.9194  -6.3408  -6.0624  -5.0632
    -5.0126  -4.9711  -4.8575  -4.7541   2.7854   5.8718   5.8795   6.6017
     7.4146   7.4713   8.1986   8.7918   9.0024   9.6591

          k = 0.1667 0.3333 0.0000 (  8184 PWs)   bands (ev):

   -45.7718 -22.4634 -22.3968 -22.3609  -6.9764  -6.3306  -6.1956  -5.0693
    -5.0257  -4.9874  -4.8242  -4.7300   3.0231   5.9965   6.5205   6.8326
     7.1894   7.6827   8.0606   8.6769   8.8647   9.6504

          k = 0.1667 0.3333 0.2378 (  8193 PWs)   bands (ev):

   -45.7715 -22.4826 -22.3958 -22.3601  -6.8556  -6.3240  -6.1278  -5.0485
    -5.0250  -4.9664  -4.8077  -4.6895   2.8953   5.8167   5.9788   6.4902
     6.9106   7.5655   8.3604   8.6488   8.9860   9.4028

          k = 0.1667 0.3333-0.4756 (  8188 PWs)   bands (ev):

   -45.7712 -22.5017 -22.3947 -22.3592  -6.7706  -6.3036  -6.0243  -5.0473
    -5.0031  -4.9283  -4.8183  -4.6406   2.7285   5.4658   5.8951   6.2280
     6.4373   7.4376   8.4310   8.7249   8.9322   9.4024

          k = 0.1667-0.5000 0.0000 (  8186 PWs)   bands (ev):

   -45.7715 -22.4625 -22.4139 -22.3601  -6.8212  -6.2865  -6.2236  -5.0713
    -5.0181  -4.9682  -4.7876  -4.7755   2.8359   5.6593   6.6364   6.8654
     7.2046   7.4762   7.8175   8.7578   8.8200   9.9698

          k = 0.1667-0.5000 0.2378 (  8198 PWs)   bands (ev):

   -45.7712 -22.4817 -22.4128 -22.3593  -6.7551  -6.2567  -6.1518  -5.0468
    -5.0120  -4.9493  -4.7796  -4.6852   2.7888   5.6073   5.8862   6.2534
     6.8636   7.6995   8.1631   8.6347   9.0042   9.3557

          k = 0.1667-0.5000-0.4756 (  8192 PWs)   bands (ev):

   -45.7709 -22.5007 -22.4117 -22.3584  -6.7405  -6.2282  -6.0095  -5.0423
    -4.9740  -4.9300  -4.7930  -4.5878   2.7023   5.3539   5.7535   5.8892
     6.3068   7.5549   8.2996   8.5901   8.6620   9.5979

          k = 0.3333 0.3333 0.0000 (  8198 PWs)   bands (ev):

   -45.7711 -22.4618 -22.3952 -22.3948  -6.7385  -6.2767  -6.2446  -5.0502
    -5.0077  -4.9137  -4.7532  -4.7312   2.6538   5.9480   6.1239   6.8986
     7.0865   7.1561   7.9189   8.4848   9.3670   9.3929

          k = 0.3333 0.3333 0.2378 (  8198 PWs)   bands (ev):

   -45.7709 -22.4809 -22.3942 -22.3940  -6.6110  -6.3224  -6.2105  -5.0139
    -5.0027  -4.8630  -4.7063  -4.6563   2.8332   5.5736   5.6492   5.9423
     6.6285   7.0629   8.3821   8.9516   8.9622   9.3802

          k = 0.3333 0.3333-0.4756 (  8174 PWs)   bands (ev):

   -45.7706 -22.4999 -22.3932 -22.3931  -6.5462  -6.3649  -6.1026  -4.9973
    -4.9782  -4.8087  -4.6580  -4.5840   2.9957   5.1923   5.2077   5.7021
     6.3571   6.5577   7.6721   9.2834   9.3580   9.4728

          k = 0.3333-0.5000 0.0000 (  8196 PWs)   bands (ev):

   -45.7708 -22.4609 -22.4120 -22.3941  -6.6307  -6.2603  -6.2421  -5.0427
    -4.9860  -4.8457  -4.7684  -4.7200   2.4813   5.6307   6.1611   6.7158
     7.2069   7.4165   7.5015   8.4791   9.0935   9.5614

          k = 0.3333-0.5000 0.2378 (  8208 PWs)   bands (ev):

   -45.7705 -22.4800 -22.4110 -22.3932  -6.5054  -6.2867  -6.2642  -5.0062
    -4.9769  -4.7801  -4.6897  -4.6380   2.7696   5.4776   5.5815   5.6752
     6.4125   7.1316   7.9362   8.9415   8.9582   9.5381

          k = 0.3333-0.5000-0.4756 (  8200 PWs)   bands (ev):

   -45.7703 -22.4989 -22.4100 -22.3923  -6.4961  -6.3282  -6.1364  -4.9813
    -4.9572  -4.7317  -4.6113  -4.5388   3.1310   4.9446   5.1134   5.4779
     6.1580   6.5519   6.9257   9.3883   9.5133   9.6229

          k =-0.5000-0.5000 0.0000 (  8180 PWs)   bands (ev):

   -45.7705 -22.4599 -22.4110 -22.4110  -6.5818  -6.2229  -6.2229  -5.0331
    -4.9461  -4.7788  -4.7788  -4.6931   2.3044   5.4708   6.0215   6.9255
     6.9255   7.5226   7.5226   8.2373   8.6251   9.8189

          k =-0.5000-0.5000 0.2378 (  8188 PWs)   bands (ev):

   -45.7702 -22.4790 -22.4101 -22.4101  -6.3883  -6.3029  -6.3029  -4.9952
    -4.9443  -4.6644  -4.6466  -4.6466   2.7046   5.4283   5.5917   5.5917
     6.0278   7.0714   7.3088   8.9702   8.9702   9.8036

          k =-0.5000-0.5000-0.4756 (  8208 PWs)   bands (ev):

   -45.7700 -22.4980 -22.4092 -22.4092  -6.3728  -6.3728  -6.1895  -4.9572
    -4.9425  -4.6263  -4.5226  -4.5226   3.3389   4.9658   4.9658   5.3132
     5.9726   6.0341   6.2316   9.6361   9.6361   9.7884

     highest occupied level (ev):    10.3358

!    total energy              =    -380.57527512 Ry
     estimated scf accuracy    <          9.3E-11 Ry

     The total energy is the sum of the following terms:
     one-electron contribution =     -84.96385470 Ry
     hartree contribution      =      71.63143613 Ry
     xc contribution           =    -102.57337360 Ry
     ewald contribution        =    -264.66948294 Ry

     convergence has been achieved in  10 iterations

     negative rho (up, down):  1.551E-02 0.000E+00

     Forces acting on atoms (cartesian axes, Ry/au):

     atom    1 type  1   force =     0.00000000    0.00000000   -0.00715694
     atom    2 type  2   force =     0.00000000    0.00000000    0.00540625
     atom    3 type  3   force =     0.00000000    0.00000000   -0.00360359
     atom    4 type  3   force =     0.00000000    0.00000000    0.00267714
     atom    5 type  3   force =     0.00000000    0.00000000    0.00267714

     Total force =     0.010381     Total SCF correction =     0.000015


     Computing stress (Cartesian axis) and pressure


     negative rho (up, down):  1.551E-02 0.000E+00
          total   stress  (Ry/bohr**3)                   (kbar)     P=      -47.28
  -0.00037572   0.00000000   0.00000000          -55.27        0.00        0.00
   0.00000000  -0.00037572   0.00000000            0.00      -55.27        0.00
   0.00000000   0.00000000  -0.00021269            0.00        0.00      -31.29

     Energy error            =      1.4E-04 Ry
     Gradient error          =      7.2E-03 Ry/Bohr

     number of scf cycles    =   4
     number of bfgs steps    =   3

     energy             old  =    -380.5751311660 Ry
     energy             new  =    -380.5752751189 Ry

     CASE: energy            _new < energy            _old

     new trust radius        =       0.0209705768 bohr
     new conv_thr            =       0.0000000001 Ry


ATOMIC_POSITIONS (crystal)
Pb               0.0000000000        0.0000000000        0.9982044880
Ti               0.5000000000        0.5000000000        0.5375041325
O                0.5000000000        0.5000000000        0.1069167472
O                0.5000000000        0.0000000000        0.6123294602
O                0.0000000000        0.5000000000        0.6123294602



     Writing config-only to output data dir ./pto_110.save/ :
     XML data file
     NEW-OLD atomic charge density approx. for the potential

     negative rho (up, down):  1.558E-02 0.000E+00

     total cpu time spent up to now is      126.8 secs

     Self-consistent Calculation

     iteration #  1     ecut=   110.00 Ry     beta= 0.70
     CG style diagonalization
     ethr =  1.00E-06,  avg # of iterations =  5.5

     Threshold (ethr) on eigenvalues was too large:
     Diagonalizing with lowered threshold

     CG style diagonalization
     c_bands:  1 eigenvalues not converged
     c_bands:  1 eigenvalues not converged
     c_bands:  1 eigenvalues not converged
     c_bands:  3 eigenvalues not converged
     c_bands:  1 eigenvalues not converged
     c_bands:  1 eigenvalues not converged
     c_bands:  1 eigenvalues not converged
     ethr =  4.30E-08,  avg # of iterations =  6.1

     negative rho (up, down):  1.554E-02 0.000E+00

     total cpu time spent up to now is      133.3 secs

     total energy              =    -380.57538523 Ry
     estimated scf accuracy    <       0.00002054 Ry

     iteration #  2     ecut=   110.00 Ry     beta= 0.70
     CG style diagonalization
     ethr =  4.67E-08,  avg # of iterations =  4.3

     negative rho (up, down):  1.553E-02 0.000E+00

     total cpu time spent up to now is      135.7 secs

     total energy              =    -380.57539768 Ry
     estimated scf accuracy    <       0.00001445 Ry

     iteration #  3     ecut=   110.00 Ry     beta= 0.70
     CG style diagonalization
     ethr =  3.28E-08,  avg # of iterations =  4.2

     negative rho (up, down):  1.552E-02 0.000E+00

     total cpu time spent up to now is      138.0 secs

     total energy              =    -380.57540263 Ry
     estimated scf accuracy    <       0.00001041 Ry

     iteration #  4     ecut=   110.00 Ry     beta= 0.70
     CG style diagonalization
     ethr =  2.37E-08,  avg # of iterations =  3.6

     negative rho (up, down):  1.552E-02 0.000E+00

     total cpu time spent up to now is      140.1 secs

     total energy              =    -380.57540440 Ry
     estimated scf accuracy    <       0.00000014 Ry

     iteration #  5     ecut=   110.00 Ry     beta= 0.70
     CG style diagonalization
     ethr =  3.21E-10,  avg # of iterations =  5.7

     negative rho (up, down):  1.552E-02 0.000E+00

     total cpu time spent up to now is      143.1 secs

     total energy              =    -380.57540468 Ry
     estimated scf accuracy    <       0.00000023 Ry

     iteration #  6     ecut=   110.00 Ry     beta= 0.70
     CG style diagonalization
     ethr =  3.21E-10,  avg # of iterations =  3.9

     negative rho (up, down):  1.552E-02 0.000E+00

     total cpu time spent up to now is      145.3 secs

     total energy              =    -380.57540471 Ry
     estimated scf accuracy    <       0.00000003 Ry

     iteration #  7     ecut=   110.00 Ry     beta= 0.70
     CG style diagonalization
     ethr =  6.02E-11,  avg # of iterations =  4.5

     negative rho (up, down):  1.552E-02 0.000E+00

     total cpu time spent up to now is      147.8 secs

     total energy              =    -380.57540473 Ry
     estimated scf accuracy    <          6.5E-09 Ry

     iteration #  8     ecut=   110.00 Ry     beta= 0.70
     CG style diagonalization
     ethr =  1.48E-11,  avg # of iterations =  4.9

     negative rho (up, down):  1.552E-02 0.000E+00

     total cpu time spent up to now is      150.5 secs

     total energy              =    -380.57540473 Ry
     estimated scf accuracy    <          4.8E-10 Ry

     iteration #  9     ecut=   110.00 Ry     beta= 0.70
     CG style diagonalization
     ethr =  1.10E-12,  avg # of iterations =  7.0

     negative rho (up, down):  1.552E-02 0.000E+00

     total cpu time spent up to now is      154.2 secs

     End of self-consistent calculation

          k = 0.0000 0.0000 0.0000 (  8193 PWs)   bands (ev):

   -45.7721 -22.4686 -22.3459 -22.3459  -7.5381  -6.4654  -6.2166  -5.0140
    -5.0140  -4.9784  -4.8800  -4.7225   4.2015   6.2858   6.2858   6.7605
     8.1007   8.1007   8.4741   8.6209   8.9193   8.9193

          k = 0.0000 0.0000 0.2378 (  8214 PWs)   bands (ev):

   -45.7718 -22.4882 -22.3451 -22.3451  -7.3452  -6.4100  -6.1606  -5.0291
    -5.0291  -4.9772  -4.8690  -4.7900   3.4409   6.3283   6.3283   6.8561
     7.8980   7.8980   8.3892   8.7786   9.0164   9.0164

          k = 0.0000 0.0000-0.4756 (  8242 PWs)   bands (ev):

   -45.7716 -22.5077 -22.3443 -22.3443  -7.1348  -6.3495  -6.1124  -5.0440
    -5.0440  -4.9759  -4.8625  -4.8592   2.9281   6.2011   6.3506   6.3506
     7.7718   7.7718   8.3081   9.0830   9.0830   9.9971

          k = 0.0000 0.1667 0.0000 (  8193 PWs)   bands (ev):

   -45.7718 -22.4678 -22.3632 -22.3452  -7.4041  -6.4385  -6.1943  -5.0359
    -5.0126  -4.9911  -4.8742  -4.7125   3.7867   6.3327   6.3955   6.7206
     8.1120   8.1251   8.4523   8.5497   8.5879   8.9731

          k = 0.0000 0.1667 0.2378 (  8204 PWs)   bands (ev):

   -45.7715 -22.4873 -22.3623 -22.3444  -7.2269  -6.3978  -6.1324  -5.0308
    -5.0281  -4.9903  -4.8712  -4.7478   3.2399   6.1175   6.4463   6.9265
     7.5998   7.8906   8.2388   8.6367   8.6896   9.3556

          k = 0.0000 0.1667-0.4756 (  8208 PWs)   bands (ev):

   -45.7712 -22.5067 -22.3615 -22.3436  -7.0432  -6.3519  -6.0691  -5.0435
    -5.0232  -4.9895  -4.8751  -4.7822   2.8142   5.8136   6.4716   6.5983
     7.4311   7.7707   8.3039   8.6909   8.7668   9.9509

          k = 0.0000 0.3333 0.0000 (  8174 PWs)   bands (ev):

   -45.7711 -22.4662 -22.3977 -22.3437  -7.1122  -6.3807  -6.1664  -5.0658
    -5.0162  -5.0096  -4.8501  -4.7231   3.2194   5.9731   6.6623   6.6832
     7.8196   7.8680   8.2145   8.3212   8.6661   9.6079

          k = 0.0000 0.3333 0.2378 (  8196 PWs)   bands (ev):

   -45.7709 -22.4855 -22.3966 -22.3429  -6.9972  -6.3441  -6.0821  -5.0339
    -5.0263  -5.0163  -4.8518  -4.6945   2.8992   5.8367   6.5490   6.7586
     7.2607   7.6856   7.8514   8.3162   8.8785   9.6833

          k = 0.0000 0.3333-0.4756 (  8232 PWs)   bands (ev):

   -45.7706 -22.5046 -22.3956 -22.3421  -6.9115  -6.2852  -5.9707  -5.0425
    -5.0165  -4.9928  -4.8863  -4.6496   2.6112   5.5084   6.3362   6.7791
     7.1465   7.3766   7.6383   8.3669   9.2407   9.5585

          k = 0.0000-0.5000 0.0000 (  8180 PWs)   bands (ev):

   -45.7708 -22.4653 -22.4149 -22.3430  -6.9501  -6.3337  -6.1806  -5.0775
    -5.0286  -5.0083  -4.7959  -4.7764   3.0126   5.6309   6.9007   6.9506
     7.3563   7.4664   8.2388   8.2440   8.6975  10.3441

          k = 0.0000-0.5000 0.2378 (  8214 PWs)   bands (ev):

   -45.7705 -22.4845 -22.4137 -22.3422  -6.8972  -6.2676  -6.0826  -5.0435
    -5.0293  -5.0252  -4.8144  -4.6916   2.7615   5.5900   6.5628   6.7946
     7.1419   7.2601   7.9571   8.2741   8.8909   9.8506

          k = 0.0000-0.5000-0.4756 (  8212 PWs)   bands (ev):

   -45.7703 -22.5035 -22.4126 -22.3413  -6.8810  -6.1973  -5.9252  -5.0420
    -5.0299  -5.0019  -4.8636  -4.5963   2.5289   5.3797   6.0293   6.8438
     7.0819   7.3487   7.4083   8.2919   9.1718   9.5779

          k = 0.1667 0.1667 0.0000 (  8181 PWs)   bands (ev):

   -45.7715 -22.4671 -22.3626 -22.3623  -7.2731  -6.4106  -6.1914  -5.0403
    -5.0267  -4.9925  -4.8478  -4.7028   3.4903   6.2864   6.5096   6.7242
     7.6389   7.8167   8.4539   8.5579   8.8607   9.1649

          k = 0.1667 0.1667 0.2378 (  8197 PWs)   bands (ev):

   -45.7712 -22.4865 -22.3617 -22.3614  -7.1071  -6.3877  -6.1292  -5.0420
    -5.0197  -4.9861  -4.8409  -4.7168   3.1278   6.0697   6.1491   6.8546
     7.5095   7.5196   8.2682   8.7095   8.9321   9.3175

          k = 0.1667 0.1667-0.4756 (  8214 PWs)   bands (ev):

   -45.7709 -22.5058 -22.3608 -22.3606  -6.9417  -6.3646  -6.0560  -5.0533
    -5.0015  -4.9613  -4.8491  -4.7351   2.7912   5.8616   5.8727   6.5928
     7.3938   7.4679   8.1954   8.7766   8.9853   9.6655

          k = 0.1667 0.3333 0.0000 (  8184 PWs)   bands (ev):

   -45.7708 -22.4655 -22.3968 -22.3609  -6.9903  -6.3541  -6.2002  -5.0589
    -5.0161  -4.9764  -4.8121  -4.7114   3.0199   5.9846   6.5113   6.8283
     7.1755   7.6795   8.0525   8.6668   8.8476   9.6563

          k = 0.1667 0.3333 0.2378 (  8193 PWs)   bands (ev):

   -45.7705 -22.4847 -22.3958 -22.3600  -6.8736  -6.3467  -6.1275  -5.0382
    -5.0148  -4.9564  -4.7964  -4.6717   2.8960   5.8049   5.9658   6.4829
     6.9047   7.5614   8.3472   8.6360   8.9736   9.4099

          k = 0.1667 0.3333-0.4756 (  8188 PWs)   bands (ev):

   -45.7703 -22.5038 -22.3948 -22.3592  -6.7917  -6.3269  -6.0189  -5.0374
    -4.9924  -4.9191  -4.8062  -4.6246   2.7327   5.4558   5.8773   6.2251
     6.4253   7.4304   8.4267   8.7045   8.9414   9.3948

          k = 0.1667-0.5000 0.0000 (  8186 PWs)   bands (ev):

   -45.7705 -22.4646 -22.4140 -22.3601  -6.8346  -6.3097  -6.2310  -5.0606
    -5.0084  -4.9576  -4.7682  -4.7618   2.8320   5.6484   6.6261   6.8531
     7.1962   7.4699   7.8130   8.7404   8.8087   9.9783

          k = 0.1667-0.5000 0.2378 (  8198 PWs)   bands (ev):

   -45.7702 -22.4837 -22.4128 -22.3593  -6.7734  -6.2805  -6.1508  -5.0364
    -5.0018  -4.9400  -4.7658  -4.6682   2.7887   5.5959   5.8707   6.2459
     6.8587   7.6948   8.1485   8.6237   8.9911   9.3675

          k = 0.1667-0.5000-0.4756 (  8192 PWs)   bands (ev):

   -45.7699 -22.5027 -22.4117 -22.3584  -6.7606  -6.2524  -6.0039  -5.0324
    -4.9637  -4.9216  -4.7786  -4.5732   2.7064   5.3430   5.7277   5.8827
     6.3048   7.5468   8.3075   8.5830   8.6530   9.5888

          k = 0.3333 0.3333 0.0000 (  8198 PWs)   bands (ev):

   -45.7702 -22.4638 -22.3952 -22.3949  -6.7466  -6.3020  -6.2551  -5.0396
    -4.9970  -4.9012  -4.7417  -4.7120   2.6410   5.9354   6.1151   6.8952
     7.0795   7.1602   7.9073   8.4826   9.3453   9.4026

          k = 0.3333 0.3333 0.2378 (  8198 PWs)   bands (ev):

   -45.7699 -22.4829 -22.3942 -22.3940  -6.6266  -6.3455  -6.2109  -5.0032
    -4.9923  -4.8536  -4.6950  -4.6392   2.8209   5.5651   5.6453   5.9312
     6.6259   7.0631   8.3902   8.9414   8.9598   9.3592

          k = 0.3333 0.3333-0.4756 (  8174 PWs)   bands (ev):

   -45.7696 -22.5019 -22.3932 -22.3931  -6.5673  -6.3861  -6.0949  -4.9873
    -4.9675  -4.8019  -4.6470  -4.5690   2.9860   5.1888   5.1911   5.6958
     6.3548   6.5533   7.6962   9.2746   9.3356   9.4639

          k = 0.3333-0.5000 0.0000 (  8196 PWs)   bands (ev):

   -45.7698 -22.4629 -22.4120 -22.3941  -6.6322  -6.2783  -6.2675  -5.0321
    -4.9751  -4.8316  -4.7510  -4.7072   2.4645   5.6194   6.1521   6.7177
     7.2120   7.4052   7.4915   8.4764   9.1060   9.5399

          k = 0.3333-0.5000 0.2378 (  8208 PWs)   bands (ev):

   -45.7696 -22.4820 -22.4111 -22.3933  -6.5191  -6.3099  -6.2658  -4.9956
    -4.9664  -4.7723  -4.6747  -4.6237   2.7506   5.4750   5.5715   5.6714
     6.4074   7.1321   7.9542   8.9359   8.9491   9.5162

          k = 0.3333-0.5000-0.4756 (  8200 PWs)   bands (ev):

   -45.7693 -22.5009 -22.4101 -22.3924  -6.5163  -6.3495  -6.1278  -4.9709
    -4.9467  -4.7266  -4.5985  -4.5260   3.1098   4.9343   5.1120   5.4709
     6.1534   6.5474   6.9598   9.3804   9.4901   9.6154

          k =-0.5000-0.5000 0.0000 (  8180 PWs)   bands (ev):

   -45.7695 -22.4620 -22.4111 -22.4111  -6.5743  -6.2495  -6.2495  -5.0224
    -4.9353  -4.7588  -4.7588  -4.6876   2.2819   5.4593   6.0147   6.9341
     6.9341   7.5085   7.5085   8.2397   8.6382   9.7959

          k =-0.5000-0.5000 0.2378 (  8188 PWs)   bands (ev):

   -45.7692 -22.4810 -22.4102 -22.4102  -6.3799  -6.3258  -6.3258  -4.9845
    -4.9335  -4.6599  -4.6309  -4.6309   2.6754   5.4177   5.5945   5.5945
     6.0210   7.0716   7.3339   8.9630   8.9630   9.7807

          k =-0.5000-0.5000-0.4756 (  8208 PWs)   bands (ev):

   -45.7690 -22.5000 -22.4093 -22.4093  -6.3930  -6.3930  -6.1798  -4.9466
    -4.9317  -4.6232  -4.5102  -4.5102   3.2901   4.9697   4.9697   5.3058
     6.0201   6.0273   6.2282   9.6295   9.6295   9.7657

     highest occupied level (ev):    10.3441

!    total energy              =    -380.57540473 Ry
     estimated scf accuracy    <          6.6E-11 Ry

     The total energy is the sum of the following terms:
     one-electron contribution =     -85.26869671 Ry
     hartree contribution      =      71.78398972 Ry
     xc contribution           =    -102.57958028 Ry
     ewald contribution        =    -264.51111747 Ry

     convergence has been achieved in   9 iterations

     negative rho (up, down):  1.552E-02 0.000E+00

     Forces acting on atoms (cartesian axes, Ry/au):

     atom    1 type  1   force =     0.00000000    0.00000000   -0.00489006
     atom    2 type  2   force =     0.00000000    0.00000000    0.00485616
     atom    3 type  3   force =     0.00000000    0.00000000   -0.00510707
     atom    4 type  3   force =     0.00000000    0.00000000    0.00257049
     atom    5 type  3   force =     0.00000000    0.00000000    0.00257049

     Total force =     0.009316     Total SCF correction =     0.000015


     Computing stress (Cartesian axis) and pressure


     negative rho (up, down):  1.552E-02 0.000E+00
          total   stress  (Ry/bohr**3)                   (kbar)     P=      -44.21
  -0.00035955   0.00000000   0.00000000          -52.89        0.00        0.00
   0.00000000  -0.00035955   0.00000000            0.00      -52.89        0.00
   0.00000000   0.00000000  -0.00018241            0.00        0.00      -26.83

     Energy error            =      1.3E-04 Ry
     Gradient error          =      5.1E-03 Ry/Bohr

     number of scf cycles    =   5
     number of bfgs steps    =   4

     energy             old  =    -380.5752751189 Ry
     energy             new  =    -380.5754047326 Ry

     CASE: energy            _new < energy            _old

     new trust radius        =       0.0314558652 bohr
     new conv_thr            =       0.0000000001 Ry


ATOMIC_POSITIONS (crystal)
Pb               0.0000000000        0.0000000000        0.9941445546
Ti               0.5000000000        0.5000000000        0.5382909938
O                0.5000000000        0.5000000000        0.1077138908
O                0.5000000000        0.0000000000        0.6135674244
O                0.0000000000        0.5000000000        0.6135674244



     Writing config-only to output data dir ./pto_110.save/ :
     XML data file
     NEW-OLD atomic charge density approx. for the potential

     negative rho (up, down):  1.570E-02 0.000E+00

     total cpu time spent up to now is      157.9 secs

     Self-consistent Calculation

     iteration #  1     ecut=   110.00 Ry     beta= 0.70
     CG style diagonalization
     c_bands:  1 eigenvalues not converged
     c_bands:  1 eigenvalues not converged
     c_bands:  1 eigenvalues not converged
     ethr =  1.00E-06,  avg # of iterations =  6.8

     negative rho (up, down):  1.565E-02 0.000E+00

     total cpu time spent up to now is      161.8 secs

     total energy              =    -380.57545945 Ry
     estimated scf accuracy    <       0.00004578 Ry

     iteration #  2     ecut=   110.00 Ry     beta= 0.70
     CG style diagonalization
     ethr =  1.04E-07,  avg # of iterations =  4.7

     negative rho (up, down):  1.563E-02 0.000E+00

     total cpu time spent up to now is      164.3 secs

     total energy              =    -380.57550805 Ry
     estimated scf accuracy    <       0.00003464 Ry

     iteration #  3     ecut=   110.00 Ry     beta= 0.70
     CG style diagonalization
     ethr =  7.87E-08,  avg # of iterations =  4.2

     negative rho (up, down):  1.562E-02 0.000E+00

     total cpu time spent up to now is      166.7 secs

     total energy              =    -380.57552088 Ry
     estimated scf accuracy    <       0.00001727 Ry

     iteration #  4     ecut=   110.00 Ry     beta= 0.70
     CG style diagonalization
     ethr =  3.93E-08,  avg # of iterations =  3.7

     negative rho (up, down):  1.562E-02 0.000E+00

     total cpu time spent up to now is      168.7 secs

     total energy              =    -380.57552458 Ry
     estimated scf accuracy    <       0.00000120 Ry

     iteration #  5     ecut=   110.00 Ry     beta= 0.70
     CG style diagonalization
     ethr =  2.72E-09,  avg # of iterations =  4.6

     negative rho (up, down):  1.562E-02 0.000E+00

     total cpu time spent up to now is      171.3 secs

     total energy              =    -380.57552547 Ry
     estimated scf accuracy    <       0.00000026 Ry

     iteration #  6     ecut=   110.00 Ry     beta= 0.70
     CG style diagonalization
     ethr =  5.94E-10,  avg # of iterations =  4.7

     negative rho (up, down):  1.562E-02 0.000E+00

     total cpu time spent up to now is      173.9 secs

     total energy              =    -380.57552564 Ry
     estimated scf accuracy    <       0.00000005 Ry

     iteration #  7     ecut=   110.00 Ry     beta= 0.70
     CG style diagonalization
     ethr =  1.14E-10,  avg # of iterations =  5.1

     negative rho (up, down):  1.562E-02 0.000E+00

     total cpu time spent up to now is      176.7 secs

     total energy              =    -380.57552569 Ry
     estimated scf accuracy    <          7.6E-09 Ry

     iteration #  8     ecut=   110.00 Ry     beta= 0.70
     CG style diagonalization
     ethr =  1.73E-11,  avg # of iterations =  5.8

     negative rho (up, down):  1.562E-02 0.000E+00

     total cpu time spent up to now is      179.8 secs

     total energy              =    -380.57552570 Ry
     estimated scf accuracy    <          1.4E-09 Ry

     iteration #  9     ecut=   110.00 Ry     beta= 0.70
     CG style diagonalization
     ethr =  3.18E-12,  avg # of iterations =  5.9

     negative rho (up, down):  1.562E-02 0.000E+00

     total cpu time spent up to now is      183.0 secs

     total energy              =    -380.57552570 Ry
     estimated scf accuracy    <          1.6E-10 Ry

     iteration # 10     ecut=   110.00 Ry     beta= 0.70
     CG style diagonalization
     ethr =  3.73E-13,  avg # of iterations =  6.5

     negative rho (up, down):  1.562E-02 0.000E+00

     total cpu time spent up to now is      186.5 secs

     End of self-consistent calculation

          k = 0.0000 0.0000 0.0000 (  8193 PWs)   bands (ev):

   -45.7829 -22.4757 -22.3584 -22.3584  -7.5652  -6.5035  -6.2077  -4.9981
    -4.9981  -4.9581  -4.8712  -4.6921   4.2058   6.2599   6.2599   6.8007
     8.1082   8.1082   8.4569   8.6187   8.8845   8.8845

          k = 0.0000 0.0000 0.2378 (  8214 PWs)   bands (ev):

   -45.7826 -22.4954 -22.3577 -22.3577  -7.3779  -6.4508  -6.1482  -5.0132
    -5.0132  -4.9568  -4.8578  -4.7568   3.4553   6.3018   6.3018   6.8762
     7.9036   7.9036   8.3722   8.7797   8.9814   8.9814

          k = 0.0000 0.0000-0.4756 (  8242 PWs)   bands (ev):

   -45.7823 -22.5148 -22.3569 -22.3569  -7.1758  -6.3938  -6.0943  -5.0281
    -5.0281  -4.9556  -4.8452  -4.8258   2.9459   6.2139   6.3242   6.3242
     7.7764   7.7764   8.2913   9.0459   9.0459   9.9901

          k = 0.0000 0.1667 0.0000 (  8193 PWs)   bands (ev):

   -45.7826 -22.4750 -22.3758 -22.3577  -7.4311  -6.4773  -6.1882  -5.0197
    -4.9967  -4.9707  -4.8615  -4.6818   3.7907   6.3123   6.3686   6.7344
     8.1243   8.1328   8.4319   8.5167   8.5733   8.9662

          k = 0.0000 0.1667 0.2378 (  8204 PWs)   bands (ev):

   -45.7823 -22.4945 -22.3749 -22.3569  -7.2597  -6.4383  -6.1224  -5.0130
    -5.0122  -4.9699  -4.8576  -4.7161   3.2527   6.0977   6.4191   6.9314
     7.5987   7.8927   8.2178   8.6248   8.6597   9.3518

          k = 0.0000 0.1667-0.4756 (  8208 PWs)   bands (ev):

   -45.7820 -22.5138 -22.3741 -22.3561  -7.0835  -6.3946  -6.0532  -5.0276
    -5.0040  -4.9692  -4.8591  -4.7501   2.8312   5.8036   6.4450   6.5916
     7.4293   7.7714   8.2642   8.6810   8.7348   9.9555

          k = 0.0000 0.3333 0.0000 (  8174 PWs)   bands (ev):

   -45.7819 -22.4734 -22.4103 -22.3563  -7.1393  -6.4201  -6.1672  -5.0478
    -4.9960  -4.9936  -4.8293  -4.6926   3.2241   5.9507   6.6532   6.6633
     7.8031   7.8468   8.2123   8.2975   8.6572   9.6297

          k = 0.0000 0.3333 0.2378 (  8196 PWs)   bands (ev):

   -45.7816 -22.4926 -22.4093 -22.3555  -7.0303  -6.3836  -6.0769  -5.0147
    -5.0103  -4.9959  -4.8322  -4.6644   2.9107   5.8148   6.5427   6.7297
     7.2368   7.6694   7.8456   8.3053   8.8659   9.6980

          k = 0.0000 0.3333-0.4756 (  8232 PWs)   bands (ev):

   -45.7814 -22.5117 -22.4082 -22.3546  -6.9490  -6.3281  -5.9589  -5.0266
    -4.9962  -4.9722  -4.8645  -4.6224   2.6275   5.4930   6.3277   6.7539
     7.1117   7.3631   7.6193   8.3519   9.2454   9.5681

          k = 0.0000-0.5000 0.0000 (  8180 PWs)   bands (ev):

   -45.7816 -22.4725 -22.4276 -22.3556  -6.9783  -6.3726  -6.1849  -5.0583
    -5.0082  -4.9923  -4.7618  -4.7553   3.0182   5.6085   6.8984   6.9144
     7.3367   7.4490   8.2136   8.2432   8.6874  10.3624

          k = 0.0000-0.5000 0.2378 (  8214 PWs)   bands (ev):

   -45.7813 -22.4916 -22.4264 -22.3547  -6.9309  -6.3095  -6.0768  -5.0236
    -5.0093  -5.0089  -4.7914  -4.6625   2.7733   5.5675   6.5529   6.7684
     7.1026   7.2464   7.9474   8.2700   8.8774   9.8749

          k = 0.0000-0.5000-0.4756 (  8212 PWs)   bands (ev):

   -45.7810 -22.5106 -22.4252 -22.3539  -6.9165  -6.2428  -5.9139  -5.0261
    -5.0096  -4.9815  -4.8378  -4.5712   2.5457   5.3620   6.0180   6.7981
     7.0704   7.3057   7.4017   8.2859   9.2064   9.5683

          k = 0.1667 0.1667 0.0000 (  8181 PWs)   bands (ev):

   -45.7822 -22.4742 -22.3752 -22.3748  -7.2995  -6.4503  -6.1878  -5.0236
    -5.0100  -4.9728  -4.8322  -4.6718   3.4898   6.2627   6.4911   6.7291
     7.6454   7.7943   8.4592   8.5420   8.8275   9.1748

          k = 0.1667 0.1667 0.2378 (  8197 PWs)   bands (ev):

   -45.7820 -22.4936 -22.3743 -22.3740  -7.1396  -6.4283  -6.1202  -5.0247
    -5.0012  -4.9671  -4.8257  -4.6857   3.1364   6.0518   6.1289   6.8516
     7.4980   7.5092   8.2684   8.6864   8.9052   9.3249

          k = 0.1667 0.1667-0.4756 (  8214 PWs)   bands (ev):

   -45.7817 -22.5129 -22.3734 -22.3732  -6.9817  -6.4060  -6.0403  -5.0356
    -4.9816  -4.9439  -4.8329  -4.7036   2.8054   5.8479   5.8625   6.5755
     7.3613   7.4636   8.1997   8.7504   8.9597   9.6755

          k = 0.1667 0.3333 0.0000 (  8184 PWs)   bands (ev):

   -45.7816 -22.4726 -22.4094 -22.3735  -7.0152  -6.3946  -6.2030  -5.0406
    -4.9989  -4.9565  -4.7910  -4.6805   3.0145   5.9620   6.4967   6.8210
     7.1532   7.6918   8.0380   8.6539   8.8223   9.6733

          k = 0.1667 0.3333 0.2378 (  8193 PWs)   bands (ev):

   -45.7813 -22.4918 -22.4084 -22.3726  -6.9059  -6.3862  -6.1218  -5.0198
    -4.9965  -4.9378  -4.7766  -4.6423   2.8980   5.7858   5.9460   6.4687
     6.8974   7.5571   8.3311   8.6187   8.9571   9.4246

          k = 0.1667 0.3333-0.4756 (  8188 PWs)   bands (ev):

   -45.7810 -22.5108 -22.4074 -22.3718  -6.8293  -6.3674  -6.0047  -5.0199
    -4.9734  -4.9019  -4.7850  -4.5979   2.7417   5.4436   5.8480   6.2191
     6.4046   7.4174   8.4296   8.6691   8.9597   9.3867

          k = 0.1667-0.5000 0.0000 (  8186 PWs)   bands (ev):

   -45.7813 -22.4717 -22.4266 -22.3727  -6.8589  -6.3501  -6.2375  -5.0418
    -4.9911  -4.9380  -4.7384  -4.7360   2.8252   5.6265   6.6168   6.8276
     7.1810   7.4572   7.8265   8.7107   8.7972   9.9956

          k = 0.1667-0.5000 0.2378 (  8198 PWs)   bands (ev):

   -45.7810 -22.4908 -22.4255 -22.3719  -6.8062  -6.3217  -6.1438  -5.0180
    -4.9838  -4.9220  -4.7423  -4.6401   2.7885   5.5746   5.8473   6.2351
     6.8509   7.6910   8.1251   8.6140   8.9707   9.3918

          k = 0.1667-0.5000-0.4756 (  8192 PWs)   bands (ev):

   -45.7807 -22.5098 -22.4244 -22.3710  -6.7962  -6.2943  -5.9896  -5.0150
    -4.9454  -4.9046  -4.7542  -4.5490   2.7135   5.3288   5.6861   5.8705
     6.3013   7.5316   8.3168   8.5799   8.6430   9.5807

          k = 0.3333 0.3333 0.0000 (  8198 PWs)   bands (ev):

   -45.7809 -22.4710 -22.4078 -22.4075  -6.7616  -6.3452  -6.2678  -5.0211
    -4.9780  -4.8796  -4.7206  -4.6804   2.6194   5.9129   6.0942   6.8961
     7.0689   7.1828   7.8825   8.4844   9.3081   9.4225

          k = 0.3333 0.3333 0.2378 (  8198 PWs)   bands (ev):

   -45.7807 -22.4901 -22.4068 -22.4066  -6.6552  -6.3853  -6.2062  -4.9845
    -4.9739  -4.8360  -4.6746  -4.6112   2.8005   5.5542   5.6397   5.9103
     6.6200   7.0653   8.4068   8.9281   8.9631   9.3241

          k = 0.3333 0.3333-0.4756 (  8174 PWs)   bands (ev):

   -45.7804 -22.5090 -22.4059 -22.4057  -6.6045  -6.4230  -6.0780  -4.9691
    -4.9488  -4.7875  -4.6277  -4.5443   2.9705   5.1602   5.1920   5.6827
     6.3516   6.5413   7.7388   9.2681   9.2956   9.4562

          k = 0.3333-0.5000 0.0000 (  8196 PWs)   bands (ev):

   -45.7806 -22.4701 -22.4247 -22.4068  -6.6356  -6.3109  -6.3040  -5.0135
    -4.9557  -4.8082  -4.7224  -4.6830   2.4363   5.5977   6.1309   6.7306
     7.2348   7.3848   7.4735   8.4750   9.1269   9.5025

          k = 0.3333-0.5000 0.2378 (  8208 PWs)   bands (ev):

   -45.7803 -22.4891 -22.4237 -22.4059  -6.5456  -6.3497  -6.2621  -4.9769
    -4.9476  -4.7565  -4.6499  -4.5990   2.7188   5.4742   5.5529   5.6654
     6.3964   7.1356   7.9837   8.9321   8.9411   9.4784

          k = 0.3333-0.5000-0.4756 (  8200 PWs)   bands (ev):

   -45.7801 -22.5080 -22.4228 -22.4050  -6.5517  -6.3863  -6.1099  -4.9523
    -4.9281  -4.7139  -4.5772  -4.5043   3.0744   4.9204   5.1142   5.4544
     6.1441   6.5385   7.0164   9.3748   9.4494   9.6099

          k =-0.5000-0.5000 0.0000 (  8180 PWs)   bands (ev):

   -45.7803 -22.4691 -22.4237 -22.4237  -6.5580  -6.2944  -6.2944  -5.0038
    -4.9158  -4.7265  -4.7265  -4.6744   2.2443   5.4375   5.9960   6.9599
     6.9599   7.4837   7.4837   8.2465   8.6577   9.7553

          k =-0.5000-0.5000 0.2378 (  8188 PWs)   bands (ev):

   -45.7800 -22.4881 -22.4228 -22.4228  -6.3651  -6.3651  -6.3623  -4.9659
    -4.9140  -4.6478  -4.6051  -4.6051   2.6271   5.3967   5.6035   5.6035
     6.0023   7.0745   7.3737   8.9570   8.9570   9.7404

          k =-0.5000-0.5000-0.4756 (  8208 PWs)   bands (ev):

   -45.7798 -22.5070 -22.4219 -22.4219  -6.4280  -6.4280  -6.1605  -4.9280
    -4.9122  -4.6125  -4.4896  -4.4896   3.2118   4.9799   4.9799   5.2884
     6.0086   6.0950   6.2260   9.6254   9.6254   9.7256

     highest occupied level (ev):    10.3624

!    total energy              =    -380.57552570 Ry
     estimated scf accuracy    <          2.2E-11 Ry

     The total energy is the sum of the following terms:
     one-electron contribution =     -85.69719041 Ry
     hartree contribution      =      71.99526776 Ry
     xc contribution           =    -102.58635572 Ry
     ewald contribution        =    -264.28724733 Ry

     convergence has been achieved in  10 iterations

     negative rho (up, down):  1.562E-02 0.000E+00

     Forces acting on atoms (cartesian axes, Ry/au):

     atom    1 type  1   force =     0.00000000    0.00000000   -0.00072823
     atom    2 type  2   force =     0.00000000    0.00000000    0.00107817
     atom    3 type  3   force =     0.00000000    0.00000000   -0.00371825
     atom    4 type  3   force =     0.00000000    0.00000000    0.00168415
     atom    5 type  3   force =     0.00000000    0.00000000    0.00168415

     Total force =     0.004603     Total SCF correction =     0.000006


     Computing stress (Cartesian axis) and pressure


     negative rho (up, down):  1.562E-02 0.000E+00
          total   stress  (Ry/bohr**3)                   (kbar)     P=      -41.01
  -0.00033610   0.00000000   0.00000000          -49.44        0.00        0.00
   0.00000000  -0.00033610   0.00000000            0.00      -49.44        0.00
   0.00000000   0.00000000  -0.00016414            0.00        0.00      -24.15

     Energy error            =      1.2E-04 Ry
     Gradient error          =      3.7E-03 Ry/Bohr

     number of scf cycles    =   6
     number of bfgs steps    =   5

     energy             old  =    -380.5754047326 Ry
     energy             new  =    -380.5755257015 Ry

     CASE: energy            _new < energy            _old

     new trust radius        =       0.0055998471 bohr
     new conv_thr            =       0.0000000001 Ry


ATOMIC_POSITIONS (crystal)
Pb               0.0000000000        0.0000000000        0.9934217957
Ti               0.5000000000        0.5000000000        0.5384964579
O                0.5000000000        0.5000000000        0.1073763157
O                0.5000000000        0.0000000000        0.6139948594
O                0.0000000000        0.5000000000        0.6139948594



     Writing config-only to output data dir ./pto_110.save/ :
     XML data file
     NEW-OLD atomic charge density approx. for the potential

     negative rho (up, down):  1.563E-02 0.000E+00

     total cpu time spent up to now is      190.2 secs

     Self-consistent Calculation

     iteration #  1     ecut=   110.00 Ry     beta= 0.70
     CG style diagonalization
     ethr =  1.00E-06,  avg # of iterations =  3.7

     Threshold (ethr) on eigenvalues was too large:
     Diagonalizing with lowered threshold

     CG style diagonalization
     c_bands:  1 eigenvalues not converged
     c_bands:  1 eigenvalues not converged
     c_bands:  1 eigenvalues not converged
     c_bands:  3 eigenvalues not converged
     c_bands:  1 eigenvalues not converged
     c_bands:  1 eigenvalues not converged
     c_bands:  1 eigenvalues not converged
     c_bands:  2 eigenvalues not converged
     c_bands:  1 eigenvalues not converged
     ethr =  2.33E-08,  avg # of iterations =  6.3

     negative rho (up, down):  1.563E-02 0.000E+00

     total cpu time spent up to now is      196.0 secs

     total energy              =    -380.57553634 Ry
     estimated scf accuracy    <       0.00001123 Ry

     iteration #  2     ecut=   110.00 Ry     beta= 0.70
     CG style diagonalization
     ethr =  2.55E-08,  avg # of iterations =  4.6

     negative rho (up, down):  1.562E-02 0.000E+00

     total cpu time spent up to now is      198.6 secs

     total energy              =    -380.57553658 Ry
     estimated scf accuracy    <       0.00003139 Ry

     iteration #  3     ecut=   110.00 Ry     beta= 0.70
     CG style diagonalization
     ethr =  2.55E-08,  avg # of iterations =  4.2

     negative rho (up, down):  1.562E-02 0.000E+00

     total cpu time spent up to now is      200.9 secs

     total energy              =    -380.57554273 Ry
     estimated scf accuracy    <       0.00000209 Ry

     iteration #  4     ecut=   110.00 Ry     beta= 0.70
     CG style diagonalization
     ethr =  4.74E-09,  avg # of iterations =  3.6

     negative rho (up, down):  1.562E-02 0.000E+00

     total cpu time spent up to now is      203.0 secs

     total energy              =    -380.57554314 Ry
     estimated scf accuracy    <       0.00000025 Ry

     iteration #  5     ecut=   110.00 Ry     beta= 0.70
     CG style diagonalization
     ethr =  5.77E-10,  avg # of iterations =  4.2

     negative rho (up, down):  1.562E-02 0.000E+00

     total cpu time spent up to now is      205.3 secs

     total energy              =    -380.57554326 Ry
     estimated scf accuracy    <       0.00000005 Ry

     iteration #  6     ecut=   110.00 Ry     beta= 0.70
     CG style diagonalization
     ethr =  1.05E-10,  avg # of iterations =  4.4

     negative rho (up, down):  1.562E-02 0.000E+00

     total cpu time spent up to now is      207.7 secs

     total energy              =    -380.57554328 Ry
     estimated scf accuracy    <          7.3E-09 Ry

     iteration #  7     ecut=   110.00 Ry     beta= 0.70
     CG style diagonalization
     ethr =  1.66E-11,  avg # of iterations =  4.7

     negative rho (up, down):  1.562E-02 0.000E+00

     total cpu time spent up to now is      210.3 secs

     total energy              =    -380.57554329 Ry
     estimated scf accuracy    <          1.4E-09 Ry

     iteration #  8     ecut=   110.00 Ry     beta= 0.70
     CG style diagonalization
     ethr =  3.14E-12,  avg # of iterations =  4.9

     negative rho (up, down):  1.562E-02 0.000E+00

     total cpu time spent up to now is      213.0 secs

     total energy              =    -380.57554329 Ry
     estimated scf accuracy    <          3.5E-10 Ry

     iteration #  9     ecut=   110.00 Ry     beta= 0.70
     CG style diagonalization
     ethr =  7.87E-13,  avg # of iterations =  4.8

     negative rho (up, down):  1.562E-02 0.000E+00

     total cpu time spent up to now is      215.7 secs

     End of self-consistent calculation

          k = 0.0000 0.0000 0.0000 (  8193 PWs)   bands (ev):

   -45.7908 -22.4792 -22.3668 -22.3668  -7.5722  -6.5124  -6.2042  -4.9936
    -4.9936  -4.9522  -4.8675  -4.6845   4.2092   6.2525   6.2525   6.8046
     8.1175   8.1175   8.4517   8.6255   8.8751   8.8751

          k = 0.0000 0.0000 0.2378 (  8214 PWs)   bands (ev):

   -45.7905 -22.4988 -22.3660 -22.3660  -7.3863  -6.4603  -6.1438  -5.0086
    -5.0086  -4.9509  -4.8536  -4.7486   3.4612   6.2945   6.2945   6.8779
     7.9109   7.9109   8.3671   8.7826   8.9726   8.9726

          k = 0.0000 0.0000-0.4756 (  8242 PWs)   bands (ev):

   -45.7903 -22.5183 -22.3652 -22.3652  -7.1862  -6.4040  -6.0885  -5.0235
    -5.0235  -4.9496  -4.8403  -4.8168   2.9534   6.2145   6.3174   6.3174
     7.7825   7.7825   8.2862   9.0369   9.0369   9.9886

          k = 0.0000 0.1667 0.0000 (  8193 PWs)   bands (ev):

   -45.7905 -22.4784 -22.3841 -22.3661  -7.4380  -6.4864  -6.1852  -5.0150
    -4.9922  -4.9648  -4.8573  -4.6741   3.7928   6.3072   6.3610   6.7355
     8.1309   8.1424   8.4269   8.5074   8.5727   8.9678

          k = 0.0000 0.1667 0.2378 (  8204 PWs)   bands (ev):

   -45.7902 -22.4979 -22.3832 -22.3653  -7.2680  -6.4477  -6.1184  -5.0080
    -5.0077  -4.9640  -4.8531  -4.7082   3.2575   6.0930   6.4117   6.9307
     7.6018   7.8988   8.2138   8.6231   8.6527   9.3519

          k = 0.0000 0.1667-0.4756 (  8208 PWs)   bands (ev):

   -45.7899 -22.5173 -22.3824 -22.3645  -7.0937  -6.4046  -6.0478  -5.0230
    -4.9988  -4.9633  -4.8541  -4.7421   2.8376   5.8015   6.4381   6.5880
     7.4323   7.7762   8.2545   8.6798   8.7274   9.9569

          k = 0.0000 0.3333 0.0000 (  8174 PWs)   bands (ev):

   -45.7898 -22.4769 -22.4186 -22.3646  -7.1461  -6.4294  -6.1653  -5.0427
    -4.9903  -4.9889  -4.8238  -4.6851   3.2254   5.9454   6.6451   6.6655
     7.8017   7.8405   8.2200   8.2907   8.6595   9.6360

          k = 0.0000 0.3333 0.2378 (  8196 PWs)   bands (ev):

   -45.7896 -22.4961 -22.4176 -22.3638  -7.0386  -6.3930  -6.0737  -5.0093
    -5.0057  -4.9901  -4.8267  -4.6570   2.9141   5.8101   6.5421   6.7220
     7.2339   7.6671   7.8441   8.3073   8.8650   9.7023

          k = 0.0000 0.3333-0.4756 (  8232 PWs)   bands (ev):

   -45.7893 -22.5152 -22.4165 -22.3630  -6.9582  -6.3384  -5.9542  -5.0220
    -4.9903  -4.9666  -4.8585  -4.6157   2.6324   5.4908   6.3266   6.7475
     7.1050   7.3585   7.6169   8.3515   9.2503   9.5703

          k = 0.0000-0.5000 0.0000 (  8180 PWs)   bands (ev):

   -45.7895 -22.4760 -22.4359 -22.3639  -6.9853  -6.3822  -6.1834  -5.0530
    -5.0024  -4.9878  -4.7537  -4.7496   3.0196   5.6032   6.9038   6.9055
     7.3311   7.4426   8.2066   8.2518   8.6895  10.3683

          k = 0.0000-0.5000 0.2378 (  8214 PWs)   bands (ev):

   -45.7892 -22.4951 -22.4347 -22.3631  -6.9391  -6.3198  -6.0732  -5.0182
    -5.0047  -5.0030  -4.7852  -4.6554   2.7765   5.5623   6.5522   6.7654
     7.0930   7.2426   7.9450   8.2753   8.8760   9.8823

          k = 0.0000-0.5000-0.4756 (  8212 PWs)   bands (ev):

   -45.7890 -22.5140 -22.4335 -22.3622  -6.9250  -6.2539  -5.9093  -5.0215
    -5.0037  -4.9760  -4.8311  -4.5650   2.5501   5.3588   6.0174   6.7894
     7.0681   7.2953   7.3980   8.2894   9.2169   9.5684

          k = 0.1667 0.1667 0.0000 (  8181 PWs)   bands (ev):

   -45.7902 -22.4777 -22.3835 -22.3832  -7.3062  -6.4596  -6.1852  -5.0187
    -5.0052  -4.9672  -4.8274  -4.6641   3.4905   6.2554   6.4871   6.7295
     7.6531   7.7897   8.4648   8.5374   8.8201   9.1823

          k = 0.1667 0.1667 0.2378 (  8197 PWs)   bands (ev):

   -45.7899 -22.4971 -22.3826 -22.3823  -7.1479  -6.4378  -6.1164  -5.0197
    -4.9960  -4.9617  -4.8209  -4.6780   3.1397   6.0469   6.1246   6.8500
     7.4934   7.5128   8.2736   8.6805   8.8999   9.3281

          k = 0.1667 0.1667-0.4756 (  8214 PWs)   bands (ev):

   -45.7896 -22.5163 -22.3817 -22.3815  -6.9918  -6.4157  -6.0349  -5.0306
    -4.9759  -4.9391  -4.8277  -4.6958   2.8107   5.8447   5.8600   6.5709
     7.3540   7.4649   8.2053   8.7438   8.9548   9.6783

          k = 0.1667 0.3333 0.0000 (  8184 PWs)   bands (ev):

   -45.7895 -22.4761 -22.4177 -22.3818  -7.0216  -6.4043  -6.2018  -5.0355
    -4.9940  -4.9507  -4.7852  -4.6728   3.0135   5.9562   6.4932   6.8201
     7.1485   7.7017   8.0353   8.6521   8.8180   9.6800

          k = 0.1667 0.3333 0.2378 (  8193 PWs)   bands (ev):

   -45.7892 -22.4952 -22.4167 -22.3809  -6.9140  -6.3957  -6.1186  -5.0146
    -4.9914  -4.9323  -4.7710  -4.6350   2.8991   5.7818   5.9424   6.4645
     6.8971   7.5582   8.3302   8.6166   8.9548   9.4291

          k = 0.1667 0.3333-0.4756 (  8188 PWs)   bands (ev):

   -45.7890 -22.5143 -22.4157 -22.3801  -6.8385  -6.3772  -5.9997  -5.0148
    -4.9680  -4.8967  -4.7792  -4.5912   2.7448   5.4421   5.8416   6.2171
     6.4006   7.4149   8.4347   8.6610   8.9652   9.3864

          k = 0.1667-0.5000 0.0000 (  8186 PWs)   bands (ev):

   -45.7892 -22.4752 -22.4349 -22.3810  -6.8651  -6.3600  -6.2369  -5.0366
    -4.9862  -4.9321  -4.7323  -4.7281   2.8238   5.6213   6.6179   6.8190
     7.1788   7.4542   7.8378   8.7035   8.7975  10.0007

          k = 0.1667-0.5000 0.2378 (  8198 PWs)   bands (ev):

   -45.7889 -22.4942 -22.4338 -22.3802  -6.8143  -6.3317  -6.1402  -5.0128
    -4.9788  -4.9163  -4.7362  -4.6332   2.7888   5.5696   5.8436   6.2331
     6.8491   7.6930   8.1213   8.6150   8.9667   9.3987

          k = 0.1667-0.5000-0.4756 (  8192 PWs)   bands (ev):

   -45.7886 -22.5132 -22.4327 -22.3793  -6.8048  -6.3045  -5.9847  -5.0100
    -4.9404  -4.8990  -4.7480  -4.5430   2.7157   5.3269   5.6775   5.8681
     6.3003   7.5286   8.3193   8.5825   8.6418   9.5814

          k = 0.3333 0.3333 0.0000 (  8198 PWs)   bands (ev):

   -45.7889 -22.4745 -22.4161 -22.4158  -6.7657  -6.3555  -6.2692  -5.0161
    -4.9726  -4.8736  -4.7145  -4.6727   2.6148   5.9074   6.0876   6.8980
     7.0686   7.1941   7.8760   8.4878   9.2994   9.4286

          k = 0.3333 0.3333 0.2378 (  8198 PWs)   bands (ev):

   -45.7886 -22.4935 -22.4151 -22.4149  -6.6626  -6.3948  -6.2036  -4.9793
    -4.9685  -4.8305  -4.6688  -4.6044   2.7963   5.5533   5.6387   5.9047
     6.6199   7.0672   8.4131   8.9267   8.9662   9.3162

          k = 0.3333 0.3333-0.4756 (  8174 PWs)   bands (ev):

   -45.7883 -22.5124 -22.4142 -22.4140  -6.6137  -6.4318  -6.0728  -4.9639
    -4.9436  -4.7824  -4.6223  -4.5382   2.9679   5.1551   5.1933   5.6777
     6.3526   6.5387   7.7501   9.2697   9.2858   9.4571

          k = 0.3333-0.5000 0.0000 (  8196 PWs)   bands (ev):

   -45.7885 -22.4735 -22.4330 -22.4150  -6.6367  -6.3213  -6.3086  -5.0084
    -4.9502  -4.8018  -4.7153  -4.6762   2.4301   5.5925   6.1244   6.7367
     7.2447   7.3814   7.4707   8.4766   9.1321   9.4935

          k = 0.3333-0.5000 0.2378 (  8208 PWs)   bands (ev):

   -45.7883 -22.4925 -22.4320 -22.4142  -6.5526  -6.3593  -6.2596  -4.9718
    -4.9422  -4.7510  -4.6438  -4.5925   2.7120   5.4758   5.5483   5.6643
     6.3944   7.1383   7.9909   8.9335   8.9422   9.4695

          k = 0.3333-0.5000-0.4756 (  8200 PWs)   bands (ev):

   -45.7880 -22.5114 -22.4310 -22.4133  -6.5603  -6.3952  -6.1047  -4.9471
    -4.9228  -4.7086  -4.5719  -4.4988   3.0670   4.9187   5.1167   5.4484
     6.1427   6.5378   7.0295   9.3765   9.4397   9.6114

          k =-0.5000-0.5000 0.0000 (  8180 PWs)   bands (ev):

   -45.7882 -22.4726 -22.4320 -22.4320  -6.5531  -6.3051  -6.3051  -4.9987
    -4.9102  -4.7189  -4.7189  -4.6690   2.2362   5.4324   5.9908   6.9691
     6.9691   7.4796   7.4796   8.2496   8.6619   9.7455

          k =-0.5000-0.5000 0.2378 (  8188 PWs)   bands (ev):

   -45.7880 -22.4916 -22.4311 -22.4311  -6.3745  -6.3745  -6.3572  -4.9608
    -4.9084  -4.6425  -4.5990  -4.5990   2.6167   5.3912   5.6078   5.6078
     5.9970   7.0767   7.3823   8.9583   8.9583   9.7306

          k =-0.5000-0.5000-0.4756 (  8208 PWs)   bands (ev):

   -45.7877 -22.5105 -22.4302 -22.4302  -6.4365  -6.4365  -6.1553  -4.9228
    -4.9065  -4.6072  -4.4846  -4.4846   3.1952   4.9843   4.9843   5.2823
     6.0033   6.1109   6.2282   9.6272   9.6272   9.7158

     highest occupied level (ev):    10.3683

!    total energy              =    -380.57554329 Ry
     estimated scf accuracy    <          1.1E-11 Ry

     The total energy is the sum of the following terms:
     one-electron contribution =     -85.75185084 Ry
     hartree contribution      =      72.02072828 Ry
     xc contribution           =    -102.58623529 Ry
     ewald contribution        =    -264.25818544 Ry

     convergence has been achieved in   9 iterations

     negative rho (up, down):  1.562E-02 0.000E+00

     Forces acting on atoms (cartesian axes, Ry/au):

     atom    1 type  1   force =     0.00000000    0.00000000    0.00024156
     atom    2 type  2   force =     0.00000000    0.00000000   -0.00076993
     atom    3 type  3   force =     0.00000000    0.00000000   -0.00156221
     atom    4 type  3   force =     0.00000000    0.00000000    0.00104529
     atom    5 type  3   force =     0.00000000    0.00000000    0.00104529

     Total force =     0.002297     Total SCF correction =     0.000011


     Computing stress (Cartesian axis) and pressure


     negative rho (up, down):  1.562E-02 0.000E+00
          total   stress  (Ry/bohr**3)                   (kbar)     P=      -41.24
  -0.00033352   0.00000000   0.00000000          -49.06        0.00        0.00
   0.00000000  -0.00033352   0.00000000            0.00      -49.06        0.00
   0.00000000   0.00000000  -0.00017398            0.00        0.00      -25.59

     Energy error            =      1.8E-05 Ry
     Gradient error          =      1.6E-03 Ry/Bohr

     number of scf cycles    =   7
     number of bfgs steps    =   6

     energy             old  =    -380.5755257015 Ry
     energy             new  =    -380.5755432894 Ry

     CASE: energy            _new < energy            _old

     new trust radius        =       0.0032582127 bohr
     new conv_thr            =            1.0E-10 Ry


ATOMIC_POSITIONS (crystal)
Pb               0.0000000000        0.0000000000        0.9934073399
Ti               0.5000000000        0.5000000000        0.5384051504
O                0.5000000000        0.5000000000        0.1069557860
O                0.5000000000        0.0000000000        0.6142580058
O                0.0000000000        0.5000000000        0.6142580058



     Writing config-only to output data dir ./pto_110.save/ :
     XML data file
     NEW-OLD atomic charge density approx. for the potential

     negative rho (up, down):  1.562E-02 0.000E+00

     total cpu time spent up to now is      219.4 secs

     Self-consistent Calculation

     iteration #  1     ecut=   110.00 Ry     beta= 0.70
     CG style diagonalization
     ethr =  1.00E-06,  avg # of iterations =  2.7

     Threshold (ethr) on eigenvalues was too large:
     Diagonalizing with lowered threshold

     CG style diagonalization
     c_bands:  1 eigenvalues not converged
     c_bands:  1 eigenvalues not converged
     c_bands:  1 eigenvalues not converged
     c_bands:  1 eigenvalues not converged
     c_bands:  1 eigenvalues not converged
     c_bands:  1 eigenvalues not converged
     c_bands:  1 eigenvalues not converged
     c_bands:  1 eigenvalues not converged
     ethr =  6.05E-09,  avg # of iterations =  5.9

     negative rho (up, down):  1.562E-02 0.000E+00

     total cpu time spent up to now is      224.4 secs

     total energy              =    -380.57554756 Ry
     estimated scf accuracy    <       0.00000460 Ry

     iteration #  2     ecut=   110.00 Ry     beta= 0.70
     CG style diagonalization
     ethr =  1.04E-08,  avg # of iterations =  4.7

     negative rho (up, down):  1.562E-02 0.000E+00

     total cpu time spent up to now is      227.0 secs

     total energy              =    -380.57554678 Ry
     estimated scf accuracy    <       0.00001670 Ry

     iteration #  3     ecut=   110.00 Ry     beta= 0.70
     CG style diagonalization
     ethr =  1.04E-08,  avg # of iterations =  4.3

     negative rho (up, down):  1.562E-02 0.000E+00

     total cpu time spent up to now is      229.4 secs

     total energy              =    -380.57554982 Ry
     estimated scf accuracy    <       0.00000063 Ry

     iteration #  4     ecut=   110.00 Ry     beta= 0.70
     CG style diagonalization
     ethr =  1.43E-09,  avg # of iterations =  3.6

     negative rho (up, down):  1.562E-02 0.000E+00

     total cpu time spent up to now is      231.4 secs

     total energy              =    -380.57554995 Ry
     estimated scf accuracy    <       0.00000009 Ry

     iteration #  5     ecut=   110.00 Ry     beta= 0.70
     CG style diagonalization
     ethr =  2.04E-10,  avg # of iterations =  4.1

     negative rho (up, down):  1.562E-02 0.000E+00

     total cpu time spent up to now is      233.7 secs

     total energy              =    -380.57554998 Ry
     estimated scf accuracy    <       0.00000001 Ry

     iteration #  6     ecut=   110.00 Ry     beta= 0.70
     CG style diagonalization
     ethr =  2.61E-11,  avg # of iterations =  4.3

     negative rho (up, down):  1.562E-02 0.000E+00

     total cpu time spent up to now is      236.1 secs

     total energy              =    -380.57554999 Ry
     estimated scf accuracy    <          1.7E-09 Ry

     iteration #  7     ecut=   110.00 Ry     beta= 0.70
     CG style diagonalization
     ethr =  3.75E-12,  avg # of iterations =  4.7

     negative rho (up, down):  1.562E-02 0.000E+00

     total cpu time spent up to now is      238.6 secs

     total energy              =    -380.57554999 Ry
     estimated scf accuracy    <          5.6E-10 Ry

     iteration #  8     ecut=   110.00 Ry     beta= 0.70
     CG style diagonalization
     ethr =  1.26E-12,  avg # of iterations =  4.3

     negative rho (up, down):  1.562E-02 0.000E+00

     total cpu time spent up to now is      241.0 secs

     End of self-consistent calculation

          k = 0.0000 0.0000 0.0000 (  8193 PWs)   bands (ev):

   -45.7950 -22.4810 -22.3709 -22.3709  -7.5738  -6.5135  -6.2028  -4.9918
    -4.9918  -4.9498  -4.8655  -4.6819   4.2121   6.2497   6.2497   6.8022
     8.1207   8.1207   8.4492   8.6294   8.8725   8.8725

          k = 0.0000 0.0000 0.2378 (  8214 PWs)   bands (ev):

   -45.7947 -22.5006 -22.3701 -22.3701  -7.3882  -6.4615  -6.1424  -5.0068
    -5.0068  -4.9485  -4.8515  -4.7458   3.4641   6.2911   6.2911   6.8764
     7.9147   7.9147   8.3646   8.7844   8.9707   8.9707

          k = 0.0000 0.0000-0.4756 (  8242 PWs)   bands (ev):

   -45.7944 -22.5200 -22.3693 -22.3693  -7.1883  -6.4054  -6.0870  -5.0217
    -5.0217  -4.9473  -4.8381  -4.8139   2.9567   6.2133   6.3131   6.3131
     7.7873   7.7873   8.2838   9.0350   9.0350   9.9888

          k = 0.0000 0.1667 0.0000 (  8193 PWs)   bands (ev):

   -45.7947 -22.4802 -22.3882 -22.3701  -7.4397  -6.4877  -6.1839  -5.0130
    -4.9903  -4.9625  -4.8553  -4.6715   3.7944   6.3063   6.3583   6.7340
     8.1337   8.1461   8.4251   8.5047   8.5732   8.9696

          k = 0.0000 0.1667 0.2378 (  8204 PWs)   bands (ev):

   -45.7944 -22.4997 -22.3873 -22.3694  -7.2699  -6.4491  -6.1170  -5.0060
    -5.0058  -4.9617  -4.8510  -4.7055   3.2596   6.0911   6.4083   6.9293
     7.6041   7.9021   8.2140   8.6222   8.6515   9.3528

          k = 0.0000 0.1667-0.4756 (  8208 PWs)   bands (ev):

   -45.7941 -22.5190 -22.3864 -22.3686  -7.0958  -6.4061  -6.0463  -5.0212
    -4.9967  -4.9609  -4.8519  -4.7394   2.8402   5.7998   6.4340   6.5859
     7.4356   7.7805   8.2526   8.6789   8.7262   9.9585

          k = 0.0000 0.3333 0.0000 (  8174 PWs)   bands (ev):

   -45.7940 -22.4786 -22.4227 -22.3687  -7.1478  -6.4311  -6.1642  -5.0407
    -4.9881  -4.9869  -4.8217  -4.6825   3.2260   5.9450   6.6429   6.6677
     7.8038   7.8384   8.2230   8.2883   8.6610   9.6375

          k = 0.0000 0.3333 0.2378 (  8196 PWs)   bands (ev):

   -45.7937 -22.4978 -22.4216 -22.3679  -7.0403  -6.3948  -6.0725  -5.0073
    -5.0039  -4.9878  -4.8246  -4.6546   2.9153   5.8096   6.5429   6.7191
     7.2356   7.6666   7.8435   8.3098   8.8656   9.7036

          k = 0.0000 0.3333-0.4756 (  8232 PWs)   bands (ev):

   -45.7935 -22.5169 -22.4205 -22.3671  -6.9598  -6.3405  -5.9529  -5.0202
    -4.9880  -4.9645  -4.8562  -4.6134   2.6342   5.4901   6.3286   6.7438
     7.1048   7.3568   7.6177   8.3538   9.2520   9.5721

          k = 0.0000-0.5000 0.0000 (  8180 PWs)   bands (ev):

   -45.7937 -22.4777 -22.4399 -22.3680  -6.9868  -6.3845  -6.1822  -5.0511
    -5.0001  -4.9859  -4.7513  -4.7475   3.0199   5.6038   6.9042   6.9092
     7.3301   7.4393   8.2041   8.2555   8.6910  10.3701

          k = 0.0000-0.5000 0.2378 (  8214 PWs)   bands (ev):

   -45.7934 -22.4968 -22.4387 -22.3672  -6.9406  -6.3222  -6.0719  -5.0162
    -5.0029  -5.0007  -4.7830  -4.6531   2.7776   5.5624   6.5534   6.7671
     7.0916   7.2394   7.9443   8.2794   8.8766   9.8843

          k = 0.0000-0.5000-0.4756 (  8212 PWs)   bands (ev):

   -45.7931 -22.5158 -22.4375 -22.3663  -6.9262  -6.2566  -5.9081  -5.0197
    -5.0014  -4.9740  -4.8287  -4.5628   2.5518   5.3583   6.0201   6.7889
     7.0649   7.2938   7.3963   8.2938   9.2208   9.5691

          k = 0.1667 0.1667 0.0000 (  8181 PWs)   bands (ev):

   -45.7943 -22.4795 -22.3876 -22.3872  -7.3080  -6.4611  -6.1840  -5.0168
    -5.0033  -4.9649  -4.8254  -4.6615   3.4914   6.2527   6.4869   6.7283
     7.6566   7.7891   8.4676   8.5355   8.8198   9.1852

          k = 0.1667 0.1667 0.2378 (  8197 PWs)   bands (ev):

   -45.7941 -22.4988 -22.3867 -22.3864  -7.1498  -6.4393  -6.1151  -5.0178
    -4.9939  -4.9595  -4.8188  -4.6754   3.1413   6.0444   6.1237   6.8485
     7.4930   7.5161   8.2766   8.6786   8.8993   9.3302

          k = 0.1667 0.1667-0.4756 (  8214 PWs)   bands (ev):

   -45.7938 -22.5181 -22.3858 -22.3856  -6.9940  -6.4173  -6.0335  -5.0286
    -4.9737  -4.9371  -4.8255  -4.6933   2.8129   5.8425   5.8585   6.5704
     7.3518   7.4682   8.2088   8.7421   8.9538   9.6804

          k = 0.1667 0.3333 0.0000 (  8184 PWs)   bands (ev):

   -45.7937 -22.4779 -22.4218 -22.3859  -7.0233  -6.4061  -6.2009  -5.0335
    -4.9920  -4.9484  -4.7831  -4.6703   3.0138   5.9556   6.4918   6.8213
     7.1476   7.7063   8.0362   8.6519   8.8179   9.6821

          k = 0.1667 0.3333 0.2378 (  8193 PWs)   bands (ev):

   -45.7934 -22.4970 -22.4207 -22.3850  -6.9159  -6.3975  -6.1175  -5.0126
    -4.9894  -4.9300  -4.7689  -4.6326   2.8999   5.7813   5.9423   6.4629
     6.8983   7.5605   8.3320   8.6166   8.9548   9.4306

          k = 0.1667 0.3333-0.4756 (  8188 PWs)   bands (ev):

   -45.7931 -22.5160 -22.4197 -22.3842  -6.8404  -6.3792  -5.9985  -5.0128
    -4.9659  -4.8945  -4.7770  -4.5890   2.7463   5.4416   5.8405   6.2161
     6.4015   7.4159   8.4376   8.6597   8.9674   9.3866

          k = 0.1667-0.5000 0.0000 (  8186 PWs)   bands (ev):

   -45.7933 -22.4770 -22.4389 -22.3851  -6.8666  -6.3623  -6.2360  -5.0347
    -4.9842  -4.9297  -4.7301  -4.7256   2.8238   5.6218   6.6197   6.8154
     7.1808   7.4546   7.8426   8.7016   8.7986  10.0023

          k = 0.1667-0.5000 0.2378 (  8198 PWs)   bands (ev):

   -45.7931 -22.4960 -22.4378 -22.3842  -6.8159  -6.3341  -6.1391  -5.0108
    -4.9769  -4.9139  -4.7341  -4.6309   2.7894   5.5698   5.8442   6.2325
     6.8487   7.6959   8.1224   8.6157   8.9665   9.4001

          k = 0.1667-0.5000-0.4756 (  8192 PWs)   bands (ev):

   -45.7928 -22.5149 -22.4367 -22.3834  -6.8062  -6.3069  -5.9836  -5.0080
    -4.9385  -4.8966  -4.7459  -4.5408   2.7169   5.3268   5.6769   5.8686
     6.2999   7.5299   8.3213   8.5838   8.6420   9.5823

          k = 0.3333 0.3333 0.0000 (  8198 PWs)   bands (ev):

   -45.7930 -22.4762 -22.4201 -22.4198  -6.7670  -6.3576  -6.2691  -5.0141
    -4.9705  -4.8712  -4.7121  -4.6702   2.6144   5.9066   6.0866   6.8986
     7.0709   7.1983   7.8762   8.4905   9.2978   9.4305

          k = 0.3333 0.3333 0.2378 (  8198 PWs)   bands (ev):

   -45.7928 -22.4953 -22.4192 -22.4189  -6.6645  -6.3967  -6.2027  -4.9774
    -4.9664  -4.8282  -4.6665  -4.6021   2.7961   5.5540   5.6386   5.9035
     6.6225   7.0688   8.4168   8.9272   8.9671   9.3148

          k = 0.3333 0.3333-0.4756 (  8174 PWs)   bands (ev):

   -45.7925 -22.5142 -22.4182 -22.4181  -6.6158  -6.4336  -6.0717  -4.9617
    -4.9417  -4.7800  -4.6202  -4.5362   2.9681   5.1553   5.1939   5.6749
     6.3551   6.5407   7.7539   9.2708   9.2839   9.4577

          k = 0.3333-0.5000 0.0000 (  8196 PWs)   bands (ev):

   -45.7927 -22.4753 -22.4370 -22.4191  -6.6373  -6.3237  -6.3093  -5.0065
    -4.9481  -4.7992  -4.7130  -4.6737   2.4294   5.5926   6.1237   6.7385
     7.2474   7.3833   7.4725   8.4783   9.1336   9.4918

          k = 0.3333-0.5000 0.2378 (  8208 PWs)   bands (ev):

   -45.7924 -22.4943 -22.4360 -22.4182  -6.5543  -6.3616  -6.2589  -4.9698
    -4.9401  -4.7485  -4.6417  -4.5903   2.7112   5.4774   5.5480   5.6644
     6.3961   7.1406   7.9935   8.9344   8.9434   9.4678

          k = 0.3333-0.5000-0.4756 (  8200 PWs)   bands (ev):

   -45.7922 -22.5132 -22.4351 -22.4173  -6.5620  -6.3973  -6.1037  -4.9450
    -4.9208  -4.7060  -4.5701  -4.4968   3.0663   4.9194   5.1181   5.4460
     6.1445   6.5406   7.0328   9.3773   9.4379   9.6124

          k =-0.5000-0.5000 0.0000 (  8180 PWs)   bands (ev):

   -45.7924 -22.4743 -22.4360 -22.4360  -6.5522  -6.3076  -6.3076  -4.9967
    -4.9079  -4.7165  -4.7165  -4.6663   2.2352   5.4325   5.9919   6.9708
     6.9708   7.4815   7.4815   8.2513   8.6636   9.7436

          k =-0.5000-0.5000 0.2378 (  8188 PWs)   bands (ev):

   -45.7921 -22.4933 -22.4351 -22.4351  -6.3767  -6.3767  -6.3563  -4.9588
    -4.9061  -4.6397  -4.5970  -4.5970   2.6152   5.3906   5.6099   5.6099
     5.9982   7.0785   7.3844   8.9597   8.9597   9.7288

          k =-0.5000-0.5000-0.4756 (  8208 PWs)   bands (ev):

   -45.7918 -22.5122 -22.4342 -22.4342  -6.4384  -6.4384  -6.1544  -4.9209
    -4.9043  -4.6043  -4.4830  -4.4830   3.1928   4.9866   4.9866   5.2800
     6.0045   6.1140   6.2313   9.6282   9.6282   9.7140

     highest occupied level (ev):    10.3701

!    total energy              =    -380.57554999 Ry
     estimated scf accuracy    <          6.0E-11 Ry

     The total energy is the sum of the following terms:
     one-electron contribution =     -85.73529328 Ry
     hartree contribution      =      72.01182292 Ry
     xc contribution           =    -102.58536556 Ry
     ewald contribution        =    -264.26671406 Ry

     convergence has been achieved in   8 iterations

     negative rho (up, down):  1.562E-02 0.000E+00

     Forces acting on atoms (cartesian axes, Ry/au):

     atom    1 type  1   force =     0.00000000    0.00000000    0.00031735
     atom    2 type  2   force =     0.00000000    0.00000000   -0.00125709
     atom    3 type  3   force =     0.00000000    0.00000000   -0.00012392
     atom    4 type  3   force =     0.00000000    0.00000000    0.00053183
     atom    5 type  3   force =     0.00000000    0.00000000    0.00053183

     Total force =     0.001504     Total SCF correction =     0.000018


     Computing stress (Cartesian axis) and pressure


     negative rho (up, down):  1.562E-02 0.000E+00
          total   stress  (Ry/bohr**3)                   (kbar)     P=      -41.78
  -0.00033521   0.00000000   0.00000000          -49.31        0.00        0.00
   0.00000000  -0.00033521   0.00000000            0.00      -49.31        0.00
   0.00000000   0.00000000  -0.00018173            0.00        0.00      -26.73

     Energy error            =      6.7E-06 Ry
     Gradient error          =      1.3E-03 Ry/Bohr

     number of scf cycles    =   8
     number of bfgs steps    =   7

     energy             old  =    -380.5755432894 Ry
     energy             new  =    -380.5755499893 Ry

     CASE: energy            _new < energy            _old

     new trust radius        =       0.0018846079 bohr
     new conv_thr            =            1.0E-10 Ry


ATOMIC_POSITIONS (crystal)
Pb               0.0000000000        0.0000000000        0.9934729641
Ti               0.5000000000        0.5000000000        0.5381723132
O                0.5000000000        0.5000000000        0.1067125441
O                0.5000000000        0.0000000000        0.6144632333
O                0.0000000000        0.5000000000        0.6144632333



     Writing config-only to output data dir ./pto_110.save/ :
     XML data file
     NEW-OLD atomic charge density approx. for the potential

     negative rho (up, down):  1.561E-02 0.000E+00

     total cpu time spent up to now is      244.8 secs

     Self-consistent Calculation

     iteration #  1     ecut=   110.00 Ry     beta= 0.70
     CG style diagonalization
     ethr =  1.00E-06,  avg # of iterations =  3.0

     Threshold (ethr) on eigenvalues was too large:
     Diagonalizing with lowered threshold

     CG style diagonalization
     c_bands:  1 eigenvalues not converged
     c_bands:  2 eigenvalues not converged
     c_bands:  1 eigenvalues not converged
     c_bands:  1 eigenvalues not converged
     c_bands:  1 eigenvalues not converged
     c_bands:  3 eigenvalues not converged
     c_bands:  4 eigenvalues not converged
     c_bands:  1 eigenvalues not converged
     c_bands:  1 eigenvalues not converged
     c_bands:  1 eigenvalues not converged
     c_bands:  1 eigenvalues not converged
     ethr =  1.64E-09,  avg # of iterations =  7.8

     negative rho (up, down):  1.562E-02 0.000E+00

     total cpu time spent up to now is      250.9 secs

     total energy              =    -380.57555199 Ry
     estimated scf accuracy    <       0.00000108 Ry

     iteration #  2     ecut=   110.00 Ry     beta= 0.70
     CG style diagonalization
     ethr =  2.45E-09,  avg # of iterations =  4.6

     negative rho (up, down):  1.561E-02 0.000E+00

     total cpu time spent up to now is      253.4 secs

     total energy              =    -380.57555179 Ry
     estimated scf accuracy    <       0.00000375 Ry

     iteration #  3     ecut=   110.00 Ry     beta= 0.70
     CG style diagonalization
     ethr =  2.45E-09,  avg # of iterations =  4.2

     negative rho (up, down):  1.562E-02 0.000E+00

     total cpu time spent up to now is      255.8 secs

     total energy              =    -380.57555250 Ry
     estimated scf accuracy    <       0.00000011 Ry

     iteration #  4     ecut=   110.00 Ry     beta= 0.70
     CG style diagonalization
     ethr =  2.58E-10,  avg # of iterations =  3.7

     negative rho (up, down):  1.562E-02 0.000E+00

     total cpu time spent up to now is      257.9 secs

     total energy              =    -380.57555252 Ry
     estimated scf accuracy    <       0.00000002 Ry

     iteration #  5     ecut=   110.00 Ry     beta= 0.70
     CG style diagonalization
     ethr =  3.52E-11,  avg # of iterations =  4.5

     negative rho (up, down):  1.562E-02 0.000E+00

     total cpu time spent up to now is      260.3 secs

     total energy              =    -380.57555253 Ry
     estimated scf accuracy    <          3.6E-09 Ry

     iteration #  6     ecut=   110.00 Ry     beta= 0.70
     CG style diagonalization
     ethr =  8.19E-12,  avg # of iterations =  4.2

     negative rho (up, down):  1.562E-02 0.000E+00

     total cpu time spent up to now is      262.7 secs

     total energy              =    -380.57555253 Ry
     estimated scf accuracy    <          7.7E-10 Ry

     iteration #  7     ecut=   110.00 Ry     beta= 0.70
     CG style diagonalization
     ethr =  1.76E-12,  avg # of iterations =  4.7

     negative rho (up, down):  1.562E-02 0.000E+00

     total cpu time spent up to now is      265.3 secs

     total energy              =    -380.57555253 Ry
     estimated scf accuracy    <          2.6E-10 Ry

     iteration #  8     ecut=   110.00 Ry     beta= 0.70
     CG style diagonalization
     ethr =  5.81E-13,  avg # of iterations =  4.4

     negative rho (up, down):  1.562E-02 0.000E+00

     total cpu time spent up to now is      267.7 secs

     End of self-consistent calculation

          k = 0.0000 0.0000 0.0000 (  8193 PWs)   bands (ev):

   -45.7957 -22.4815 -22.3714 -22.3714  -7.5741  -6.5127  -6.2026  -4.9908
    -4.9908  -4.9486  -4.8644  -4.6802   4.2140   6.2484   6.2484   6.8007
     8.1182   8.1182   8.4476   8.6288   8.8721   8.8721

          k = 0.0000 0.0000 0.2378 (  8214 PWs)   bands (ev):

   -45.7954 -22.5011 -22.3706 -22.3706  -7.3882  -6.4607  -6.1425  -5.0058
    -5.0058  -4.9474  -4.8504  -4.7442   3.4652   6.2883   6.2883   6.8753
     7.9147   7.9147   8.3630   8.7848   8.9707   8.9707

          k = 0.0000 0.0000-0.4756 (  8242 PWs)   bands (ev):

   -45.7952 -22.5206 -22.3698 -22.3698  -7.1881  -6.4046  -6.0875  -5.0207
    -5.0207  -4.9461  -4.8370  -4.8123   2.9576   6.2126   6.3086   6.3086
     7.7900   7.7900   8.2822   9.0351   9.0351   9.9896

          k = 0.0000 0.1667 0.0000 (  8193 PWs)   bands (ev):

   -45.7954 -22.4808 -22.3887 -22.3707  -7.4400  -6.4870  -6.1838  -5.0120
    -4.9893  -4.9613  -4.8543  -4.6699   3.7954   6.3064   6.3572   6.7326
     8.1335   8.1439   8.4237   8.5040   8.5724   8.9699

          k = 0.0000 0.1667 0.2378 (  8204 PWs)   bands (ev):

   -45.7951 -22.5003 -22.3878 -22.3699  -7.2700  -6.4484  -6.1171  -5.0050
    -5.0048  -4.9605  -4.8500  -4.7040   3.2604   6.0895   6.4057   6.9285
     7.6045   7.9019   8.2148   8.6206   8.6517   9.3536

          k = 0.0000 0.1667-0.4756 (  8208 PWs)   bands (ev):

   -45.7948 -22.5196 -22.3869 -22.3691  -7.0956  -6.4055  -6.0468  -5.0202
    -4.9957  -4.9598  -4.8508  -4.7379   2.8409   5.7975   6.4297   6.5850
     7.4378   7.7829   8.2528   8.6772   8.7268   9.9603

          k = 0.0000 0.3333 0.0000 (  8174 PWs)   bands (ev):

   -45.7947 -22.4792 -22.4231 -22.3692  -7.1481  -6.4310  -6.1642  -5.0396
    -4.9870  -4.9859  -4.8207  -4.6811   3.2264   5.9462   6.6425   6.6693
     7.8061   7.8379   8.2205   8.2872   8.6599   9.6371

          k = 0.0000 0.3333 0.2378 (  8196 PWs)   bands (ev):

   -45.7945 -22.4984 -22.4221 -22.3684  -7.0402  -6.3948  -6.0728  -5.0062
    -5.0029  -4.9866  -4.8236  -4.6532   2.9159   5.8099   6.5438   6.7172
     7.2377   7.6656   7.8432   8.3106   8.8654   9.7038

          k = 0.0000 0.3333-0.4756 (  8232 PWs)   bands (ev):

   -45.7942 -22.5175 -22.4210 -22.3676  -6.9593  -6.3407  -5.9535  -5.0192
    -4.9868  -4.9634  -4.8551  -4.6120   2.6348   5.4887   6.3317   6.7400
     7.1055   7.3567   7.6184   8.3560   9.2506   9.5744

          k = 0.0000-0.5000 0.0000 (  8180 PWs)   bands (ev):

   -45.7944 -22.4783 -22.4403 -22.3685  -6.9869  -6.3849  -6.1822  -5.0500
    -4.9989  -4.9849  -4.7500  -4.7464   3.0200   5.6065   6.9050   6.9128
     7.3308   7.4375   8.2029   8.2532   8.6898  10.3701

          k = 0.0000-0.5000 0.2378 (  8214 PWs)   bands (ev):

   -45.7941 -22.4974 -22.4391 -22.3677  -6.9402  -6.3227  -6.0723  -5.0152
    -5.0019  -4.9996  -4.7819  -4.6518   2.7781   5.5642   6.5545   6.7688
     7.0926   7.2356   7.9439   8.2803   8.8771   9.8842

          k = 0.0000-0.5000-0.4756 (  8212 PWs)   bands (ev):

   -45.7939 -22.5164 -22.4380 -22.3668  -6.9255  -6.2572  -5.9089  -5.0187
    -5.0003  -4.9729  -4.8275  -4.5615   2.5526   5.3578   6.0235   6.7896
     7.0600   7.2949   7.3962   8.2967   9.2225   9.5686

          k = 0.1667 0.1667 0.0000 (  8181 PWs)   bands (ev):

   -45.7951 -22.4800 -22.3881 -22.3877  -7.3084  -6.4606  -6.1839  -5.0157
    -5.0023  -4.9638  -4.8244  -4.6600   3.4922   6.2517   6.4876   6.7268
     7.6558   7.7891   8.4675   8.5344   8.8212   9.1844

          k = 0.1667 0.1667 0.2378 (  8197 PWs)   bands (ev):

   -45.7948 -22.4994 -22.3872 -22.3869  -7.1501  -6.4387  -6.1152  -5.0168
    -4.9929  -4.9584  -4.8177  -4.6739   3.1419   6.0422   6.1232   6.8472
     7.4933   7.5181   8.2765   8.6776   8.8994   9.3317

          k = 0.1667 0.1667-0.4756 (  8214 PWs)   bands (ev):

   -45.7945 -22.5186 -22.3863 -22.3861  -6.9939  -6.4168  -6.0341  -5.0276
    -4.9726  -4.9361  -4.8244  -4.6917   2.8135   5.8397   5.8566   6.5714
     7.3503   7.4715   8.2097   8.7414   8.9532   9.6825

          k = 0.1667 0.3333 0.0000 (  8184 PWs)   bands (ev):

   -45.7944 -22.4785 -22.4222 -22.3864  -7.0238  -6.4060  -6.2009  -5.0325
    -4.9910  -4.9472  -4.7821  -4.6689   3.0141   5.9568   6.4908   6.8232
     7.1473   7.7061   8.0380   8.6511   8.8181   9.6819

          k = 0.1667 0.3333 0.2378 (  8193 PWs)   bands (ev):

   -45.7941 -22.4976 -22.4212 -22.3855  -6.9160  -6.3975  -6.1178  -5.0116
    -4.9884  -4.9288  -4.7678  -4.6312   2.9004   5.7814   5.9425   6.4621
     6.8993   7.5625   8.3333   8.6160   8.9544   9.4309

          k = 0.1667 0.3333-0.4756 (  8188 PWs)   bands (ev):

   -45.7939 -22.5166 -22.4202 -22.3847  -6.8401  -6.3792  -5.9991  -5.0118
    -4.9649  -4.8934  -4.7759  -4.5876   2.7469   5.4404   5.8404   6.2155
     6.4039   7.4179   8.4379   8.6599   8.9683   9.3861

          k = 0.1667-0.5000 0.0000 (  8186 PWs)   bands (ev):

   -45.7941 -22.4775 -22.4394 -22.3856  -6.8670  -6.3627  -6.2360  -5.0336
    -4.9832  -4.9285  -4.7290  -4.7244   2.8240   5.6245   6.6201   6.8139
     7.1840   7.4563   7.8415   8.7009   8.7983  10.0025

          k = 0.1667-0.5000 0.2378 (  8198 PWs)   bands (ev):

   -45.7938 -22.4966 -22.4383 -22.3847  -6.8158  -6.3346  -6.1395  -5.0098
    -4.9758  -4.9128  -4.7329  -4.6296   2.7898   5.5716   5.8454   6.2319
     6.8484   7.6982   8.1243   8.6144   8.9670   9.3993

          k = 0.1667-0.5000-0.4756 (  8192 PWs)   bands (ev):

   -45.7935 -22.5155 -22.4371 -22.3839  -6.8058  -6.3074  -5.9844  -5.0069
    -4.9374  -4.8955  -4.7447  -4.5395   2.7177   5.3263   5.6778   5.8700
     6.2998   7.5325   8.3228   8.5829   8.6426   9.5816

          k = 0.3333 0.3333 0.0000 (  8198 PWs)   bands (ev):

   -45.7938 -22.4768 -22.4206 -22.4203  -6.7678  -6.3578  -6.2692  -5.0131
    -4.9694  -4.8700  -4.7109  -4.6688   2.6147   5.9072   6.0882   6.8979
     7.0734   7.1976   7.8791   8.4920   9.2978   9.4307

          k = 0.3333 0.3333 0.2378 (  8198 PWs)   bands (ev):

   -45.7935 -22.4958 -22.4196 -22.4194  -6.6650  -6.3968  -6.2031  -4.9764
    -4.9653  -4.8270  -4.6654  -4.6008   2.7964   5.5545   5.6384   5.9038
     6.6262   7.0701   8.4191   8.9272   8.9660   9.3148

          k = 0.3333 0.3333-0.4756 (  8174 PWs)   bands (ev):

   -45.7932 -22.5148 -22.4186 -22.4185  -6.6159  -6.4336  -6.0724  -4.9607
    -4.9406  -4.7790  -4.6191  -4.5349   2.9686   5.1561   5.1938   5.6731
     6.3580   6.5448   7.7558   9.2699   9.2840   9.4568

          k = 0.3333-0.5000 0.0000 (  8196 PWs)   bands (ev):

   -45.7934 -22.4759 -22.4375 -22.4195  -6.6382  -6.3242  -6.3094  -5.0054
    -4.9470  -4.7980  -4.7118  -4.6725   2.4297   5.5946   6.1257   6.7374
     7.2457   7.3866   7.4753   8.4795   9.1343   9.4921

          k = 0.3333-0.5000 0.2378 (  8208 PWs)   bands (ev):

   -45.7932 -22.4949 -22.4365 -22.4187  -6.5547  -6.3620  -6.2594  -4.9688
    -4.9390  -4.7473  -4.6406  -4.5891   2.7115   5.4783   5.5492   5.6646
     6.3993   7.1422   7.9952   8.9342   8.9430   9.4679

          k = 0.3333-0.5000-0.4756 (  8200 PWs)   bands (ev):

   -45.7929 -22.5138 -22.4355 -22.4178  -6.5621  -6.3976  -6.1045  -4.9439
    -4.9198  -4.7049  -4.5691  -4.4956   3.0668   4.9204   5.1184   5.4454
     6.1473   6.5446   7.0339   9.3762   9.4383   9.6117

          k =-0.5000-0.5000 0.0000 (  8180 PWs)   bands (ev):

   -45.7931 -22.4749 -22.4365 -22.4365  -6.5530  -6.3081  -6.3081  -4.9957
    -4.9068  -4.7152  -4.7152  -4.6651   2.2355   5.4343   5.9960   6.9686
     6.9686   7.4848   7.4848   8.2521   8.6655   9.7439

          k =-0.5000-0.5000 0.2378 (  8188 PWs)   bands (ev):

   -45.7928 -22.4939 -22.4356 -22.4356  -6.3770  -6.3770  -6.3571  -4.9578
    -4.9050  -4.6385  -4.5958  -4.5958   2.6155   5.3917   5.6107   5.6107
     6.0023   7.0797   7.3857   8.9597   8.9597   9.7291

          k =-0.5000-0.5000-0.4756 (  8208 PWs)   bands (ev):

   -45.7926 -22.5128 -22.4347 -22.4347  -6.4387  -6.4387  -6.1552  -4.9198
    -4.9032  -4.6032  -4.4820  -4.4820   3.1929   4.9877   4.9877   5.2796
     6.0086   6.1152   6.2340   9.6274   9.6274   9.7143

     highest occupied level (ev):    10.3701

!    total energy              =    -380.57555253 Ry
     estimated scf accuracy    <          9.6E-12 Ry

     The total energy is the sum of the following terms:
     one-electron contribution =     -85.72118474 Ry
     hartree contribution      =      72.00502266 Ry
     xc contribution           =    -102.58509165 Ry
     ewald contribution        =    -264.27429880 Ry

     convergence has been achieved in   8 iterations

     negative rho (up, down):  1.562E-02 0.000E+00

     Forces acting on atoms (cartesian axes, Ry/au):

     atom    1 type  1   force =     0.00000000    0.00000000    0.00016875
     atom    2 type  2   force =     0.00000000    0.00000000   -0.00085446
     atom    3 type  3   force =     0.00000000    0.00000000    0.00037343
     atom    4 type  3   force =     0.00000000    0.00000000    0.00015614
     atom    5 type  3   force =     0.00000000    0.00000000    0.00015614

     Total force =     0.000973     Total SCF correction =     0.000009


     Computing stress (Cartesian axis) and pressure


     negative rho (up, down):  1.562E-02 0.000E+00
          total   stress  (Ry/bohr**3)                   (kbar)     P=      -42.00
  -0.00033702   0.00000000   0.00000000          -49.58        0.00        0.00
   0.00000000  -0.00033702   0.00000000            0.00      -49.58        0.00
   0.00000000   0.00000000  -0.00018249            0.00        0.00      -26.84

     Energy error            =      2.5E-06 Ry
     Gradient error          =      8.5E-04 Ry/Bohr

     bfgs converged in   9 scf cycles and   8 bfgs steps
     (criteria: energy <  1.0E-04 Ry, force <  1.0E-03 Ry/Bohr)

     End of BFGS Geometry Optimization

     Final energy             =    -380.5755525332 Ry

     File ./pto_110.bfgs deleted, as requested
Begin final coordinates

ATOMIC_POSITIONS (crystal)
Pb               0.0000000000        0.0000000000        0.9934729641
Ti               0.5000000000        0.5000000000        0.5381723132
O                0.5000000000        0.5000000000        0.1067125441
O                0.5000000000        0.0000000000        0.6144632333
O                0.0000000000        0.5000000000        0.6144632333
End final coordinates



     Writing all to output data dir ./pto_110.save/ :
     XML data file, charge density, pseudopotentials, collected wavefunctions
 
     init_run     :      0.81s CPU      0.93s WALL (       1 calls)
     electrons    :    225.09s CPU    237.18s WALL (       9 calls)
     update_pot   :      0.08s CPU      0.10s WALL (       8 calls)
     forces       :      2.75s CPU      3.06s WALL (       9 calls)
     stress       :     27.11s CPU     28.00s WALL (       9 calls)

     Called by init_run:
     wfcinit      :      0.45s CPU      0.48s WALL (       1 calls)
     potinit      :      0.02s CPU      0.02s WALL (       1 calls)
     hinit0       :      0.16s CPU      0.19s WALL (       1 calls)

     Called by electrons:
     c_bands      :    187.15s CPU    192.51s WALL (      90 calls)
     sum_band     :     26.89s CPU     30.28s WALL (      90 calls)
     v_of_rho     :      0.40s CPU      0.41s WALL (      95 calls)
     newd         :     11.28s CPU     14.56s WALL (      95 calls)
     mix_rho      :      0.26s CPU      0.27s WALL (      90 calls)

     Called by c_bands:
     init_us_2    :      1.86s CPU      1.91s WALL (    5970 calls)
     init_us_2:cp :      1.85s CPU      1.90s WALL (    5970 calls)
     ccgdiagg     :    165.74s CPU    170.66s WALL (    2700 calls)
     wfcrot       :     20.55s CPU     20.94s WALL (    2340 calls)

     Called by *cgdiagg:
     h_psi        :    123.39s CPU    126.74s WALL (  233541 calls)
     s_psi        :     20.08s CPU     20.77s WALL (  464742 calls)

     Called by h_psi:
     h_psi:calbec :     15.61s CPU     16.03s WALL (  233541 calls)
     vloc_psi     :     94.65s CPU     97.21s WALL (  233541 calls)
     add_vuspsi   :     10.74s CPU     11.09s WALL (  233541 calls)
     hs_1psi      :    116.68s CPU    120.01s WALL (  231201 calls)
     s_1psi       :     24.00s CPU     24.73s WALL (  231201 calls)

     General routines
     calbec       :     29.10s CPU     30.03s WALL (  468792 calls)
     fft          :      0.55s CPU      0.58s WALL (     636 calls)
     ffts         :      0.04s CPU      0.04s WALL (     185 calls)
     fftw         :     81.72s CPU     83.78s WALL (  625302 calls)
     interpolate  :      0.11s CPU      0.11s WALL (      95 calls)
 
     Parallel routines
 
     PWSCF        :   4m17.11s CPU   4m31.83s WALL

 
   This run was terminated on:  20:31:54  14Nov2025            

=------------------------------------------------------------------------------=
   JOB DONE.
=------------------------------------------------------------------------------=
TACC:  Shutdown complete. Exiting. 
