TACC:  Starting up job 2476658 
TACC:  Starting parallel tasks... 

     Program PWSCF v.7.3 starts on 18Oct2025 at 16:24:30 

     This program is part of the open-source Quantum ESPRESSO suite
     for quantum simulation of materials; please cite
         "P. Giannozzi et al., J. Phys.:Condens. Matter 21 395502 (2009);
         "P. Giannozzi et al., J. Phys.:Condens. Matter 29 465901 (2017);
         "P. Giannozzi et al., J. Chem. Phys. 152 154105 (2020);
          URL http://www.quantum-espresso.org", 
     in publications or presentations arising from this work. More details at
     http://www.quantum-espresso.org/quote

     Parallel version (MPI & OpenMP), running on      10 processor cores
     Number of MPI processes:                10
     Threads/MPI process:                     1

     MPI processes distributed on     1 nodes
     186780 MiB available memory on the printing compute node when the environment starts
 
     Waiting for input...
     Reading input from standard input

     Current dimensions of program PWSCF are:
     Max number of different atomic species (ntypx) = 10
     Max number of k-points (npk) =  40000
     Max angular momentum in pseudopotentials (lmaxx) =  4
     Message from routine setup:
     using ibrav=0 with symmetry is DISCOURAGED, use correct ibrav instead
 
     R & G space division:  proc/nbgrp/npool/nimage =      10
     Subspace diagonalization in iterative solution of the eigenvalue problem:
     a serial algorithm will be used

 
     Parallelization info
     --------------------
     sticks:   dense  smooth     PW     G-vecs:    dense   smooth      PW
     Min         163      43     15                 4364      597     113
     Max         164      44     16                 4366      600     114
     Sum        1639     433    151                43655     5985    1139
 
     Using Slab Decomposition
 


     bravais-lattice index     =            0
     lattice parameter (alat)  =      10.2000  a.u.
     unit-cell volume          =     270.1061 (a.u.)^3
     number of atoms/cell      =            2
     number of atomic types    =            1
     number of electrons       =         8.00
     number of Kohn-Sham states=            8
     kinetic-energy cutoff     =      30.0000  Ry
     charge density cutoff     =     450.0000  Ry
     scf convergence threshold =      1.0E-08
     mixing beta               =       0.7000
     number of iterations used =            8  plain     mixing
     Exchange-correlation= SLA  PZ   NOGX NOGC
                           (   1   1   0   0   0   0   0)

     celldm(1)=  10.200000  celldm(2)=   0.000000  celldm(3)=   0.000000
     celldm(4)=   0.000000  celldm(5)=   0.000000  celldm(6)=   0.000000

     crystal axes: (cart. coord. in units of alat)
               a(1) = (  -0.503000   0.000000   0.503000 )  
               a(2) = (   0.000000   0.503000   0.503000 )  
               a(3) = (  -0.503000   0.503000   0.000000 )  

     reciprocal axes: (cart. coord. in units 2 pi/alat)
               b(1) = ( -0.994036 -0.994036  0.994036 )  
               b(2) = (  0.994036  0.994036  0.994036 )  
               b(3) = ( -0.994036  0.994036 -0.994036 )  


     PseudoPot. # 1 for Si read from file:
     /scratch/11018/zhc/Assisgnment2/Q1/1A/energy_cutoff_test/Si_LDA.UPF
     MD5 check sum: b5ade7b37ee992b02096e360e546dc2d
     Pseudo is Ultrasoft + core correction, Zval =  4.0
     Generated by new atomic code, or converted to UPF format
     Using radial grid of  899 points,  6 beta functions with: 
                l(1) =   0
                l(2) =   0
                l(3) =   1
                l(4) =   1
                l(5) =   2
                l(6) =   2
     Q(r) pseudized with  8 coefficients,  rinner =    0.900   0.900   0.900
                                                       0.900   0.900

     atomic species   valence    mass     pseudopotential
     Si                4.00    28.08550     Si( 1.00)

     48 Sym. Ops., with inversion, found (24 have fractional translation)



   Cartesian axes

     site n.     atom                  positions (alat units)
         1        Si     tau(   1) = (   0.0000000   0.0000000   0.0000000  )
         2        Si     tau(   2) = (  -0.2515000   0.2515000   0.2515000  )

     number of k points=    72
                       cart. coord. in units 2pi/alat
        k(    1) = (   0.0000000   0.0000000   0.0000000), wk =   0.0011574
        k(    2) = (  -0.0828363   0.0828363  -0.0828363), wk =   0.0092593
        k(    3) = (  -0.1656726   0.1656726  -0.1656726), wk =   0.0092593
        k(    4) = (  -0.2485089   0.2485089  -0.2485089), wk =   0.0092593
        k(    5) = (  -0.3313453   0.3313453  -0.3313453), wk =   0.0092593
        k(    6) = (  -0.4141816   0.4141816  -0.4141816), wk =   0.0092593
        k(    7) = (   0.4970179  -0.4970179   0.4970179), wk =   0.0046296
        k(    8) = (   0.0000000   0.1656726   0.0000000), wk =   0.0069444
        k(    9) = (  -0.0828363   0.2485089  -0.0828363), wk =   0.0277778
        k(   10) = (  -0.1656726   0.3313453  -0.1656726), wk =   0.0277778
        k(   11) = (  -0.2485089   0.4141816  -0.2485089), wk =   0.0277778
        k(   12) = (  -0.3313453   0.4970179  -0.3313453), wk =   0.0277778
        k(   13) = (   0.5798542  -0.4141816   0.5798542), wk =   0.0277778
        k(   14) = (   0.4970179  -0.3313453   0.4970179), wk =   0.0277778
        k(   15) = (   0.4141816  -0.2485089   0.4141816), wk =   0.0277778
        k(   16) = (   0.3313453  -0.1656726   0.3313453), wk =   0.0277778
        k(   17) = (   0.2485089  -0.0828363   0.2485089), wk =   0.0277778
        k(   18) = (   0.1656726  -0.0000000   0.1656726), wk =   0.0138889
        k(   19) = (   0.0000000   0.3313453   0.0000000), wk =   0.0069444
        k(   20) = (  -0.0828363   0.4141816  -0.0828363), wk =   0.0277778
        k(   21) = (  -0.1656726   0.4970179  -0.1656726), wk =   0.0277778
        k(   22) = (  -0.2485089   0.5798542  -0.2485089), wk =   0.0277778
        k(   23) = (   0.6626905  -0.3313453   0.6626905), wk =   0.0277778
        k(   24) = (   0.5798542  -0.2485089   0.5798542), wk =   0.0277778
        k(   25) = (   0.4970179  -0.1656726   0.4970179), wk =   0.0277778
        k(   26) = (   0.4141816  -0.0828363   0.4141816), wk =   0.0277778
        k(   27) = (   0.3313453   0.0000000   0.3313453), wk =   0.0138889
        k(   28) = (   0.0000000   0.4970179   0.0000000), wk =   0.0069444
        k(   29) = (  -0.0828363   0.5798542  -0.0828363), wk =   0.0277778
        k(   30) = (  -0.1656726   0.6626905  -0.1656726), wk =   0.0277778
        k(   31) = (   0.7455268  -0.2485089   0.7455268), wk =   0.0277778
        k(   32) = (   0.6626905  -0.1656726   0.6626905), wk =   0.0277778
        k(   33) = (   0.5798542  -0.0828363   0.5798542), wk =   0.0277778
        k(   34) = (   0.4970179   0.0000000   0.4970179), wk =   0.0138889
        k(   35) = (   0.0000000   0.6626905   0.0000000), wk =   0.0069444
        k(   36) = (  -0.0828363   0.7455268  -0.0828363), wk =   0.0277778
        k(   37) = (   0.8283632  -0.1656726   0.8283632), wk =   0.0277778
        k(   38) = (   0.7455268  -0.0828363   0.7455268), wk =   0.0277778
        k(   39) = (   0.6626905  -0.0000000   0.6626905), wk =   0.0138889
        k(   40) = (   0.0000000   0.8283632   0.0000000), wk =   0.0069444
        k(   41) = (   0.9111995  -0.0828363   0.9111995), wk =   0.0277778
        k(   42) = (   0.8283632   0.0000000   0.8283632), wk =   0.0138889
        k(   43) = (   0.0000000  -0.9940358   0.0000000), wk =   0.0034722
        k(   44) = (  -0.1656726   0.3313453   0.0000000), wk =   0.0277778
        k(   45) = (  -0.2485089   0.4141816  -0.0828363), wk =   0.0555556
        k(   46) = (  -0.3313453   0.4970179  -0.1656726), wk =   0.0555556
        k(   47) = (   0.5798542  -0.4141816   0.7455268), wk =   0.0555556
        k(   48) = (   0.4970179  -0.3313453   0.6626905), wk =   0.0277778
        k(   49) = (  -0.1656726   0.4970179   0.0000000), wk =   0.0277778
        k(   50) = (  -0.2485089   0.5798542  -0.0828363), wk =   0.0555556
        k(   51) = (   0.6626905  -0.3313453   0.8283632), wk =   0.0555556
        k(   52) = (   0.5798542  -0.2485089   0.7455268), wk =   0.0555556
        k(   53) = (   0.4970179  -0.1656726   0.6626905), wk =   0.0555556
        k(   54) = (   0.4141816  -0.0828363   0.5798542), wk =   0.0555556
        k(   55) = (   0.3313453   0.0000000   0.4970179), wk =   0.0277778
        k(   56) = (  -0.1656726   0.6626905   0.0000000), wk =   0.0277778
        k(   57) = (   0.7455268  -0.2485089   0.9111995), wk =   0.0555556
        k(   58) = (   0.6626905  -0.1656726   0.8283632), wk =   0.0555556
        k(   59) = (   0.5798542  -0.0828363   0.7455268), wk =   0.0555556
        k(   60) = (   0.4970179   0.0000000   0.6626905), wk =   0.0277778
        k(   61) = (   0.8283632  -0.1656726   0.9940358), wk =   0.0277778
        k(   62) = (   0.7455268  -0.0828363   0.9111995), wk =   0.0555556
        k(   63) = (   0.6626905  -0.0000000   0.8283632), wk =   0.0277778
        k(   64) = (  -0.1656726  -0.9940358  -0.0000000), wk =   0.0138889
        k(   65) = (   0.6626905  -0.3313453   0.9940358), wk =   0.0277778
        k(   66) = (   0.5798542  -0.2485089   0.9111995), wk =   0.0555556
        k(   67) = (   0.4970179  -0.1656726   0.8283632), wk =   0.0277778
        k(   68) = (   0.6626905  -0.1656726   0.9940358), wk =   0.0277778
        k(   69) = (   0.5798542  -0.0828363   0.9111995), wk =   0.0555556
        k(   70) = (   0.4970179   0.0000000   0.8283632), wk =   0.0277778
        k(   71) = (  -0.3313453  -0.9940358   0.0000000), wk =   0.0138889
        k(   72) = (  -0.4970179  -0.9940358   0.0000000), wk =   0.0069444

     Dense  grid:    43655 G-vectors     FFT dimensions: (  50,  50,  50)

     Smooth grid:     5985 G-vectors     FFT dimensions: (  25,  25,  25)

     Estimated max dynamical RAM per process >      18.43 MB

     Estimated total dynamical RAM >     184.31 MB

     Initial potential from superposition of free atoms

     starting charge       7.9988, renormalised to       8.0000
     Starting wfcs are    8 randomized atomic wfcs

     total cpu time spent up to now is        0.3 secs

     Self-consistent Calculation

     iteration #  1     ecut=    30.00 Ry     beta= 0.70
     CG style diagonalization
     ethr =  1.00E-02,  avg # of iterations =  3.6

     Threshold (ethr) on eigenvalues was too large:
     Diagonalizing with lowered threshold

     CG style diagonalization
     ethr =  7.10E-04,  avg # of iterations =  2.0

     total cpu time spent up to now is        1.1 secs

     total energy              =     -19.25689900 Ry
     estimated scf accuracy    <       0.05755821 Ry

     iteration #  2     ecut=    30.00 Ry     beta= 0.70
     CG style diagonalization
     ethr =  7.19E-04,  avg # of iterations =  3.0

     total cpu time spent up to now is        1.4 secs

     total energy              =     -19.26006955 Ry
     estimated scf accuracy    <       0.00171248 Ry

     iteration #  3     ecut=    30.00 Ry     beta= 0.70
     CG style diagonalization
     ethr =  2.14E-05,  avg # of iterations =  3.7

     total cpu time spent up to now is        1.9 secs

     total energy              =     -19.26027445 Ry
     estimated scf accuracy    <       0.00003696 Ry

     iteration #  4     ecut=    30.00 Ry     beta= 0.70
     CG style diagonalization
     c_bands:  1 eigenvalues not converged
     ethr =  4.62E-07,  avg # of iterations =  4.4

     total cpu time spent up to now is        2.4 secs

     total energy              =     -19.26030962 Ry
     estimated scf accuracy    <       0.00000010 Ry

     iteration #  5     ecut=    30.00 Ry     beta= 0.70
     CG style diagonalization
     ethr =  1.21E-09,  avg # of iterations =  4.2

     total cpu time spent up to now is        2.8 secs

     End of self-consistent calculation

          k = 0.0000 0.0000 0.0000 (   749 PWs)   bands (ev):

    -5.9548   6.0115   6.0115   6.0115   8.5399   8.5399   8.5399   9.1982

          k =-0.0828 0.0828-0.0828 (   737 PWs)   bands (ev):

    -5.8638   5.1405   5.8673   5.8673   8.5540   8.7514   8.7514   9.8896

          k =-0.1657 0.1657-0.1657 (   748 PWs)   bands (ev):

    -5.5935   3.6119   5.5604   5.5604   8.2692   9.1863   9.1863  11.3184

          k =-0.2485 0.2485-0.2485 (   754 PWs)   bands (ev):

    -5.1547   2.0640   5.2517   5.2517   7.9347   9.4800   9.4800  12.7679

          k =-0.3313 0.3313-0.3313 (   757 PWs)   bands (ev):

    -4.5767   0.6559   5.0120   5.0120   7.6633   9.4801   9.4801  13.6917

          k =-0.4142 0.4142-0.4142 (   760 PWs)   bands (ev):

    -3.9540  -0.4760   4.8643   4.8643   7.4926   9.3669   9.3669  13.6170

          k = 0.4970-0.4970 0.4970 (   754 PWs)   bands (ev):

    -3.6174  -0.9839   4.8148   4.8148   7.4348   9.3122   9.3122  13.5318

          k = 0.0000 0.1657 0.0000 (   733 PWs)   bands (ev):

    -5.8333   5.3030   5.5793   5.5793   8.2519   9.1190   9.1190   9.8538

          k =-0.0828 0.2485-0.0828 (   755 PWs)   bands (ev):

    -5.6223   4.0664   5.2150   5.4016   8.2652   9.1707   9.6554  10.7914

          k =-0.1657 0.3313-0.1657 (   753 PWs)   bands (ev):

    -5.2381   2.5627   4.9024   5.0750   8.3711   9.1681  10.0392  11.3272

          k =-0.2485 0.4142-0.2485 (   758 PWs)   bands (ev):

    -4.7015   1.1254   4.6934   4.7206   8.2129   9.2577  10.0622  11.9015

          k =-0.3313 0.4970-0.3313 (   757 PWs)   bands (ev):

    -4.0743  -0.1066   4.4241   4.6047   8.0425   9.2233   9.8666  12.9337

          k = 0.5799-0.4142 0.5799 (   751 PWs)   bands (ev):

    -3.5806  -0.8793   4.2190   4.6365   7.9603   9.2234   9.6663  13.7618

          k = 0.4970-0.3313 0.4970 (   754 PWs)   bands (ev):

    -3.7024  -0.7006   4.1234   4.7802   7.9867   9.3401   9.5551  13.8572

          k = 0.4142-0.2485 0.4142 (   752 PWs)   bands (ev):

    -4.2869   0.2744   4.1503   5.0201   8.1207   9.5234   9.5513  13.3614

          k = 0.3313-0.1657 0.3313 (   752 PWs)   bands (ev):

    -4.8961   1.5901   4.3099   5.3301   8.3502   9.4433   9.7062  12.4114

          k = 0.2485-0.0828 0.2485 (   756 PWs)   bands (ev):

    -5.3853   3.0501   4.6147   5.6593   8.6419   9.1449   9.4905  11.6289

          k = 0.1657-0.0000 0.1657 (   747 PWs)   bands (ev):

    -5.7128   4.4057   5.1405   5.8944   8.7885   8.8739   8.9245  10.7059

          k = 0.0000 0.3313 0.0000 (   753 PWs)   bands (ev):

    -5.4706   3.9530   4.8154   4.8154   7.6465  10.2018  10.3162  10.3162

          k =-0.0828 0.4142-0.0828 (   750 PWs)   bands (ev):

    -5.1434   2.8683   4.4614   4.4812   7.6634   9.8146  10.6397  10.8757

          k =-0.1657 0.4970-0.1657 (   750 PWs)   bands (ev):

    -4.6549   1.5583   4.0023   4.2631   7.9001   9.9911  10.4667  11.0436

          k =-0.2485 0.5799-0.2485 (   754 PWs)   bands (ev):

    -4.0460   0.3225   3.5602   4.1799   7.9393  10.1922  10.8650  10.9808

          k = 0.6627-0.3313 0.6627 (   752 PWs)   bands (ev):

    -3.4599  -0.6143   3.2144   4.2345   7.9682  10.0446  10.5928  12.3462

          k = 0.5799-0.2485 0.5799 (   749 PWs)   bands (ev):

    -3.3445  -0.7751   2.9997   4.4193   8.1131   9.9944  10.3664  13.8851

          k = 0.4970-0.1657 0.4970 (   757 PWs)   bands (ev):

    -3.8465  -0.0133   2.9426   4.7150   8.3804  10.0488  10.2002  13.1794

          k = 0.4142-0.0828 0.4142 (   748 PWs)   bands (ev):

    -4.4724   1.1356   3.0868   5.0838   8.7166   9.9723  10.1079  12.0251

          k = 0.3313 0.0000 0.3313 (   748 PWs)   bands (ev):

    -5.0050   2.2778   3.5795   5.4483   8.9779   9.5310   9.7819  11.5627

          k = 0.0000 0.4970 0.0000 (   729 PWs)   bands (ev):

    -4.8727   2.4776   4.1186   4.1186   7.0575   9.0523  11.7166  11.7167

          k =-0.0828 0.5799-0.0828 (   743 PWs)   bands (ev):

    -4.4360   1.5704   3.6454   3.8723   7.1416   8.6986  11.9880  12.1967

          k =-0.1657 0.6627-0.1657 (   752 PWs)   bands (ev):

    -3.8601   0.5429   3.0040   3.7656   7.3560   9.1774  11.8399  12.1592

          k = 0.7455-0.2485 0.7455 (   748 PWs)   bands (ev):

    -3.2343  -0.3844   2.4526   3.8049   7.4408  10.3780  11.6644  11.8848

          k = 0.6627-0.1657 0.6627 (   743 PWs)   bands (ev):

    -2.9082  -0.8010   2.0872   3.9855   7.6207  11.3736  11.5884  12.0925

          k = 0.5799-0.0828 0.5799 (   749 PWs)   bands (ev):

    -3.2858  -0.3051   1.9662   4.2910   7.9483  11.2875  11.3545  13.0733

          k = 0.4970 0.0000 0.4970 (   754 PWs)   bands (ev):

    -3.9094   0.5185   2.2309   4.6841   8.3799  10.7558  11.0557  12.0330

          k = 0.0000 0.6627 0.0000 (   749 PWs)   bands (ev):

    -4.0505   0.9887   3.5912   3.5912   6.6456   7.9066  13.2078  13.2078

          k =-0.0828 0.7455-0.0828 (   752 PWs)   bands (ev):

    -3.5156   0.2051   3.0961   3.4487   6.8087   7.7793  13.5151  13.5799

          k = 0.8284-0.1657 0.8284 (   749 PWs)   bands (ev):

    -2.8857  -0.5617   2.3564   3.4552   6.9789   8.6450  13.3935  13.4049

          k = 0.7455-0.0828 0.7455 (   744 PWs)   bands (ev):

    -2.4143  -1.0537   1.7707   3.6094   7.1560  10.0942  13.0545  13.2196

          k = 0.6627-0.0000 0.6627 (   740 PWs)   bands (ev):

    -2.6867  -0.7683   1.5664   3.8985   7.4861  11.7288  12.4319  12.9916

          k = 0.0000 0.8284 0.0000 (   749 PWs)   bands (ev):

    -3.0213  -0.4588   3.2663   3.2663   6.4852   7.0872  14.7507  14.7508

          k = 0.9112-0.0828 0.9112 (   749 PWs)   bands (ev):

    -2.4077  -1.1453   2.8245   3.2328   6.6857   7.2611  15.0000  15.0776

          k = 0.8284 0.0000 0.8284 (   744 PWs)   bands (ev):

    -1.9496  -1.5497   2.1415   3.3501   6.8456   8.4715  14.4561  14.9334

          k = 0.0000-0.9940 0.0000 (   740 PWs)   bands (ev):

    -1.8116  -1.8116   3.1568   3.1568   6.6209   6.6209  15.9878  15.9878

          k =-0.1657 0.3313 0.0000 (   752 PWs)   bands (ev):

    -5.3534   3.2669   4.3658   5.3028   8.2885   9.4861  10.1198  10.8393

          k =-0.2485 0.4142-0.0828 (   756 PWs)   bands (ev):

    -4.9168   2.0256   3.8294   5.0275   8.5618   9.4581  10.5221  10.8285

          k =-0.3313 0.4970-0.1657 (   751 PWs)   bands (ev):

    -4.3407   0.7227   3.5586   4.6998   8.5908   9.3396  10.5808  11.4769

          k = 0.5799-0.4142 0.7455 (   752 PWs)   bands (ev):

    -3.7169  -0.3694   3.4307   4.4535   8.5296   9.1485  10.5009  12.6859

          k = 0.4970-0.3313 0.6627 (   748 PWs)   bands (ev):

    -3.3762  -0.8701   3.3949   4.3619   8.5065   9.0629  10.4558  13.9525

          k =-0.1657 0.4970 0.0000 (   748 PWs)   bands (ev):

    -4.7621   2.0760   3.6684   4.3800   7.7279   9.4492  10.7699  11.5935

          k =-0.2485 0.5799-0.0828 (   750 PWs)   bands (ev):

    -4.2290   1.0269   3.1254   4.0896   8.0583   9.6736  10.5052  11.9754

          k = 0.6627-0.3313 0.8284 (   750 PWs)   bands (ev):

    -3.6021  -0.0289   2.7658   3.8783   8.1748  10.1487  10.7418  11.9560

          k = 0.5799-0.2485 0.7455 (   746 PWs)   bands (ev):

    -3.1027  -0.7382   2.5186   3.8603   8.3021   9.8738  11.8466  12.2065

          k = 0.4970-0.1657 0.6627 (   748 PWs)   bands (ev):

    -3.2391  -0.5502   2.3994   4.0336   8.5534   9.6849  11.7595  12.5956

          k = 0.4142-0.0828 0.5799 (   753 PWs)   bands (ev):

    -3.8316   0.3296   2.4729   4.3519   8.9162   9.5472  11.2199  11.7152

          k = 0.3313 0.0000 0.4970 (   756 PWs)   bands (ev):

    -4.4352   1.3093   2.8897   4.7356   9.1594   9.3003  10.5984  11.2858

          k =-0.1657 0.6627 0.0000 (   754 PWs)   bands (ev):

    -3.9515   0.8142   3.1582   3.5926   7.3219   8.3981  12.0057  13.1560

          k = 0.7455-0.2485 0.9112 (   750 PWs)   bands (ev):

    -3.3451  -0.0195   2.5621   3.3731   7.6535   8.9357  11.7014  13.5205

          k = 0.6627-0.1657 0.8284 (   746 PWs)   bands (ev):

    -2.7538  -0.7350   2.0353   3.3810   7.8056  10.2326  11.4054  13.4487

          k = 0.5799-0.0828 0.7455 (   743 PWs)   bands (ev):

    -2.6816  -0.8067   1.7438   3.5804   8.0638  10.9934  11.9834  12.6617

          k = 0.4970 0.0000 0.6627 (   743 PWs)   bands (ev):

    -3.2207  -0.2159   1.8306   3.9272   8.4594  10.5867  11.4314  12.7784

          k = 0.8284-0.1657 0.9940 (   745 PWs)   bands (ev):

    -2.9434  -0.4945   2.8747   3.0746   7.1456   7.6525  13.3735  14.7453

          k = 0.7455-0.0828 0.9112 (   745 PWs)   bands (ev):

    -2.3135  -1.1361   2.2355   3.0294   7.4357   8.5691  13.0523  14.5174

          k = 0.6627-0.0000 0.8284 (   745 PWs)   bands (ev):

    -2.1561  -1.2508   1.7307   3.2273   7.6744  10.1011  12.5957  12.9774

          k =-0.1657-0.9940-0.0000 (   754 PWs)   bands (ev):

    -1.7728  -1.7728   2.8406   2.8406   7.2440   7.2440  14.8296  14.8296

          k = 0.6627-0.3313 0.9940 (   748 PWs)   bands (ev):

    -3.6641   0.3572   2.4173   3.7052   8.7919   9.6409  10.1740  13.0080

          k = 0.5799-0.2485 0.9112 (   746 PWs)   bands (ev):

    -3.0386  -0.4125   2.0677   3.3650   9.1616   9.7021  10.6867  13.4347

          k = 0.4970-0.1657 0.8284 (   738 PWs)   bands (ev):

    -2.6764  -0.8432   1.9742   3.2346   9.2885   9.4926  12.0298  12.4478

          k = 0.6627-0.1657 0.9940 (   746 PWs)   bands (ev):

    -2.7281  -0.6376   2.2184   2.8432   8.6157   9.0123  11.3204  14.2317

          k = 0.5799-0.0828 0.9112 (   745 PWs)   bands (ev):

    -2.2035  -1.1436   1.8987   2.6870   8.9545  10.2170  11.0452  12.4256

          k = 0.4970 0.0000 0.8284 (   745 PWs)   bands (ev):

    -2.4348  -0.9145   1.7724   2.9138   9.2572  10.4107  10.9304  12.1739

          k =-0.3313-0.9940 0.0000 (   742 PWs)   bands (ev):

    -1.6895  -1.6895   2.3436   2.3436   8.6782   8.6782  12.6941  12.6942

          k =-0.4970-0.9940 0.0000 (   744 PWs)   bands (ev):

    -1.6446  -1.6446   2.1320   2.1320  10.1997  10.1997  10.9374  10.9374

     highest occupied, lowest unoccupied level (ev):     6.0115    6.4852

!    total energy              =     -19.26031010 Ry
     estimated scf accuracy    <          2.2E-09 Ry

     The total energy is the sum of the following terms:
     one-electron contribution =       5.04564385 Ry
     hartree contribution      =       1.11376311 Ry
     xc contribution           =      -8.62075229 Ry
     ewald contribution        =     -16.79896478 Ry

     convergence has been achieved in   5 iterations

     Forces acting on atoms (cartesian axes, Ry/au):

     atom    1 type  1   force =     0.00000000    0.00000000    0.00000000
     atom    2 type  1   force =     0.00000000    0.00000000    0.00000000

     Total force =     0.000000     Total SCF correction =     0.000000


     Computing stress (Cartesian axis) and pressure

          total   stress  (Ry/bohr**3)                   (kbar)     P=      -15.33
  -0.00010419   0.00000000  -0.00000000          -15.33        0.00       -0.00
   0.00000000  -0.00010419   0.00000000            0.00      -15.33        0.00
   0.00000000   0.00000000  -0.00010419            0.00        0.00      -15.33


     Writing all to output data dir ./Si_isotropic_eta0p006.save/ :
     XML data file, charge density, pseudopotentials, collected wavefunctions
 
     init_run     :      0.14s CPU      0.20s WALL (       1 calls)
     electrons    :      2.30s CPU      2.52s WALL (       1 calls)
     forces       :      0.03s CPU      0.04s WALL (       1 calls)
     stress       :      0.20s CPU      0.20s WALL (       1 calls)

     Called by init_run:
     wfcinit      :      0.06s CPU      0.08s WALL (       1 calls)
     potinit      :      0.00s CPU      0.01s WALL (       1 calls)
     hinit0       :      0.04s CPU      0.06s WALL (       1 calls)

     Called by electrons:
     c_bands      :      1.97s CPU      2.14s WALL (       6 calls)
     sum_band     :      0.26s CPU      0.28s WALL (       6 calls)
     v_of_rho     :      0.00s CPU      0.01s WALL (       6 calls)
     newd         :      0.06s CPU      0.08s WALL (       6 calls)
     mix_rho      :      0.00s CPU      0.01s WALL (       6 calls)

     Called by c_bands:
     init_us_2    :      0.03s CPU      0.03s WALL (    1080 calls)
     init_us_2:cp :      0.02s CPU      0.03s WALL (    1080 calls)
     ccgdiagg     :      1.74s CPU      1.89s WALL (     432 calls)
     wfcrot       :      0.25s CPU      0.29s WALL (     360 calls)

     Called by *cgdiagg:
     h_psi        :      1.16s CPU      1.26s WALL (   10169 calls)
     s_psi        :      0.08s CPU      0.09s WALL (   19978 calls)

     Called by h_psi:
     h_psi:calbec :      0.16s CPU      0.18s WALL (   10169 calls)
     vloc_psi     :      0.88s CPU      0.95s WALL (   10169 calls)
     add_vuspsi   :      0.04s CPU      0.05s WALL (   10169 calls)
     hs_1psi      :      1.05s CPU      1.14s WALL (    9809 calls)
     s_1psi       :      0.22s CPU      0.23s WALL (    9809 calls)

     General routines
     calbec       :      0.29s CPU      0.31s WALL (   20770 calls)
     fft          :      0.01s CPU      0.03s WALL (      43 calls)
     ffts         :      0.00s CPU      0.00s WALL (      12 calls)
     fftw         :      0.79s CPU      0.86s WALL (   28834 calls)
     interpolate  :      0.00s CPU      0.01s WALL (       6 calls)
 
     Parallel routines
 
     PWSCF        :      2.78s CPU      3.47s WALL

 
   This run was terminated on:  16:24:34  18Oct2025            

=------------------------------------------------------------------------------=
   JOB DONE.
=------------------------------------------------------------------------------=
TACC:  Shutdown complete. Exiting. 
