TACC:  Starting up job 2560857 
TACC:  Starting parallel tasks... 

     Program PWSCF v.7.3 starts on 18Nov2025 at  0:18:16 

     This program is part of the open-source Quantum ESPRESSO suite
     for quantum simulation of materials; please cite
         "P. Giannozzi et al., J. Phys.:Condens. Matter 21 395502 (2009);
         "P. Giannozzi et al., J. Phys.:Condens. Matter 29 465901 (2017);
         "P. Giannozzi et al., J. Chem. Phys. 152 154105 (2020);
          URL http://www.quantum-espresso.org", 
     in publications or presentations arising from this work. More details at
     http://www.quantum-espresso.org/quote

     Parallel version (MPI & OpenMP), running on      10 processor cores
     Number of MPI processes:                10
     Threads/MPI process:                     1

     MPI processes distributed on     1 nodes
     183952 MiB available memory on the printing compute node when the environment starts
 
     Waiting for input...
     Reading input from standard input
Warning: card &CELL ignored
Warning: card  CELL_DYNAMICS = 'BFGS', ignored
Warning: card  PRESS=0.D0, ignored
Warning: card / ignored

     Current dimensions of program PWSCF are:
     Max number of different atomic species (ntypx) = 10
     Max number of k-points (npk) =  40000
     Max angular momentum in pseudopotentials (lmaxx) =  4
     Message from routine setup:
     using ibrav=0 with symmetry is DISCOURAGED, use correct ibrav instead
 
     R & G space division:  proc/nbgrp/npool/nimage =      10
     Subspace diagonalization in iterative solution of the eigenvalue problem:
     a serial algorithm will be used

 
     Parallelization info
     --------------------
     sticks:   dense  smooth     PW     G-vecs:    dense   smooth      PW
     Min         209      84     25                 7667     1940     321
     Max         210      85     26                 7672     1945     324
     Sum        2093     845    253                76683    19431    3231
 
     Using Slab Decomposition
 


     bravais-lattice index     =            0
     lattice parameter (alat)  =       7.2859  a.u.
     unit-cell volume          =     406.2746 (a.u.)^3
     number of atoms/cell      =            5
     number of atomic types    =            3
     number of electrons       =        44.00
     number of Kohn-Sham states=           22
     kinetic-energy cutoff     =      50.0000  Ry
     charge density cutoff     =     500.0000  Ry
     scf convergence threshold =      1.0E-08
     mixing beta               =       0.7000
     number of iterations used =            8  plain     mixing
     energy convergence thresh.=      1.0E-04
     force convergence thresh. =      1.0E-03
     Exchange-correlation= SLA  PZ   NOGX NOGC
                           (   1   1   0   0   0   0   0)
     nstep                     =           50


     celldm(1)=   7.285877  celldm(2)=   0.000000  celldm(3)=   0.000000
     celldm(4)=   0.000000  celldm(5)=   0.000000  celldm(6)=   0.000000

     crystal axes: (cart. coord. in units of alat)
               a(1) = (   1.000000   0.000000   0.000000 )  
               a(2) = (   0.000000   1.000000   0.000000 )  
               a(3) = (   0.000000   0.000000   1.050447 )  

     reciprocal axes: (cart. coord. in units 2 pi/alat)
               b(1) = (  1.000000  0.000000  0.000000 )  
               b(2) = (  0.000000  1.000000  0.000000 )  
               b(3) = (  0.000000  0.000000  0.951976 )  


     PseudoPot. # 1 for Pb read from file:
     /scratch/11018/zhc/assisgnment3/input_files/Pb_LDA.UPF
     MD5 check sum: 062a37469794d955244864f8fe2e5624
     Pseudo is Ultrasoft + core correction, Zval = 14.0
     Generated by new atomic code, or converted to UPF format
     Using radial grid of  899 points,  6 beta functions with: 
                l(1) =   0
                l(2) =   0
                l(3) =   1
                l(4) =   1
                l(5) =   2
                l(6) =   2
     Q(r) pseudized with  6 coefficients,  rinner =    1.000   1.000   1.000
                                                       1.000   1.000

     PseudoPot. # 2 for Ti read from file:
     /scratch/11018/zhc/assisgnment3/input_files/Ti_LDA.UPF
     MD5 check sum: 0d9f225c038fe889ca2a701dcc8d72cb
     Pseudo is Ultrasoft + core correction, Zval = 12.0
     Generated by new atomic code, or converted to UPF format
     Using radial grid of  851 points,  6 beta functions with: 
                l(1) =   0
                l(2) =   0
                l(3) =   1
                l(4) =   1
                l(5) =   2
                l(6) =   2
     Q(r) pseudized with  6 coefficients,  rinner =    1.000   1.000   1.000
                                                       1.000   1.000

     PseudoPot. # 3 for O  read from file:
     /scratch/11018/zhc/assisgnment3/input_files/O_LDA.UPF
     MD5 check sum: 194b818514d2a7dbb603bb78519a4f40
     Pseudo is Ultrasoft + core correction, Zval =  6.0
     Generated by new atomic code, or converted to UPF format
     Using radial grid of  737 points,  5 beta functions with: 
                l(1) =   0
                l(2) =   0
                l(3) =   1
                l(4) =   1
                l(5) =   2
     Q(r) pseudized with  8 coefficients,  rinner =    0.900   0.900   0.900
                                                       0.900   0.900

     atomic species   valence    mass     pseudopotential
     Pb               14.00   207.20000     Pb( 1.00)
     Ti               12.00    47.88000     Ti( 1.00)
     O                 6.00    16.00000     O ( 1.00)

      8 Sym. Ops. (no inversion) found



   Cartesian axes

     site n.     atom                  positions (alat units)
         1        Pb     tau(   1) = (   0.0000000   0.0000000   1.0558820  )
         2        Ti     tau(   2) = (   0.5000000   0.5000000   0.5667524  )
         3        O      tau(   3) = (   0.5000000   0.5000000   0.1045278  )
         4        O      tau(   4) = (   0.5000000   0.0000000   0.6423842  )
         5        O      tau(   5) = (   0.0000000   0.5000000   0.6423842  )

     number of k points=    30
                       cart. coord. in units 2pi/alat
        k(    1) = (   0.0000000   0.0000000   0.0000000), wk =   0.0138889
        k(    2) = (   0.0000000   0.0000000   0.2379939), wk =   0.0277778
        k(    3) = (   0.0000000   0.0000000  -0.4759878), wk =   0.0138889
        k(    4) = (   0.0000000   0.1666667   0.0000000), wk =   0.0555556
        k(    5) = (   0.0000000   0.1666667   0.2379939), wk =   0.1111111
        k(    6) = (   0.0000000   0.1666667  -0.4759878), wk =   0.0555556
        k(    7) = (   0.0000000   0.3333333   0.0000000), wk =   0.0555556
        k(    8) = (   0.0000000   0.3333333   0.2379939), wk =   0.1111111
        k(    9) = (   0.0000000   0.3333333  -0.4759878), wk =   0.0555556
        k(   10) = (   0.0000000  -0.5000000   0.0000000), wk =   0.0277778
        k(   11) = (   0.0000000  -0.5000000   0.2379939), wk =   0.0555556
        k(   12) = (   0.0000000  -0.5000000  -0.4759878), wk =   0.0277778
        k(   13) = (   0.1666667   0.1666667   0.0000000), wk =   0.0555556
        k(   14) = (   0.1666667   0.1666667   0.2379939), wk =   0.1111111
        k(   15) = (   0.1666667   0.1666667  -0.4759878), wk =   0.0555556
        k(   16) = (   0.1666667   0.3333333   0.0000000), wk =   0.1111111
        k(   17) = (   0.1666667   0.3333333   0.2379939), wk =   0.2222222
        k(   18) = (   0.1666667   0.3333333  -0.4759878), wk =   0.1111111
        k(   19) = (   0.1666667  -0.5000000   0.0000000), wk =   0.0555556
        k(   20) = (   0.1666667  -0.5000000   0.2379939), wk =   0.1111111
        k(   21) = (   0.1666667  -0.5000000  -0.4759878), wk =   0.0555556
        k(   22) = (   0.3333333   0.3333333   0.0000000), wk =   0.0555556
        k(   23) = (   0.3333333   0.3333333   0.2379939), wk =   0.1111111
        k(   24) = (   0.3333333   0.3333333  -0.4759878), wk =   0.0555556
        k(   25) = (   0.3333333  -0.5000000   0.0000000), wk =   0.0555556
        k(   26) = (   0.3333333  -0.5000000   0.2379939), wk =   0.1111111
        k(   27) = (   0.3333333  -0.5000000  -0.4759878), wk =   0.0555556
        k(   28) = (  -0.5000000  -0.5000000   0.0000000), wk =   0.0138889
        k(   29) = (  -0.5000000  -0.5000000   0.2379939), wk =   0.0277778
        k(   30) = (  -0.5000000  -0.5000000  -0.4759878), wk =   0.0138889

     Dense  grid:    76683 G-vectors     FFT dimensions: (  54,  54,  60)

     Smooth grid:    19431 G-vectors     FFT dimensions: (  36,  36,  36)

     Estimated max dynamical RAM per process >      36.52 MB

     Estimated total dynamical RAM >     365.25 MB

     Check: negative core charge=   -0.000004

     Initial potential from superposition of free atoms

     starting charge      42.9982, renormalised to      44.0000

     negative rho (up, down):  1.669E-02 0.000E+00
     Starting wfcs are   31 randomized atomic wfcs

     total cpu time spent up to now is        0.7 secs

     Self-consistent Calculation

     iteration #  1     ecut=    50.00 Ry     beta= 0.70
     CG style diagonalization
     ethr =  1.00E-02,  avg # of iterations =  2.1

     negative rho (up, down):  1.400E-02 0.000E+00

     total cpu time spent up to now is        1.2 secs

     total energy              =    -380.06600606 Ry
     estimated scf accuracy    <       1.01750716 Ry

     iteration #  2     ecut=    50.00 Ry     beta= 0.70
     CG style diagonalization
     ethr =  2.31E-03,  avg # of iterations =  4.8

     negative rho (up, down):  1.452E-02 0.000E+00

     total cpu time spent up to now is        2.2 secs

     total energy              =    -379.76478399 Ry
     estimated scf accuracy    <       3.86125560 Ry

     iteration #  3     ecut=    50.00 Ry     beta= 0.70
     CG style diagonalization
     ethr =  2.31E-03,  avg # of iterations =  4.3

     negative rho (up, down):  1.513E-02 0.000E+00

     total cpu time spent up to now is        3.0 secs

     total energy              =    -380.53698294 Ry
     estimated scf accuracy    <       0.31065330 Ry

     iteration #  4     ecut=    50.00 Ry     beta= 0.70
     CG style diagonalization
     ethr =  7.06E-04,  avg # of iterations =  3.4

     negative rho (up, down):  1.512E-02 0.000E+00

     total cpu time spent up to now is        3.7 secs

     total energy              =    -380.56026166 Ry
     estimated scf accuracy    <       0.04099527 Ry

     iteration #  5     ecut=    50.00 Ry     beta= 0.70
     CG style diagonalization
     ethr =  9.32E-05,  avg # of iterations =  3.9

     negative rho (up, down):  1.512E-02 0.000E+00

     total cpu time spent up to now is        4.5 secs

     total energy              =    -380.57165785 Ry
     estimated scf accuracy    <       0.00787682 Ry

     iteration #  6     ecut=    50.00 Ry     beta= 0.70
     CG style diagonalization
     ethr =  1.79E-05,  avg # of iterations =  3.8

     negative rho (up, down):  1.512E-02 0.000E+00

     total cpu time spent up to now is        5.2 secs

     total energy              =    -380.57360907 Ry
     estimated scf accuracy    <       0.00596528 Ry

     iteration #  7     ecut=    50.00 Ry     beta= 0.70
     CG style diagonalization
     ethr =  1.36E-05,  avg # of iterations =  3.3

     negative rho (up, down):  1.514E-02 0.000E+00

     total cpu time spent up to now is        5.9 secs

     total energy              =    -380.57363886 Ry
     estimated scf accuracy    <       0.00155123 Ry

     iteration #  8     ecut=    50.00 Ry     beta= 0.70
     CG style diagonalization
     ethr =  3.53E-06,  avg # of iterations =  3.6

     negative rho (up, down):  1.516E-02 0.000E+00

     total cpu time spent up to now is        6.6 secs

     total energy              =    -380.57398378 Ry
     estimated scf accuracy    <       0.00001000 Ry

     iteration #  9     ecut=    50.00 Ry     beta= 0.70
     CG style diagonalization
     c_bands:  1 eigenvalues not converged
     c_bands:  1 eigenvalues not converged
     ethr =  2.27E-08,  avg # of iterations =  7.6

     negative rho (up, down):  1.519E-02 0.000E+00

     total cpu time spent up to now is        8.1 secs

     total energy              =    -380.57404281 Ry
     estimated scf accuracy    <       0.00002999 Ry

     iteration # 10     ecut=    50.00 Ry     beta= 0.70
     CG style diagonalization
     ethr =  2.27E-08,  avg # of iterations =  3.4

     negative rho (up, down):  1.531E-02 0.000E+00

     total cpu time spent up to now is        8.7 secs

     total energy              =    -380.57403597 Ry
     estimated scf accuracy    <       0.00001825 Ry

     iteration # 11     ecut=    50.00 Ry     beta= 0.70
     CG style diagonalization
     ethr =  2.27E-08,  avg # of iterations =  4.1

     negative rho (up, down):  1.530E-02 0.000E+00

     total cpu time spent up to now is        9.5 secs

     total energy              =    -380.57404037 Ry
     estimated scf accuracy    <       0.00000209 Ry

     iteration # 12     ecut=    50.00 Ry     beta= 0.70
     CG style diagonalization
     ethr =  4.74E-09,  avg # of iterations =  4.4

     negative rho (up, down):  1.530E-02 0.000E+00

     total cpu time spent up to now is       10.4 secs

     total energy              =    -380.57404124 Ry
     estimated scf accuracy    <       0.00000006 Ry

     iteration # 13     ecut=    50.00 Ry     beta= 0.70
     CG style diagonalization
     c_bands:  1 eigenvalues not converged
     c_bands:  1 eigenvalues not converged
     ethr =  1.26E-10,  avg # of iterations = 11.0

     negative rho (up, down):  1.530E-02 0.000E+00

     total cpu time spent up to now is       12.5 secs

     total energy              =    -380.57404198 Ry
     estimated scf accuracy    <       0.00000008 Ry

     iteration # 14     ecut=    50.00 Ry     beta= 0.70
     CG style diagonalization
     ethr =  1.26E-10,  avg # of iterations =  3.6

     negative rho (up, down):  1.531E-02 0.000E+00

     total cpu time spent up to now is       13.2 secs

     total energy              =    -380.57404197 Ry
     estimated scf accuracy    <       0.00000004 Ry

     iteration # 15     ecut=    50.00 Ry     beta= 0.70
     CG style diagonalization
     ethr =  8.94E-11,  avg # of iterations =  4.3

     negative rho (up, down):  1.531E-02 0.000E+00

     total cpu time spent up to now is       14.1 secs

     total energy              =    -380.57404198 Ry
     estimated scf accuracy    <       0.00000003 Ry

     iteration # 16     ecut=    50.00 Ry     beta= 0.70
     CG style diagonalization
     ethr =  5.92E-11,  avg # of iterations =  3.9

     negative rho (up, down):  1.531E-02 0.000E+00

     total cpu time spent up to now is       14.8 secs

     End of self-consistent calculation

          k = 0.0000 0.0000 0.0000 (  2421 PWs)   bands (ev):

   -45.1609 -21.8421 -21.7576 -21.7576  -7.1610  -6.0078  -5.7508  -4.4044
    -4.4044  -4.3647  -4.2477  -4.1331   4.8508   6.7415   6.7415   7.1180
     8.7195   8.7195   8.9592   9.2978   9.4489   9.4489

          k = 0.0000 0.0000 0.2380 (  2429 PWs)   bands (ev):

   -45.1606 -21.8656 -21.7567 -21.7567  -6.9528  -5.9459  -5.6805  -4.4223
    -4.4223  -4.3631  -4.2353  -4.2103   3.9872   6.7962   6.7962   7.3128
     8.4655   8.4655   8.8756   9.3862   9.5683   9.5683

          k = 0.0000 0.0000-0.4760 (  2410 PWs)   bands (ev):

   -45.1602 -21.8890 -21.7557 -21.7557  -6.7267  -5.8780  -5.6167  -4.4400
    -4.4400  -4.3616  -4.2934  -4.2245   3.4432   6.6140   6.8300   6.8300
     8.3081   8.3081   8.7962   9.6446   9.6446  10.6650

          k = 0.0000 0.1667 0.0000 (  2423 PWs)   bands (ev):

   -45.1605 -21.8413 -21.7780 -21.7568  -7.0160  -5.9736  -5.7201  -4.4289
    -4.4029  -4.3795  -4.2505  -4.1215   4.3606   6.8086   6.8518   7.1501
     8.6758   8.7407   8.9549   9.0726   9.1785   9.5709

          k = 0.0000 0.1667 0.2380 (  2428 PWs)   bands (ev):

   -45.1602 -21.8646 -21.7770 -21.7558  -6.8242  -5.9277  -5.6441  -4.4274
    -4.4213  -4.3786  -4.2445  -4.1612   3.7534   6.5890   6.9178   7.3983
     8.1323   8.4472   8.7731   9.1690   9.2393   9.9433

          k = 0.0000 0.1667-0.4760 (  2426 PWs)   bands (ev):

   -45.1598 -21.8878 -21.7759 -21.7548  -6.6262  -5.8756  -5.5650  -4.4396
    -4.4237  -4.3778  -4.2489  -4.1966   3.2990   6.2687   6.9573   7.0422
     7.9370   8.2990   8.8405   9.2264   9.3210  10.5856

          k = 0.0000 0.3333 0.0000 (  2422 PWs)   bands (ev):

   -45.1597 -21.8396 -21.8184 -21.7550  -6.7010  -5.8996  -5.6746  -4.4663
    -4.4091  -4.3995  -4.2448  -4.1271   3.7316   6.4389   7.1041   7.1338
     8.3371   8.3636   8.8099   8.8611   9.2982  10.2229

          k = 0.0000 0.3333 0.2380 (  2423 PWs)   bands (ev):

   -45.1594 -21.8625 -21.8172 -21.7540  -6.5756  -5.8571  -5.5773  -4.4329
    -4.4194  -4.4092  -4.2376  -4.1007   3.3667   6.3084   7.0082   7.2332
     7.7670   8.1905   8.3463   8.9144   9.4338  10.3018

          k = 0.0000 0.3333-0.4760 (  2428 PWs)   bands (ev):

   -45.1591 -21.8853 -21.8159 -21.7530  -6.4827  -5.7895  -5.4490  -4.4388
    -4.4097  -4.3915  -4.2736  -4.0472   3.0467   5.9822   6.7693   7.2765
     7.6518   7.8193   8.1325   8.9454   9.8667  10.1346

          k = 0.0000-0.5000 0.0000 (  2428 PWs)   bands (ev):

   -45.1594 -21.8389 -21.8383 -21.7542  -6.5272  -5.8431  -5.6798  -4.4823
    -4.4237  -4.3979  -4.2178  -4.1602   3.5119   6.0547   7.3698   7.3769
     7.8425   7.9816   8.7312   8.8986   9.3291  11.0263

          k = 0.0000-0.5000 0.2380 (  2430 PWs)   bands (ev):

   -45.1590 -21.8612 -21.8374 -21.7532  -6.4677  -5.7669  -5.5715  -4.4452
    -4.4246  -4.4183  -4.2032  -4.0965   3.2150   6.0264   7.0378   7.2786
     7.5851   7.7817   8.4566   8.8918   9.4359  10.5030

          k = 0.0000-0.5000-0.4760 (  2432 PWs)   bands (ev):

   -45.1587 -21.8839 -21.8359 -21.7521  -6.4493  -5.6854  -5.3952  -4.4384
    -4.4255  -4.4002  -4.2588  -3.9850   2.9460   5.8432   6.4572   7.3377
     7.6012   7.8108   7.8318   8.8872   9.8025  10.1685

          k = 0.1667 0.1667 0.0000 (  2425 PWs)   bands (ev):

   -45.1601 -21.8404 -21.7773 -21.7769  -6.8734  -5.9384  -5.7114  -4.4349
    -4.4191  -4.3831  -4.2265  -4.1107   4.0286   6.7281   6.9831   7.2060
     8.2010   8.3131   9.0499   9.0844   9.3889   9.8047

          k = 0.1667 0.1667 0.2380 (  2421 PWs)   bands (ev):

   -45.1598 -21.8636 -21.7762 -21.7759  -6.6928  -5.9123  -5.6358  -4.4378
    -4.4142  -4.3770  -4.2156  -4.1266   3.6294   6.5053   6.6149   7.3416
     8.0309   8.0473   8.8537   9.2313   9.4679   9.9129

          k = 0.1667 0.1667-0.4760 (  2444 PWs)   bands (ev):

   -45.1595 -21.8867 -21.7751 -21.7749  -6.5133  -5.8860  -5.5472  -4.4508
    -4.3926  -4.3538  -4.2207  -4.1486   3.2660   6.2890   6.3369   7.0327
     7.9373   7.9746   8.7556   9.3062   9.5260  10.2810

          k = 0.1667 0.3333 0.0000 (  2426 PWs)   bands (ev):

   -45.1594 -21.8387 -21.8173 -21.7752  -6.5669  -5.8660  -5.7088  -4.4594
    -4.4081  -4.3674  -4.2016  -4.1164   3.5148   6.4363   6.9803   7.2797
     7.6610   8.2476   8.5554   9.2277   9.4170  10.3027

          k = 0.1667 0.3333 0.2380 (  2427 PWs)   bands (ev):

   -45.1590 -21.8615 -21.8162 -21.7742  -6.4377  -5.8568  -5.6260  -4.4347
    -4.4089  -4.3439  -4.1803  -4.0747   3.3703   6.2567   6.3863   6.9431
     7.3950   8.0866   8.9085   9.1863   9.5238  10.0123

          k = 0.1667 0.3333-0.4760 (  2422 PWs)   bands (ev):

   -45.1587 -21.8843 -21.8150 -21.7731  -6.3473  -5.8331  -5.5028  -4.4324
    -4.3829  -4.3024  -4.1928  -4.0199   3.1808   5.9007   6.3178   6.6410
     6.8861   7.9456   9.0122   9.2317   9.5169   9.9609

          k = 0.1667-0.5000 0.0000 (  2420 PWs)   bands (ev):

   -45.1590 -21.8377 -21.8374 -21.7743  -6.3992  -5.8122  -5.7347  -4.4624
    -4.4001  -4.3457  -4.1823  -4.1506   3.3149   6.0735   7.0968   7.3252
     7.6256   7.9714   8.4158   9.2607   9.4153  10.6362

          k = 0.1667-0.5000 0.2380 (  2424 PWs)   bands (ev):

   -45.1586 -21.8603 -21.8363 -21.7732  -6.3284  -5.7772  -5.6488  -4.4328
    -4.3952  -4.3223  -4.1566  -4.0690   3.2519   6.0308   6.2808   6.6897
     7.3553   8.2294   8.6760   9.1967   9.5337   9.9744

          k = 0.1667-0.5000-0.4760 (  2408 PWs)   bands (ev):

   -45.1583 -21.8829 -21.8349 -21.7722  -6.3127  -5.7435  -5.4861  -4.4270
    -4.3508  -4.2997  -4.1754  -3.9587   3.1410   5.7952   6.1498   6.3019
     6.7360   8.0587   8.8829   9.1433   9.1737  10.1784

          k = 0.3333 0.3333 0.0000 (  2438 PWs)   bands (ev):

   -45.1586 -21.8370 -21.8151 -21.8151  -6.3019  -5.7988  -5.7593  -4.4392
    -4.3885  -4.2951  -4.1200  -4.1192   3.1075   6.4206   6.5159   7.3866
     7.5399   7.6839   8.3528   9.0761   9.8917  10.0355

          k = 0.3333 0.3333 0.2380 (  2421 PWs)   bands (ev):

   -45.1583 -21.8595 -21.8142 -21.8141  -6.1629  -5.8473  -5.7147  -4.3969
    -4.3815  -4.2344  -4.0718  -4.0381   3.2978   5.9645   6.0355   6.4166
     7.0599   7.5610   8.9758   9.4869   9.5292   9.9078

          k = 0.3333 0.3333-0.4760 (  2428 PWs)   bands (ev):

   -45.1579 -21.8821 -21.8131 -21.8130  -6.0921  -5.8924  -5.5892  -4.3744
    -4.3548  -4.1687  -4.0214  -3.9595   3.4642   5.5587   5.5800   6.1602
     6.8128   6.9765   8.2212   9.8626   9.8781  10.0421

          k = 0.3333-0.5000 0.0000 (  2454 PWs)   bands (ev):

   -45.1582 -21.8357 -21.8353 -21.8140  -6.1822  -5.7745  -5.7555  -4.4308
    -4.3645  -4.2298  -4.1538  -4.0849   2.9203   6.0665   6.5621   7.1973
     7.7276   7.8499   7.9723   9.0443   9.7186  10.0981

          k = 0.3333-0.5000 0.2380 (  2430 PWs)   bands (ev):

   -45.1579 -21.8583 -21.8341 -21.8131  -6.0446  -5.8021  -5.7734  -4.3876
    -4.3527  -4.1400  -4.0698  -4.0082   3.2233   5.8564   6.0096   6.0779
     6.8420   7.6314   8.5018   9.4858   9.5138  10.0672

          k = 0.3333-0.5000-0.4760 (  2420 PWs)   bands (ev):

   -45.1576 -21.8809 -21.8330 -21.8121  -6.0337  -5.8457  -5.6275  -4.3569
    -4.3300  -4.0772  -3.9846  -3.9028   3.6047   5.2907   5.4862   5.9180
     6.5730   6.9888   7.4354   9.9641  10.0392  10.2025

          k =-0.5000-0.5000 0.0000 (  2480 PWs)   bands (ev):

   -45.1578 -21.8343 -21.8342 -21.8342  -6.1264  -5.7300  -5.7300  -4.4199
    -4.3164  -4.1754  -4.1754  -4.0342   2.7266   5.9151   6.3940   7.4095
     7.4095   7.9677   7.9677   8.8116   9.2442  10.3583

          k =-0.5000-0.5000 0.2380 (  2424 PWs)   bands (ev):

   -45.1575 -21.8571 -21.8331 -21.8331  -5.9100  -5.8163  -5.8163  -4.3752
    -4.3142  -4.0283  -4.0283  -3.9997   3.1444   5.8718   5.9796   5.9796
     6.4008   7.5724   7.8468   9.5158   9.5158  10.3406

          k =-0.5000-0.5000-0.4760 (  2400 PWs)   bands (ev):

   -45.1572 -21.8797 -21.8320 -21.8320  -5.8915  -5.8915  -5.6869  -4.3305
    -4.3120  -3.9533  -3.8896  -3.8896   3.8216   5.3181   5.3181   5.7526
     6.4075   6.4255   6.6747  10.2142  10.2142  10.3231

     highest occupied level (ev):    11.0263

!    total energy              =    -380.57404199 Ry
     estimated scf accuracy    <          3.4E-10 Ry

     The total energy is the sum of the following terms:
     one-electron contribution =     -79.64178027 Ry
     hartree contribution      =      69.91249912 Ry
     xc contribution           =    -102.67894343 Ry
     ewald contribution        =    -268.16581741 Ry

     convergence has been achieved in  16 iterations

     negative rho (up, down):  1.531E-02 0.000E+00

     Forces acting on atoms (cartesian axes, Ry/au):

     atom    1 type  1   force =     0.00000000    0.00000000    0.00020895
     atom    2 type  2   force =     0.00000000    0.00000000    0.00042520
     atom    3 type  3   force =     0.00000000    0.00000000   -0.00047780
     atom    4 type  3   force =     0.00000000    0.00000000   -0.00007818
     atom    5 type  3   force =     0.00000000    0.00000000   -0.00007818

     Total force =     0.000682     Total SCF correction =     0.000081
     SCF correction compared to forces is large: reduce conv_thr to get better values


     Computing stress (Cartesian axis) and pressure


     negative rho (up, down):  1.531E-02 0.000E+00
          total   stress  (Ry/bohr**3)                   (kbar)     P=        0.86
   0.00000555   0.00000000   0.00000000            0.82        0.00        0.00
   0.00000000   0.00000555   0.00000000            0.00        0.82        0.00
   0.00000000   0.00000000   0.00000647            0.00        0.00        0.95


     BFGS Geometry Optimization
     Energy error            =      0.0E+00 Ry
     Gradient error          =      4.8E-04 Ry/Bohr

     bfgs converged in   1 scf cycles and   0 bfgs steps
     (criteria: energy <  1.0E-04 Ry, force <  1.0E-03 Ry/Bohr)

     End of BFGS Geometry Optimization

     Final energy             =    -380.5740419901 Ry
Begin final coordinates

ATOMIC_POSITIONS (crystal)
Pb               0.0000000000        0.0000000000        1.0051738283
Ti               0.5000000000        0.5000000000        0.5395344294
O                0.5000000000        0.5000000000        0.0995079024
O                0.5000000000        0.0000000000        0.6115340639
O                0.0000000000        0.5000000000        0.6115340639
End final coordinates



     Writing all to output data dir ./pto_T3_etam0p002.save/ :
     XML data file, charge density, pseudopotentials, collected wavefunctions
 
     init_run     :      0.37s CPU      0.46s WALL (       1 calls)
     electrons    :     13.39s CPU     14.18s WALL (       1 calls)
     forces       :      0.10s CPU      0.11s WALL (       1 calls)
     stress       :      0.94s CPU      0.96s WALL (       1 calls)

     Called by init_run:
     wfcinit      :      0.15s CPU      0.18s WALL (       1 calls)
     potinit      :      0.01s CPU      0.01s WALL (       1 calls)
     hinit0       :      0.11s CPU      0.14s WALL (       1 calls)

     Called by electrons:
     c_bands      :     11.19s CPU     11.82s WALL (      16 calls)
     sum_band     :      1.48s CPU      1.55s WALL (      16 calls)
     v_of_rho     :      0.03s CPU      0.03s WALL (      17 calls)
     newd         :      0.70s CPU      0.78s WALL (      17 calls)
     mix_rho      :      0.02s CPU      0.02s WALL (      16 calls)

     Called by c_bands:
     init_us_2    :      0.10s CPU      0.11s WALL (    1050 calls)
     init_us_2:cp :      0.10s CPU      0.11s WALL (    1050 calls)
     ccgdiagg     :      9.88s CPU     10.46s WALL (     480 calls)
     wfcrot       :      1.37s CPU      1.44s WALL (     480 calls)

     Called by *cgdiagg:
     h_psi        :      6.43s CPU      6.79s WALL (   37802 calls)
     s_psi        :      0.98s CPU      1.04s WALL (   75124 calls)

     Called by h_psi:
     h_psi:calbec :      0.98s CPU      1.04s WALL (   37802 calls)
     vloc_psi     :      4.61s CPU      4.86s WALL (   37802 calls)
     add_vuspsi   :      0.54s CPU      0.58s WALL (   37802 calls)
     hs_1psi      :      6.03s CPU      6.38s WALL (   37322 calls)
     s_1psi       :      1.46s CPU      1.54s WALL (   37322 calls)

     General routines
     calbec       :      1.76s CPU      1.87s WALL (   75754 calls)
     fft          :      0.03s CPU      0.04s WALL (     108 calls)
     ffts         :      0.00s CPU      0.00s WALL (      33 calls)
     fftw         :      3.94s CPU      4.14s WALL (  106864 calls)
     interpolate  :      0.01s CPU      0.01s WALL (      17 calls)
 
     Parallel routines
 
     PWSCF        :     15.04s CPU     16.29s WALL

 
   This run was terminated on:   0:18:33  18Nov2025            

=------------------------------------------------------------------------------=
   JOB DONE.
=------------------------------------------------------------------------------=
TACC:  Shutdown complete. Exiting. 
