TACC:  Starting up job 2476552 
TACC:  Starting parallel tasks... 

     Program PWSCF v.7.3 starts on 18Oct2025 at 15:26:59 

     This program is part of the open-source Quantum ESPRESSO suite
     for quantum simulation of materials; please cite
         "P. Giannozzi et al., J. Phys.:Condens. Matter 21 395502 (2009);
         "P. Giannozzi et al., J. Phys.:Condens. Matter 29 465901 (2017);
         "P. Giannozzi et al., J. Chem. Phys. 152 154105 (2020);
          URL http://www.quantum-espresso.org", 
     in publications or presentations arising from this work. More details at
     http://www.quantum-espresso.org/quote

     Parallel version (MPI & OpenMP), running on      10 processor cores
     Number of MPI processes:                10
     Threads/MPI process:                     1

     MPI processes distributed on     1 nodes
     183984 MiB available memory on the printing compute node when the environment starts
 
     Waiting for input...
     Reading input from standard input
Warning: card &CELL ignored
Warning: card  CELL_DYNAMICS = 'BFGS', ignored
Warning: card  PRESS=0.D0, ignored
Warning: card / ignored

     Current dimensions of program PWSCF are:
     Max number of different atomic species (ntypx) = 10
     Max number of k-points (npk) =  40000
     Max angular momentum in pseudopotentials (lmaxx) =  4
 
     R & G space division:  proc/nbgrp/npool/nimage =      10
     Subspace diagonalization in iterative solution of the eigenvalue problem:
     a serial algorithm will be used

 
     Parallelization info
     --------------------
     sticks:   dense  smooth     PW     G-vecs:    dense   smooth      PW
     Min          94      37     12                 2162      543     104
     Max          95      38     14                 2165      546     105
     Sum         949     373    129                21631     5449    1045
 
     Using Slab Decomposition
 


     bravais-lattice index     =            1
     lattice parameter (alat)  =       7.6794  a.u.
     unit-cell volume          =     452.8787 (a.u.)^3
     number of atoms/cell      =            5
     number of atomic types    =            3
     number of electrons       =        40.00
     number of Kohn-Sham states=           20
     kinetic-energy cutoff     =      20.0000  Ry
     charge density cutoff     =     200.0000  Ry
     scf convergence threshold =      1.0E-08
     mixing beta               =       0.7000
     number of iterations used =            8  plain     mixing
     Exchange-correlation= SLA  PZ   NOGX NOGC
                           (   1   1   0   0   0   0   0)

     celldm(1)=   7.679400  celldm(2)=   0.000000  celldm(3)=   0.000000
     celldm(4)=   0.000000  celldm(5)=   0.000000  celldm(6)=   0.000000

     crystal axes: (cart. coord. in units of alat)
               a(1) = (   1.000000   0.000000   0.000000 )  
               a(2) = (   0.000000   1.000000   0.000000 )  
               a(3) = (   0.000000   0.000000   1.000000 )  

     reciprocal axes: (cart. coord. in units 2 pi/alat)
               b(1) = (  1.000000  0.000000  0.000000 )  
               b(2) = (  0.000000  1.000000  0.000000 )  
               b(3) = (  0.000000  0.000000  1.000000 )  


     PseudoPot. # 1 for Ba read from file:
     /scratch/11018/zhc/Assisgnment2/Q1/1D/Kpoints/Ba_LDA.UPF
     MD5 check sum: 0ec7675c796dc0a11c6269c68e51391e
     Pseudo is Ultrasoft + core correction, Zval = 10.0
     Generated by new atomic code, or converted to UPF format
     Using radial grid of  907 points,  7 beta functions with: 
                l(1) =   0
                l(2) =   0
                l(3) =   1
                l(4) =   1
                l(5) =   2
                l(6) =   2
                l(7) =   3
     Q(r) pseudized with  6 coefficients,  rinner =    1.700   1.700   1.700
                                                       1.700   1.700   1.700
                                                       1.700

     PseudoPot. # 2 for Ti read from file:
     /scratch/11018/zhc/Assisgnment2/Q1/1D/Kpoints/Ti_LDA.UPF
     MD5 check sum: 0d9f225c038fe889ca2a701dcc8d72cb
     Pseudo is Ultrasoft + core correction, Zval = 12.0
     Generated by new atomic code, or converted to UPF format
     Using radial grid of  851 points,  6 beta functions with: 
                l(1) =   0
                l(2) =   0
                l(3) =   1
                l(4) =   1
                l(5) =   2
                l(6) =   2
     Q(r) pseudized with  6 coefficients,  rinner =    1.000   1.000   1.000
                                                       1.000   1.000

     PseudoPot. # 3 for O  read from file:
     /scratch/11018/zhc/Assisgnment2/Q1/1D/Kpoints/O_LDA.UPF
     MD5 check sum: 194b818514d2a7dbb603bb78519a4f40
     Pseudo is Ultrasoft + core correction, Zval =  6.0
     Generated by new atomic code, or converted to UPF format
     Using radial grid of  737 points,  5 beta functions with: 
                l(1) =   0
                l(2) =   0
                l(3) =   1
                l(4) =   1
                l(5) =   2
     Q(r) pseudized with  8 coefficients,  rinner =    0.900   0.900   0.900
                                                       0.900   0.900

     atomic species   valence    mass     pseudopotential
     Ba               10.00   137.32700     Ba( 1.00)
     Ti               12.00    47.88000     Ti( 1.00)
     O                 6.00    16.00000     O ( 1.00)

      8 Sym. Ops. (no inversion) found



   Cartesian axes

     site n.     atom                  positions (alat units)
         1        Ba     tau(   1) = (   0.0000000   0.0000000   0.0000000  )
         2        Ti     tau(   2) = (   0.5000000   0.5000000   0.4900000  )
         3        O      tau(   3) = (   0.5000000   0.5000000   0.0000000  )
         4        O      tau(   4) = (   0.5000000   0.0000000   0.5000000  )
         5        O      tau(   5) = (   0.0000000   0.5000000   0.5000000  )

     number of k points=    40
                       cart. coord. in units 2pi/alat
        k(    1) = (   0.0000000   0.0000000   0.0000000), wk =   0.0092593
        k(    2) = (   0.0000000   0.0000000   0.1666667), wk =   0.0185185
        k(    3) = (   0.0000000   0.0000000   0.3333333), wk =   0.0185185
        k(    4) = (   0.0000000   0.0000000  -0.5000000), wk =   0.0092593
        k(    5) = (   0.0000000   0.1666667   0.1666667), wk =   0.0740741
        k(    6) = (   0.0000000   0.1666667   0.3333333), wk =   0.0740741
        k(    7) = (   0.0000000   0.1666667  -0.5000000), wk =   0.0370370
        k(    8) = (   0.0000000   0.3333333   0.3333333), wk =   0.0740741
        k(    9) = (   0.0000000   0.3333333  -0.5000000), wk =   0.0370370
        k(   10) = (   0.0000000  -0.5000000  -0.5000000), wk =   0.0185185
        k(   11) = (   0.1666667   0.1666667   0.1666667), wk =   0.0740741
        k(   12) = (   0.1666667   0.1666667   0.3333333), wk =   0.0740741
        k(   13) = (   0.1666667   0.1666667  -0.5000000), wk =   0.0370370
        k(   14) = (   0.1666667   0.3333333   0.3333333), wk =   0.1481481
        k(   15) = (   0.1666667   0.3333333  -0.5000000), wk =   0.0740741
        k(   16) = (   0.1666667  -0.5000000  -0.5000000), wk =   0.0370370
        k(   17) = (   0.3333333   0.3333333   0.3333333), wk =   0.0740741
        k(   18) = (   0.3333333   0.3333333  -0.5000000), wk =   0.0370370
        k(   19) = (   0.3333333  -0.5000000  -0.5000000), wk =   0.0370370
        k(   20) = (  -0.5000000  -0.5000000  -0.5000000), wk =   0.0092593
        k(   21) = (   0.1666667   0.0000000   0.0000000), wk =   0.0370370
        k(   22) = (   0.3333333   0.0000000   0.0000000), wk =   0.0370370
        k(   23) = (  -0.5000000   0.0000000   0.0000000), wk =   0.0185185
        k(   24) = (   0.1666667  -0.1666667   0.0000000), wk =   0.0370370
        k(   25) = (   0.3333333  -0.1666667   0.0000000), wk =   0.0740741
        k(   26) = (   0.0000000   0.3333333   0.1666667), wk =   0.0740741
        k(   27) = (  -0.5000000  -0.1666667   0.0000000), wk =   0.0370370
        k(   28) = (   0.0000000  -0.5000000   0.1666667), wk =   0.0370370
        k(   29) = (   0.3333333  -0.3333333   0.0000000), wk =   0.0370370
        k(   30) = (  -0.5000000  -0.3333333   0.0000000), wk =   0.0370370
        k(   31) = (   0.0000000  -0.5000000   0.3333333), wk =   0.0370370
        k(   32) = (  -0.5000000   0.5000000   0.0000000), wk =   0.0092593
        k(   33) = (   0.3333333  -0.1666667   0.1666667), wk =   0.1481481
        k(   34) = (  -0.5000000  -0.1666667   0.1666667), wk =   0.0740741
        k(   35) = (   0.3333333  -0.3333333   0.1666667), wk =   0.0740741
        k(   36) = (  -0.5000000  -0.3333333   0.1666667), wk =   0.0740741
        k(   37) = (  -0.1666667  -0.5000000   0.3333333), wk =   0.0740741
        k(   38) = (  -0.5000000   0.5000000   0.1666667), wk =   0.0185185
        k(   39) = (  -0.5000000  -0.3333333   0.3333333), wk =   0.0740741
        k(   40) = (  -0.5000000   0.5000000   0.3333333), wk =   0.0185185

     Dense  grid:    21631 G-vectors     FFT dimensions: (  36,  36,  36)

     Smooth grid:     5449 G-vectors     FFT dimensions: (  24,  24,  24)

     Estimated max dynamical RAM per process >      21.19 MB

     Estimated total dynamical RAM >     211.94 MB

     Check: negative core charge=   -0.000005

     Initial potential from superposition of free atoms

     starting charge      38.9872, renormalised to      40.0000

     negative rho (up, down):  1.016E-01 0.000E+00
     Starting wfcs are   35 randomized atomic wfcs

     total cpu time spent up to now is        0.6 secs

     Self-consistent Calculation

     iteration #  1     ecut=    20.00 Ry     beta= 0.70
     CG style diagonalization
     ethr =  1.00E-02,  avg # of iterations =  2.2

     negative rho (up, down):  9.644E-02 0.000E+00

     total cpu time spent up to now is        1.0 secs

     total energy              =    -286.15960220 Ry
     estimated scf accuracy    <       0.51248975 Ry

     iteration #  2     ecut=    20.00 Ry     beta= 0.70
     CG style diagonalization
     ethr =  1.28E-03,  avg # of iterations =  5.1

     negative rho (up, down):  9.511E-02 0.000E+00

     total cpu time spent up to now is        1.7 secs

     total energy              =    -285.41648424 Ry
     estimated scf accuracy    <       6.61321779 Ry

     iteration #  3     ecut=    20.00 Ry     beta= 0.70
     CG style diagonalization
     ethr =  1.28E-03,  avg # of iterations =  4.7

     negative rho (up, down):  9.476E-02 0.000E+00

     total cpu time spent up to now is        2.5 secs

     total energy              =    -286.39063199 Ry
     estimated scf accuracy    <       0.14426343 Ry

     iteration #  4     ecut=    20.00 Ry     beta= 0.70
     CG style diagonalization
     ethr =  3.61E-04,  avg # of iterations =  3.4

     negative rho (up, down):  9.448E-02 0.000E+00

     total cpu time spent up to now is        2.9 secs

     total energy              =    -286.39293141 Ry
     estimated scf accuracy    <       0.06106082 Ry

     iteration #  5     ecut=    20.00 Ry     beta= 0.70
     CG style diagonalization
     ethr =  1.53E-04,  avg # of iterations =  3.4

     negative rho (up, down):  9.443E-02 0.000E+00

     total cpu time spent up to now is        3.4 secs

     total energy              =    -286.39731787 Ry
     estimated scf accuracy    <       0.00826791 Ry

     iteration #  6     ecut=    20.00 Ry     beta= 0.70
     CG style diagonalization
     ethr =  2.07E-05,  avg # of iterations =  3.7

     negative rho (up, down):  9.443E-02 0.000E+00

     total cpu time spent up to now is        4.0 secs

     total energy              =    -286.39920024 Ry
     estimated scf accuracy    <       0.00050121 Ry

     iteration #  7     ecut=    20.00 Ry     beta= 0.70
     CG style diagonalization
     ethr =  1.25E-06,  avg # of iterations =  4.1

     negative rho (up, down):  9.442E-02 0.000E+00

     total cpu time spent up to now is        4.6 secs

     total energy              =    -286.39952837 Ry
     estimated scf accuracy    <       0.00004814 Ry

     iteration #  8     ecut=    20.00 Ry     beta= 0.70
     CG style diagonalization
     ethr =  1.20E-07,  avg # of iterations =  3.8

     negative rho (up, down):  9.441E-02 0.000E+00

     total cpu time spent up to now is        5.1 secs

     total energy              =    -286.39953774 Ry
     estimated scf accuracy    <       0.00002034 Ry

     iteration #  9     ecut=    20.00 Ry     beta= 0.70
     CG style diagonalization
     ethr =  5.08E-08,  avg # of iterations =  3.4

     negative rho (up, down):  9.441E-02 0.000E+00

     total cpu time spent up to now is        5.6 secs

     total energy              =    -286.39953800 Ry
     estimated scf accuracy    <       0.00000724 Ry

     iteration # 10     ecut=    20.00 Ry     beta= 0.70
     CG style diagonalization
     ethr =  1.81E-08,  avg # of iterations =  3.4

     negative rho (up, down):  9.441E-02 0.000E+00

     total cpu time spent up to now is        6.1 secs

     total energy              =    -286.39953871 Ry
     estimated scf accuracy    <       0.00000054 Ry

     iteration # 11     ecut=    20.00 Ry     beta= 0.70
     CG style diagonalization
     ethr =  1.34E-09,  avg # of iterations =  4.0

     negative rho (up, down):  9.441E-02 0.000E+00

     total cpu time spent up to now is        6.7 secs

     total energy              =    -286.39953891 Ry
     estimated scf accuracy    <       0.00000002 Ry

     iteration # 12     ecut=    20.00 Ry     beta= 0.70
     CG style diagonalization
     ethr =  4.14E-11,  avg # of iterations =  5.1

     negative rho (up, down):  9.441E-02 0.000E+00

     total cpu time spent up to now is        7.5 secs

     total energy              =    -286.39953893 Ry
     estimated scf accuracy    <       0.00000001 Ry

     iteration # 13     ecut=    20.00 Ry     beta= 0.70
     CG style diagonalization
     ethr =  3.53E-11,  avg # of iterations =  3.3

     negative rho (up, down):  9.441E-02 0.000E+00

     total cpu time spent up to now is        7.9 secs

     End of self-consistent calculation

          k = 0.0000 0.0000 0.0000 (   691 PWs)   bands (ev):

   -47.2406 -23.6549 -23.6515 -23.6515 -15.2628  -7.5382  -6.8627  -6.8506
    -0.4123  -0.4123  -0.4103   7.0128   7.0128   7.0128   8.4600   8.4600
     8.4730   9.2514   9.2541   9.2541

          k = 0.0000 0.0000 0.1667 (   695 PWs)   bands (ev):

   -47.2406 -23.6641 -23.6641 -23.6637 -15.2383  -7.5409  -6.8490  -6.8475
    -0.3750  -0.3750  -0.3280   6.7227   6.9393   6.9393   8.0926   8.0926
     8.1865   8.6576   9.0935   9.0935

          k = 0.0000 0.0000 0.3333 (   687 PWs)   bands (ev):

   -47.2399 -23.6824 -23.6550 -23.6550 -15.1883  -7.6199  -6.8286  -6.7334
    -0.2969  -0.2969  -0.1647   5.9733   6.8176   6.8176   7.7685   7.7685
     7.8378   7.8625   8.8360   8.8360

          k = 0.0000 0.0000-0.5000 (   682 PWs)   bands (ev):

   -47.2395 -23.6775 -23.6533 -23.6533 -15.1627  -7.6789  -6.8215  -6.6462
    -0.2548  -0.2548  -0.0850   5.6858   6.6530   6.6530   7.6340   7.6668
     7.6755   7.6755   8.7712   8.7712

          k = 0.0000 0.1667 0.1667 (   696 PWs)   bands (ev):

   -47.2405 -23.6786 -23.6652 -23.6619 -15.2157  -7.5165  -6.8545  -6.8295
    -0.4262  -0.3358  -0.2275   6.4369   6.8535   6.9025   7.5456   7.8632
     8.3190   8.3850   8.8562   8.9467

          k = 0.0000 0.1667 0.3333 (   688 PWs)   bands (ev):

   -47.2398 -23.6834 -23.6654 -23.6504 -15.1698  -7.5304  -6.8196  -6.7633
    -0.3868  -0.2535  -0.1697   5.8445   6.6006   6.8252   6.9132   7.5539
     7.9796   8.3953   8.5520   8.7965

          k = 0.0000 0.1667-0.5000 (   678 PWs)   bands (ev):

   -47.2392 -23.6813 -23.6547 -23.6435 -15.1464  -7.5659  -6.8038  -6.6916
    -0.3203  -0.2108  -0.1896   5.6106   6.5250   6.6658   6.7340   7.5030
     7.9097   8.4083   8.4946   8.6710

          k = 0.0000 0.3333 0.3333 (   678 PWs)   bands (ev):

   -47.2390 -23.6744 -23.6674 -23.6482 -15.1323  -7.3720  -6.8353  -6.7608
    -0.4600  -0.2748  -0.1647   5.6153   6.1419   6.2543   6.8938   7.1628
     8.0842   8.1697   8.5657   9.1824

          k = 0.0000 0.3333-0.5000 (   690 PWs)   bands (ev):

   -47.2393 -23.6925 -23.6884 -23.6511 -15.1134  -7.3157  -6.7956  -6.7849
    -0.4352  -0.3875  -0.1190   5.3972   5.7279   6.0909   6.8161   7.0314
     7.8513   8.3694   8.4196   9.2575

          k = 0.0000-0.5000-0.5000 (   680 PWs)   bands (ev):

   -47.2386 -23.6840 -23.6809 -23.6576 -15.0965  -7.1572  -6.8323  -6.8167
    -0.4821  -0.4788  -0.0701   5.2489   5.5332   5.9536   6.8419   6.8650
     7.6332   8.6277   8.6298   9.4698

          k = 0.1667 0.1667 0.1667 (   687 PWs)   bands (ev):

   -47.2400 -23.6684 -23.6661 -23.6553 -15.1948  -7.4709  -6.8405  -6.8290
    -0.4392  -0.4379  -0.0975   6.2250   6.8257   6.8320   7.5287   7.5333
     7.8395   8.6122   8.8185   8.8220

          k = 0.1667 0.1667 0.3333 (   693 PWs)   bands (ev):

   -47.2399 -23.6892 -23.6696 -23.6614 -15.1523  -7.4383  -6.8024  -6.7852
    -0.4641  -0.4184  -0.0787   5.7288   6.4497   6.6815   6.9336   7.1901
     7.7064   8.5895   8.6617   8.7203

          k = 0.1667 0.1667-0.5000 (   682 PWs)   bands (ev):

   -47.2391 -23.6823 -23.6660 -23.6534 -15.1307  -7.4537  -6.7862  -6.7160
    -0.4772  -0.3059  -0.1753   5.5487   6.3470   6.6361   6.6365   7.1220
     7.8409   8.4930   8.5900   8.6795

          k = 0.1667 0.3333 0.3333 (   679 PWs)   bands (ev):

   -47.2388 -23.6814 -23.6686 -23.6556 -15.1167  -7.2670  -6.8079  -6.7593
    -0.5675  -0.5382  -0.1537   5.5638   6.1971   6.2876   6.7719   7.1488
     7.4233   8.5568   8.7461   9.1506

          k = 0.1667 0.3333-0.5000 (   682 PWs)   bands (ev):

   -47.2387 -23.6827 -23.6801 -23.6623 -15.0987  -7.2014  -6.7707  -6.7673
    -0.6160  -0.5274  -0.2661   5.3865   6.0145   6.1469   6.7290   7.0325
     7.3689   8.6138   8.7041   9.2763

          k = 0.1667-0.5000-0.5000 (   692 PWs)   bands (ev):

   -47.2390 -23.6924 -23.6893 -23.6780 -15.0826  -7.0456  -6.8003  -6.7846
    -0.6347  -0.6314  -0.3605   5.1798   5.8960   5.9434   6.8709   6.9083
     7.0052   8.7667   8.7703   9.4943

          k = 0.3333 0.3333 0.3333 (   675 PWs)   bands (ev):

   -47.2382 -23.6752 -23.6725 -23.6712 -15.0851  -7.0596  -6.7530  -6.7421
    -0.7770  -0.7753  -0.3984   5.4411   6.2471   6.2651   6.4829   7.0463
     7.0469   9.0201   9.0238   9.2514

          k = 0.3333 0.3333-0.5000 (   674 PWs)   bands (ev):

   -47.2379 -23.6822 -23.6797 -23.6706 -15.0691  -6.9559  -6.7423  -6.7137
    -0.8803  -0.7947  -0.6096   5.2502   6.1408   6.2574   6.5059   7.0274
     7.0952   9.0210   9.1995   9.3495

          k = 0.3333-0.5000-0.5000 (   676 PWs)   bands (ev):

   -47.2377 -23.6896 -23.6867 -23.6737 -15.0542  -6.8040  -6.7290  -6.7130
    -0.9244  -0.9215  -0.8489   5.0777   5.9870   6.2294   6.6750   7.0330
     7.0416   9.2548   9.2634   9.5067

          k =-0.5000-0.5000-0.5000 (   672 PWs)   bands (ev):

   -47.2371 -23.6880 -23.6850 -23.6850 -15.0399  -6.6927  -6.6764  -6.6764
    -1.0639  -1.0639  -1.0612   4.9015   6.0237   6.0424   7.0292   7.0292
     7.0367   9.5516   9.5516   9.5625

          k = 0.1667 0.0000 0.0000 (   695 PWs)   bands (ev):

   -47.2406 -23.6673 -23.6641 -23.6605 -15.2383  -7.5443  -6.8572  -6.8360
    -0.3749  -0.3730  -0.3301   6.7284   6.9389   6.9404   8.0877   8.0991
     8.1922   8.6579   9.0772   9.0924

          k = 0.3333 0.0000 0.0000 (   687 PWs)   bands (ev):

   -47.2399 -23.6792 -23.6582 -23.6550 -15.1882  -7.6272  -6.8376  -6.7178
    -0.2966  -0.2947  -0.1672   5.9905   6.8155   6.8200   7.7361   7.7823
     7.8536   7.8824   8.8091   8.8237

          k =-0.5000 0.0000 0.0000 (   682 PWs)   bands (ev):

   -47.2395 -23.6743 -23.6565 -23.6533 -15.1626  -7.6870  -6.8305  -6.6301
    -0.2544  -0.2526  -0.0877   5.7097   6.6491   6.6559   7.5875   7.6592
     7.6947   7.7324   8.7395   8.7535

          k = 0.1667-0.1667 0.0000 (   696 PWs)   bands (ev):

   -47.2405 -23.6768 -23.6684 -23.6604 -15.2157  -7.5200  -6.8443  -6.8364
    -0.4271  -0.3338  -0.2285   6.4378   6.8596   6.9037   7.5513   7.8690
     8.2913   8.3765   8.8752   8.9509

          k = 0.3333-0.1667 0.0000 (   688 PWs)   bands (ev):

   -47.2398 -23.6804 -23.6653 -23.6536 -15.1697  -7.5386  -6.8250  -6.7506
    -0.3872  -0.2514  -0.1714   5.8563   6.6149   6.8265   6.9113   7.5637
     7.9591   8.3693   8.5643   8.8040

          k = 0.0000 0.3333 0.1667 (   688 PWs)   bands (ev):

   -47.2398 -23.6806 -23.6683 -23.6503 -15.1697  -7.5360  -6.8290  -6.7489
    -0.3859  -0.2532  -0.1708   5.8574   6.6084   6.8222   6.9031   7.5644
     7.9811   8.3891   8.5375   8.7970

          k =-0.5000-0.1667 0.0000 (   678 PWs)   bands (ev):

   -47.2391 -23.6781 -23.6547 -23.6468 -15.1463  -7.5750  -6.8119  -6.6756
    -0.3198  -0.2086  -0.1924   5.6302   6.5840   6.6121   6.7379   7.5126
     7.9020   8.3436   8.5252   8.6831

          k = 0.0000-0.5000 0.1667 (   678 PWs)   bands (ev):

   -47.2391 -23.6781 -23.6579 -23.6434 -15.1464  -7.5730  -6.8134  -6.6756
    -0.3177  -0.2104  -0.1926   5.6319   6.5739   6.6101   6.7283   7.5220
     7.9115   8.3865   8.4814   8.6751

          k = 0.3333-0.3333 0.0000 (   678 PWs)   bands (ev):

   -47.2390 -23.6724 -23.6662 -23.6514 -15.1323  -7.3814  -6.8267  -6.7611
    -0.4610  -0.2761  -0.1628   5.6184   6.1838   6.2302   6.9012   7.1711
     8.0406   8.1949   8.5488   9.1926

          k =-0.5000-0.3333 0.0000 (   690 PWs)   bands (ev):

   -47.2393 -23.6895 -23.6884 -23.6544 -15.1133  -7.3283  -6.8003  -6.7692
    -0.4345  -0.3905  -0.1171   5.4071   5.7437   6.0916   6.8213   7.0467
     7.8402   8.3534   8.4022   9.2688

          k = 0.0000-0.5000 0.3333 (   690 PWs)   bands (ev):

   -47.2393 -23.6916 -23.6895 -23.6511 -15.1134  -7.3198  -6.8076  -6.7692
    -0.4318  -0.3909  -0.1188   5.4069   5.7352   6.0801   6.8053   7.0480
     7.8433   8.3718   8.4154   9.2588

          k =-0.5000 0.5000 0.0000 (   680 PWs)   bands (ev):

   -47.2386 -23.6809 -23.6809 -23.6608 -15.0965  -7.1743  -6.8168  -6.8168
    -0.4816  -0.4816  -0.0683   5.2531   5.5425   5.9672   6.8642   6.8642
     7.6247   8.6091   8.6091   9.4806

          k = 0.3333-0.1667 0.1667 (   693 PWs)   bands (ev):

   -47.2399 -23.6860 -23.6715 -23.6627 -15.1523  -7.4447  -6.8113  -6.7706
    -0.4629  -0.4197  -0.0787   5.7385   6.4626   6.6804   6.9330   7.1875
     7.6923   8.5792   8.6673   8.7250

          k =-0.5000-0.1667 0.1667 (   682 PWs)   bands (ev):

   -47.2390 -23.6792 -23.6679 -23.6547 -15.1306  -7.4618  -6.7949  -6.7001
    -0.4759  -0.3087  -0.1740   5.5666   6.3692   6.6206   6.6375   7.1198
     7.8230   8.4843   8.5928   8.6868

          k = 0.3333-0.3333 0.1667 (   679 PWs)   bands (ev):

   -47.2387 -23.6796 -23.6675 -23.6586 -15.1167  -7.2746  -6.7990  -6.7614
    -0.5685  -0.5379  -0.1531   5.5675   6.2400   6.2610   6.7735   7.1528
     7.4124   8.5513   8.7312   9.1621

          k =-0.5000-0.3333 0.1667 (   682 PWs)   bands (ev):

   -47.2387 -23.6803 -23.6796 -23.6653 -15.0987  -7.2131  -6.7725  -6.7549
    -0.6152  -0.5303  -0.2643   5.3968   6.0402   6.1381   6.7304   7.0378
     7.3597   8.5984   8.6931   9.2875

          k =-0.1667-0.5000 0.3333 (   682 PWs)   bands (ev):

   -47.2387 -23.6831 -23.6796 -23.6624 -15.0987  -7.2062  -6.7786  -6.7549
    -0.6136  -0.5306  -0.2653   5.3960   6.0338   6.1253   6.7263   7.0404
     7.3601   8.6084   8.7091   9.2767

          k =-0.5000 0.5000 0.1667 (   692 PWs)   bands (ev):

   -47.2390 -23.6893 -23.6893 -23.6812 -15.0826  -7.0625  -6.7846  -6.7846
    -0.6342  -0.6342  -0.3584   5.1849   5.9045   5.9573   6.9062   6.9062
     6.9756   8.7526   8.7526   9.5051

          k =-0.5000-0.3333 0.3333 (   674 PWs)   bands (ev):

   -47.2379 -23.6815 -23.6792 -23.6720 -15.0691  -6.9641  -6.7263  -6.7218
    -0.8789  -0.7975  -0.6081   5.2566   6.1508   6.2486   6.5101   7.0301
     7.0883   9.0100   9.2011   9.3549

          k =-0.5000 0.5000 0.3333 (   676 PWs)   bands (ev):

   -47.2377 -23.6867 -23.6867 -23.6770 -15.0542  -6.8205  -6.7130  -6.7130
    -0.9242  -0.9242  -0.8464   5.0808   6.0013   6.2186   6.6828   7.0354
     7.0354   9.2504   9.2504   9.5175

     highest occupied level (ev):     9.5625

!    total energy              =    -286.39953893 Ry
     estimated scf accuracy    <          1.6E-09 Ry

     The total energy is the sum of the following terms:
     one-electron contribution =     -74.91420056 Ry
     hartree contribution      =      59.61117213 Ry
     xc contribution           =     -66.91029647 Ry
     ewald contribution        =    -204.18621404 Ry

     convergence has been achieved in  13 iterations

     negative rho (up, down):  9.441E-02 0.000E+00

     Forces acting on atoms (cartesian axes, Ry/au):

     atom    1 type  1   force =     0.00000000    0.00000000   -0.00452501
     atom    2 type  2   force =     0.00000000    0.00000000   -0.01957377
     atom    3 type  3   force =     0.00000000    0.00000000    0.02803698
     atom    4 type  3   force =     0.00000000    0.00000000   -0.00196910
     atom    5 type  3   force =     0.00000000    0.00000000   -0.00196910

     Total force =     0.034604     Total SCF correction =     0.000009


     Computing stress (Cartesian axis) and pressure


     negative rho (up, down):  9.441E-02 0.000E+00
          total   stress  (Ry/bohr**3)                   (kbar)     P=    -1133.79
  -0.00771320   0.00000000   0.00000000        -1134.65        0.00        0.00
   0.00000000  -0.00771320   0.00000000            0.00    -1134.65        0.00
   0.00000000   0.00000000  -0.00769560            0.00        0.00    -1132.06


     Writing all to output data dir ./BTO_k6.save/ :
     XML data file, charge density, pseudopotentials, collected wavefunctions
 
     init_run     :      0.23s CPU      0.31s WALL (       1 calls)
     electrons    :      6.74s CPU      7.40s WALL (       1 calls)
     forces       :      0.05s CPU      0.06s WALL (       1 calls)
     stress       :      0.42s CPU      0.43s WALL (       1 calls)

     Called by init_run:
     wfcinit      :      0.12s CPU      0.15s WALL (       1 calls)
     potinit      :      0.01s CPU      0.01s WALL (       1 calls)
     hinit0       :      0.08s CPU      0.11s WALL (       1 calls)

     Called by electrons:
     c_bands      :      5.86s CPU      6.40s WALL (      13 calls)
     sum_band     :      0.64s CPU      0.71s WALL (      13 calls)
     v_of_rho     :      0.01s CPU      0.01s WALL (      14 calls)
     newd         :      0.23s CPU      0.28s WALL (      14 calls)
     mix_rho      :      0.01s CPU      0.01s WALL (      13 calls)

     Called by c_bands:
     init_us_2    :      0.05s CPU      0.05s WALL (    1160 calls)
     init_us_2:cp :      0.05s CPU      0.05s WALL (    1160 calls)
     ccgdiagg     :      5.19s CPU      5.67s WALL (     520 calls)
     wfcrot       :      0.74s CPU      0.81s WALL (     520 calls)

     Called by *cgdiagg:
     h_psi        :      2.98s CPU      3.25s WALL (   30516 calls)
     s_psi        :      0.45s CPU      0.49s WALL (   60512 calls)

     Called by h_psi:
     h_psi:calbec :      0.57s CPU      0.63s WALL (   30516 calls)
     vloc_psi     :      1.94s CPU      2.12s WALL (   30516 calls)
     add_vuspsi   :      0.24s CPU      0.27s WALL (   30516 calls)
     hs_1psi      :      2.82s CPU      3.08s WALL (   29996 calls)
     s_1psi       :      0.83s CPU      0.90s WALL (   29996 calls)

     General routines
     calbec       :      1.02s CPU      1.12s WALL (   61232 calls)
     fft          :      0.01s CPU      0.02s WALL (      90 calls)
     ffts         :      0.00s CPU      0.00s WALL (      27 calls)
     fftw         :      1.76s CPU      1.91s WALL (   92392 calls)
     interpolate  :      0.00s CPU      0.00s WALL (      14 calls)
 
     Parallel routines
 
     PWSCF        :      7.69s CPU      8.74s WALL

 
   This run was terminated on:  15:27: 8  18Oct2025            

=------------------------------------------------------------------------------=
   JOB DONE.
=------------------------------------------------------------------------------=
TACC:  Shutdown complete. Exiting. 
