TACC:  Starting up job 2477115 
TACC:  Starting parallel tasks... 

     Program PWSCF v.7.3 starts on 18Oct2025 at 20:36:52 

     This program is part of the open-source Quantum ESPRESSO suite
     for quantum simulation of materials; please cite
         "P. Giannozzi et al., J. Phys.:Condens. Matter 21 395502 (2009);
         "P. Giannozzi et al., J. Phys.:Condens. Matter 29 465901 (2017);
         "P. Giannozzi et al., J. Chem. Phys. 152 154105 (2020);
          URL http://www.quantum-espresso.org", 
     in publications or presentations arising from this work. More details at
     http://www.quantum-espresso.org/quote

     Parallel version (MPI & OpenMP), running on      10 processor cores
     Number of MPI processes:                10
     Threads/MPI process:                     1

     MPI processes distributed on     1 nodes
     187676 MiB available memory on the printing compute node when the environment starts
 
     Waiting for input...
     Reading input from standard input
     Message from routine read_cards :
     DEPRECATED: no units specified in ATOMIC_POSITIONS card
     Message from routine read_cards :
     ATOMIC_POSITIONS: units set to alat

     Current dimensions of program PWSCF are:
     Max number of different atomic species (ntypx) = 10
     Max number of k-points (npk) =  40000
     Max angular momentum in pseudopotentials (lmaxx) =  4
 
     R & G space division:  proc/nbgrp/npool/nimage =      10
     Subspace diagonalization in iterative solution of the eigenvalue problem:
     a serial algorithm will be used

 
     Parallelization info
     --------------------
     sticks:   dense  smooth     PW     G-vecs:    dense   smooth      PW
     Min          76      31      9                 1420      363      64
     Max          77      32     10                 1422      366      66
     Sum         769     313     97                14211     3647     645
 
     Using Slab Decomposition
 


     bravais-lattice index     =            2
     lattice parameter (alat)  =       6.7000  a.u.
     unit-cell volume          =      75.1908 (a.u.)^3
     number of atoms/cell      =            2
     number of atomic types    =            1
     number of electrons       =         8.00
     number of Kohn-Sham states=            4
     kinetic-energy cutoff     =      50.0000  Ry
     charge density cutoff     =     500.0000  Ry
     scf convergence threshold =      1.0E-08
     mixing beta               =       0.7000
     number of iterations used =            8  plain     mixing
     energy convergence thresh.=      1.0E-04
     force convergence thresh. =      1.0E-03
     press convergence thresh. =      5.0E-01
     Exchange-correlation= SLA  PZ   NOGX NOGC
                           (   1   1   0   0   0   0   0)
     nstep                     =           50


     celldm(1)=   6.700000  celldm(2)=   0.000000  celldm(3)=   0.000000
     celldm(4)=   0.000000  celldm(5)=   0.000000  celldm(6)=   0.000000

     crystal axes: (cart. coord. in units of alat)
               a(1) = (  -0.500000   0.000000   0.500000 )  
               a(2) = (   0.000000   0.500000   0.500000 )  
               a(3) = (  -0.500000   0.500000   0.000000 )  

     reciprocal axes: (cart. coord. in units 2 pi/alat)
               b(1) = ( -1.000000 -1.000000  1.000000 )  
               b(2) = (  1.000000  1.000000  1.000000 )  
               b(3) = ( -1.000000  1.000000 -1.000000 )  


     PseudoPot. # 1 for C  read from file:
     /scratch/11018/zhc/Assisgnment2/Q2/Diamond/Diamond/C_LDA.UPF
     MD5 check sum: 407c1fe918d93b14b177d5600f28733c
     Pseudo is Ultrasoft + core correction, Zval =  4.0
     Generated by new atomic code, or converted to UPF format
     Using radial grid of  721 points,  4 beta functions with: 
                l(1) =   0
                l(2) =   0
                l(3) =   1
                l(4) =   1
     Q(r) pseudized with  8 coefficients,  rinner =    1.100   1.100   1.100


     atomic species   valence    mass     pseudopotential
     C                 4.00    12.01100     C ( 1.00)

     48 Sym. Ops., with inversion, found (24 have fractional translation)



   Cartesian axes

     site n.     atom                  positions (alat units)
         1        C      tau(   1) = (   0.0000000   0.0000000   0.0000000  )
         2        C      tau(   2) = (   0.2500000   0.2500000   0.2500000  )

     number of k points=     8
                       cart. coord. in units 2pi/alat
        k(    1) = (   0.0000000   0.0000000   0.0000000), wk =   0.0312500
        k(    2) = (  -0.2500000   0.2500000  -0.2500000), wk =   0.2500000
        k(    3) = (   0.5000000  -0.5000000   0.5000000), wk =   0.1250000
        k(    4) = (   0.0000000   0.5000000   0.0000000), wk =   0.1875000
        k(    5) = (   0.7500000  -0.2500000   0.7500000), wk =   0.7500000
        k(    6) = (   0.5000000   0.0000000   0.5000000), wk =   0.3750000
        k(    7) = (   0.0000000  -1.0000000   0.0000000), wk =   0.0937500
        k(    8) = (  -0.5000000  -1.0000000   0.0000000), wk =   0.1875000

     Dense  grid:    14211 G-vectors     FFT dimensions: (  36,  36,  36)

     Smooth grid:     3647 G-vectors     FFT dimensions: (  24,  24,  24)

     Estimated max dynamical RAM per process >       3.08 MB

     Estimated total dynamical RAM >      30.82 MB

     Initial potential from superposition of free atoms

     starting charge       7.9999, renormalised to       8.0000
     Starting wfcs are    8 randomized atomic wfcs

     total cpu time spent up to now is        0.2 secs

     Self-consistent Calculation

     iteration #  1     ecut=    50.00 Ry     beta= 0.70
     CG style diagonalization
     ethr =  1.00E-02,  avg # of iterations =  3.0

     total cpu time spent up to now is        0.2 secs

     total energy              =     -23.03103864 Ry
     estimated scf accuracy    <       0.14164204 Ry

     iteration #  2     ecut=    50.00 Ry     beta= 0.70
     CG style diagonalization
     ethr =  1.77E-03,  avg # of iterations =  3.6

     total cpu time spent up to now is        0.3 secs

     total energy              =     -23.04741712 Ry
     estimated scf accuracy    <       0.00147525 Ry

     iteration #  3     ecut=    50.00 Ry     beta= 0.70
     CG style diagonalization
     ethr =  1.84E-05,  avg # of iterations =  4.0

     total cpu time spent up to now is        0.3 secs

     total energy              =     -23.04777443 Ry
     estimated scf accuracy    <       0.00006317 Ry

     iteration #  4     ecut=    50.00 Ry     beta= 0.70
     CG style diagonalization
     ethr =  7.90E-07,  avg # of iterations =  3.8

     total cpu time spent up to now is        0.3 secs

     total energy              =     -23.04779012 Ry
     estimated scf accuracy    <       0.00000284 Ry

     iteration #  5     ecut=    50.00 Ry     beta= 0.70
     CG style diagonalization
     ethr =  3.55E-08,  avg # of iterations =  4.1

     total cpu time spent up to now is        0.3 secs

     total energy              =     -23.04779109 Ry
     estimated scf accuracy    <       0.00000006 Ry

     iteration #  6     ecut=    50.00 Ry     beta= 0.70
     CG style diagonalization
     ethr =  7.16E-10,  avg # of iterations =  4.2

     total cpu time spent up to now is        0.4 secs

     End of self-consistent calculation

          k = 0.0000 0.0000 0.0000 (   459 PWs)   bands (ev):

    -8.1167  13.4462  13.4462  13.4462

          k =-0.2500 0.2500-0.2500 (   459 PWs)   bands (ev):

    -6.3817   6.8205  11.6723  11.6723

          k = 0.5000-0.5000 0.5000 (   464 PWs)   bands (ev):

    -2.1712  -0.1233  10.6065  10.6065

          k = 0.0000 0.5000 0.0000 (   456 PWs)   bands (ev):

    -5.8070   9.0225   9.2481   9.2481

          k = 0.7500-0.2500 0.7500 (   447 PWs)   bands (ev):

    -2.0002   2.6137   6.6478   8.4854

          k = 0.5000 0.0000 0.5000 (   443 PWs)   bands (ev):

    -3.5880   4.7640   5.7152  10.3867

          k = 0.0000-1.0000 0.0000 (   444 PWs)   bands (ev):

     0.7047   0.7047   7.0384   7.0384

          k =-0.5000-1.0000 0.0000 (   444 PWs)   bands (ev):

     1.5701   1.5701   4.9212   4.9212

     highest occupied level (ev):    13.4462

!    total energy              =     -23.04779112 Ry
     estimated scf accuracy    <          6.3E-11 Ry

     The total energy is the sum of the following terms:
     one-electron contribution =       8.14458461 Ry
     hartree contribution      =       1.91453765 Ry
     xc contribution           =      -7.37892272 Ry
     ewald contribution        =     -25.72799066 Ry

     convergence has been achieved in   6 iterations

     Forces acting on atoms (cartesian axes, Ry/au):

     atom    1 type  1   force =     0.00000000    0.00000000    0.00000000
     atom    2 type  1   force =     0.00000000    0.00000000    0.00000000

     Total force =     0.000000     Total SCF correction =     0.000000


     Computing stress (Cartesian axis) and pressure

          total   stress  (Ry/bohr**3)                   (kbar)     P=      -38.58
  -0.00026224  -0.00000000  -0.00000000          -38.58       -0.00       -0.00
  -0.00000000  -0.00026224   0.00000000           -0.00      -38.58        0.00
  -0.00000000   0.00000000  -0.00026224           -0.00        0.00      -38.58


     BFGS Geometry Optimization
     Energy error            =      0.0E+00 Ry
     Gradient error          =      0.0E+00 Ry/Bohr
     Cell gradient error     =      3.9E+01 kbar

     number of scf cycles    =   1
     number of bfgs steps    =   0

     enthalpy           new  =     -23.0477911155 Ry

     new trust radius        =       0.0113697762 bohr
     new conv_thr            =       0.0000000100 Ry

     new unit-cell volume =     73.72157 a.u.^3 (    10.92441 Ang^3 )
     density =      3.65141 g/cm^3

CELL_PARAMETERS (alat=  6.70000000)
  -0.496721994   0.000000000   0.496721994
  -0.000000000   0.496721994   0.496721994
  -0.496721994   0.496721994   0.000000000

ATOMIC_POSITIONS (alat)
C                0.0000000000        0.0000000000        0.0000000000
C                0.2483609971        0.2483609971        0.2483609971



     Writing config-only to output data dir ./diamond.save/ :
     XML data file
     NEW-OLD atomic charge density approx. for the potential

     total cpu time spent up to now is        0.4 secs

     Self-consistent Calculation

     iteration #  1     ecut=    50.00 Ry     beta= 0.70
     CG style diagonalization
     ethr =  1.00E-06,  avg # of iterations =  4.6

     total cpu time spent up to now is        0.4 secs

     total energy              =     -23.04771059 Ry
     estimated scf accuracy    <       0.00005847 Ry

     iteration #  2     ecut=    50.00 Ry     beta= 0.70
     CG style diagonalization
     ethr =  7.31E-07,  avg # of iterations =  3.5

     total cpu time spent up to now is        0.5 secs

     total energy              =     -23.04771663 Ry
     estimated scf accuracy    <       0.00000051 Ry

     iteration #  3     ecut=    50.00 Ry     beta= 0.70
     CG style diagonalization
     ethr =  6.37E-09,  avg # of iterations =  4.3

     total cpu time spent up to now is        0.5 secs

     total energy              =     -23.04771704 Ry
     estimated scf accuracy    <       0.00000002 Ry

     iteration #  4     ecut=    50.00 Ry     beta= 0.70
     CG style diagonalization
     ethr =  3.02E-10,  avg # of iterations =  4.0

     total cpu time spent up to now is        0.5 secs

     End of self-consistent calculation

          k = 0.0000 0.0000 0.0000 (   459 PWs)   bands (ev):

    -8.0227  13.8080  13.8080  13.8080

          k =-0.2516 0.2516-0.2516 (   459 PWs)   bands (ev):

    -6.2642   7.0872  11.9998  11.9998

          k = 0.5033-0.5033 0.5033 (   464 PWs)   bands (ev):

    -1.9613   0.0154  10.9167  10.9167

          k = 0.0000 0.5033 0.0000 (   456 PWs)   bands (ev):

    -5.6819   9.3600   9.5266   9.5266

          k = 0.7549-0.2516 0.7549 (   447 PWs)   bands (ev):

    -1.8146   2.8298   6.9066   8.7523

          k = 0.5033 0.0000 0.5033 (   443 PWs)   bands (ev):

    -3.4293   5.0249   5.9410  10.6906

          k = 0.0000-1.0066 0.0000 (   444 PWs)   bands (ev):

     0.9239   0.9239   7.2791   7.2791

          k =-0.5033-1.0066 0.0000 (   444 PWs)   bands (ev):

     1.8237   1.8237   5.1098   5.1098

     highest occupied level (ev):    13.8080

!    total energy              =     -23.04771705 Ry
     estimated scf accuracy    <          7.7E-10 Ry

     The total energy is the sum of the following terms:
     one-electron contribution =       8.36731161 Ry
     hartree contribution      =       1.89522637 Ry
     xc contribution           =      -7.41247824 Ry
     ewald contribution        =     -25.89777678 Ry

     convergence has been achieved in   4 iterations

     Forces acting on atoms (cartesian axes, Ry/au):

     atom    1 type  1   force =     0.00000000    0.00000000    0.00000000
     atom    2 type  1   force =     0.00000000   -0.00000000    0.00000000

     Total force =     0.000000     Total SCF correction =     0.000000


     Computing stress (Cartesian axis) and pressure

          total   stress  (Ry/bohr**3)                   (kbar)     P=       53.26
   0.00036207   0.00000000  -0.00000000           53.26        0.00       -0.00
   0.00000000   0.00036207   0.00000000            0.00       53.26        0.00
  -0.00000000   0.00000000   0.00036207           -0.00        0.00       53.26

     Energy error            =      7.4E-05 Ry
     Gradient error          =      1.2E-32 Ry/Bohr
     Cell gradient error     =      5.3E+01 kbar

     number of scf cycles    =   2
     number of bfgs steps    =   1

     enthalpy           old  =     -23.0477911155 Ry
     enthalpy           new  =     -23.0477170481 Ry

     CASE: enthalpy          _new > enthalpy          _old

     new trust radius        =       0.0047575884 bohr
     new conv_thr            =       0.0000000100 Ry

     new unit-cell volume =     74.57160 a.u.^3 (    11.05037 Ang^3 )
     density =      3.60979 g/cm^3

CELL_PARAMETERS (alat=  6.70000000)
  -0.498623827   0.000000000   0.498623827
  -0.000000000   0.498623827   0.498623827
  -0.498623827   0.498623827   0.000000000

ATOMIC_POSITIONS (alat)
C                0.0000000000        0.0000000000        0.0000000000
C                0.2493119136        0.2493119136        0.2493119136



     Writing config-only to output data dir ./diamond.save/ :
     XML data file
     NEW-OLD atomic charge density approx. for the potential

     total cpu time spent up to now is        0.5 secs

     Self-consistent Calculation

     iteration #  1     ecut=    50.00 Ry     beta= 0.70
     CG style diagonalization
     ethr =  1.00E-06,  avg # of iterations =  4.1

     total cpu time spent up to now is        0.6 secs

     total energy              =     -23.04786806 Ry
     estimated scf accuracy    <       0.00001944 Ry

     iteration #  2     ecut=    50.00 Ry     beta= 0.70
     CG style diagonalization
     ethr =  2.43E-07,  avg # of iterations =  3.5

     total cpu time spent up to now is        0.6 secs

     total energy              =     -23.04787074 Ry
     estimated scf accuracy    <       0.00000018 Ry

     iteration #  3     ecut=    50.00 Ry     beta= 0.70
     CG style diagonalization
     ethr =  2.24E-09,  avg # of iterations =  4.5

     total cpu time spent up to now is        0.6 secs

     End of self-consistent calculation

          k = 0.0000 0.0000 0.0000 (   459 PWs)   bands (ev):

    -8.0775  13.5973  13.5973  13.5973

          k =-0.2507 0.2507-0.2507 (   459 PWs)   bands (ev):

    -6.3326   6.9319  11.8090  11.8090

          k = 0.5014-0.5014 0.5014 (   464 PWs)   bands (ev):

    -2.0836  -0.0653  10.7360  10.7360

          k = 0.0000 0.5014 0.0000 (   456 PWs)   bands (ev):

    -5.7547   9.1634   9.3644   9.3644

          k = 0.7521-0.2507 0.7521 (   447 PWs)   bands (ev):

    -1.9226   2.7040   6.7558   8.5968

          k = 0.5014 0.0000 0.5014 (   443 PWs)   bands (ev):

    -3.5217   4.8730   5.8095  10.5136

          k = 0.0000-1.0028 0.0000 (   444 PWs)   bands (ev):

     0.7963   0.7963   7.1389   7.1389

          k =-0.5014-1.0028-0.0000 (   444 PWs)   bands (ev):

     1.6760   1.6760   5.0000   5.0000

     highest occupied level (ev):    13.5973

!    total energy              =     -23.04787092 Ry
     estimated scf accuracy    <          7.5E-09 Ry

     The total energy is the sum of the following terms:
     one-electron contribution =       8.23765899 Ry
     hartree contribution      =       1.90640426 Ry
     xc contribution           =      -7.39293575 Ry
     ewald contribution        =     -25.79899842 Ry

     convergence has been achieved in   3 iterations

     Forces acting on atoms (cartesian axes, Ry/au):

     atom    1 type  1   force =    -0.00000000   -0.00000000    0.00000000
     atom    2 type  1   force =     0.00000000    0.00000000   -0.00000000

     Total force =     0.000000     Total SCF correction =     0.000000


     Computing stress (Cartesian axis) and pressure

          total   stress  (Ry/bohr**3)                   (kbar)     P=       -0.97
  -0.00000656   0.00000000   0.00000000           -0.97        0.00        0.00
   0.00000000  -0.00000656  -0.00000000            0.00       -0.97       -0.00
   0.00000000  -0.00000000  -0.00000656            0.00       -0.00       -0.97

     Energy error            =      8.0E-05 Ry
     Gradient error          =      4.1E-32 Ry/Bohr
     Cell gradient error     =      9.7E-01 kbar

     number of scf cycles    =   3
     number of bfgs steps    =   1

     enthalpy           old  =     -23.0477911155 Ry
     enthalpy           new  =     -23.0478709240 Ry

     CASE: enthalpy          _new < enthalpy          _old

     new trust radius        =       0.0001217046 bohr
     new conv_thr            =            1.0E-10 Ry

     new unit-cell volume =     74.55584 a.u.^3 (    11.04804 Ang^3 )
     density =      3.61055 g/cm^3

CELL_PARAMETERS (alat=  6.70000000)
  -0.498588690   0.000000000   0.498588690
  -0.000000000   0.498588690   0.498588690
  -0.498588690   0.498588690   0.000000000

ATOMIC_POSITIONS (alat)
C               -0.0000000000       -0.0000000000        0.0000000000
C                0.2492943451        0.2492943451        0.2492943451



     Writing config-only to output data dir ./diamond.save/ :
     XML data file
     NEW-OLD atomic charge density approx. for the potential

     total cpu time spent up to now is        0.7 secs

     Self-consistent Calculation

     iteration #  1     ecut=    50.00 Ry     beta= 0.70
     CG style diagonalization
     ethr =  1.00E-06,  avg # of iterations =  2.0

     Threshold (ethr) on eigenvalues was too large:
     Diagonalizing with lowered threshold

     CG style diagonalization
     ethr =  1.69E-10,  avg # of iterations =  3.1

     total cpu time spent up to now is        0.7 secs

     total energy              =     -23.04787096 Ry
     estimated scf accuracy    <          9.4E-09 Ry

     iteration #  2     ecut=    50.00 Ry     beta= 0.70
     CG style diagonalization
     ethr =  1.17E-10,  avg # of iterations =  3.2

     total cpu time spent up to now is        0.7 secs

     End of self-consistent calculation

          k = 0.0000 0.0000 0.0000 (   459 PWs)   bands (ev):

    -8.0766  13.6010  13.6010  13.6010

          k =-0.2507 0.2507-0.2507 (   459 PWs)   bands (ev):

    -6.3315   6.9346  11.8124  11.8124

          k = 0.5014-0.5014 0.5014 (   464 PWs)   bands (ev):

    -2.0815  -0.0639  10.7392  10.7392

          k = 0.0000 0.5014 0.0000 (   456 PWs)   bands (ev):

    -5.7535   9.1669   9.3672   9.3672

          k = 0.7521-0.2507 0.7521 (   447 PWs)   bands (ev):

    -1.9208   2.7062   6.7584   8.5996

          k = 0.5014 0.0000 0.5014 (   443 PWs)   bands (ev):

    -3.5201   4.8756   5.8117  10.5167

          k = 0.0000-1.0028 0.0000 (   444 PWs)   bands (ev):

     0.7985   0.7985   7.1413   7.1413

          k =-0.5014-1.0028 0.0000 (   444 PWs)   bands (ev):

     1.6786   1.6786   5.0019   5.0019

     highest occupied level (ev):    13.6010

!    total energy              =     -23.04787096 Ry
     estimated scf accuracy    <          1.0E-10 Ry

     The total energy is the sum of the following terms:
     one-electron contribution =       8.24001685 Ry
     hartree contribution      =       1.90623816 Ry
     xc contribution           =      -7.39330943 Ry
     ewald contribution        =     -25.80081654 Ry

     convergence has been achieved in   2 iterations

     Forces acting on atoms (cartesian axes, Ry/au):

     atom    1 type  1   force =     0.00000000    0.00000000    0.00000000
     atom    2 type  1   force =     0.00000000    0.00000000   -0.00000000

     Total force =     0.000000     Total SCF correction =     0.000000


     Computing stress (Cartesian axis) and pressure

          total   stress  (Ry/bohr**3)                   (kbar)     P=        0.17
   0.00000113   0.00000000   0.00000000            0.17        0.00        0.00
   0.00000000   0.00000113  -0.00000000            0.00        0.17       -0.00
   0.00000000  -0.00000000   0.00000113            0.00       -0.00        0.17

     Energy error            =      3.8E-08 Ry
     Gradient error          =      3.3E-32 Ry/Bohr
     Cell gradient error     =      1.7E-01 kbar

     bfgs converged in   4 scf cycles and   2 bfgs steps
     (criteria: energy <  1.0E-04 Ry, force <  1.0E-03 Ry/Bohr, cell <  5.0E-01 kbar)

     End of BFGS Geometry Optimization

     Final enthalpy           =     -23.0478709623 Ry

     File ./diamond.bfgs deleted, as requested
Begin final coordinates
     new unit-cell volume =     74.55584 a.u.^3 (    11.04804 Ang^3 )
     density =      3.61055 g/cm^3

CELL_PARAMETERS (alat=  6.70000000)
  -0.498588690   0.000000000   0.498588690
  -0.000000000   0.498588690   0.498588690
  -0.498588690   0.498588690   0.000000000

ATOMIC_POSITIONS (alat)
C               -0.0000000000       -0.0000000000        0.0000000000
C                0.2492943451        0.2492943451        0.2492943451
End final coordinates



     Writing config-only to output data dir ./diamond.save/ :
     XML data file

     Final scf calculation at the relaxed structure.
     The G-vectors are recalculated for the final unit cell
     Results may differ from those at the preceding step.
 
     Parallelization info
     --------------------
     sticks:   dense  smooth     PW     G-vecs:    dense   smooth      PW
     Min          76      31      9                 1416      352      64
     Max          77      32     10                 1418      354      66
     Sum         769     313     97                14163     3527     645
 
     Using Slab Decomposition
 


     bravais-lattice index     =            2
     lattice parameter (alat)  =       6.7000  a.u.
     unit-cell volume          =      74.5558 (a.u.)^3
     number of atoms/cell      =            2
     number of atomic types    =            1
     number of electrons       =         8.00
     number of Kohn-Sham states=            4
     kinetic-energy cutoff     =      50.0000  Ry
     charge density cutoff     =     500.0000  Ry
     scf convergence threshold =      1.0E-10
     mixing beta               =       0.7000
     number of iterations used =            8  plain     mixing
     press convergence thresh. =      5.0E-01
     Exchange-correlation= SLA  PZ   NOGX NOGC
                           (   1   1   0   0   0   0   0)

     celldm(1)=   6.700000  celldm(2)=   0.000000  celldm(3)=   0.000000
     celldm(4)=   0.000000  celldm(5)=   0.000000  celldm(6)=   0.000000

     crystal axes: (cart. coord. in units of alat)
               a(1) = (  -0.498589   0.000000   0.498589 )  
               a(2) = (  -0.000000   0.498589   0.498589 )  
               a(3) = (  -0.498589   0.498589   0.000000 )  

     reciprocal axes: (cart. coord. in units 2 pi/alat)
               b(1) = ( -1.002831 -1.002831  1.002831 )  
               b(2) = (  1.002831  1.002831  1.002831 )  
               b(3) = ( -1.002831  1.002831 -1.002831 )  


     PseudoPot. # 1 for C  read from file:
     /scratch/11018/zhc/Assisgnment2/Q2/Diamond/Diamond/C_LDA.UPF
     MD5 check sum: 407c1fe918d93b14b177d5600f28733c
     Pseudo is Ultrasoft + core correction, Zval =  4.0
     Generated by new atomic code, or converted to UPF format
     Using radial grid of  721 points,  4 beta functions with: 
                l(1) =   0
                l(2) =   0
                l(3) =   1
                l(4) =   1
     Q(r) pseudized with  8 coefficients,  rinner =    1.100   1.100   1.100


     atomic species   valence    mass     pseudopotential
     C                 4.00    12.01100     C ( 1.00)

     48 Sym. Ops., with inversion, found (24 have fractional translation)



   Cartesian axes

     site n.     atom                  positions (alat units)
         1        C      tau(   1) = (  -0.0000000  -0.0000000   0.0000000  )
         2        C      tau(   2) = (   0.2492943   0.2492943   0.2492943  )

     number of k points=     8
                       cart. coord. in units 2pi/alat
        k(    1) = (   0.0000000   0.0000000   0.0000000), wk =   0.0312500
        k(    2) = (  -0.2507077   0.2507077  -0.2507077), wk =   0.2500000
        k(    3) = (   0.5014153  -0.5014153   0.5014153), wk =   0.1250000
        k(    4) = (   0.0000000   0.5014153   0.0000000), wk =   0.1875000
        k(    5) = (   0.7521230  -0.2507077   0.7521230), wk =   0.7500000
        k(    6) = (   0.5014153   0.0000000   0.5014153), wk =   0.3750000
        k(    7) = (   0.0000000  -1.0028306   0.0000000), wk =   0.0937500
        k(    8) = (  -0.5014153  -1.0028306   0.0000000), wk =   0.1875000

     Dense  grid:    14163 G-vectors     FFT dimensions: (  36,  36,  36)

     Smooth grid:     3527 G-vectors     FFT dimensions: (  24,  24,  24)

     Estimated max dynamical RAM per process >       3.09 MB

     Estimated total dynamical RAM >      30.89 MB

     Initial potential from superposition of free atoms

     starting charge       7.9999, renormalised to       8.0000
     Starting wfcs are    8 randomized atomic wfcs

     total cpu time spent up to now is        0.8 secs

     Self-consistent Calculation

     iteration #  1     ecut=    50.00 Ry     beta= 0.70
     CG style diagonalization
     ethr =  1.00E-06,  avg # of iterations =  6.7

     total cpu time spent up to now is        0.8 secs

     total energy              =     -23.03547356 Ry
     estimated scf accuracy    <       0.13769375 Ry

     iteration #  2     ecut=    50.00 Ry     beta= 0.70
     CG style diagonalization
     ethr =  1.72E-03,  avg # of iterations =  3.2

     total cpu time spent up to now is        0.8 secs

     total energy              =     -23.04713132 Ry
     estimated scf accuracy    <       0.00209282 Ry

     iteration #  3     ecut=    50.00 Ry     beta= 0.70
     CG style diagonalization
     ethr =  2.62E-05,  avg # of iterations =  4.1

     total cpu time spent up to now is        0.9 secs

     total energy              =     -23.04784227 Ry
     estimated scf accuracy    <       0.00003099 Ry

     iteration #  4     ecut=    50.00 Ry     beta= 0.70
     CG style diagonalization
     ethr =  3.87E-07,  avg # of iterations =  4.2

     total cpu time spent up to now is        0.9 secs

     total energy              =     -23.04786754 Ry
     estimated scf accuracy    <       0.00000168 Ry

     iteration #  5     ecut=    50.00 Ry     beta= 0.70
     CG style diagonalization
     ethr =  2.10E-08,  avg # of iterations =  3.7

     total cpu time spent up to now is        0.9 secs

     total energy              =     -23.04786799 Ry
     estimated scf accuracy    <          3.8E-09 Ry

     iteration #  6     ecut=    50.00 Ry     beta= 0.70
     CG style diagonalization
     ethr =  4.81E-11,  avg # of iterations =  5.3

     total cpu time spent up to now is        0.9 secs

     total energy              =     -23.04786801 Ry
     estimated scf accuracy    <          3.8E-10 Ry

     iteration #  7     ecut=    50.00 Ry     beta= 0.70
     CG style diagonalization
     ethr =  4.80E-12,  avg # of iterations =  3.8

     total cpu time spent up to now is        1.0 secs

     End of self-consistent calculation

          k = 0.0000 0.0000 0.0000 (   459 PWs)   bands (ev):

    -8.0766  13.6010  13.6010  13.6010

          k =-0.2507 0.2507-0.2507 (   450 PWs)   bands (ev):

    -6.3315   6.9346  11.8125  11.8125

          k = 0.5014-0.5014 0.5014 (   434 PWs)   bands (ev):

    -2.0815  -0.0639  10.7392  10.7392

          k = 0.0000 0.5014 0.0000 (   456 PWs)   bands (ev):

    -5.7535   9.1669   9.3673   9.3673

          k = 0.7521-0.2507 0.7521 (   447 PWs)   bands (ev):

    -1.9208   2.7062   6.7584   8.5996

          k = 0.5014 0.0000 0.5014 (   443 PWs)   bands (ev):

    -3.5201   4.8757   5.8118  10.5167

          k = 0.0000-1.0028 0.0000 (   444 PWs)   bands (ev):

     0.7985   0.7985   7.1414   7.1414

          k =-0.5014-1.0028 0.0000 (   444 PWs)   bands (ev):

     1.6786   1.6786   5.0019   5.0019

     highest occupied level (ev):    13.6010

!    total energy              =     -23.04786801 Ry
     estimated scf accuracy    <          2.7E-11 Ry

     The total energy is the sum of the following terms:
     one-electron contribution =       8.24002500 Ry
     hartree contribution      =       1.90622969 Ry
     xc contribution           =      -7.39330615 Ry
     ewald contribution        =     -25.80081654 Ry

     convergence has been achieved in   7 iterations

     Forces acting on atoms (cartesian axes, Ry/au):

     atom    1 type  1   force =    -0.00000000   -0.00000000    0.00000000
     atom    2 type  1   force =     0.00000000    0.00000000   -0.00000000

     Total force =     0.000000     Total SCF correction =     0.000000


     Computing stress (Cartesian axis) and pressure

          total   stress  (Ry/bohr**3)                   (kbar)     P=        0.06
   0.00000042  -0.00000000  -0.00000000            0.06       -0.00       -0.00
  -0.00000000   0.00000042   0.00000000           -0.00        0.06        0.00
  -0.00000000   0.00000000   0.00000042           -0.00        0.00        0.06


     Writing all to output data dir ./diamond.save/ :
     XML data file, charge density, pseudopotentials, collected wavefunctions
 
     init_run     :      0.07s CPU      0.14s WALL (       2 calls)
     electrons    :      0.50s CPU      0.60s WALL (       5 calls)
     update_pot   :      0.00s CPU      0.01s WALL (       3 calls)
     forces       :      0.01s CPU      0.02s WALL (       5 calls)
     stress       :      0.04s CPU      0.04s WALL (       5 calls)

     Called by init_run:
     wfcinit      :      0.01s CPU      0.04s WALL (       2 calls)
     potinit      :      0.01s CPU      0.01s WALL (       2 calls)
     hinit0       :      0.04s CPU      0.06s WALL (       2 calls)

     Called by electrons:
     c_bands      :      0.40s CPU      0.44s WALL (      23 calls)
     sum_band     :      0.06s CPU      0.06s WALL (      23 calls)
     v_of_rho     :      0.01s CPU      0.01s WALL (      27 calls)
     newd         :      0.02s CPU      0.03s WALL (      27 calls)
     mix_rho      :      0.01s CPU      0.01s WALL (      23 calls)

     Called by c_bands:
     init_us_2    :      0.01s CPU      0.01s WALL (     464 calls)
     init_us_2:cp :      0.00s CPU      0.01s WALL (     464 calls)
     ccgdiagg     :      0.35s CPU      0.38s WALL (     184 calls)
     wfcrot       :      0.05s CPU      0.08s WALL (     152 calls)

     Called by *cgdiagg:
     h_psi        :      0.20s CPU      0.22s WALL (    2499 calls)
     s_psi        :      0.01s CPU      0.01s WALL (    4846 calls)

     Called by h_psi:
     h_psi:calbec :      0.04s CPU      0.04s WALL (    2499 calls)
     vloc_psi     :      0.14s CPU      0.15s WALL (    2499 calls)
     add_vuspsi   :      0.01s CPU      0.01s WALL (    2499 calls)
     hs_1psi      :      0.19s CPU      0.20s WALL (    2347 calls)
     s_1psi       :      0.05s CPU      0.05s WALL (    2347 calls)

     General routines
     calbec       :      0.06s CPU      0.07s WALL (    5230 calls)
     fft          :      0.01s CPU      0.03s WALL (     196 calls)
     ffts         :      0.00s CPU      0.00s WALL (      50 calls)
     fftw         :      0.12s CPU      0.14s WALL (    6774 calls)
     interpolate  :      0.00s CPU      0.01s WALL (      27 calls)
 
     Parallel routines
 
     PWSCF        :      0.71s CPU      1.08s WALL

 
   This run was terminated on:  20:36:53  18Oct2025            

=------------------------------------------------------------------------------=
   JOB DONE.
=------------------------------------------------------------------------------=
TACC:  Shutdown complete. Exiting. 
