TACC:  Starting up job 2403589 
TACC:  Starting parallel tasks... 

     Program PWSCF v.7.3 starts on 23Sep2025 at 13:26:47 

     This program is part of the open-source Quantum ESPRESSO suite
     for quantum simulation of materials; please cite
         "P. Giannozzi et al., J. Phys.:Condens. Matter 21 395502 (2009);
         "P. Giannozzi et al., J. Phys.:Condens. Matter 29 465901 (2017);
         "P. Giannozzi et al., J. Chem. Phys. 152 154105 (2020);
          URL http://www.quantum-espresso.org", 
     in publications or presentations arising from this work. More details at
     http://www.quantum-espresso.org/quote

     Parallel version (MPI & OpenMP), running on      10 processor cores
     Number of MPI processes:                10
     Threads/MPI process:                     1

     MPI processes distributed on     1 nodes
     187084 MiB available memory on the printing compute node when the environment starts
 
     Waiting for input...
     Reading input from standard input
Warning: card &CELL ignored
Warning: card  CELL_DYNAMICS = 'BFGS', ignored
Warning: card  PRESS=0.D0, ignored
Warning: card / ignored
     Message from routine read_cards :
     DEPRECATED: no units specified in ATOMIC_POSITIONS card
     Message from routine read_cards :
     ATOMIC_POSITIONS: units set to alat

     Current dimensions of program PWSCF are:
     Max number of different atomic species (ntypx) = 10
     Max number of k-points (npk) =  40000
     Max angular momentum in pseudopotentials (lmaxx) =  4
 
     R & G space division:  proc/nbgrp/npool/nimage =      10
     Subspace diagonalization in iterative solution of the eigenvalue problem:
     a serial algorithm will be used

 
     Parallelization info
     --------------------
     sticks:   dense  smooth     PW     G-vecs:    dense   smooth      PW
     Min         430     173     48                21291     5381     802
     Max         431     175     50                21292     5382     805
     Sum        4309    1733    489               212911    53811    8025
 
     Using Slab Decomposition
 


     bravais-lattice index     =            1
     lattice parameter (alat)  =       7.3573  a.u.
     unit-cell volume          =     398.2496 (a.u.)^3
     number of atoms/cell      =            5
     number of atomic types    =            3
     number of electrons       =        40.00
     number of Kohn-Sham states=           20
     kinetic-energy cutoff     =     100.0000  Ry
     charge density cutoff     =    1000.0000  Ry
     scf convergence threshold =      1.0E-08
     mixing beta               =       0.7000
     number of iterations used =            8  plain     mixing
     Exchange-correlation= SLA  PZ   NOGX NOGC
                           (   1   1   0   0   0   0   0)

     celldm(1)=   7.357300  celldm(2)=   0.000000  celldm(3)=   0.000000
     celldm(4)=   0.000000  celldm(5)=   0.000000  celldm(6)=   0.000000

     crystal axes: (cart. coord. in units of alat)
               a(1) = (   1.000000   0.000000   0.000000 )  
               a(2) = (   0.000000   1.000000   0.000000 )  
               a(3) = (   0.000000   0.000000   1.000000 )  

     reciprocal axes: (cart. coord. in units 2 pi/alat)
               b(1) = (  1.000000  0.000000  0.000000 )  
               b(2) = (  0.000000  1.000000  0.000000 )  
               b(3) = (  0.000000  0.000000  1.000000 )  


     PseudoPot. # 1 for Ca read from file:
     /scratch/11018/zhc/assisgnment1/CaTiO3/Ca_LDA.UPF
     MD5 check sum: d2d4e7693e10d071152e9eeb7dd009f3
     Pseudo is Ultrasoft + core correction, Zval = 10.0
     Generated by new atomic code, or converted to UPF format
     Using radial grid of  845 points,  6 beta functions with: 
                l(1) =   0
                l(2) =   0
                l(3) =   1
                l(4) =   1
                l(5) =   2
                l(6) =   2
     Q(r) pseudized with  8 coefficients,  rinner =    1.500   1.500   1.500
                                                       1.500   1.500

     PseudoPot. # 2 for Ti read from file:
     /scratch/11018/zhc/assisgnment1/CaTiO3/Ti_LDA.UPF
     MD5 check sum: 0d9f225c038fe889ca2a701dcc8d72cb
     Pseudo is Ultrasoft + core correction, Zval = 12.0
     Generated by new atomic code, or converted to UPF format
     Using radial grid of  851 points,  6 beta functions with: 
                l(1) =   0
                l(2) =   0
                l(3) =   1
                l(4) =   1
                l(5) =   2
                l(6) =   2
     Q(r) pseudized with  6 coefficients,  rinner =    1.000   1.000   1.000
                                                       1.000   1.000

     PseudoPot. # 3 for O  read from file:
     /scratch/11018/zhc/assisgnment1/CaTiO3/O_LDA.UPF
     MD5 check sum: 194b818514d2a7dbb603bb78519a4f40
     Pseudo is Ultrasoft + core correction, Zval =  6.0
     Generated by new atomic code, or converted to UPF format
     Using radial grid of  737 points,  5 beta functions with: 
                l(1) =   0
                l(2) =   0
                l(3) =   1
                l(4) =   1
                l(5) =   2
     Q(r) pseudized with  8 coefficients,  rinner =    0.900   0.900   0.900
                                                       0.900   0.900

     atomic species   valence    mass     pseudopotential
     Ca               10.00    40.07800     Ca( 1.00)
     Ti               12.00    47.88000     Ti( 1.00)
     O                 6.00    16.00000     O ( 1.00)

      8 Sym. Ops. (no inversion) found



   Cartesian axes

     site n.     atom                  positions (alat units)
         1        Ca     tau(   1) = (   0.0000000   0.0000000   0.0500000  )
         2        Ti     tau(   2) = (   0.5000000   0.5000000   0.5000000  )
         3        O      tau(   3) = (   0.5000000   0.5000000   0.0000000  )
         4        O      tau(   4) = (   0.5000000   0.0000000   0.5000000  )
         5        O      tau(   5) = (   0.0000000   0.5000000   0.5000000  )

     number of k points=    18
                       cart. coord. in units 2pi/alat
        k(    1) = (   0.0000000   0.0000000   0.0000000), wk =   0.0160000
        k(    2) = (   0.0000000   0.0000000   0.2000000), wk =   0.0320000
        k(    3) = (   0.0000000   0.0000000   0.4000000), wk =   0.0320000
        k(    4) = (   0.0000000   0.2000000   0.2000000), wk =   0.1280000
        k(    5) = (   0.0000000   0.2000000   0.4000000), wk =   0.1280000
        k(    6) = (   0.0000000   0.4000000   0.4000000), wk =   0.1280000
        k(    7) = (   0.2000000   0.2000000   0.2000000), wk =   0.1280000
        k(    8) = (   0.2000000   0.2000000   0.4000000), wk =   0.1280000
        k(    9) = (   0.2000000   0.4000000   0.4000000), wk =   0.2560000
        k(   10) = (   0.4000000   0.4000000   0.4000000), wk =   0.1280000
        k(   11) = (   0.2000000   0.0000000   0.0000000), wk =   0.0640000
        k(   12) = (   0.4000000   0.0000000   0.0000000), wk =   0.0640000
        k(   13) = (   0.2000000  -0.2000000   0.0000000), wk =   0.0640000
        k(   14) = (   0.4000000  -0.2000000   0.0000000), wk =   0.1280000
        k(   15) = (   0.0000000   0.4000000   0.2000000), wk =   0.1280000
        k(   16) = (   0.4000000  -0.4000000   0.0000000), wk =   0.0640000
        k(   17) = (   0.4000000  -0.2000000   0.2000000), wk =   0.2560000
        k(   18) = (   0.4000000  -0.4000000   0.2000000), wk =   0.1280000

     Dense  grid:   212911 G-vectors     FFT dimensions: (  75,  75,  75)

     Smooth grid:    53811 G-vectors     FFT dimensions: (  48,  48,  48)

     Estimated max dynamical RAM per process >      90.70 MB

     Estimated total dynamical RAM >     906.99 MB

     Check: negative core charge=   -0.000001

     Initial potential from superposition of free atoms

     starting charge      38.9952, renormalised to      40.0000

     negative rho (up, down):  8.541E-04 0.000E+00
     Starting wfcs are   32 randomized atomic wfcs

     total cpu time spent up to now is        0.9 secs

     Self-consistent Calculation

     iteration #  1     ecut=   100.00 Ry     beta= 0.70
     CG style diagonalization
     ethr =  1.00E-02,  avg # of iterations =  2.2

     negative rho (up, down):  1.119E-03 0.000E+00

     total cpu time spent up to now is        1.6 secs

     total energy              =    -291.28913849 Ry
     estimated scf accuracy    <       0.84244130 Ry

     iteration #  2     ecut=   100.00 Ry     beta= 0.70
     CG style diagonalization
     ethr =  2.11E-03,  avg # of iterations =  5.3

     negative rho (up, down):  6.454E-04 0.000E+00

     total cpu time spent up to now is        2.8 secs

     total energy              =    -290.58136343 Ry
     estimated scf accuracy    <       6.75377812 Ry

     iteration #  3     ecut=   100.00 Ry     beta= 0.70
     CG style diagonalization
     ethr =  2.11E-03,  avg # of iterations =  4.6

     negative rho (up, down):  7.436E-04 0.000E+00

     total cpu time spent up to now is        3.9 secs

     total energy              =    -291.72749656 Ry
     estimated scf accuracy    <       0.16867870 Ry

     iteration #  4     ecut=   100.00 Ry     beta= 0.70
     CG style diagonalization
     ethr =  4.22E-04,  avg # of iterations =  3.6

     negative rho (up, down):  8.230E-04 0.000E+00

     total cpu time spent up to now is        4.8 secs

     total energy              =    -291.74109794 Ry
     estimated scf accuracy    <       0.05603861 Ry

     iteration #  5     ecut=   100.00 Ry     beta= 0.70
     CG style diagonalization
     ethr =  1.40E-04,  avg # of iterations =  3.5

     negative rho (up, down):  8.557E-04 0.000E+00

     total cpu time spent up to now is        5.6 secs

     total energy              =    -291.75109765 Ry
     estimated scf accuracy    <       0.00127148 Ry

     iteration #  6     ecut=   100.00 Ry     beta= 0.70
     CG style diagonalization
     ethr =  3.18E-06,  avg # of iterations =  4.6

     negative rho (up, down):  8.633E-04 0.000E+00

     total cpu time spent up to now is        6.7 secs

     total energy              =    -291.75267959 Ry
     estimated scf accuracy    <       0.00062612 Ry

     iteration #  7     ecut=   100.00 Ry     beta= 0.70
     CG style diagonalization
     ethr =  1.57E-06,  avg # of iterations =  3.5

     negative rho (up, down):  8.551E-04 0.000E+00

     total cpu time spent up to now is        7.5 secs

     total energy              =    -291.75260335 Ry
     estimated scf accuracy    <       0.00055070 Ry

     iteration #  8     ecut=   100.00 Ry     beta= 0.70
     CG style diagonalization
     ethr =  1.38E-06,  avg # of iterations =  3.3

     negative rho (up, down):  8.530E-04 0.000E+00

     total cpu time spent up to now is        8.3 secs

     total energy              =    -291.75262135 Ry
     estimated scf accuracy    <       0.00011473 Ry

     iteration #  9     ecut=   100.00 Ry     beta= 0.70
     CG style diagonalization
     ethr =  2.87E-07,  avg # of iterations =  3.6

     negative rho (up, down):  8.511E-04 0.000E+00

     total cpu time spent up to now is        9.2 secs

     total energy              =    -291.75264172 Ry
     estimated scf accuracy    <       0.00000340 Ry

     iteration # 10     ecut=   100.00 Ry     beta= 0.70
     CG style diagonalization
     ethr =  8.50E-09,  avg # of iterations =  4.7

     negative rho (up, down):  8.516E-04 0.000E+00

     total cpu time spent up to now is       10.3 secs

     total energy              =    -291.75264654 Ry
     estimated scf accuracy    <       0.00000359 Ry

     iteration # 11     ecut=   100.00 Ry     beta= 0.70
     CG style diagonalization
     ethr =  8.50E-09,  avg # of iterations =  3.3

     negative rho (up, down):  8.517E-04 0.000E+00

     total cpu time spent up to now is       11.1 secs

     total energy              =    -291.75264676 Ry
     estimated scf accuracy    <       0.00000048 Ry

     iteration # 12     ecut=   100.00 Ry     beta= 0.70
     CG style diagonalization
     ethr =  1.20E-09,  avg # of iterations =  3.8

     negative rho (up, down):  8.517E-04 0.000E+00

     total cpu time spent up to now is       12.0 secs

     total energy              =    -291.75264687 Ry
     estimated scf accuracy    <       0.00000002 Ry

     iteration # 13     ecut=   100.00 Ry     beta= 0.70
     CG style diagonalization
     ethr =  4.33E-11,  avg # of iterations =  4.3

     negative rho (up, down):  8.516E-04 0.000E+00

     total cpu time spent up to now is       13.0 secs

     End of self-consistent calculation

          k = 0.0000 0.0000 0.0000 (  6763 PWs)   bands (ev):

   -47.1801 -30.1511 -23.7756 -23.7756 -23.7669 -11.3739 -11.3520 -11.3520
    -8.5669  -7.4897  -7.4399   5.5460   5.5506   5.5506   7.4454   7.4516
     7.4516   8.1761   8.1761   8.1915

          k = 0.0000 0.0000 0.2000 (  6759 PWs)   bands (ev):

   -47.1797 -30.1491 -23.7918 -23.7745 -23.7745 -11.4582 -11.3482 -11.3482
    -8.3494  -7.4759  -7.3330   5.1313   5.5749   5.5749   6.9799   6.9799
     7.1358   7.1513   8.0041   8.0041

          k = 0.0000 0.0000 0.4000 (  6696 PWs)   bands (ev):

   -47.1790 -30.1458 -23.8317 -23.7726 -23.7726 -11.5834 -11.3420 -11.3420
    -7.9962  -7.4534  -7.1454   4.3778   5.7091   5.7091   6.0415   6.2561
     6.2561   6.7423   7.8871   7.8871

          k = 0.0000 0.2000 0.2000 (  6741 PWs)   bands (ev):

   -47.1793 -30.1469 -23.7997 -23.7909 -23.7733 -11.4579 -11.4055 -11.3442
    -8.1601  -7.4081  -7.2861   4.9060   5.3283   5.5918   6.0467   6.6918
     7.0709   7.2473   7.6903   7.7403

          k = 0.0000 0.2000 0.4000 (  6721 PWs)   bands (ev):

   -47.1786 -30.1435 -23.8310 -23.7981 -23.7714 -11.5498 -11.3968 -11.3375
    -7.8871  -7.3625  -7.0938   4.3481   4.8407   5.3985   5.7033   6.1389
     6.5060   7.1725   7.4514   7.7345

          k = 0.0000 0.4000 0.4000 (  6708 PWs)   bands (ev):

   -47.1780 -30.1399 -23.8388 -23.8299 -23.7696 -11.5007 -11.4774 -11.3302
    -7.8162  -7.0824  -7.0083   3.9791   4.2867   4.5268   5.7293   5.8960
     6.6631   6.7498   7.0053   8.4237

          k = 0.2000 0.2000 0.2000 (  6709 PWs)   bands (ev):

   -47.1789 -30.1448 -23.7987 -23.7985 -23.7898 -11.4544 -11.3953 -11.3939
    -7.9751  -7.3202  -7.2847   4.7214   5.2943   5.2989   5.9794   5.9837
     6.3588   7.5717   7.6136   7.8328

          k = 0.2000 0.2000 0.4000 (  6740 PWs)   bands (ev):

   -47.1782 -30.1413 -23.8301 -23.7971 -23.7967 -11.5221 -11.3952 -11.3784
    -7.7163  -7.3243  -7.0732   4.3255   4.7780   5.1000   5.2068   5.5798
     6.2593   7.5066   7.5372   7.8838

          k = 0.2000 0.4000 0.4000 (  6702 PWs)   bands (ev):

   -47.1776 -30.1377 -23.8376 -23.8286 -23.7949 -11.4816 -11.4603 -11.3707
    -7.5804  -7.0974  -7.0341   4.0969   4.3185   4.5313   5.0041   5.1010
     5.8434   7.5965   7.6661   8.4446

          k = 0.4000 0.4000 0.4000 (  6746 PWs)   bands (ev):

   -47.1769 -30.1343 -23.8356 -23.8354 -23.8263 -11.4519 -11.4358 -11.4300
    -7.1886  -7.1020  -7.0731   4.1347   4.3890   4.4411   4.4511   4.5600
     4.5795   8.3338   8.3817   8.5142

          k = 0.2000 0.0000 0.0000 (  6759 PWs)   bands (ev):

   -47.1797 -30.1490 -23.8007 -23.7745 -23.7658 -11.4442 -11.3643 -11.3483
    -8.3439  -7.4464  -7.3659   5.1209   5.5750   5.5756   6.9571   6.9690
     7.1204   7.1885   8.0295   8.0353

          k = 0.4000 0.0000 0.0000 (  6696 PWs)   bands (ev):

   -47.1790 -30.1457 -23.8407 -23.7725 -23.7640 -11.5755 -11.3545 -11.3423
    -7.9779  -7.4262  -7.1861   4.3475   5.7214   5.7322   6.0431   6.2133
     6.2252   6.8050   7.9256   7.9256

          k = 0.2000-0.2000 0.0000 (  6741 PWs)   bands (ev):

   -47.1793 -30.1469 -23.8000 -23.7994 -23.7647 -11.4495 -11.4034 -11.3566
    -8.1532  -7.3812  -7.3178   4.8883   5.3265   5.5925   6.0400   6.7027
     7.1113   7.2788   7.6797   7.7132

          k = 0.4000-0.2000 0.0000 (  6721 PWs)   bands (ev):

   -47.1786 -30.1434 -23.8400 -23.7981 -23.7629 -11.5427 -11.3992 -11.3467
    -7.8631  -7.3433  -7.1318   4.3145   4.8113   5.4091   5.7370   6.1369
     6.5430   7.2235   7.4880   7.6795

          k = 0.0000 0.4000 0.2000 (  6721 PWs)   bands (ev):

   -47.1786 -30.1435 -23.8400 -23.7893 -23.7714 -11.5436 -11.4057 -11.3377
    -7.8782  -7.3312  -7.1312   4.3195   4.8295   5.4466   5.7140   6.1078
     6.4852   7.2090   7.4748   7.7508

          k = 0.4000-0.4000 0.0000 (  6708 PWs)   bands (ev):

   -47.1780 -30.1397 -23.8392 -23.8389 -23.7610 -11.4950 -11.4795 -11.3380
    -7.7836  -7.0858  -7.0317   3.9656   4.2595   4.5110   5.7601   5.9117
     6.7014   6.7806   7.0397   8.3468

          k = 0.4000-0.2000 0.2000 (  6740 PWs)   bands (ev):

   -47.1782 -30.1412 -23.8391 -23.7969 -23.7881 -11.5163 -11.4047 -11.3774
    -7.7013  -7.2999  -7.1095   4.2941   4.7553   5.0907   5.2384   5.6049
     6.2887   7.4728   7.5947   7.8699

          k = 0.4000-0.4000 0.2000 (  6702 PWs)   bands (ev):

   -47.1775 -30.1376 -23.8377 -23.8376 -23.7861 -11.4767 -11.4630 -11.3754
    -7.5481  -7.1020  -7.0583   4.0793   4.2959   4.5159   5.0258   5.1136
     5.8817   7.6455   7.6790   8.3771

     highest occupied level (ev):     8.5142

!    total energy              =    -291.75264689 Ry
     estimated scf accuracy    <          7.7E-09 Ry

     The total energy is the sum of the following terms:
     one-electron contribution =     -94.04556422 Ry
     hartree contribution      =      66.23646078 Ry
     xc contribution           =     -51.22362709 Ry
     ewald contribution        =    -212.71991636 Ry

     convergence has been achieved in  13 iterations

     negative rho (up, down):  8.516E-04 0.000E+00

     Forces acting on atoms (cartesian axes, Ry/au):

     atom    1 type  1   force =     0.00000000    0.00000000   -0.00155112
     atom    2 type  2   force =     0.00000000    0.00000000    0.01678802
     atom    3 type  3   force =     0.00000000    0.00000000    0.00787910
     atom    4 type  3   force =     0.00000000    0.00000000   -0.01155800
     atom    5 type  3   force =     0.00000000    0.00000000   -0.01155800

     Total force =     0.024769     Total SCF correction =     0.000040


     Computing stress (Cartesian axis) and pressure


     negative rho (up, down):  8.516E-04 0.000E+00
          total   stress  (Ry/bohr**3)                   (kbar)     P=     -113.42
  -0.00077204   0.00000000   0.00000000         -113.57        0.00        0.00
   0.00000000  -0.00077204   0.00000000            0.00     -113.57        0.00
   0.00000000   0.00000000  -0.00076889            0.00        0.00     -113.11


     Writing all to output data dir ./CTO_DIS_K5.save/ :
     XML data file, charge density, pseudopotentials, collected wavefunctions
 
     init_run     :      0.48s CPU      0.59s WALL (       1 calls)
     electrons    :     11.60s CPU     12.25s WALL (       1 calls)
     forces       :      0.22s CPU      0.23s WALL (       1 calls)
     stress       :      1.64s CPU      1.69s WALL (       1 calls)

     Called by init_run:
     wfcinit      :      0.18s CPU      0.20s WALL (       1 calls)
     potinit      :      0.02s CPU      0.02s WALL (       1 calls)
     hinit0       :      0.15s CPU      0.18s WALL (       1 calls)

     Called by electrons:
     c_bands      :      7.81s CPU      8.09s WALL (      13 calls)
     sum_band     :      2.28s CPU      2.42s WALL (      13 calls)
     v_of_rho     :      0.05s CPU      0.05s WALL (      14 calls)
     newd         :      1.50s CPU      1.68s WALL (      14 calls)
     mix_rho      :      0.03s CPU      0.04s WALL (      13 calls)

     Called by c_bands:
     init_us_2    :      0.13s CPU      0.14s WALL (     522 calls)
     init_us_2:cp :      0.13s CPU      0.14s WALL (     522 calls)
     ccgdiagg     :      6.72s CPU      6.96s WALL (     234 calls)
     wfcrot       :      1.15s CPU      1.21s WALL (     234 calls)

     Called by *cgdiagg:
     h_psi        :      4.92s CPU      5.09s WALL (   14065 calls)
     s_psi        :      0.94s CPU      0.97s WALL (   27896 calls)

     Called by h_psi:
     h_psi:calbec :      0.84s CPU      0.87s WALL (   14065 calls)
     vloc_psi     :      3.43s CPU      3.55s WALL (   14065 calls)
     add_vuspsi   :      0.52s CPU      0.54s WALL (   14065 calls)
     hs_1psi      :      4.49s CPU      4.65s WALL (   13831 calls)
     s_1psi       :      1.09s CPU      1.12s WALL (   13831 calls)

     General routines
     calbec       :      1.45s CPU      1.51s WALL (   28220 calls)
     fft          :      0.07s CPU      0.09s WALL (      90 calls)
     ffts         :      0.00s CPU      0.01s WALL (      27 calls)
     fftw         :      2.70s CPU      2.79s WALL (   42134 calls)
     interpolate  :      0.01s CPU      0.02s WALL (      14 calls)
 
     Parallel routines
 
     PWSCF        :     14.17s CPU     15.76s WALL

 
   This run was terminated on:  13:27: 2  23Sep2025            

=------------------------------------------------------------------------------=
   JOB DONE.
=------------------------------------------------------------------------------=
TACC:  Shutdown complete. Exiting. 
