TACC:  Starting up job 2547122 
TACC:  Starting parallel tasks... 

     Program PWSCF v.7.3 starts on 13Nov2025 at  0:20:36 

     This program is part of the open-source Quantum ESPRESSO suite
     for quantum simulation of materials; please cite
         "P. Giannozzi et al., J. Phys.:Condens. Matter 21 395502 (2009);
         "P. Giannozzi et al., J. Phys.:Condens. Matter 29 465901 (2017);
         "P. Giannozzi et al., J. Chem. Phys. 152 154105 (2020);
          URL http://www.quantum-espresso.org", 
     in publications or presentations arising from this work. More details at
     http://www.quantum-espresso.org/quote

     Parallel version (MPI & OpenMP), running on      10 processor cores
     Number of MPI processes:                10
     Threads/MPI process:                     1

     MPI processes distributed on     1 nodes
     186680 MiB available memory on the printing compute node when the environment starts
 
     Waiting for input...
     Reading input from standard input
Warning: card &CELL ignored
Warning: card  CELL_DYNAMICS = 'BFGS', ignored
Warning: card  PRESS=0.D0, ignored
Warning: card / ignored

     Current dimensions of program PWSCF are:
     Max number of different atomic species (ntypx) = 10
     Max number of k-points (npk) =  40000
     Max angular momentum in pseudopotentials (lmaxx) =  4
     Message from routine setup:
     using ibrav=0 with symmetry is DISCOURAGED, use correct ibrav instead
 
     R & G space division:  proc/nbgrp/npool/nimage =      10
     Subspace diagonalization in iterative solution of the eigenvalue problem:
     a serial algorithm will be used

 
     Parallelization info
     --------------------
     sticks:   dense  smooth     PW     G-vecs:    dense   smooth      PW
     Min         301     120     35                13157     3338     533
     Max         302     121     37                13160     3343     535
     Sum        3017    1201    357               131585    33385    5339
 
     Using Slab Decomposition
 


     bravais-lattice index     =            0
     lattice parameter (alat)  =       7.3699  a.u.
     unit-cell volume          =     420.8329 (a.u.)^3
     number of atoms/cell      =            5
     number of atomic types    =            3
     number of electrons       =        44.00
     number of Kohn-Sham states=           22
     kinetic-energy cutoff     =      70.0000  Ry
     charge density cutoff     =     700.0000  Ry
     scf convergence threshold =      1.0E-08
     mixing beta               =       0.7000
     number of iterations used =            8  plain     mixing
     energy convergence thresh.=      1.0E-04
     force convergence thresh. =      1.0E-03
     Exchange-correlation= SLA  PZ   NOGX NOGC
                           (   1   1   0   0   0   0   0)
     nstep                     =           50


     celldm(1)=   7.369932  celldm(2)=   0.000000  celldm(3)=   0.000000
     celldm(4)=   0.000000  celldm(5)=   0.000000  celldm(6)=   0.000000

     crystal axes: (cart. coord. in units of alat)
               a(1) = (   1.000000   0.000000   0.000000 )  
               a(2) = (   0.000000   1.000000   0.000000 )  
               a(3) = (   0.000000   0.000000   1.051282 )  

     reciprocal axes: (cart. coord. in units 2 pi/alat)
               b(1) = (  1.000000  0.000000  0.000000 )  
               b(2) = (  0.000000  1.000000  0.000000 )  
               b(3) = (  0.000000  0.000000  0.951220 )  


     PseudoPot. # 1 for Pb read from file:
     /scratch/11018/zhc/assisgnment3/input_files/Pb_LDA.UPF
     MD5 check sum: 062a37469794d955244864f8fe2e5624
     Pseudo is Ultrasoft + core correction, Zval = 14.0
     Generated by new atomic code, or converted to UPF format
     Using radial grid of  899 points,  6 beta functions with: 
                l(1) =   0
                l(2) =   0
                l(3) =   1
                l(4) =   1
                l(5) =   2
                l(6) =   2
     Q(r) pseudized with  6 coefficients,  rinner =    1.000   1.000   1.000
                                                       1.000   1.000

     PseudoPot. # 2 for Ti read from file:
     /scratch/11018/zhc/assisgnment3/input_files/Ti_LDA.UPF
     MD5 check sum: 0d9f225c038fe889ca2a701dcc8d72cb
     Pseudo is Ultrasoft + core correction, Zval = 12.0
     Generated by new atomic code, or converted to UPF format
     Using radial grid of  851 points,  6 beta functions with: 
                l(1) =   0
                l(2) =   0
                l(3) =   1
                l(4) =   1
                l(5) =   2
                l(6) =   2
     Q(r) pseudized with  6 coefficients,  rinner =    1.000   1.000   1.000
                                                       1.000   1.000

     PseudoPot. # 3 for O  read from file:
     /scratch/11018/zhc/assisgnment3/input_files/O_LDA.UPF
     MD5 check sum: 194b818514d2a7dbb603bb78519a4f40
     Pseudo is Ultrasoft + core correction, Zval =  6.0
     Generated by new atomic code, or converted to UPF format
     Using radial grid of  737 points,  5 beta functions with: 
                l(1) =   0
                l(2) =   0
                l(3) =   1
                l(4) =   1
                l(5) =   2
     Q(r) pseudized with  8 coefficients,  rinner =    0.900   0.900   0.900
                                                       0.900   0.900

     atomic species   valence    mass     pseudopotential
     Pb               14.00   207.20000     Pb( 1.00)
     Ti               12.00    47.88000     Ti( 1.00)
     O                 6.00    16.00000     O ( 1.00)

      8 Sym. Ops. (no inversion) found



   Cartesian axes

     site n.     atom                  positions (alat units)
         1        Pb     tau(   1) = (   0.0000000   0.0000000   1.0580339  )
         2        Ti     tau(   2) = (   0.5000000   0.5000000   0.5681377  )
         3        O      tau(   3) = (   0.5000000   0.5000000   0.1036357  )
         4        O      tau(   4) = (   0.5000000   0.0000000   0.6422586  )
         5        O      tau(   5) = (   0.0000000   0.5000000   0.6422586  )

     number of k points=    30
                       cart. coord. in units 2pi/alat
        k(    1) = (   0.0000000   0.0000000   0.0000000), wk =   0.0138889
        k(    2) = (   0.0000000   0.0000000   0.2378049), wk =   0.0277778
        k(    3) = (   0.0000000   0.0000000  -0.4756098), wk =   0.0138889
        k(    4) = (   0.0000000   0.1666667   0.0000000), wk =   0.0555556
        k(    5) = (   0.0000000   0.1666667   0.2378049), wk =   0.1111111
        k(    6) = (   0.0000000   0.1666667  -0.4756098), wk =   0.0555556
        k(    7) = (   0.0000000   0.3333333   0.0000000), wk =   0.0555556
        k(    8) = (   0.0000000   0.3333333   0.2378049), wk =   0.1111111
        k(    9) = (   0.0000000   0.3333333  -0.4756098), wk =   0.0555556
        k(   10) = (   0.0000000  -0.5000000   0.0000000), wk =   0.0277778
        k(   11) = (   0.0000000  -0.5000000   0.2378049), wk =   0.0555556
        k(   12) = (   0.0000000  -0.5000000  -0.4756098), wk =   0.0277778
        k(   13) = (   0.1666667   0.1666667   0.0000000), wk =   0.0555556
        k(   14) = (   0.1666667   0.1666667   0.2378049), wk =   0.1111111
        k(   15) = (   0.1666667   0.1666667  -0.4756098), wk =   0.0555556
        k(   16) = (   0.1666667   0.3333333   0.0000000), wk =   0.1111111
        k(   17) = (   0.1666667   0.3333333   0.2378049), wk =   0.2222222
        k(   18) = (   0.1666667   0.3333333  -0.4756098), wk =   0.1111111
        k(   19) = (   0.1666667  -0.5000000   0.0000000), wk =   0.0555556
        k(   20) = (   0.1666667  -0.5000000   0.2378049), wk =   0.1111111
        k(   21) = (   0.1666667  -0.5000000  -0.4756098), wk =   0.0555556
        k(   22) = (   0.3333333   0.3333333   0.0000000), wk =   0.0555556
        k(   23) = (   0.3333333   0.3333333   0.2378049), wk =   0.1111111
        k(   24) = (   0.3333333   0.3333333  -0.4756098), wk =   0.0555556
        k(   25) = (   0.3333333  -0.5000000   0.0000000), wk =   0.0555556
        k(   26) = (   0.3333333  -0.5000000   0.2378049), wk =   0.1111111
        k(   27) = (   0.3333333  -0.5000000  -0.4756098), wk =   0.0555556
        k(   28) = (  -0.5000000  -0.5000000   0.0000000), wk =   0.0138889
        k(   29) = (  -0.5000000  -0.5000000   0.2378049), wk =   0.0277778
        k(   30) = (  -0.5000000  -0.5000000  -0.4756098), wk =   0.0138889

     Dense  grid:   131585 G-vectors     FFT dimensions: (  64,  64,  72)

     Smooth grid:    33385 G-vectors     FFT dimensions: (  40,  40,  45)

     Estimated max dynamical RAM per process >      59.98 MB

     Estimated total dynamical RAM >     599.77 MB

     Check: negative core charge=   -0.000002

     Initial potential from superposition of free atoms

     starting charge      42.9982, renormalised to      44.0000

     negative rho (up, down):  1.706E-02 0.000E+00
     Starting wfcs are   31 randomized atomic wfcs

     total cpu time spent up to now is        1.0 secs

     Self-consistent Calculation

     iteration #  1     ecut=    70.00 Ry     beta= 0.70
     CG style diagonalization
     ethr =  1.00E-02,  avg # of iterations =  2.1

     negative rho (up, down):  1.434E-02 0.000E+00

     total cpu time spent up to now is        1.8 secs

     total energy              =    -380.04361453 Ry
     estimated scf accuracy    <       1.03928311 Ry

     iteration #  2     ecut=    70.00 Ry     beta= 0.70
     CG style diagonalization
     ethr =  2.36E-03,  avg # of iterations =  4.9

     negative rho (up, down):  1.456E-02 0.000E+00

     total cpu time spent up to now is        3.2 secs

     total energy              =    -379.54125354 Ry
     estimated scf accuracy    <       5.21525579 Ry

     iteration #  3     ecut=    70.00 Ry     beta= 0.70
     CG style diagonalization
     ethr =  2.36E-03,  avg # of iterations =  4.5

     negative rho (up, down):  1.539E-02 0.000E+00

     total cpu time spent up to now is        4.5 secs

     total energy              =    -380.53742539 Ry
     estimated scf accuracy    <       0.34083850 Ry

     iteration #  4     ecut=    70.00 Ry     beta= 0.70
     CG style diagonalization
     ethr =  7.75E-04,  avg # of iterations =  3.4

     negative rho (up, down):  1.544E-02 0.000E+00

     total cpu time spent up to now is        5.5 secs

     total energy              =    -380.55490482 Ry
     estimated scf accuracy    <       0.07609861 Ry

     iteration #  5     ecut=    70.00 Ry     beta= 0.70
     CG style diagonalization
     ethr =  1.73E-04,  avg # of iterations =  3.7

     negative rho (up, down):  1.547E-02 0.000E+00

     total cpu time spent up to now is        6.6 secs

     total energy              =    -380.56852168 Ry
     estimated scf accuracy    <       0.00733354 Ry

     iteration #  6     ecut=    70.00 Ry     beta= 0.70
     CG style diagonalization
     ethr =  1.67E-05,  avg # of iterations =  4.1

     negative rho (up, down):  1.547E-02 0.000E+00

     total cpu time spent up to now is        7.8 secs

     total energy              =    -380.57257552 Ry
     estimated scf accuracy    <       0.00589906 Ry

     iteration #  7     ecut=    70.00 Ry     beta= 0.70
     CG style diagonalization
     ethr =  1.34E-05,  avg # of iterations =  3.2

     negative rho (up, down):  1.547E-02 0.000E+00

     total cpu time spent up to now is        8.7 secs

     total energy              =    -380.57214170 Ry
     estimated scf accuracy    <       0.00264916 Ry

     iteration #  8     ecut=    70.00 Ry     beta= 0.70
     CG style diagonalization
     ethr =  6.02E-06,  avg # of iterations =  3.6

     negative rho (up, down):  1.548E-02 0.000E+00

     total cpu time spent up to now is        9.7 secs

     total energy              =    -380.57256085 Ry
     estimated scf accuracy    <       0.00003221 Ry

     iteration #  9     ecut=    70.00 Ry     beta= 0.70
     CG style diagonalization
     ethr =  7.32E-08,  avg # of iterations =  6.0

     negative rho (up, down):  1.551E-02 0.000E+00

     total cpu time spent up to now is       11.5 secs

     total energy              =    -380.57261966 Ry
     estimated scf accuracy    <       0.00000454 Ry

     iteration # 10     ecut=    70.00 Ry     beta= 0.70
     CG style diagonalization
     ethr =  1.03E-08,  avg # of iterations =  5.8

     negative rho (up, down):  1.559E-02 0.000E+00

     total cpu time spent up to now is       13.1 secs

     total energy              =    -380.57262443 Ry
     estimated scf accuracy    <       0.00000212 Ry

     iteration # 11     ecut=    70.00 Ry     beta= 0.70
     CG style diagonalization
     ethr =  4.81E-09,  avg # of iterations =  4.5

     negative rho (up, down):  1.561E-02 0.000E+00

     total cpu time spent up to now is       14.4 secs

     total energy              =    -380.57262513 Ry
     estimated scf accuracy    <       0.00000046 Ry

     iteration # 12     ecut=    70.00 Ry     beta= 0.70
     CG style diagonalization
     ethr =  1.05E-09,  avg # of iterations =  6.0

     negative rho (up, down):  1.561E-02 0.000E+00

     total cpu time spent up to now is       16.1 secs

     total energy              =    -380.57262562 Ry
     estimated scf accuracy    <       0.00000002 Ry

     iteration # 13     ecut=    70.00 Ry     beta= 0.70
     CG style diagonalization
     ethr =  4.04E-11,  avg # of iterations = 10.5

     negative rho (up, down):  1.561E-02 0.000E+00

     total cpu time spent up to now is       19.0 secs

     End of self-consistent calculation

          k = 0.0000 0.0000 0.0000 (  4121 PWs)   bands (ev):

   -45.8577 -22.4927 -22.4305 -22.4305  -7.5131  -6.4337  -6.2005  -5.0269
    -5.0269  -4.9919  -4.8705  -4.7660   4.2242   6.3077   6.3077   6.6263
     8.2746   8.2746   8.4912   8.7791   8.9398   8.9398

          k = 0.0000 0.0000 0.2378 (  4149 PWs)   bands (ev):

   -45.8574 -22.5122 -22.4297 -22.4297  -7.3203  -6.3748  -6.1427  -5.0421
    -5.0421  -4.9906  -4.8628  -4.8372   3.4624   6.3770   6.3770   6.7882
     8.0081   8.0081   8.4071   8.8276   9.0459   9.0459

          k = 0.0000 0.0000-0.4756 (  4180 PWs)   bands (ev):

   -45.8572 -22.5316 -22.4290 -22.4290  -7.1096  -6.3100  -6.0929  -5.0572
    -5.0572  -4.9894  -4.9143  -4.8570   2.9646   6.1479   6.4334   6.4334
     7.8243   7.8243   8.3268   9.1160   9.1160   9.9986

          k = 0.0000 0.1667 0.0000 (  4159 PWs)   bands (ev):

   -45.8574 -22.4920 -22.4477 -22.4298  -7.3782  -6.4044  -6.1716  -5.0476
    -5.0255  -5.0047  -4.8755  -4.7567   3.7957   6.3511   6.4167   6.6731
     8.1862   8.2983   8.4914   8.5697   8.6709   9.0382

          k = 0.0000 0.1667 0.2378 (  4157 PWs)   bands (ev):

   -45.8571 -22.5114 -22.4468 -22.4290  -7.2011  -6.3612  -6.1085  -5.0457
    -5.0412  -5.0039  -4.8726  -4.7933   3.2510   6.1629   6.4933   6.8885
     7.6643   7.9989   8.2719   8.6927   8.7200   9.3664

          k = 0.0000 0.1667-0.4756 (  4152 PWs)   bands (ev):

   -45.8569 -22.5306 -22.4460 -22.4282  -7.0171  -6.3122  -6.0443  -5.0567
    -5.0411  -5.0031  -4.8804  -4.8264   2.8360   5.8586   6.5526   6.5786
     7.4667   7.8271   8.3380   8.7471   8.7945   9.9277

          k = 0.0000 0.3333 0.0000 (  4182 PWs)   bands (ev):

   -45.8568 -22.4909 -22.4815 -22.4284  -7.0846  -6.3413  -6.1277  -5.0806
    -5.0301  -5.0227  -4.8733  -4.7649   3.2189   5.9805   6.6727   6.7025
     7.8546   7.8759   8.3458   8.4082   8.7758   9.6135

          k = 0.0000 0.3333 0.2378 (  4170 PWs)   bands (ev):

   -45.8565 -22.5097 -22.4808 -22.4276  -6.9703  -6.3024  -6.0449  -5.0508
    -5.0394  -5.0301  -4.8696  -4.7390   2.8951   5.8684   6.5588   6.7996
     7.3092   7.7476   7.8609   8.4052   8.9369   9.6819

          k = 0.0000 0.3333-0.4756 (  4158 PWs)   bands (ev):

   -45.8562 -22.5286 -22.4798 -22.4268  -6.8855  -6.2400  -5.9347  -5.0558
    -5.0303  -5.0127  -4.9062  -4.6899   2.6071   5.5744   6.3163   6.8545
     7.2009   7.3658   7.6890   8.4120   9.3282   9.5161

          k = 0.0000-0.5000 0.0000 (  4188 PWs)   bands (ev):

   -45.8564 -22.4991 -22.4895 -22.4277  -6.9221  -6.2946  -6.1292  -5.0960
    -5.0427  -5.0214  -4.8470  -4.7990   3.0108   5.6181   6.9602   6.9705
     7.3498   7.4685   8.2688   8.4486   8.8118  10.3562

          k = 0.0000-0.5000 0.2378 (  4156 PWs)   bands (ev):

   -45.8562 -22.5085 -22.4979 -22.4268  -6.8702  -6.2234  -6.0368  -5.0635
    -5.0432  -5.0385  -4.8400  -4.7351   2.7518   5.5903   6.5915   6.8580
     7.1645   7.3163   7.9701   8.3935   8.9300   9.8619

          k = 0.0000-0.5000-0.4756 (  4164 PWs)   bands (ev):

   -45.8559 -22.5274 -22.4967 -22.4260  -6.8554  -6.1470  -5.8827  -5.0554
    -5.0438  -5.0236  -4.8929  -4.6339   2.5127   5.4245   6.0397   6.9192
     7.1686   7.3707   7.3745   8.3572   9.1473   9.6531

          k = 0.1667 0.1667 0.0000 (  4166 PWs)   bands (ev):

   -45.8571 -22.4913 -22.4470 -22.4468  -7.2459  -6.3741  -6.1641  -5.0531
    -5.0396  -5.0069  -4.8542  -4.7480   3.4995   6.2925   6.5222   6.7212
     7.7671   7.8512   8.5444   8.5676   8.8870   9.2659

          k = 0.1667 0.1667 0.2378 (  4159 PWs)   bands (ev):

   -45.8568 -22.5106 -22.4462 -22.4460  -7.0798  -6.3503  -6.1017  -5.0556
    -5.0351  -5.0002  -4.8456  -4.7623   3.1379   6.1080   6.1886   6.8516
     7.5504   7.5529   8.3749   8.7468   8.9716   9.3178

          k = 0.1667 0.1667-0.4756 (  4148 PWs)   bands (ev):

   -45.8565 -22.5297 -22.4453 -22.4452  -6.9139  -6.3262  -6.0290  -5.0666
    -5.0163  -4.9771  -4.8532  -4.7818   2.8091   5.9086   5.9190   6.5855
     7.4561   7.4707   8.2677   8.8170   9.0316   9.6356

          k = 0.1667 0.3333 0.0000 (  4162 PWs)   bands (ev):

   -45.8564 -22.4902 -22.4806 -22.4454  -6.9613  -6.3124  -6.1634  -5.0754
    -5.0299  -4.9902  -4.8314  -4.7555   3.0306   5.9851   6.5406   6.8251
     7.2114   7.8044   8.0609   8.7215   8.8994   9.6945

          k = 0.1667 0.3333 0.2378 (  4159 PWs)   bands (ev):

   -45.8562 -22.5089 -22.4800 -22.4445  -6.8446  -6.3056  -6.0942  -5.0535
    -5.0305  -4.9668  -4.8135  -4.7150   2.9030   5.8353   6.0047   6.4893
     6.9296   7.5762   8.4103   8.7017   9.0261   9.4112

          k = 0.1667 0.3333-0.4756 (  4156 PWs)   bands (ev):

   -45.8559 -22.5277 -22.4790 -22.4437  -6.7628  -6.2854  -5.9898  -5.0504
    -5.0077  -4.9279  -4.8259  -4.6641   2.7383   5.5161   5.9215   6.2223
     6.4317   7.4289   8.5144   8.7400   8.9213   9.4495

          k = 0.1667-0.5000 0.0000 (  4176 PWs)   bands (ev):

   -45.8561 -22.4981 -22.4888 -22.4446  -6.8052  -6.2675  -6.1863  -5.0785
    -5.0228  -4.9684  -4.8121  -4.7901   2.8442   5.6347   6.6963   6.8505
     7.1892   7.4652   7.9756   8.7811   8.8791   9.9764

          k = 0.1667-0.5000 0.2378 (  4154 PWs)   bands (ev):

   -45.8559 -22.5078 -22.4970 -22.4438  -6.7439  -6.2365  -6.1150  -5.0523
    -5.0183  -4.9442  -4.7949  -4.7084   2.7941   5.5962   5.9121   6.2777
     6.8765   7.7195   8.1790   8.7165   9.0175   9.3829

          k = 0.1667-0.5000-0.4756 (  4164 PWs)   bands (ev):

   -45.8556 -22.5266 -22.4959 -22.4429  -6.7322  -6.2067  -5.9750  -5.0457
    -4.9810  -4.9206  -4.8103  -4.6087   2.7037   5.3940   5.7823   5.8875
     6.3059   7.5404   8.3018   8.6578   8.6653   9.6612

          k = 0.3333 0.3333 0.0000 (  4166 PWs)   bands (ev):

   -45.8558 -22.4889 -22.4791 -22.4786  -6.7175  -6.2549  -6.2168  -5.0578
    -5.0121  -4.9220  -4.7588  -4.7524   2.6718   5.9491   6.0849   6.9498
     7.0872   7.2645   7.8802   8.5184   9.3849   9.4060

          k = 0.3333 0.3333 0.2378 (  4164 PWs)   bands (ev):

   -45.8555 -22.5072 -22.4783 -22.4783  -6.5947  -6.3035  -6.1825  -5.0215
    -5.0056  -4.8621  -4.7081  -4.6818   2.8539   5.5997   5.6629   5.9394
     6.6061   7.0671   8.3843   8.9908   9.0199   9.4011

          k = 0.3333 0.3333-0.4756 (  4164 PWs)   bands (ev):

   -45.8553 -22.5260 -22.4775 -22.4774  -6.5331  -6.3484  -6.0769  -4.9993
    -4.9853  -4.7973  -4.6634  -4.6074   3.0206   5.2161   5.2357   5.7013
     6.3520   6.5132   7.6504   9.3560   9.3700   9.5315

          k = 0.3333-0.5000 0.0000 (  4150 PWs)   bands (ev):

   -45.8555 -22.4962 -22.4876 -22.4779  -6.6071  -6.2331  -6.2184  -5.0506
    -4.9907  -4.8602  -4.7917  -4.7185   2.5046   5.6145   6.1202   6.7800
     7.3018   7.4046   7.4995   8.4937   9.0787   9.5727

          k = 0.3333-0.5000 0.2378 (  4166 PWs)   bands (ev):

   -45.8552 -22.5062 -22.4952 -22.4774  -6.4877  -6.2658  -6.2387  -5.0135
    -4.9802  -4.7722  -4.7109  -4.6492   2.7975   5.4973   5.5741   5.6826
     6.3894   7.1410   7.9044   8.9873   9.0183   9.5534

          k = 0.3333-0.5000-0.4756 (  4172 PWs)   bands (ev):

   -45.8550 -22.5250 -22.4943 -22.4766  -6.4818  -6.3096  -6.1149  -4.9855
    -4.9627  -4.7090  -4.6300  -4.5547   3.1664   4.9604   5.1463   5.4569
     6.1409   6.5284   6.8810   9.4558   9.5252   9.6829

          k =-0.5000-0.5000 0.0000 (  4196 PWs)   bands (ev):

   -45.8552 -22.4953 -22.4953 -22.4862  -6.5569  -6.1966  -6.1966  -5.0410
    -4.9489  -4.8092  -4.8092  -4.6714   2.3354   5.4594   5.9626   6.9991
     6.9991   7.5185   7.5185   8.2483   8.5813   9.8301

          k =-0.5000-0.5000 0.2378 (  4152 PWs)   bands (ev):

   -45.8549 -22.5052 -22.4944 -22.4944  -6.3668  -6.2816  -6.2816  -5.0028
    -4.9470  -4.6708  -4.6708  -4.6374   2.7453   5.4130   5.6166   5.6166
     5.9688   7.0817   7.2559   9.0192   9.0192   9.8146

          k =-0.5000-0.5000-0.4756 (  4184 PWs)   bands (ev):

   -45.8547 -22.5240 -22.4935 -22.4935  -6.3551  -6.3551  -6.1727  -4.9647
    -4.9452  -4.5925  -4.5419  -4.5419   3.4111   4.9826   4.9826   5.2901
     5.8878   5.9750   6.2464   9.6937   9.6937   9.7992

     highest occupied level (ev):    10.3562

!    total energy              =    -380.57262579 Ry
     estimated scf accuracy    <          3.7E-09 Ry

     The total energy is the sum of the following terms:
     one-electron contribution =     -84.08683016 Ry
     hartree contribution      =      71.17089030 Ry
     xc contribution           =    -102.54252647 Ry
     ewald contribution        =    -265.11415945 Ry

     convergence has been achieved in  13 iterations

     negative rho (up, down):  1.561E-02 0.000E+00

     Forces acting on atoms (cartesian axes, Ry/au):

     atom    1 type  1   force =     0.00000000    0.00000000   -0.00772620
     atom    2 type  2   force =     0.00000000    0.00000000   -0.01234758
     atom    3 type  3   force =     0.00000000    0.00000000    0.02039212
     atom    4 type  3   force =     0.00000000    0.00000000   -0.00015917
     atom    5 type  3   force =     0.00000000    0.00000000   -0.00015917

     Total force =     0.025061     Total SCF correction =     0.000132


     Computing stress (Cartesian axis) and pressure


     negative rho (up, down):  1.561E-02 0.000E+00
          total   stress  (Ry/bohr**3)                   (kbar)     P=      -63.94
  -0.00042323   0.00000000   0.00000000          -62.26        0.00        0.00
   0.00000000  -0.00042323   0.00000000            0.00      -62.26        0.00
   0.00000000   0.00000000  -0.00045743            0.00        0.00      -67.29


     BFGS Geometry Optimization
     Energy error            =      0.0E+00 Ry
     Gradient error          =      2.0E-02 Ry/Bohr

     number of scf cycles    =   1
     number of bfgs steps    =   0

     energy             new  =    -380.5726257854 Ry

     new trust radius        =       0.0203921214 bohr
     new conv_thr            =       0.0000000100 Ry


ATOMIC_POSITIONS (crystal)
Pb               0.0000000000        0.0000000000        1.0054253058
Ti               0.5000000000        0.5000000000        0.5388300243
O                0.5000000000        0.5000000000        0.1012122634
O                0.5000000000        0.0000000000        0.6109083472
O                0.0000000000        0.5000000000        0.6109083472



     Writing config-only to output data dir ./pto_70.save/ :
     XML data file
     NEW-OLD atomic charge density approx. for the potential

     Check: negative core charge=   -0.000002

     negative rho (up, down):  1.562E-02 0.000E+00

     total cpu time spent up to now is       21.0 secs

     Self-consistent Calculation

     iteration #  1     ecut=    70.00 Ry     beta= 0.70
     CG style diagonalization
     c_bands:  1 eigenvalues not converged
     c_bands:  1 eigenvalues not converged
     c_bands:  1 eigenvalues not converged
     c_bands:  1 eigenvalues not converged
     ethr =  1.00E-06,  avg # of iterations =  6.8

     negative rho (up, down):  1.559E-02 0.000E+00

     total cpu time spent up to now is       23.0 secs

     total energy              =    -380.57300025 Ry
     estimated scf accuracy    <       0.00023174 Ry

     iteration #  2     ecut=    70.00 Ry     beta= 0.70
     CG style diagonalization
     ethr =  5.27E-07,  avg # of iterations =  4.7

     negative rho (up, down):  1.560E-02 0.000E+00

     total cpu time spent up to now is       24.4 secs

     total energy              =    -380.57297670 Ry
     estimated scf accuracy    <       0.00064536 Ry

     iteration #  3     ecut=    70.00 Ry     beta= 0.70
     CG style diagonalization
     ethr =  5.27E-07,  avg # of iterations =  4.3

     negative rho (up, down):  1.560E-02 0.000E+00

     total cpu time spent up to now is       25.6 secs

     total energy              =    -380.57310692 Ry
     estimated scf accuracy    <       0.00005375 Ry

     iteration #  4     ecut=    70.00 Ry     beta= 0.70
     CG style diagonalization
     ethr =  1.22E-07,  avg # of iterations =  3.7

     negative rho (up, down):  1.559E-02 0.000E+00

     total cpu time spent up to now is       26.7 secs

     total energy              =    -380.57311992 Ry
     estimated scf accuracy    <       0.00000570 Ry

     iteration #  5     ecut=    70.00 Ry     beta= 0.70
     CG style diagonalization
     ethr =  1.30E-08,  avg # of iterations =  4.2

     negative rho (up, down):  1.559E-02 0.000E+00

     total cpu time spent up to now is       27.9 secs

     total energy              =    -380.57312296 Ry
     estimated scf accuracy    <       0.00000056 Ry

     iteration #  6     ecut=    70.00 Ry     beta= 0.70
     CG style diagonalization
     ethr =  1.28E-09,  avg # of iterations =  4.6

     negative rho (up, down):  1.559E-02 0.000E+00

     total cpu time spent up to now is       29.3 secs

     total energy              =    -380.57312332 Ry
     estimated scf accuracy    <       0.00000025 Ry

     iteration #  7     ecut=    70.00 Ry     beta= 0.70
     CG style diagonalization
     ethr =  5.64E-10,  avg # of iterations =  4.1

     negative rho (up, down):  1.559E-02 0.000E+00

     total cpu time spent up to now is       30.5 secs

     total energy              =    -380.57312340 Ry
     estimated scf accuracy    <       0.00000008 Ry

     iteration #  8     ecut=    70.00 Ry     beta= 0.70
     CG style diagonalization
     ethr =  1.76E-10,  avg # of iterations =  4.1

     negative rho (up, down):  1.559E-02 0.000E+00

     total cpu time spent up to now is       31.6 secs

     End of self-consistent calculation

          k = 0.0000 0.0000 0.0000 (  4121 PWs)   bands (ev):

   -45.8219 -22.4793 -22.3941 -22.3941  -7.5101  -6.4273  -6.2113  -5.0297
    -5.0297  -4.9966  -4.8781  -4.7641   4.2144   6.3115   6.3115   6.6560
     8.2065   8.2065   8.4927   8.7219   8.9487   8.9487

          k = 0.0000 0.0000 0.2378 (  4149 PWs)   bands (ev):

   -45.8216 -22.4989 -22.3934 -22.3934  -7.3144  -6.3683  -6.1559  -5.0449
    -5.0449  -4.9953  -4.8704  -4.8354   3.4481   6.3712   6.3712   6.8034
     7.9653   7.9653   8.4082   8.8092   9.0516   9.0516

          k = 0.0000 0.0000-0.4756 (  4180 PWs)   bands (ev):

   -45.8214 -22.5184 -22.3926 -22.3926  -7.0996  -6.3033  -6.1096  -5.0600
    -5.0600  -4.9941  -4.9127  -4.8645   2.9431   6.1612   6.4148   6.4148
     7.8039   7.8039   8.3275   9.1216   9.1216  10.0018

          k = 0.0000 0.1667 0.0000 (  4159 PWs)   bands (ev):

   -45.8216 -22.4786 -22.4114 -22.3934  -7.3757  -6.3986  -6.1834  -5.0509
    -5.0284  -5.0093  -4.8811  -4.7548   3.7907   6.3534   6.4213   6.6853
     8.1542   8.2316   8.4840   8.5768   8.6510   9.0151

          k = 0.0000 0.1667 0.2378 (  4157 PWs)   bands (ev):

   -45.8213 -22.4981 -22.4105 -22.3927  -7.1956  -6.3555  -6.1227  -5.0486
    -5.0440  -5.0086  -4.8787  -4.7914   3.2411   6.1549   6.4886   6.9008
     7.6419   7.9588   8.2703   8.6767   8.7226   9.3651

          k = 0.0000 0.1667-0.4756 (  4152 PWs)   bands (ev):

   -45.8211 -22.5174 -22.4097 -22.3919  -7.0077  -6.3066  -6.0619  -5.0595
    -5.0438  -5.0078  -4.8861  -4.8251   2.8202   5.8458   6.5348   6.5894
     7.4558   7.8070   8.3447   8.7306   8.7997   9.9349

          k = 0.0000 0.3333 0.0000 (  4182 PWs)   bands (ev):

   -45.8210 -22.4771 -22.4456 -22.3920  -7.0828  -6.3374  -6.1420  -5.0837
    -5.0347  -5.0255  -4.8749  -4.7637   3.2167   5.9889   6.6706   6.7094
     7.8511   7.8838   8.3365   8.3466   8.7403   9.6009

          k = 0.0000 0.3333 0.2378 (  4170 PWs)   bands (ev):

   -45.8207 -22.4963 -22.4446 -22.3912  -6.9650  -6.2995  -6.0616  -5.0537
    -5.0422  -5.0347  -4.8724  -4.7368   2.8912   5.8676   6.5590   6.7983
     7.3043   7.7343   7.8601   8.3759   8.9221   9.6753

          k = 0.0000 0.3333-0.4756 (  4158 PWs)   bands (ev):

   -45.8204 -22.5153 -22.4436 -22.3904  -6.8774  -6.2367  -5.9545  -5.0586
    -5.0349  -5.0153  -4.9093  -4.6877   2.6010   5.5570   6.3289   6.8385
     7.1969   7.3780   7.6799   8.4029   9.2933   9.5287

          k = 0.0000-0.5000 0.0000 (  4188 PWs)   bands (ev):

   -45.8206 -22.4762 -22.4628 -22.3913  -6.9199  -6.2911  -6.1461  -5.0982
    -5.0472  -5.0242  -4.8446  -4.8006   3.0085   5.6345   6.9432   6.9808
     7.3613   7.4755   8.2686   8.3730   8.7749  10.3435

          k = 0.0000-0.5000 0.2378 (  4156 PWs)   bands (ev):

   -45.8204 -22.4952 -22.4616 -22.3905  -6.8645  -6.2203  -6.0572  -5.0656
    -5.0478  -5.0412  -4.8414  -4.7329   2.7496   5.6020   6.5857   6.8491
     7.1752   7.3025   7.9699   8.3509   8.9237   9.8454

          k = 0.0000-0.5000-0.4756 (  4164 PWs)   bands (ev):

   -45.8201 -22.5142 -22.4605 -22.3896  -6.8480  -6.1443  -5.9050  -5.0581
    -5.0484  -5.0254  -4.8944  -4.6318   2.5108   5.4176   6.0410   6.9146
     7.1420   7.3859   7.3879   8.3367   9.1442   9.6272

          k = 0.1667 0.1667 0.0000 (  4166 PWs)   bands (ev):

   -45.8213 -22.4779 -22.4108 -22.4104  -7.2443  -6.3687  -6.1763  -5.0563
    -5.0429  -5.0109  -4.8593  -4.7459   3.4963   6.3011   6.5257   6.7214
     7.7173   7.8505   8.5072   8.5720   8.8932   9.2243

          k = 0.1667 0.1667 0.2378 (  4159 PWs)   bands (ev):

   -45.8210 -22.4972 -22.4099 -22.4096  -7.0751  -6.3448  -6.1167  -5.0589
    -5.0382  -5.0039  -4.8513  -4.7601   3.1302   6.1022   6.1832   6.8546
     7.5384   7.5505   8.3351   8.7438   8.9699   9.3152

          k = 0.1667 0.1667-0.4756 (  4148 PWs)   bands (ev):

   -45.8207 -22.5164 -22.4090 -22.4088  -6.9053  -6.3207  -6.0474  -5.0703
    -5.0204  -4.9795  -4.8595  -4.7794   2.7960   5.8990   5.9040   6.5976
     7.4497   7.4734   8.2391   8.8143   9.0271   9.6430

          k = 0.1667 0.3333 0.0000 (  4162 PWs)   bands (ev):

   -45.8206 -22.4764 -22.4447 -22.4091  -6.9613  -6.3086  -6.1757  -5.0780
    -5.0330  -4.9946  -4.8346  -4.7538   3.0289   5.9963   6.5373   6.8314
     7.2085   7.7554   8.0638   8.7073   8.8932   9.6723

          k = 0.1667 0.3333 0.2378 (  4159 PWs)   bands (ev):

   -45.8204 -22.4955 -22.4438 -22.4082  -6.8406  -6.3024  -6.1095  -5.0566
    -5.0333  -4.9717  -4.8168  -4.7130   2.8993   5.8337   6.0006   6.4937
     6.9245   7.5746   8.3979   8.6832   9.0156   9.4035

          k = 0.1667 0.3333-0.4756 (  4156 PWs)   bands (ev):

   -45.8201 -22.5145 -22.4428 -22.4074  -6.7558  -6.2818  -6.0082  -5.0541
    -5.0110  -4.9327  -4.8289  -4.6620   2.7320   5.4994   5.9192   6.2269
     6.4406   7.4370   8.4812   8.7433   8.9229   9.4322

          k = 0.1667-0.5000 0.0000 (  4176 PWs)   bands (ev):

   -45.8203 -22.4754 -22.4619 -22.4083  -6.8059  -6.2644  -6.1991  -5.0808
    -5.0258  -4.9738  -4.8115  -4.7908   2.8425   5.6512   6.6770   6.8631
     7.2003   7.4734   7.9091   8.7796   8.8602   9.9694

          k = 0.1667-0.5000 0.2378 (  4154 PWs)   bands (ev):

   -45.8201 -22.4945 -22.4608 -22.4075  -6.7398  -6.2336  -6.1321  -5.0552
    -5.0208  -4.9512  -4.7953  -4.7070   2.7918   5.6075   5.9095   6.2712
     6.8733   7.7144   8.1803   8.6860   9.0195   9.3640

          k = 0.1667-0.5000-0.4756 (  4164 PWs)   bands (ev):

   -45.8198 -22.5134 -22.4597 -22.4066  -6.7259  -6.2041  -5.9936  -5.0492
    -4.9832  -4.9291  -4.8101  -4.6070   2.7012   5.3833   5.7835   5.8906
     6.3080   7.5515   8.2968   8.6362   8.6658   9.6380

          k = 0.3333 0.3333 0.0000 (  4166 PWs)   bands (ev):

   -45.8200 -22.4748 -22.4430 -22.4429  -6.7233  -6.2518  -6.2238  -5.0598
    -5.0156  -4.9247  -4.7588  -4.7567   2.6703   5.9553   6.1065   6.9334
     7.0876   7.2160   7.9034   8.5055   9.3882   9.3958

          k = 0.3333 0.3333 0.2378 (  4164 PWs)   bands (ev):

   -45.8197 -22.4938 -22.4422 -22.4420  -6.5946  -6.3004  -6.1948  -5.0236
    -5.0096  -4.8672  -4.7134  -4.6793   2.8510   5.5934   5.6599   5.9462
     6.6176   7.0657   8.3808   8.9792   8.9954   9.4026

          k = 0.3333 0.3333-0.4756 (  4164 PWs)   bands (ev):

   -45.8195 -22.5127 -22.4412 -22.4411  -6.5284  -6.3451  -6.0926  -5.0036
    -4.9876  -4.8056  -4.6670  -4.6048   3.0145   5.2070   5.2338   5.7046
     6.3558   6.5353   7.6487   9.3290   9.3763   9.5109

          k = 0.3333-0.5000 0.0000 (  4150 PWs)   bands (ev):

   -45.8197 -22.4738 -22.4599 -22.4420  -6.6175  -6.2359  -6.2161  -5.0526
    -4.9942  -4.8612  -4.7905  -4.7258   2.5028   5.6276   6.1426   6.7531
     7.2619   7.4150   7.5023   8.4896   9.0789   9.5789

          k = 0.3333-0.5000 0.2378 (  4166 PWs)   bands (ev):

   -45.8194 -22.4928 -22.4590 -22.4412  -6.4894  -6.2635  -6.2490  -5.0157
    -4.9842  -4.7794  -4.7094  -4.6520   2.7948   5.4910   5.5838   5.6811
     6.4019   7.1373   7.9100   8.9703   8.9969   9.5579

          k = 0.3333-0.5000-0.4756 (  4172 PWs)   bands (ev):

   -45.8192 -22.5117 -22.4580 -22.4404  -6.4781  -6.3073  -6.1292  -4.9889
    -4.9657  -4.7215  -4.6284  -4.5546   3.1615   4.9598   5.1334   5.4695
     6.1513   6.5413   6.8835   9.4309   9.5321   9.6609

          k =-0.5000-0.5000 0.0000 (  4196 PWs)   bands (ev):

   -45.8194 -22.4728 -22.4590 -22.4590  -6.5722  -6.1948  -6.1948  -5.0429
    -4.9532  -4.8063  -4.8063  -4.6838   2.3332   5.4705   5.9921   6.9655
     6.9655   7.5256   7.5256   8.2429   8.5942   9.8370

          k =-0.5000-0.5000 0.2378 (  4152 PWs)   bands (ev):

   -45.8191 -22.4918 -22.4581 -22.4581  -6.3810  -6.2796  -6.2796  -5.0049
    -4.9514  -4.6683  -4.6683  -4.6516   2.7422   5.4251   5.6053   5.6053
     5.9983   7.0775   7.2665   9.0017   9.0017   9.8216

          k =-0.5000-0.5000-0.4756 (  4184 PWs)   bands (ev):

   -45.8188 -22.5107 -22.4572 -22.4572  -6.3530  -6.3530  -6.1854  -4.9668
    -4.9495  -4.6091  -4.5399  -4.5399   3.4048   4.9741   4.9741   5.3037
     5.9004   6.0046   6.2423   9.6726   9.6726   9.8062

     highest occupied level (ev):    10.3435

!    total energy              =    -380.57312342 Ry
     estimated scf accuracy    <          2.4E-09 Ry

     The total energy is the sum of the following terms:
     one-electron contribution =     -84.30206858 Ry
     hartree contribution      =      71.28764334 Ry
     xc contribution           =    -102.55233157 Ry
     ewald contribution        =    -265.00636662 Ry

     convergence has been achieved in   8 iterations

     negative rho (up, down):  1.559E-02 0.000E+00

     Forces acting on atoms (cartesian axes, Ry/au):

     atom    1 type  1   force =     0.00000000    0.00000000   -0.00863113
     atom    2 type  2   force =     0.00000000    0.00000000   -0.00503435
     atom    3 type  3   force =     0.00000000    0.00000000    0.01142869
     atom    4 type  3   force =     0.00000000    0.00000000    0.00111840
     atom    5 type  3   force =     0.00000000    0.00000000    0.00111840

     Total force =     0.015263     Total SCF correction =     0.000120


     Computing stress (Cartesian axis) and pressure


     negative rho (up, down):  1.559E-02 0.000E+00
          total   stress  (Ry/bohr**3)                   (kbar)     P=      -58.74
  -0.00041283   0.00000000   0.00000000          -60.73        0.00        0.00
   0.00000000  -0.00041283   0.00000000            0.00      -60.73        0.00
   0.00000000   0.00000000  -0.00037229            0.00        0.00      -54.77

     Energy error            =      5.0E-04 Ry
     Gradient error          =      1.1E-02 Ry/Bohr

     number of scf cycles    =   2
     number of bfgs steps    =   1

     energy             old  =    -380.5726257854 Ry
     energy             new  =    -380.5731234245 Ry

     CASE: energy            _new < energy            _old

     new trust radius        =       0.0224313335 bohr
     new conv_thr            =       0.0000000005 Ry


ATOMIC_POSITIONS (crystal)
Pb               0.0000000000        0.0000000000        1.0033941255
Ti               0.5000000000        0.5000000000        0.5374866150
O                0.5000000000        0.5000000000        0.1041074221
O                0.5000000000        0.0000000000        0.6111480627
O                0.0000000000        0.5000000000        0.6111480627



     Writing config-only to output data dir ./pto_70.save/ :
     XML data file
     NEW-OLD atomic charge density approx. for the potential

     Check: negative core charge=   -0.000002

     negative rho (up, down):  1.583E-02 0.000E+00

     total cpu time spent up to now is       33.6 secs

     Self-consistent Calculation

     iteration #  1     ecut=    70.00 Ry     beta= 0.70
     CG style diagonalization
     c_bands:  1 eigenvalues not converged
     c_bands:  1 eigenvalues not converged
     c_bands:  1 eigenvalues not converged
     c_bands:  1 eigenvalues not converged
     ethr =  1.00E-06,  avg # of iterations =  7.1

     negative rho (up, down):  1.578E-02 0.000E+00

     total cpu time spent up to now is       35.7 secs

     total energy              =    -380.57329426 Ry
     estimated scf accuracy    <       0.00024404 Ry

     iteration #  2     ecut=    70.00 Ry     beta= 0.70
     CG style diagonalization
     ethr =  5.55E-07,  avg # of iterations =  4.6

     negative rho (up, down):  1.579E-02 0.000E+00

     total cpu time spent up to now is       37.0 secs

     total energy              =    -380.57326521 Ry
     estimated scf accuracy    <       0.00070188 Ry

     iteration #  3     ecut=    70.00 Ry     beta= 0.70
     CG style diagonalization
     ethr =  5.55E-07,  avg # of iterations =  4.3

     negative rho (up, down):  1.578E-02 0.000E+00

     total cpu time spent up to now is       38.3 secs

     total energy              =    -380.57340467 Ry
     estimated scf accuracy    <       0.00005650 Ry

     iteration #  4     ecut=    70.00 Ry     beta= 0.70
     CG style diagonalization
     ethr =  1.28E-07,  avg # of iterations =  3.7

     negative rho (up, down):  1.578E-02 0.000E+00

     total cpu time spent up to now is       39.4 secs

     total energy              =    -380.57341767 Ry
     estimated scf accuracy    <       0.00000648 Ry

     iteration #  5     ecut=    70.00 Ry     beta= 0.70
     CG style diagonalization
     ethr =  1.47E-08,  avg # of iterations =  4.2

     negative rho (up, down):  1.578E-02 0.000E+00

     total cpu time spent up to now is       40.6 secs

     total energy              =    -380.57342094 Ry
     estimated scf accuracy    <       0.00000057 Ry

     iteration #  6     ecut=    70.00 Ry     beta= 0.70
     CG style diagonalization
     ethr =  1.29E-09,  avg # of iterations =  4.8

     negative rho (up, down):  1.578E-02 0.000E+00

     total cpu time spent up to now is       41.9 secs

     total energy              =    -380.57342136 Ry
     estimated scf accuracy    <       0.00000028 Ry

     iteration #  7     ecut=    70.00 Ry     beta= 0.70
     CG style diagonalization
     ethr =  6.43E-10,  avg # of iterations =  4.1

     negative rho (up, down):  1.578E-02 0.000E+00

     total cpu time spent up to now is       43.1 secs

     total energy              =    -380.57342144 Ry
     estimated scf accuracy    <       0.00000006 Ry

     iteration #  8     ecut=    70.00 Ry     beta= 0.70
     CG style diagonalization
     ethr =  1.47E-10,  avg # of iterations =  4.6

     negative rho (up, down):  1.578E-02 0.000E+00

     total cpu time spent up to now is       44.4 secs

     total energy              =    -380.57342148 Ry
     estimated scf accuracy    <          3.5E-09 Ry

     iteration #  9     ecut=    70.00 Ry     beta= 0.70
     CG style diagonalization
     ethr =  7.88E-12,  avg # of iterations =  6.9

     negative rho (up, down):  1.578E-02 0.000E+00

     total cpu time spent up to now is       46.4 secs

     total energy              =    -380.57342149 Ry
     estimated scf accuracy    <          5.0E-10 Ry

     iteration # 10     ecut=    70.00 Ry     beta= 0.70
     CG style diagonalization
     ethr =  1.14E-12,  avg # of iterations =  5.8

     negative rho (up, down):  1.578E-02 0.000E+00

     total cpu time spent up to now is       48.0 secs

     End of self-consistent calculation

          k = 0.0000 0.0000 0.0000 (  4121 PWs)   bands (ev):

   -45.7868 -22.4685 -22.3587 -22.3587  -7.5131  -6.4297  -6.2198  -5.0288
    -5.0288  -4.9965  -4.8838  -4.7551   4.2050   6.3096   6.3096   6.6963
     8.1384   8.1384   8.4905   8.6626   8.9499   8.9499

          k = 0.0000 0.0000 0.2378 (  4149 PWs)   bands (ev):

   -45.7866 -22.4882 -22.3579 -22.3579  -7.3158  -6.3712  -6.1660  -5.0439
    -5.0439  -4.9953  -4.8755  -4.8258   3.4364   6.3589   6.3589   6.8237
     7.9223   7.9223   8.4056   8.7906   9.0497   9.0497

          k = 0.0000 0.0000-0.4756 (  4180 PWs)   bands (ev):

   -45.7863 -22.5077 -22.3571 -22.3571  -7.0988  -6.3070  -6.1220  -5.0589
    -5.0589  -4.9941  -4.9024  -4.8688   2.9249   6.1778   6.3890   6.3890
     7.7836   7.7836   8.3245   9.1188   9.1188  10.0033

          k = 0.0000 0.1667 0.0000 (  4159 PWs)   bands (ev):

   -45.7865 -22.4678 -22.3760 -22.3580  -7.3791  -6.4017  -6.1936  -5.0505
    -5.0274  -5.0092  -4.8837  -4.7457   3.7863   6.3517   6.4199   6.6996
     8.1219   8.1635   8.4750   8.5781   8.6221   8.9939

          k = 0.0000 0.1667 0.2378 (  4157 PWs)   bands (ev):

   -45.7862 -22.4873 -22.3751 -22.3572  -7.1974  -6.3592  -6.1345  -5.0474
    -5.0430  -5.0085  -4.8814  -4.7821   3.2337   6.1424   6.4771   6.9138
     7.6174   7.9171   8.2632   8.6587   8.7193   9.3625

          k = 0.0000 0.1667-0.4756 (  4152 PWs)   bands (ev):

   -45.7860 -22.5067 -22.3742 -22.3564  -7.0075  -6.3108  -6.0757  -5.0584
    -5.0418  -5.0077  -4.8881  -4.8163   2.8076   5.8308   6.5099   6.5984
     7.4430   7.7861   8.3423   8.7118   8.7979   9.9430

          k = 0.0000 0.3333 0.0000 (  4182 PWs)   bands (ev):

   -45.7859 -22.4662 -22.4103 -22.3566  -7.0869  -6.3424  -6.1562  -5.0826
    -5.0345  -5.0245  -4.8714  -4.7555   3.2155   5.9921   6.6668   6.7098
     7.8423   7.8856   8.2640   8.3434   8.7010   9.5933

          k = 0.0000 0.3333 0.2378 (  4170 PWs)   bands (ev):

   -45.7856 -22.4855 -22.4093 -22.3557  -6.9671  -6.3056  -6.0769  -5.0520
    -5.0412  -5.0345  -4.8706  -4.7275   2.8897   5.8613   6.5570   6.7895
     7.2924   7.7142   7.8580   8.3462   8.9032   9.6724

          k = 0.0000 0.3333-0.4756 (  4158 PWs)   bands (ev):

   -45.7853 -22.5046 -22.4082 -22.3549  -6.8778  -6.2432  -5.9714  -5.0575
    -5.0348  -5.0129  -4.9073  -4.6792   2.5984   5.5356   6.3393   6.8152
     7.1849   7.3861   7.6657   8.3907   9.2584   9.5431

          k = 0.0000-0.5000 0.0000 (  4188 PWs)   bands (ev):

   -45.7855 -22.4653 -22.4275 -22.3558  -6.9240  -6.2962  -6.1641  -5.0960
    -5.0470  -5.0232  -4.8340  -4.7972   3.0075   5.6456   6.9219   6.9828
     7.3691   7.4786   8.2635   8.2957   8.7341  10.3342

          k = 0.0000-0.5000 0.2378 (  4156 PWs)   bands (ev):

   -45.7853 -22.4845 -22.4263 -22.3550  -6.8664  -6.2265  -6.0761  -5.0630
    -5.0476  -5.0401  -4.8375  -4.7238   2.7501   5.6079   6.5777   6.8321
     7.1770   7.2836   7.9675   8.3075   8.9124   9.8350

          k = 0.0000-0.5000-0.4756 (  4164 PWs)   bands (ev):

   -45.7850 -22.5035 -22.4252 -22.3542  -6.8486  -6.1519  -5.9243  -5.0570
    -5.0482  -5.0223  -4.8898  -4.6238   2.5126   5.4048   6.0411   6.8982
     7.1108   7.3874   7.4038   8.3144   9.1441   9.6018

          k = 0.1667 0.1667 0.0000 (  4166 PWs)   bands (ev):

   -45.7862 -22.4670 -22.3754 -22.3750  -7.2484  -6.3725  -6.1875  -5.0556
    -5.0421  -5.0104  -4.8608  -4.7366   3.4929   6.3047   6.5258   6.7212
     7.6666   7.8430   8.4719   8.5725   8.8924   9.1834

          k = 0.1667 0.1667 0.2378 (  4159 PWs)   bands (ev):

   -45.7859 -22.4864 -22.3745 -22.3742  -7.0775  -6.3487  -6.1295  -5.0581
    -5.0370  -5.0033  -4.8533  -4.7507   3.1241   6.0917   6.1733   6.8563
     7.5223   7.5445   8.2947   8.7350   8.9628   9.3136

          k = 0.1667 0.1667-0.4756 (  4148 PWs)   bands (ev):

   -45.7856 -22.5057 -22.3736 -22.3734  -6.9058  -6.3247  -6.0620  -5.0696
    -5.0197  -4.9777  -4.8620  -4.7696   2.7856   5.8851   5.8876   6.6051
     7.4340   7.4740   8.2110   8.8049   9.0171   9.6523

          k = 0.1667 0.3333 0.0000 (  4162 PWs)   bands (ev):

   -45.7855 -22.4655 -22.4094 -22.3736  -6.9667  -6.3142  -6.1886  -5.0763
    -5.0320  -4.9943  -4.8326  -4.7449   3.0261   6.0022   6.5294   6.8348
     7.2010   7.7040   8.0654   8.6898   8.8805   9.6536

          k = 0.1667 0.3333 0.2378 (  4159 PWs)   bands (ev):

   -45.7853 -22.4847 -22.4084 -22.3728  -6.8439  -6.3082  -6.1235  -5.0554
    -5.0319  -4.9724  -4.8153  -4.7039   2.8960   5.8270   5.9909   6.4947
     6.9173   7.5704   8.3773   8.6636   9.0000   9.3998

          k = 0.1667 0.3333-0.4756 (  4156 PWs)   bands (ev):

   -45.7850 -22.5037 -22.4074 -22.3719  -6.7572  -6.2874  -6.0232  -5.0536
    -5.0100  -4.9336  -4.8267  -4.6537   2.7275   5.4794   5.9098   6.2294
     6.4442   7.4413   8.4466   8.7393   8.9263   9.4138

          k = 0.1667-0.5000 0.0000 (  4176 PWs)   bands (ev):

   -45.7852 -22.4646 -22.4266 -22.3729  -6.8117  -6.2703  -6.2138  -5.0787
    -5.0246  -4.9746  -4.8031  -4.7859   2.8394   5.6625   6.6525   6.8705
     7.2078   7.4787   7.8440   8.7717   8.8365   9.9660

          k = 0.1667-0.5000 0.2378 (  4154 PWs)   bands (ev):

   -45.7850 -22.4837 -22.4254 -22.3720  -6.7430  -6.2400  -6.1475  -5.0537
    -5.0190  -4.9541  -4.7901  -4.6989   2.7896   5.6131   5.9001   6.2617
     6.8686   7.7063   8.1749   8.6535   9.0150   9.3522

          k = 0.1667-0.5000-0.4756 (  4164 PWs)   bands (ev):

   -45.7847 -22.5027 -22.4243 -22.3712  -6.7277  -6.2110  -6.0085  -5.0486
    -4.9811  -4.9337  -4.8042  -4.5996   2.7002   5.3671   5.7739   5.8925
     6.3084   7.5583   8.2948   8.6058   8.6683   9.6129

          k = 0.3333 0.3333 0.0000 (  4166 PWs)   bands (ev):

   -45.7849 -22.4638 -22.4078 -22.4075  -6.7316  -6.2587  -6.2344  -5.0575
    -5.0147  -4.9223  -4.7600  -4.7469   2.6641   5.9560   6.1236   6.9102
     7.0900   7.1702   7.9207   8.4918   9.3830   9.3895

          k = 0.3333 0.3333 0.2378 (  4164 PWs)   bands (ev):

   -45.7846 -22.4829 -22.4069 -22.4066  -6.6002  -6.3062  -6.2064  -5.0213
    -5.0092  -4.8683  -4.7135  -4.6703   2.8436   5.5832   5.6542   5.9486
     6.6273   7.0640   8.3787   8.9639   8.9721   9.3962

          k = 0.3333 0.3333-0.4756 (  4164 PWs)   bands (ev):

   -45.7844 -22.5019 -22.4059 -22.4058  -6.5321  -6.3502  -6.1041  -5.0036
    -4.9855  -4.8109  -4.6655  -4.5965   3.0051   5.1970   5.2239   5.7055
     6.3583   6.5544   7.6552   9.2998   9.3735   9.4874

          k = 0.3333-0.5000 0.0000 (  4150 PWs)   bands (ev):

   -45.7846 -22.4629 -22.4246 -22.4068  -6.6275  -6.2455  -6.2237  -5.0502
    -4.9932  -4.8564  -4.7823  -4.7274   2.4948   5.6354   6.1606   6.7253
     7.2197   7.4217   7.5063   8.4837   9.0841   9.5764

          k = 0.3333-0.5000 0.2378 (  4166 PWs)   bands (ev):

   -45.7843 -22.4820 -22.4237 -22.4059  -6.4959  -6.2702  -6.2593  -5.0135
    -4.9836  -4.7835  -4.7019  -4.6485   2.7850   5.4828   5.5873   5.6785
     6.4123   7.1333   7.9213   8.9520   8.9729   9.5538

          k = 0.3333-0.5000-0.4756 (  4172 PWs)   bands (ev):

   -45.7840 -22.5009 -22.4227 -22.4050  -6.4823  -6.3132  -6.1391  -4.9880
    -4.9643  -4.7313  -4.6218  -4.5491   3.1489   4.9541   5.1195   5.4789
     6.1589   6.5517   6.8988   9.4036   9.5295   9.6367

          k =-0.5000-0.5000 0.0000 (  4196 PWs)   bands (ev):

   -45.7843 -22.4620 -22.4237 -22.4237  -6.5834  -6.2035  -6.2035  -5.0405
    -4.9529  -4.7954  -4.7954  -4.6932   2.3225   5.4764   6.0173   6.9325
     6.9325   7.5300   7.5300   8.2380   8.6112   9.8347

          k =-0.5000-0.5000 0.2378 (  4152 PWs)   bands (ev):

   -45.7840 -22.4810 -22.4228 -22.4228  -6.3909  -6.2865  -6.2865  -5.0025
    -4.9511  -4.6631  -4.6597  -4.6597   2.7281   5.4325   5.5943   5.5943
     6.0236   7.0732   7.2862   8.9822   8.9822   9.8194

          k =-0.5000-0.5000-0.4756 (  4184 PWs)   bands (ev):

   -45.7837 -22.5000 -22.4219 -22.4219  -6.3586  -6.3586  -6.1934  -4.9646
    -4.9493  -4.6233  -4.5330  -4.5330   3.3795   4.9665   4.9665   5.3141
     5.9312   6.0299   6.2365   9.6492   9.6492   9.8040

     highest occupied level (ev):    10.3342

!    total energy              =    -380.57342149 Ry
     estimated scf accuracy    <          7.0E-11 Ry

     The total energy is the sum of the following terms:
     one-electron contribution =     -84.64104232 Ry
     hartree contribution      =      71.46640129 Ry
     xc contribution           =    -102.56456937 Ry
     ewald contribution        =    -264.83421110 Ry

     convergence has been achieved in  10 iterations

     negative rho (up, down):  1.578E-02 0.000E+00

     Forces acting on atoms (cartesian axes, Ry/au):

     atom    1 type  1   force =     0.00000000    0.00000000   -0.00859188
     atom    2 type  2   force =     0.00000000    0.00000000    0.00275096
     atom    3 type  3   force =     0.00000000    0.00000000    0.00129140
     atom    4 type  3   force =     0.00000000    0.00000000    0.00227476
     atom    5 type  3   force =     0.00000000    0.00000000    0.00227476

     Total force =     0.009665     Total SCF correction =     0.000009


     Computing stress (Cartesian axis) and pressure


     negative rho (up, down):  1.578E-02 0.000E+00
          total   stress  (Ry/bohr**3)                   (kbar)     P=      -52.29
  -0.00039638   0.00000000   0.00000000          -58.31        0.00        0.00
   0.00000000  -0.00039638   0.00000000            0.00      -58.31        0.00
   0.00000000   0.00000000  -0.00027353            0.00        0.00      -40.24

     Energy error            =      3.0E-04 Ry
     Gradient error          =      8.6E-03 Ry/Bohr

     number of scf cycles    =   3
     number of bfgs steps    =   2

     energy             old  =    -380.5731234245 Ry
     energy             new  =    -380.5734214927 Ry

     CASE: energy            _new < energy            _old

     new trust radius        =       0.0190421034 bohr
     new conv_thr            =       0.0000000003 Ry


ATOMIC_POSITIONS (crystal)
Pb               0.0000000000        0.0000000000        1.0009364067
Ti               0.5000000000        0.5000000000        0.5372226177
O                0.5000000000        0.5000000000        0.1058412197
O                0.5000000000        0.0000000000        0.6116420220
O                0.0000000000        0.5000000000        0.6116420220



     Writing config-only to output data dir ./pto_70.save/ :
     XML data file
     NEW-OLD atomic charge density approx. for the potential

     Check: negative core charge=   -0.000002

     negative rho (up, down):  1.607E-02 0.000E+00

     total cpu time spent up to now is       50.0 secs

     Self-consistent Calculation

     iteration #  1     ecut=    70.00 Ry     beta= 0.70
     CG style diagonalization
     ethr =  1.00E-06,  avg # of iterations =  5.6

     negative rho (up, down):  1.603E-02 0.000E+00

     total cpu time spent up to now is       51.7 secs

     total energy              =    -380.57352640 Ry
     estimated scf accuracy    <       0.00005602 Ry

     iteration #  2     ecut=    70.00 Ry     beta= 0.70
     CG style diagonalization
     ethr =  1.27E-07,  avg # of iterations =  4.8

     negative rho (up, down):  1.603E-02 0.000E+00

     total cpu time spent up to now is       53.1 secs

     total energy              =    -380.57353205 Ry
     estimated scf accuracy    <       0.00013466 Ry

     iteration #  3     ecut=    70.00 Ry     beta= 0.70
     CG style diagonalization
     ethr =  1.27E-07,  avg # of iterations =  4.3

     negative rho (up, down):  1.602E-02 0.000E+00

     total cpu time spent up to now is       54.3 secs

     total energy              =    -380.57356075 Ry
     estimated scf accuracy    <       0.00001692 Ry

     iteration #  4     ecut=    70.00 Ry     beta= 0.70
     CG style diagonalization
     ethr =  3.84E-08,  avg # of iterations =  3.7

     negative rho (up, down):  1.602E-02 0.000E+00

     total cpu time spent up to now is       55.4 secs

     total energy              =    -380.57356438 Ry
     estimated scf accuracy    <       0.00000209 Ry

     iteration #  5     ecut=    70.00 Ry     beta= 0.70
     CG style diagonalization
     ethr =  4.76E-09,  avg # of iterations =  4.1

     negative rho (up, down):  1.602E-02 0.000E+00

     total cpu time spent up to now is       56.6 secs

     total energy              =    -380.57356549 Ry
     estimated scf accuracy    <       0.00000009 Ry

     iteration #  6     ecut=    70.00 Ry     beta= 0.70
     CG style diagonalization
     ethr =  2.14E-10,  avg # of iterations =  5.9

     negative rho (up, down):  1.602E-02 0.000E+00

     total cpu time spent up to now is       58.3 secs

     total energy              =    -380.57356566 Ry
     estimated scf accuracy    <       0.00000015 Ry

     iteration #  7     ecut=    70.00 Ry     beta= 0.70
     CG style diagonalization
     ethr =  2.14E-10,  avg # of iterations =  3.9

     negative rho (up, down):  1.602E-02 0.000E+00

     total cpu time spent up to now is       59.4 secs

     total energy              =    -380.57356568 Ry
     estimated scf accuracy    <       0.00000004 Ry

     iteration #  8     ecut=    70.00 Ry     beta= 0.70
     CG style diagonalization
     ethr =  9.00E-11,  avg # of iterations =  4.0

     negative rho (up, down):  1.602E-02 0.000E+00

     total cpu time spent up to now is       60.6 secs

     total energy              =    -380.57356569 Ry
     estimated scf accuracy    <          1.8E-09 Ry

     iteration #  9     ecut=    70.00 Ry     beta= 0.70
     CG style diagonalization
     ethr =  4.05E-12,  avg # of iterations =  6.7

     negative rho (up, down):  1.602E-02 0.000E+00

     total cpu time spent up to now is       62.5 secs

     End of self-consistent calculation

          k = 0.0000 0.0000 0.0000 (  4121 PWs)   bands (ev):

   -45.7735 -22.4663 -22.3457 -22.3457  -7.5235  -6.4441  -6.2206  -5.0229
    -5.0229  -4.9896  -4.8836  -4.7407   4.2016   6.3003   6.3003   6.7301
     8.1090   8.1090   8.4840   8.6337   8.9387   8.9387

          k = 0.0000 0.0000 0.2378 (  4149 PWs)   bands (ev):

   -45.7732 -22.4859 -22.3449 -22.3449  -7.3275  -6.3869  -6.1663  -5.0380
    -5.0380  -4.9883  -4.8741  -4.8101   3.4355   6.3446   6.3446   6.8408
     7.9035   7.9035   8.3990   8.7820   9.0368   9.0368

          k = 0.0000 0.0000-0.4756 (  4180 PWs)   bands (ev):

   -45.7729 -22.5055 -22.3442 -22.3442  -7.1127  -6.3244  -6.1211  -5.0529
    -5.0529  -4.9871  -4.8849  -4.8660   2.9220   6.1906   6.3689   6.3689
     7.7745   7.7745   8.3178   9.1047   9.1047  10.0014

          k = 0.0000 0.1667 0.0000 (  4159 PWs)   bands (ev):

   -45.7731 -22.4655 -22.3630 -22.3450  -7.3896  -6.4167  -6.1963  -5.0448
    -5.0215  -5.0022  -4.8807  -4.7311   3.7855   6.3443   6.4105   6.7108
     8.1109   8.1337   8.4649   8.5679   8.6022   8.9817

          k = 0.0000 0.1667 0.2378 (  4157 PWs)   bands (ev):

   -45.7729 -22.4851 -22.3622 -22.3442  -7.2092  -6.3750  -6.1364  -5.0407
    -5.0370  -5.0015  -4.8781  -4.7670   3.2344   6.1303   6.4630   6.9216
     7.6052   7.8977   8.2523   8.6466   8.7074   9.3593

          k = 0.0000 0.1667-0.4756 (  4152 PWs)   bands (ev):

   -45.7726 -22.5045 -22.3613 -22.3434  -7.0213  -6.3277  -6.0763  -5.0524
    -5.0341  -5.0007  -4.8835  -4.8014   2.8073   5.8211   6.4899   6.6004
     7.4355   7.7755   8.3271   8.6999   8.7857   9.9478

          k = 0.0000 0.3333 0.0000 (  4182 PWs)   bands (ev):

   -45.7725 -22.4640 -22.3975 -22.3436  -7.0975  -6.3584  -6.1635  -5.0759
    -5.0274  -5.0185  -4.8624  -4.7413   3.2169   5.9855   6.6639   6.6999
     7.8315   7.8792   8.2294   8.3346   8.6789   9.5974

          k = 0.0000 0.3333 0.2378 (  4170 PWs)   bands (ev):

   -45.7722 -22.4832 -22.3964 -22.3427  -6.9792  -6.3218  -6.0824  -5.0447
    -5.0352  -5.0275  -4.8630  -4.7128   2.8930   5.8505   6.5535   6.7759
     7.2774   7.6985   7.8551   8.3285   8.8896   9.6761

          k = 0.0000 0.3333-0.4756 (  4158 PWs)   bands (ev):

   -45.7720 -22.5024 -22.3953 -22.3419  -6.8910  -6.2609  -5.9750  -5.0515
    -5.0277  -5.0046  -4.8988  -4.6661   2.6027   5.5206   6.3403   6.7963
     7.1678   7.3840   7.6521   8.3789   9.2441   9.5520

          k = 0.0000-0.5000 0.0000 (  4188 PWs)   bands (ev):

   -45.7722 -22.4631 -22.4147 -22.3429  -6.9350  -6.3118  -6.1747  -5.0884
    -5.0399  -5.0172  -4.8170  -4.7886   3.0094   5.6423   6.9084   6.9709
     7.3661   7.4749   8.2533   8.2590   8.7112  10.3361

          k = 0.0000-0.5000 0.2378 (  4156 PWs)   bands (ev):

   -45.7719 -22.4822 -22.4135 -22.3420  -6.8788  -6.2437  -6.0829  -5.0550
    -5.0405  -5.0341  -4.8278  -4.7095   2.7547   5.6022   6.5703   6.8137
     7.1640   7.2704   7.9631   8.2853   8.9015   9.8390

          k = 0.0000-0.5000-0.4756 (  4164 PWs)   bands (ev):

   -45.7716 -22.5013 -22.4123 -22.3412  -6.8614  -6.1711  -5.9290  -5.0510
    -5.0411  -5.0138  -4.8787  -4.6115   2.5193   5.3922   6.0367   6.8735
     7.0930   7.3729   7.4092   8.3009   9.1541   9.5877

          k = 0.1667 0.1667 0.0000 (  4166 PWs)   bands (ev):

   -45.7728 -22.4648 -22.3625 -22.3621  -7.2588  -6.3881  -6.1917  -5.0496
    -5.0360  -5.0034  -4.8561  -4.7217   3.4912   6.2986   6.5198   6.7221
     7.6447   7.8312   8.4575   8.5671   8.8802   9.1674

          k = 0.1667 0.1667 0.2378 (  4159 PWs)   bands (ev):

   -45.7725 -22.4842 -22.3615 -22.3612  -7.0895  -6.3647  -6.1323  -5.0517
    -5.0301  -4.9965  -4.8490  -4.7357   3.1242   6.0810   6.1620   6.8561
     7.5137   7.5335   8.2758   8.7235   8.9496   9.3147

          k = 0.1667 0.1667-0.4756 (  4148 PWs)   bands (ev):

   -45.7723 -22.5035 -22.3606 -22.3604  -6.9198  -6.3411  -6.0630  -5.0631
    -5.0126  -4.9710  -4.8575  -4.7543   2.7855   5.8720   5.8797   6.6020
     7.4150   7.4716   8.1989   8.7923   9.0028   9.6593

          k = 0.1667 0.3333 0.0000 (  4162 PWs)   bands (ev):

   -45.7722 -22.4632 -22.3966 -22.3607  -6.9769  -6.3309  -6.1961  -5.0692
    -5.0257  -4.9874  -4.8243  -4.7302   3.0232   5.9968   6.5208   6.8329
     7.1897   7.6830   8.0610   8.6773   8.8651   9.6507

          k = 0.1667 0.3333 0.2378 (  4159 PWs)   bands (ev):

   -45.7719 -22.4824 -22.3956 -22.3598  -6.8560  -6.3243  -6.1284  -5.0485
    -5.0250  -4.9664  -4.8077  -4.6896   2.8954   5.8170   5.9790   6.4905
     6.9109   7.5658   8.3608   8.6493   8.9865   9.4031

          k = 0.1667 0.3333-0.4756 (  4156 PWs)   bands (ev):

   -45.7716 -22.5015 -22.3945 -22.3590  -6.7709  -6.3039  -6.0249  -5.0472
    -5.0030  -4.9283  -4.8183  -4.6408   2.7285   5.4660   5.8954   6.2282
     6.4375   7.4380   8.4313   8.7254   8.9324   9.4028

          k = 0.1667-0.5000 0.0000 (  4176 PWs)   bands (ev):

   -45.7718 -22.4623 -22.4137 -22.3599  -6.8217  -6.2868  -6.2240  -5.0713
    -5.0181  -4.9682  -4.7878  -4.7756   2.8360   5.6595   6.6366   6.8658
     7.2048   7.4766   7.8178   8.7582   8.8205   9.9700

          k = 0.1667-0.5000 0.2378 (  4154 PWs)   bands (ev):

   -45.7716 -22.4814 -22.4126 -22.3591  -6.7555  -6.2570  -6.1523  -5.0467
    -5.0120  -4.9493  -4.7797  -4.6854   2.7889   5.6075   5.8865   6.2537
     6.8639   7.6999   8.1635   8.6351   9.0046   9.3559

          k = 0.1667-0.5000-0.4756 (  4164 PWs)   bands (ev):

   -45.7713 -22.5004 -22.4115 -22.3582  -6.7409  -6.2285  -6.0101  -5.0422
    -4.9740  -4.9300  -4.7931  -4.5879   2.7024   5.3542   5.7539   5.8894
     6.3070   7.5553   8.2998   8.5905   8.6624   9.5983

          k = 0.3333 0.3333 0.0000 (  4166 PWs)   bands (ev):

   -45.7715 -22.4616 -22.3950 -22.3946  -6.7390  -6.2770  -6.2451  -5.0501
    -5.0076  -4.9137  -4.7533  -4.7314   2.6540   5.9482   6.1242   6.8988
     7.0868   7.1563   7.9193   8.4852   9.3675   9.3932

          k = 0.3333 0.3333 0.2378 (  4164 PWs)   bands (ev):

   -45.7713 -22.4807 -22.3940 -22.3938  -6.6114  -6.3227  -6.2110  -5.0139
    -5.0026  -4.8630  -4.7064  -4.6564   2.8334   5.5738   5.6494   5.9426
     6.6288   7.0632   8.3823   8.9520   8.9625   9.3807

          k = 0.3333 0.3333-0.4756 (  4164 PWs)   bands (ev):

   -45.7710 -22.4997 -22.3930 -22.3929  -6.5465  -6.3652  -6.1032  -4.9973
    -4.9781  -4.8088  -4.6581  -4.5842   2.9959   5.1925   5.2080   5.7023
     6.3573   6.5580   7.6721   9.2839   9.3586   9.4732

          k = 0.3333-0.5000 0.0000 (  4150 PWs)   bands (ev):

   -45.7712 -22.4606 -22.4118 -22.3939  -6.6312  -6.2607  -6.2424  -5.0427
    -4.9860  -4.8458  -4.7685  -4.7201   2.4816   5.6309   6.1613   6.7160
     7.2071   7.4168   7.5019   8.4795   9.0937   9.5620

          k = 0.3333-0.5000 0.2378 (  4166 PWs)   bands (ev):

   -45.7709 -22.4797 -22.4108 -22.3930  -6.5058  -6.2870  -6.2646  -5.0061
    -4.9769  -4.7802  -4.6899  -4.6382   2.7699   5.4778   5.5817   5.6754
     6.4127   7.1318   7.9363   8.9419   8.9586   9.5387

          k = 0.3333-0.5000-0.4756 (  4172 PWs)   bands (ev):

   -45.7707 -22.4987 -22.4098 -22.3921  -6.4964  -6.3285  -6.1369  -4.9812
    -4.9572  -4.7318  -4.6114  -4.5390   3.1313   4.9448   5.1135   5.4781
     6.1583   6.5521   6.9256   9.3888   9.5139   9.6233

          k =-0.5000-0.5000 0.0000 (  4196 PWs)   bands (ev):

   -45.7709 -22.4597 -22.4109 -22.4109  -6.5824  -6.2232  -6.2232  -5.0330
    -4.9461  -4.7790  -4.7790  -4.6932   2.3047   5.4711   6.0217   6.9256
     6.9256   7.5229   7.5229   8.2376   8.6252   9.8195

          k =-0.5000-0.5000 0.2378 (  4152 PWs)   bands (ev):

   -45.7706 -22.4788 -22.4099 -22.4099  -6.3889  -6.3032  -6.3032  -4.9951
    -4.9443  -4.6645  -4.6468  -4.6468   2.7050   5.4285   5.5918   5.5918
     6.0280   7.0716   7.3087   8.9706   8.9706   9.8042

          k =-0.5000-0.5000-0.4756 (  4184 PWs)   bands (ev):

   -45.7704 -22.4978 -22.4090 -22.4090  -6.3731  -6.3731  -6.1900  -4.9572
    -4.9425  -4.6264  -4.5228  -4.5228   3.3395   4.9659   4.9659   5.3134
     5.9723   6.0344   6.2318   9.6366   9.6366   9.7890

     highest occupied level (ev):    10.3361

!    total energy              =    -380.57356570 Ry
     estimated scf accuracy    <          2.8E-10 Ry

     The total energy is the sum of the following terms:
     one-electron contribution =     -84.95804081 Ry
     hartree contribution      =      71.62841053 Ry
     xc contribution           =    -102.57298896 Ry
     ewald contribution        =    -264.67094647 Ry

     convergence has been achieved in   9 iterations

     negative rho (up, down):  1.602E-02 0.000E+00

     Forces acting on atoms (cartesian axes, Ry/au):

     atom    1 type  1   force =     0.00000000    0.00000000   -0.00717199
     atom    2 type  2   force =     0.00000000    0.00000000    0.00541983
     atom    3 type  3   force =     0.00000000    0.00000000   -0.00360929
     atom    4 type  3   force =     0.00000000    0.00000000    0.00268072
     atom    5 type  3   force =     0.00000000    0.00000000    0.00268072

     Total force =     0.010402     Total SCF correction =     0.000047


     Computing stress (Cartesian axis) and pressure


     negative rho (up, down):  1.602E-02 0.000E+00
          total   stress  (Ry/bohr**3)                   (kbar)     P=      -47.91
  -0.00037995   0.00000000   0.00000000          -55.89        0.00        0.00
   0.00000000  -0.00037995   0.00000000            0.00      -55.89        0.00
   0.00000000   0.00000000  -0.00021707            0.00        0.00      -31.93

     Energy error            =      1.4E-04 Ry
     Gradient error          =      7.2E-03 Ry/Bohr

     number of scf cycles    =   4
     number of bfgs steps    =   3

     energy             old  =    -380.5734214927 Ry
     energy             new  =    -380.5735656963 Ry

     CASE: energy            _new < energy            _old

     new trust radius        =       0.0209463138 bohr
     new conv_thr            =       0.0000000001 Ry


ATOMIC_POSITIONS (crystal)
Pb               0.0000000000        0.0000000000        0.9982329160
Ti               0.5000000000        0.5000000000        0.5375013829
O                0.5000000000        0.5000000000        0.1069073167
O                0.5000000000        0.0000000000        0.6123213362
O                0.0000000000        0.5000000000        0.6123213362



     Writing config-only to output data dir ./pto_70.save/ :
     XML data file
     NEW-OLD atomic charge density approx. for the potential

     Check: negative core charge=   -0.000002

     negative rho (up, down):  1.595E-02 0.000E+00

     total cpu time spent up to now is       64.4 secs

     Self-consistent Calculation

     iteration #  1     ecut=    70.00 Ry     beta= 0.70
     CG style diagonalization
     ethr =  1.00E-06,  avg # of iterations =  5.5

     Threshold (ethr) on eigenvalues was too large:
     Diagonalizing with lowered threshold

     CG style diagonalization
     c_bands:  1 eigenvalues not converged
     c_bands:  1 eigenvalues not converged
     c_bands:  1 eigenvalues not converged
     c_bands:  1 eigenvalues not converged
     c_bands:  1 eigenvalues not converged
     ethr =  4.27E-08,  avg # of iterations =  5.9

     negative rho (up, down):  1.591E-02 0.000E+00

     total cpu time spent up to now is       67.8 secs

     total energy              =    -380.57368722 Ry
     estimated scf accuracy    <       0.00002047 Ry

     iteration #  2     ecut=    70.00 Ry     beta= 0.70
     CG style diagonalization
     ethr =  4.65E-08,  avg # of iterations =  4.2

     negative rho (up, down):  1.591E-02 0.000E+00

     total cpu time spent up to now is       69.0 secs

     total energy              =    -380.57368782 Ry
     estimated scf accuracy    <       0.00001499 Ry

     iteration #  3     ecut=    70.00 Ry     beta= 0.70
     CG style diagonalization
     ethr =  3.41E-08,  avg # of iterations =  4.1

     negative rho (up, down):  1.590E-02 0.000E+00

     total cpu time spent up to now is       70.2 secs

     total energy              =    -380.57369180 Ry
     estimated scf accuracy    <       0.00001089 Ry

     iteration #  4     ecut=    70.00 Ry     beta= 0.70
     CG style diagonalization
     ethr =  2.47E-08,  avg # of iterations =  3.5

     negative rho (up, down):  1.590E-02 0.000E+00

     total cpu time spent up to now is       71.3 secs

     total energy              =    -380.57369349 Ry
     estimated scf accuracy    <       0.00000012 Ry

     iteration #  5     ecut=    70.00 Ry     beta= 0.70
     CG style diagonalization
     ethr =  2.75E-10,  avg # of iterations =  5.9

     negative rho (up, down):  1.590E-02 0.000E+00

     total cpu time spent up to now is       72.9 secs

     total energy              =    -380.57369375 Ry
     estimated scf accuracy    <       0.00000022 Ry

     iteration #  6     ecut=    70.00 Ry     beta= 0.70
     CG style diagonalization
     ethr =  2.75E-10,  avg # of iterations =  3.9

     negative rho (up, down):  1.590E-02 0.000E+00

     total cpu time spent up to now is       74.1 secs

     total energy              =    -380.57369378 Ry
     estimated scf accuracy    <       0.00000002 Ry

     iteration #  7     ecut=    70.00 Ry     beta= 0.70
     CG style diagonalization
     ethr =  5.43E-11,  avg # of iterations =  4.4

     negative rho (up, down):  1.590E-02 0.000E+00

     total cpu time spent up to now is       75.3 secs

     total energy              =    -380.57369379 Ry
     estimated scf accuracy    <          5.2E-09 Ry

     iteration #  8     ecut=    70.00 Ry     beta= 0.70
     CG style diagonalization
     ethr =  1.19E-11,  avg # of iterations =  5.1

     negative rho (up, down):  1.590E-02 0.000E+00

     total cpu time spent up to now is       76.8 secs

     total energy              =    -380.57369379 Ry
     estimated scf accuracy    <          4.7E-10 Ry

     iteration #  9     ecut=    70.00 Ry     beta= 0.70
     CG style diagonalization
     ethr =  1.07E-12,  avg # of iterations =  6.5

     negative rho (up, down):  1.590E-02 0.000E+00

     total cpu time spent up to now is       78.6 secs

     End of self-consistent calculation

          k = 0.0000 0.0000 0.0000 (  4121 PWs)   bands (ev):

   -45.7724 -22.4683 -22.3456 -22.3456  -7.5385  -6.4657  -6.2172  -5.0140
    -5.0140  -4.9784  -4.8800  -4.7227   4.2016   6.2862   6.2862   6.7605
     8.1010   8.1010   8.4745   8.6214   8.9199   8.9199

          k = 0.0000 0.0000 0.2378 (  4149 PWs)   bands (ev):

   -45.7722 -22.4880 -22.3448 -22.3448  -7.3455  -6.4102  -6.1612  -5.0290
    -5.0290  -4.9772  -4.8691  -4.7902   3.4409   6.3287   6.3287   6.8562
     7.8983   7.8983   8.3896   8.7789   9.0170   9.0170

          k = 0.0000 0.0000-0.4756 (  4180 PWs)   bands (ev):

   -45.7719 -22.5075 -22.3440 -22.3440  -7.1352  -6.3498  -6.1130  -5.0440
    -5.0440  -4.9759  -4.8628  -4.8592   2.9281   6.2011   6.3510   6.3510
     7.7721   7.7721   8.3085   9.0836   9.0836   9.9975

          k = 0.0000 0.1667 0.0000 (  4159 PWs)   bands (ev):

   -45.7721 -22.4675 -22.3630 -22.3449  -7.4046  -6.4388  -6.1949  -5.0359
    -5.0126  -4.9911  -4.8743  -4.7127   3.7868   6.3331   6.3959   6.7207
     8.1122   8.1255   8.4527   8.5503   8.5884   8.9735

          k = 0.0000 0.1667 0.2378 (  4157 PWs)   bands (ev):

   -45.7718 -22.4871 -22.3621 -22.3441  -7.2273  -6.3981  -6.1330  -5.0308
    -5.0281  -4.9903  -4.8713  -4.7480   3.2400   6.1178   6.4467   6.9266
     7.6001   7.8909   8.2392   8.6371   8.6902   9.3560

          k = 0.0000 0.1667-0.4756 (  4152 PWs)   bands (ev):

   -45.7716 -22.5065 -22.3612 -22.3433  -7.0435  -6.3522  -6.0698  -5.0435
    -5.0232  -4.9895  -4.8751  -4.7824   2.8142   5.8138   6.4720   6.5986
     7.4314   7.7710   8.3045   8.6913   8.7674   9.9512

          k = 0.0000 0.3333 0.0000 (  4182 PWs)   bands (ev):

   -45.7715 -22.4660 -22.3975 -22.3435  -7.1126  -6.3810  -6.1669  -5.0658
    -5.0162  -5.0096  -4.8502  -4.7233   3.2195   5.9734   6.6625   6.6836
     7.8200   7.8684   8.2149   8.3216   8.6666   9.6081

          k = 0.0000 0.3333 0.2378 (  4170 PWs)   bands (ev):

   -45.7712 -22.4852 -22.3964 -22.3426  -6.9976  -6.3444  -6.0827  -5.0339
    -5.0262  -5.0163  -4.8519  -4.6947   2.8992   5.8370   6.5492   6.7590
     7.2611   7.6859   7.8517   8.3166   8.8789   9.6836

          k = 0.0000 0.3333-0.4756 (  4158 PWs)   bands (ev):

   -45.7709 -22.5044 -22.3953 -22.3418  -6.9119  -6.2855  -5.9714  -5.0425
    -5.0165  -4.9928  -4.8864  -4.6498   2.6112   5.5087   6.3365   6.7795
     7.1469   7.3769   7.6387   8.3674   9.2410   9.5587

          k = 0.0000-0.5000 0.0000 (  4188 PWs)   bands (ev):

   -45.7711 -22.4651 -22.4147 -22.3428  -6.9506  -6.3339  -6.1811  -5.0775
    -5.0286  -5.0082  -4.7961  -4.7765   3.0127   5.6312   6.9010   6.9510
     7.3567   7.4668   8.2392   8.2444   8.6980  10.3443

          k = 0.0000-0.5000 0.2378 (  4156 PWs)   bands (ev):

   -45.7709 -22.4842 -22.4135 -22.3419  -6.8976  -6.2678  -6.0832  -5.0436
    -5.0293  -5.0252  -4.8145  -4.6918   2.7615   5.5903   6.5631   6.7949
     7.1423   7.2604   7.9574   8.2745   8.8913   9.8508

          k = 0.0000-0.5000-0.4756 (  4164 PWs)   bands (ev):

   -45.7706 -22.5033 -22.4123 -22.3411  -6.8812  -6.1975  -5.9258  -5.0420
    -5.0299  -5.0020  -4.8637  -4.5964   2.5289   5.3800   6.0296   6.8443
     7.0823   7.3491   7.4086   8.2924   9.1719   9.5784

          k = 0.1667 0.1667 0.0000 (  4166 PWs)   bands (ev):

   -45.7718 -22.4668 -22.3624 -22.3620  -7.2735  -6.4108  -6.1919  -5.0403
    -5.0267  -4.9925  -4.8479  -4.7031   3.4904   6.2868   6.5100   6.7244
     7.6391   7.8171   8.4542   8.5583   8.8612   9.1652

          k = 0.1667 0.1667 0.2378 (  4159 PWs)   bands (ev):

   -45.7715 -22.4862 -22.3614 -22.3612  -7.1075  -6.3879  -6.1298  -5.0420
    -5.0197  -4.9861  -4.8410  -4.7170   3.1278   6.0700   6.1494   6.8548
     7.5098   7.5200   8.2685   8.7100   8.9326   9.3178

          k = 0.1667 0.1667-0.4756 (  4148 PWs)   bands (ev):

   -45.7712 -22.5055 -22.3605 -22.3603  -6.9420  -6.3649  -6.0566  -5.0532
    -5.0015  -4.9613  -4.8491  -4.7354   2.7913   5.8619   5.8730   6.5931
     7.3943   7.4682   8.1957   8.7772   8.9859   9.6658

          k = 0.1667 0.3333 0.0000 (  4162 PWs)   bands (ev):

   -45.7711 -22.4652 -22.3966 -22.3606  -6.9908  -6.3543  -6.2007  -5.0589
    -5.0160  -4.9764  -4.8122  -4.7116   3.0201   5.9850   6.5116   6.8286
     7.1759   7.6798   8.0529   8.6673   8.8482   9.6566

          k = 0.1667 0.3333 0.2378 (  4159 PWs)   bands (ev):

   -45.7709 -22.4844 -22.3955 -22.3598  -6.8740  -6.3470  -6.1281  -5.0381
    -5.0147  -4.9564  -4.7965  -4.6719   2.8961   5.8052   5.9661   6.4832
     6.9050   7.5617   8.3477   8.6364   8.9741   9.4101

          k = 0.1667 0.3333-0.4756 (  4156 PWs)   bands (ev):

   -45.7706 -22.5035 -22.3945 -22.3589  -6.7920  -6.3271  -6.0195  -5.0374
    -4.9924  -4.9191  -4.8063  -4.6248   2.7328   5.4561   5.8777   6.2253
     6.4256   7.4308   8.4270   8.7050   8.9416   9.3952

          k = 0.1667-0.5000 0.0000 (  4176 PWs)   bands (ev):

   -45.7708 -22.4643 -22.4137 -22.3599  -6.8350  -6.3099  -6.2314  -5.0606
    -5.0084  -4.9576  -4.7684  -4.7619   2.8322   5.6487   6.6264   6.8536
     7.1965   7.4703   7.8133   8.7409   8.8092   9.9786

          k = 0.1667-0.5000 0.2378 (  4154 PWs)   bands (ev):

   -45.7705 -22.4834 -22.4126 -22.3590  -6.7737  -6.2807  -6.1514  -5.0363
    -5.0018  -4.9400  -4.7659  -4.6684   2.7888   5.5962   5.8710   6.2462
     6.8590   7.6952   8.1489   8.6241   8.9916   9.3677

          k = 0.1667-0.5000-0.4756 (  4164 PWs)   bands (ev):

   -45.7703 -22.5024 -22.4115 -22.3581  -6.7609  -6.2526  -6.0045  -5.0324
    -4.9637  -4.9216  -4.7787  -4.5734   2.7064   5.3433   5.7281   5.8829
     6.3051   7.5472   8.3077   8.5833   8.6534   9.5893

          k = 0.3333 0.3333 0.0000 (  4166 PWs)   bands (ev):

   -45.7705 -22.4635 -22.3949 -22.3946  -6.7470  -6.3022  -6.2555  -5.0396
    -4.9970  -4.9013  -4.7419  -4.7122   2.6413   5.9357   6.1155   6.8954
     7.0799   7.1603   7.9077   8.4830   9.3459   9.4028

          k = 0.3333 0.3333 0.2378 (  4164 PWs)   bands (ev):

   -45.7702 -22.4827 -22.3940 -22.3937  -6.6269  -6.3457  -6.2114  -5.0032
    -4.9923  -4.8537  -4.6952  -4.6395   2.8212   5.5653   5.6455   5.9315
     6.6261   7.0634   8.3903   8.9419   8.9601   9.3598

          k = 0.3333 0.3333-0.4756 (  4164 PWs)   bands (ev):

   -45.7700 -22.5016 -22.3930 -22.3928  -6.5676  -6.3863  -6.0955  -4.9873
    -4.9675  -4.8020  -4.6472  -4.5693   2.9862   5.1891   5.1912   5.6961
     6.3550   6.5536   7.6962   9.2750   9.3362   9.4643

          k = 0.3333-0.5000 0.0000 (  4150 PWs)   bands (ev):

   -45.7702 -22.4626 -22.4118 -22.3939  -6.6327  -6.2786  -6.2677  -5.0321
    -4.9751  -4.8317  -4.7512  -4.7073   2.4648   5.6197   6.1525   6.7179
     7.2122   7.4055   7.4919   8.4768   9.1061   9.5405

          k = 0.3333-0.5000 0.2378 (  4166 PWs)   bands (ev):

   -45.7699 -22.4817 -22.4108 -22.3930  -6.5194  -6.3101  -6.2662  -4.9955
    -4.9664  -4.7724  -4.6749  -4.6239   2.7509   5.4751   5.5718   5.6716
     6.4077   7.1323   7.9542   8.9362   8.9496   9.5168

          k = 0.3333-0.5000-0.4756 (  4172 PWs)   bands (ev):

   -45.7696 -22.5007 -22.4098 -22.3921  -6.5165  -6.3497  -6.1284  -4.9709
    -4.9467  -4.7267  -4.5987  -4.5262   3.1101   4.9346   5.1121   5.4711
     6.1536   6.5477   6.9597   9.3808   9.4907   9.6159

          k =-0.5000-0.5000 0.0000 (  4196 PWs)   bands (ev):

   -45.7699 -22.4617 -22.4108 -22.4108  -6.5749  -6.2497  -6.2497  -5.0224
    -4.9353  -4.7591  -4.7591  -4.6877   2.2823   5.4596   6.0150   6.9342
     6.9342   7.5089   7.5089   8.2401   8.6383   9.7965

          k =-0.5000-0.5000 0.2378 (  4152 PWs)   bands (ev):

   -45.7696 -22.4808 -22.4099 -22.4099  -6.3804  -6.3260  -6.3260  -4.9845
    -4.9335  -4.6600  -4.6311  -4.6311   2.6759   5.4180   5.5946   5.5946
     6.0213   7.0719   7.3338   8.9634   8.9634   9.7814

          k =-0.5000-0.5000-0.4756 (  4184 PWs)   bands (ev):

   -45.7693 -22.4997 -22.4090 -22.4090  -6.3932  -6.3932  -6.1803  -4.9466
    -4.9317  -4.6233  -4.5104  -4.5104   3.2908   4.9698   4.9698   5.3060
     6.0198   6.0276   6.2284   9.6300   9.6300   9.7663

     highest occupied level (ev):    10.3443

!    total energy              =    -380.57369379 Ry
     estimated scf accuracy    <          5.9E-11 Ry

     The total energy is the sum of the following terms:
     one-electron contribution =     -85.26249278 Ry
     hartree contribution      =      71.78074708 Ry
     xc contribution           =    -102.57918459 Ry
     ewald contribution        =    -264.51276351 Ry

     convergence has been achieved in   9 iterations

     negative rho (up, down):  1.590E-02 0.000E+00

     Forces acting on atoms (cartesian axes, Ry/au):

     atom    1 type  1   force =     0.00000000    0.00000000   -0.00492559
     atom    2 type  2   force =     0.00000000    0.00000000    0.00488045
     atom    3 type  3   force =     0.00000000    0.00000000   -0.00511526
     atom    4 type  3   force =     0.00000000    0.00000000    0.00258020
     atom    5 type  3   force =     0.00000000    0.00000000    0.00258020

     Total force =     0.009357     Total SCF correction =     0.000022


     Computing stress (Cartesian axis) and pressure


     negative rho (up, down):  1.590E-02 0.000E+00
          total   stress  (Ry/bohr**3)                   (kbar)     P=      -44.84
  -0.00036384   0.00000000   0.00000000          -53.52        0.00        0.00
   0.00000000  -0.00036384   0.00000000            0.00      -53.52        0.00
   0.00000000   0.00000000  -0.00018686            0.00        0.00      -27.49

     Energy error            =      1.3E-04 Ry
     Gradient error          =      5.1E-03 Ry/Bohr

     number of scf cycles    =   5
     number of bfgs steps    =   4

     energy             old  =    -380.5735656963 Ry
     energy             new  =    -380.5736937913 Ry

     CASE: energy            _new < energy            _old

     new trust radius        =       0.0314194707 bohr
     new conv_thr            =       0.0000000001 Ry


ATOMIC_POSITIONS (crystal)
Pb               0.0000000000        0.0000000000        0.9941776799
Ti               0.5000000000        0.5000000000        0.5382823564
O                0.5000000000        0.5000000000        0.1077129136
O                0.5000000000        0.0000000000        0.6135556690
O                0.0000000000        0.5000000000        0.6135556690



     Writing config-only to output data dir ./pto_70.save/ :
     XML data file
     NEW-OLD atomic charge density approx. for the potential

     Check: negative core charge=   -0.000002

     negative rho (up, down):  1.566E-02 0.000E+00

     total cpu time spent up to now is       80.5 secs

     Self-consistent Calculation

     iteration #  1     ecut=    70.00 Ry     beta= 0.70
     CG style diagonalization
     c_bands:  1 eigenvalues not converged
     c_bands:  1 eigenvalues not converged
     c_bands:  1 eigenvalues not converged
     ethr =  1.00E-06,  avg # of iterations =  6.8

     negative rho (up, down):  1.562E-02 0.000E+00

     total cpu time spent up to now is       82.6 secs

     total energy              =    -380.57378364 Ry
     estimated scf accuracy    <       0.00004472 Ry

     iteration #  2     ecut=    70.00 Ry     beta= 0.70
     CG style diagonalization
     ethr =  1.02E-07,  avg # of iterations =  4.6

     negative rho (up, down):  1.560E-02 0.000E+00

     total cpu time spent up to now is       83.9 secs

     total energy              =    -380.57380537 Ry
     estimated scf accuracy    <       0.00002818 Ry

     iteration #  3     ecut=    70.00 Ry     beta= 0.70
     CG style diagonalization
     ethr =  6.40E-08,  avg # of iterations =  4.2

     negative rho (up, down):  1.559E-02 0.000E+00

     total cpu time spent up to now is       85.2 secs

     total energy              =    -380.57381323 Ry
     estimated scf accuracy    <       0.00002061 Ry

     iteration #  4     ecut=    70.00 Ry     beta= 0.70
     CG style diagonalization
     ethr =  4.68E-08,  avg # of iterations =  3.6

     negative rho (up, down):  1.559E-02 0.000E+00

     total cpu time spent up to now is       86.2 secs

     total energy              =    -380.57381711 Ry
     estimated scf accuracy    <       0.00000140 Ry

     iteration #  5     ecut=    70.00 Ry     beta= 0.70
     CG style diagonalization
     ethr =  3.18E-09,  avg # of iterations =  4.3

     negative rho (up, down):  1.559E-02 0.000E+00

     total cpu time spent up to now is       87.5 secs

     total energy              =    -380.57381785 Ry
     estimated scf accuracy    <       0.00000022 Ry

     iteration #  6     ecut=    70.00 Ry     beta= 0.70
     CG style diagonalization
     ethr =  5.08E-10,  avg # of iterations =  5.1

     negative rho (up, down):  1.559E-02 0.000E+00

     total cpu time spent up to now is       88.9 secs

     total energy              =    -380.57381804 Ry
     estimated scf accuracy    <       0.00000005 Ry

     iteration #  7     ecut=    70.00 Ry     beta= 0.70
     CG style diagonalization
     ethr =  1.23E-10,  avg # of iterations =  4.8

     negative rho (up, down):  1.559E-02 0.000E+00

     total cpu time spent up to now is       90.3 secs

     total energy              =    -380.57381809 Ry
     estimated scf accuracy    <          6.1E-09 Ry

     iteration #  8     ecut=    70.00 Ry     beta= 0.70
     CG style diagonalization
     ethr =  1.38E-11,  avg # of iterations =  5.9

     negative rho (up, down):  1.559E-02 0.000E+00

     total cpu time spent up to now is       92.0 secs

     total energy              =    -380.57381810 Ry
     estimated scf accuracy    <          1.2E-09 Ry

     iteration #  9     ecut=    70.00 Ry     beta= 0.70
     CG style diagonalization
     ethr =  2.81E-12,  avg # of iterations =  5.7

     negative rho (up, down):  1.559E-02 0.000E+00

     total cpu time spent up to now is       93.6 secs

     End of self-consistent calculation

          k = 0.0000 0.0000 0.0000 (  4121 PWs)   bands (ev):

   -45.7831 -22.4754 -22.3580 -22.3580  -7.5656  -6.5037  -6.2084  -4.9981
    -4.9981  -4.9581  -4.8712  -4.6924   4.2058   6.2604   6.2604   6.8006
     8.1083   8.1083   8.4574   8.6190   8.8851   8.8851

          k = 0.0000 0.0000 0.2378 (  4149 PWs)   bands (ev):

   -45.7828 -22.4950 -22.3572 -22.3572  -7.3782  -6.4510  -6.1489  -5.0132
    -5.0132  -4.9569  -4.8579  -4.7572   3.4552   6.3023   6.3023   6.8763
     7.9037   7.9037   8.3727   8.7799   8.9821   8.9821

          k = 0.0000 0.0000-0.4756 (  4180 PWs)   bands (ev):

   -45.7825 -22.5145 -22.3565 -22.3565  -7.1760  -6.3940  -6.0951  -5.0281
    -5.0281  -4.9556  -4.8453  -4.8262   2.9458   6.2140   6.3246   6.3246
     7.7766   7.7766   8.2917   9.0466   9.0466   9.9905

          k = 0.0000 0.1667 0.0000 (  4159 PWs)   bands (ev):

   -45.7827 -22.4747 -22.3754 -22.3573  -7.4315  -6.4775  -6.1889  -5.0197
    -4.9967  -4.9708  -4.8616  -4.6821   3.7908   6.3127   6.3691   6.7345
     8.1244   8.1328   8.4324   8.5173   8.5737   8.9665

          k = 0.0000 0.1667 0.2378 (  4157 PWs)   bands (ev):

   -45.7825 -22.4942 -22.3745 -22.3565  -7.2600  -6.4385  -6.1231  -5.0131
    -5.0122  -4.9700  -4.8577  -4.7164   3.2527   6.0980   6.4195   6.9316
     7.5989   7.8929   8.2182   8.6252   8.6603   9.3521

          k = 0.0000 0.1667-0.4756 (  4152 PWs)   bands (ev):

   -45.7822 -22.5135 -22.3736 -22.3557  -7.0838  -6.3948  -6.0539  -5.0276
    -5.0041  -4.9692  -4.8592  -4.7504   2.8311   5.8039   6.4454   6.5919
     7.4296   7.7716   8.2648   8.6813   8.7355   9.9558

          k = 0.0000 0.3333 0.0000 (  4182 PWs)   bands (ev):

   -45.7821 -22.4731 -22.4099 -22.3559  -7.1396  -6.4202  -6.1678  -5.0478
    -4.9960  -4.9936  -4.8294  -4.6929   3.2241   5.9511   6.6537   6.6635
     7.8035   7.8473   8.2125   8.2980   8.6576   9.6298

          k = 0.0000 0.3333 0.2378 (  4170 PWs)   bands (ev):

   -45.7818 -22.4923 -22.4089 -22.3550  -7.0306  -6.3837  -6.0776  -5.0147
    -5.0103  -4.9960  -4.8323  -4.6647   2.9107   5.8151   6.5429   6.7302
     7.2372   7.6697   7.8459   8.3057   8.8663   9.6982

          k = 0.0000 0.3333-0.4756 (  4158 PWs)   bands (ev):

   -45.7815 -22.5114 -22.4078 -22.3542  -6.9492  -6.3282  -5.9596  -5.0266
    -4.9962  -4.9723  -4.8646  -4.6227   2.6274   5.4933   6.3280   6.7543
     7.1122   7.3634   7.6197   8.3524   9.2457   9.5684

          k = 0.0000-0.5000 0.0000 (  4188 PWs)   bands (ev):

   -45.7818 -22.4722 -22.4272 -22.3552  -6.9786  -6.3728  -6.1855  -5.0583
    -5.0083  -4.9923  -4.7621  -4.7555   3.0182   5.6089   6.8986   6.9149
     7.3372   7.4495   8.2141   8.2434   8.6878  10.3626

          k = 0.0000-0.5000 0.2378 (  4156 PWs)   bands (ev):

   -45.7815 -22.4913 -22.4260 -22.3543  -6.9312  -6.3097  -6.0774  -5.0237
    -5.0093  -5.0090  -4.7915  -4.6627   2.7733   5.5679   6.5532   6.7688
     7.1032   7.2468   7.9477   8.2702   8.8778   9.8750

          k = 0.0000-0.5000-0.4756 (  4164 PWs)   bands (ev):

   -45.7812 -22.5103 -22.4248 -22.3535  -6.9167  -6.2430  -5.9146  -5.0261
    -5.0096  -4.9815  -4.8380  -4.5715   2.5456   5.3623   6.0183   6.7987
     7.0707   7.3063   7.4021   8.2862   9.2063   9.5687

          k = 0.1667 0.1667 0.0000 (  4166 PWs)   bands (ev):

   -45.7824 -22.4739 -22.3748 -22.3744  -7.2998  -6.4505  -6.1884  -5.0236
    -5.0100  -4.9729  -4.8323  -4.6721   3.4899   6.2632   6.4916   6.7293
     7.6455   7.7948   8.4594   8.5425   8.8281   9.1750

          k = 0.1667 0.1667 0.2378 (  4159 PWs)   bands (ev):

   -45.7821 -22.4933 -22.3739 -22.3736  -7.1399  -6.4284  -6.1209  -5.0247
    -5.0012  -4.9672  -4.8258  -4.6860   3.1364   6.0521   6.1293   6.8518
     7.4984   7.5095   8.2686   8.6869   8.9057   9.3251

          k = 0.1667 0.1667-0.4756 (  4148 PWs)   bands (ev):

   -45.7819 -22.5125 -22.3730 -22.3728  -6.9819  -6.4062  -6.0410  -5.0357
    -4.9817  -4.9440  -4.8330  -4.7039   2.8053   5.8481   5.8627   6.5759
     7.3618   7.4639   8.1999   8.7510   8.9602   9.6757

          k = 0.1667 0.3333 0.0000 (  4162 PWs)   bands (ev):

   -45.7818 -22.4723 -22.4090 -22.3730  -7.0156  -6.3948  -6.2036  -5.0406
    -4.9989  -4.9566  -4.7912  -4.6808   3.0147   5.9624   6.4971   6.8213
     7.1536   7.6918   8.0385   8.6543   8.8228   9.6735

          k = 0.1667 0.3333 0.2378 (  4159 PWs)   bands (ev):

   -45.7815 -22.4915 -22.4080 -22.3722  -6.9062  -6.3864  -6.1224  -5.0198
    -4.9966  -4.9379  -4.7767  -4.6426   2.8981   5.7862   5.9463   6.4691
     6.8977   7.5574   8.3314   8.6191   8.9575   9.4247

          k = 0.1667 0.3333-0.4756 (  4156 PWs)   bands (ev):

   -45.7812 -22.5105 -22.4070 -22.3713  -6.8295  -6.3676  -6.0054  -5.0199
    -4.9735  -4.9020  -4.7852  -4.5982   2.7417   5.4439   5.8484   6.2193
     6.4050   7.4178   8.4298   8.6697   8.9598   9.3871

          k = 0.1667-0.5000 0.0000 (  4176 PWs)   bands (ev):

   -45.7814 -22.4714 -22.4262 -22.3723  -6.8593  -6.3502  -6.2381  -5.0418
    -4.9911  -4.9381  -4.7386  -4.7362   2.8254   5.6269   6.6170   6.8281
     7.1813   7.4576   7.8265   8.7112   8.7976   9.9958

          k = 0.1667-0.5000 0.2378 (  4154 PWs)   bands (ev):

   -45.7812 -22.4905 -22.4251 -22.3714  -6.8065  -6.3218  -6.1444  -5.0180
    -4.9839  -4.9221  -4.7425  -4.6404   2.7886   5.5749   5.8476   6.2354
     6.8512   7.6913   8.1256   8.6143   8.9712   9.3919

          k = 0.1667-0.5000-0.4756 (  4164 PWs)   bands (ev):

   -45.7809 -22.5094 -22.4240 -22.3706  -6.7964  -6.2944  -5.9903  -5.0150
    -4.9455  -4.9047  -4.7544  -4.5493   2.7135   5.3290   5.6865   5.8708
     6.3015   7.5320   8.3170   8.5802   8.6433   9.5811

          k = 0.3333 0.3333 0.0000 (  4166 PWs)   bands (ev):

   -45.7811 -22.4707 -22.4074 -22.4071  -6.7620  -6.3453  -6.2682  -5.0212
    -4.9781  -4.8798  -4.7208  -4.6807   2.6197   5.9133   6.0946   6.8963
     7.0692   7.1827   7.8830   8.4847   9.3088   9.4226

          k = 0.3333 0.3333 0.2378 (  4164 PWs)   bands (ev):

   -45.7808 -22.4897 -22.4064 -22.4062  -6.6555  -6.3854  -6.2068  -4.9845
    -4.9739  -4.8361  -4.6748  -4.6115   2.8008   5.5544   5.6399   5.9107
     6.6203   7.0655   8.4069   8.9285   8.9633   9.3248

          k = 0.3333 0.3333-0.4756 (  4164 PWs)   bands (ev):

   -45.7806 -22.5087 -22.4054 -22.4053  -6.6047  -6.4231  -6.0786  -4.9692
    -4.9488  -4.7877  -4.6279  -4.5445   2.9708   5.1605   5.1921   5.6830
     6.3519   6.5416   7.7386   9.2685   9.2964   9.4566

          k = 0.3333-0.5000 0.0000 (  4150 PWs)   bands (ev):

   -45.7808 -22.4697 -22.4243 -22.4063  -6.6361  -6.3110  -6.3043  -5.0135
    -4.9558  -4.8084  -4.7226  -4.6833   2.4366   5.5980   6.1313   6.7306
     7.2348   7.3852   7.4739   8.4754   9.1270   9.5032

          k = 0.3333-0.5000 0.2378 (  4166 PWs)   bands (ev):

   -45.7805 -22.4888 -22.4233 -22.4055  -6.5459  -6.3498  -6.2626  -4.9769
    -4.9476  -4.7566  -4.6501  -4.5992   2.7192   5.4743   5.5532   5.6656
     6.3967   7.1358   7.9837   8.9324   8.9414   9.4791

          k = 0.3333-0.5000-0.4756 (  4172 PWs)   bands (ev):

   -45.7803 -22.5077 -22.4223 -22.4046  -6.5518  -6.3864  -6.1105  -4.9524
    -4.9281  -4.7141  -4.5774  -4.5046   3.0748   4.9206   5.1143   5.4547
     6.1444   6.5388   7.0161   9.3752   9.4502   9.6103

          k =-0.5000-0.5000 0.0000 (  4196 PWs)   bands (ev):

   -45.7805 -22.4688 -22.4233 -22.4233  -6.5587  -6.2945  -6.2945  -5.0038
    -4.9159  -4.7268  -4.7268  -4.6746   2.2448   5.4379   5.9964   6.9598
     6.9598   7.4842   7.4842   8.2468   8.6578   9.7561

          k =-0.5000-0.5000 0.2378 (  4152 PWs)   bands (ev):

   -45.7802 -22.4878 -22.4224 -22.4224  -6.3652  -6.3652  -6.3629  -4.9659
    -4.9140  -4.6480  -4.6054  -4.6054   2.6276   5.3971   5.6036   5.6036
     6.0027   7.0747   7.3736   8.9573   8.9573   9.7412

          k =-0.5000-0.5000-0.4756 (  4184 PWs)   bands (ev):

   -45.7799 -22.5067 -22.4215 -22.4215  -6.4282  -6.4282  -6.1612  -4.9280
    -4.9122  -4.6127  -4.4899  -4.4899   3.2127   4.9799   4.9799   5.2887
     6.0090   6.0945   6.2261   9.6258   9.6258   9.7264

     highest occupied level (ev):    10.3626

!    total energy              =    -380.57381810 Ry
     estimated scf accuracy    <          1.1E-10 Ry

     The total energy is the sum of the following terms:
     one-electron contribution =     -85.69087755 Ry
     hartree contribution      =      71.99202303 Ry
     xc contribution           =    -102.58599223 Ry
     ewald contribution        =    -264.28897135 Ry

     convergence has been achieved in   9 iterations

     negative rho (up, down):  1.559E-02 0.000E+00

     Forces acting on atoms (cartesian axes, Ry/au):

     atom    1 type  1   force =     0.00000000    0.00000000   -0.00077871
     atom    2 type  2   force =     0.00000000    0.00000000    0.00114438
     atom    3 type  3   force =     0.00000000    0.00000000   -0.00377094
     atom    4 type  3   force =     0.00000000    0.00000000    0.00170263
     atom    5 type  3   force =     0.00000000    0.00000000    0.00170263

     Total force =     0.004683     Total SCF correction =     0.000079


     Computing stress (Cartesian axis) and pressure


     negative rho (up, down):  1.559E-02 0.000E+00
          total   stress  (Ry/bohr**3)                   (kbar)     P=      -41.63
  -0.00034034   0.00000000   0.00000000          -50.07        0.00        0.00
   0.00000000  -0.00034034   0.00000000            0.00      -50.07        0.00
   0.00000000   0.00000000  -0.00016823            0.00        0.00      -24.75

     Energy error            =      1.2E-04 Ry
     Gradient error          =      3.8E-03 Ry/Bohr

     number of scf cycles    =   6
     number of bfgs steps    =   5

     energy             old  =    -380.5736937913 Ry
     energy             new  =    -380.5738180995 Ry

     CASE: energy            _new < energy            _old

     new trust radius        =       0.0059514616 bohr
     new conv_thr            =       0.0000000001 Ry


ATOMIC_POSITIONS (crystal)
Pb               0.0000000000        0.0000000000        0.9934095390
Ti               0.5000000000        0.5000000000        0.5384990792
O                0.5000000000        0.5000000000        0.1073807821
O                0.5000000000        0.0000000000        0.6139974439
O                0.0000000000        0.5000000000        0.6139974439



     Writing config-only to output data dir ./pto_70.save/ :
     XML data file
     NEW-OLD atomic charge density approx. for the potential

     Check: negative core charge=   -0.000002

     negative rho (up, down):  1.560E-02 0.000E+00

     total cpu time spent up to now is       95.5 secs

     Self-consistent Calculation

     iteration #  1     ecut=    70.00 Ry     beta= 0.70
     CG style diagonalization
     ethr =  1.00E-06,  avg # of iterations =  3.8

     Threshold (ethr) on eigenvalues was too large:
     Diagonalizing with lowered threshold

     CG style diagonalization
     c_bands:  1 eigenvalues not converged
     c_bands:  1 eigenvalues not converged
     c_bands:  1 eigenvalues not converged
     c_bands:  2 eigenvalues not converged
     c_bands:  1 eigenvalues not converged
     c_bands:  1 eigenvalues not converged
     c_bands:  1 eigenvalues not converged
     c_bands:  1 eigenvalues not converged
     c_bands:  1 eigenvalues not converged
     c_bands:  1 eigenvalues not converged
     ethr =  2.36E-08,  avg # of iterations =  6.4

     negative rho (up, down):  1.559E-02 0.000E+00

     total cpu time spent up to now is       98.6 secs

     total energy              =    -380.57383070 Ry
     estimated scf accuracy    <       0.00001144 Ry

     iteration #  2     ecut=    70.00 Ry     beta= 0.70
     CG style diagonalization
     ethr =  2.60E-08,  avg # of iterations =  4.7

     negative rho (up, down):  1.559E-02 0.000E+00

     total cpu time spent up to now is      100.0 secs

     total energy              =    -380.57382954 Ry
     estimated scf accuracy    <       0.00003283 Ry

     iteration #  3     ecut=    70.00 Ry     beta= 0.70
     CG style diagonalization
     ethr =  2.60E-08,  avg # of iterations =  4.2

     negative rho (up, down):  1.558E-02 0.000E+00

     total cpu time spent up to now is      101.2 secs

     total energy              =    -380.57383600 Ry
     estimated scf accuracy    <       0.00000295 Ry

     iteration #  4     ecut=    70.00 Ry     beta= 0.70
     CG style diagonalization
     ethr =  6.70E-09,  avg # of iterations =  3.6

     negative rho (up, down):  1.558E-02 0.000E+00

     total cpu time spent up to now is      102.2 secs

     total energy              =    -380.57383658 Ry
     estimated scf accuracy    <       0.00000028 Ry

     iteration #  5     ecut=    70.00 Ry     beta= 0.70
     CG style diagonalization
     ethr =  6.40E-10,  avg # of iterations =  4.1

     negative rho (up, down):  1.558E-02 0.000E+00

     total cpu time spent up to now is      103.4 secs

     total energy              =    -380.57383671 Ry
     estimated scf accuracy    <       0.00000005 Ry

     iteration #  6     ecut=    70.00 Ry     beta= 0.70
     CG style diagonalization
     ethr =  1.18E-10,  avg # of iterations =  4.3

     negative rho (up, down):  1.558E-02 0.000E+00

     total cpu time spent up to now is      104.7 secs

     total energy              =    -380.57383674 Ry
     estimated scf accuracy    <          9.7E-09 Ry

     iteration #  7     ecut=    70.00 Ry     beta= 0.70
     CG style diagonalization
     ethr =  2.20E-11,  avg # of iterations =  4.3

     negative rho (up, down):  1.558E-02 0.000E+00

     total cpu time spent up to now is      105.9 secs

     total energy              =    -380.57383674 Ry
     estimated scf accuracy    <          2.2E-09 Ry

     iteration #  8     ecut=    70.00 Ry     beta= 0.70
     CG style diagonalization
     ethr =  4.99E-12,  avg # of iterations =  4.8

     negative rho (up, down):  1.558E-02 0.000E+00

     total cpu time spent up to now is      107.3 secs

     total energy              =    -380.57383674 Ry
     estimated scf accuracy    <          4.3E-10 Ry

     iteration #  9     ecut=    70.00 Ry     beta= 0.70
     CG style diagonalization
     ethr =  9.74E-13,  avg # of iterations =  5.1

     negative rho (up, down):  1.558E-02 0.000E+00

     total cpu time spent up to now is      108.7 secs

     End of self-consistent calculation

          k = 0.0000 0.0000 0.0000 (  4121 PWs)   bands (ev):

   -45.7912 -22.4790 -22.3665 -22.3665  -7.5728  -6.5130  -6.2047  -4.9934
    -4.9934  -4.9520  -4.8674  -4.6844   4.2093   6.2526   6.2526   6.8049
     8.1178   8.1178   8.4519   8.6258   8.8753   8.8753

          k = 0.0000 0.0000 0.2378 (  4149 PWs)   bands (ev):

   -45.7909 -22.4986 -22.3658 -22.3658  -7.3870  -6.4609  -6.1444  -5.0084
    -5.0084  -4.9507  -4.8535  -4.7485   3.4613   6.2947   6.2947   6.8782
     7.9111   7.9111   8.3673   8.7828   8.9729   8.9729

          k = 0.0000 0.0000-0.4756 (  4180 PWs)   bands (ev):

   -45.7906 -22.5180 -22.3650 -22.3650  -7.1869  -6.4047  -6.0890  -5.0234
    -5.0234  -4.9495  -4.8402  -4.8167   2.9535   6.2147   6.3175   6.3175
     7.7828   7.7828   8.2865   9.0371   9.0371   9.9889

          k = 0.0000 0.1667 0.0000 (  4159 PWs)   bands (ev):

   -45.7909 -22.4782 -22.3839 -22.3658  -7.4387  -6.4870  -6.1858  -5.0148
    -4.9920  -4.9646  -4.8572  -4.6740   3.7929   6.3074   6.3611   6.7358
     8.1312   8.1427   8.4271   8.5077   8.5730   8.9681

          k = 0.0000 0.1667 0.2378 (  4157 PWs)   bands (ev):

   -45.7906 -22.4977 -22.3830 -22.3650  -7.2687  -6.4484  -6.1189  -5.0078
    -5.0075  -4.9639  -4.8530  -4.7081   3.2576   6.0931   6.4118   6.9310
     7.6021   7.8990   8.2140   8.6234   8.6530   9.3522

          k = 0.0000 0.1667-0.4756 (  4152 PWs)   bands (ev):

   -45.7903 -22.5170 -22.3822 -22.3642  -7.0944  -6.4053  -6.0483  -5.0229
    -4.9986  -4.9631  -4.8540  -4.7420   2.8377   5.8016   6.4383   6.5882
     7.4325   7.7765   8.2547   8.6800   8.7276   9.9573

          k = 0.0000 0.3333 0.0000 (  4182 PWs)   bands (ev):

   -45.7902 -22.4767 -22.4184 -22.3644  -7.1468  -6.4300  -6.1659  -5.0425
    -4.9901  -4.9887  -4.8237  -4.6850   3.2255   5.9455   6.6452   6.6657
     7.8019   7.8407   8.2202   8.2910   8.6598   9.6364

          k = 0.0000 0.3333 0.2378 (  4170 PWs)   bands (ev):

   -45.7899 -22.4959 -22.4174 -22.3636  -7.0392  -6.3936  -6.0743  -5.0091
    -5.0056  -4.9899  -4.8266  -4.6569   2.9142   5.8102   6.5423   6.7222
     7.2340   7.6673   7.8443   8.3075   8.8653   9.7027

          k = 0.0000 0.3333-0.4756 (  4158 PWs)   bands (ev):

   -45.7897 -22.5149 -22.4163 -22.3627  -6.9588  -6.3390  -5.9547  -5.0219
    -4.9901  -4.9665  -4.8583  -4.6156   2.6325   5.4909   6.3267   6.7477
     7.1051   7.3587   7.6171   8.3518   9.2507   9.5707

          k = 0.0000-0.5000 0.0000 (  4188 PWs)   bands (ev):

   -45.7899 -22.4758 -22.4357 -22.3637  -6.9860  -6.3828  -6.1840  -5.0529
    -5.0022  -4.9876  -4.7536  -4.7495   3.0197   5.6033   6.9039   6.9056
     7.3313   7.4428   8.2068   8.2520   8.6898  10.3688

          k = 0.0000-0.5000 0.2378 (  4156 PWs)   bands (ev):

   -45.7896 -22.4948 -22.4345 -22.3628  -6.9398  -6.3204  -6.0738  -5.0180
    -5.0045  -5.0029  -4.7851  -4.6553   2.7766   5.5624   6.5524   6.7655
     7.0931   7.2429   7.9452   8.2756   8.8762   9.8827

          k = 0.0000-0.5000-0.4756 (  4164 PWs)   bands (ev):

   -45.7893 -22.5138 -22.4333 -22.3620  -6.9256  -6.2546  -5.9099  -5.0214
    -5.0035  -4.9758  -4.8309  -4.5650   2.5503   5.3589   6.0175   6.7894
     7.0683   7.2954   7.3982   8.2898   9.2172   9.5687

          k = 0.1667 0.1667 0.0000 (  4166 PWs)   bands (ev):

   -45.7905 -22.4775 -22.3833 -22.3829  -7.3069  -6.4603  -6.1858  -5.0186
    -5.0050  -4.9670  -4.8274  -4.6641   3.4906   6.2556   6.4872   6.7298
     7.6534   7.7899   8.4651   8.5377   8.8204   9.1826

          k = 0.1667 0.1667 0.2378 (  4159 PWs)   bands (ev):

   -45.7903 -22.4968 -22.3824 -22.3821  -7.1486  -6.4384  -6.1169  -5.0196
    -4.9958  -4.9615  -4.8208  -4.6779   3.1398   6.0470   6.1248   6.8502
     7.4936   7.5131   8.2739   8.6807   8.9001   9.3285

          k = 0.1667 0.1667-0.4756 (  4148 PWs)   bands (ev):

   -45.7900 -22.5161 -22.3815 -22.3813  -6.9925  -6.4164  -6.0354  -5.0304
    -4.9757  -4.9389  -4.8276  -4.6958   2.8108   5.8449   5.8602   6.5711
     7.3541   7.4652   8.2056   8.7441   8.9550   9.6787

          k = 0.1667 0.3333 0.0000 (  4162 PWs)   bands (ev):

   -45.7899 -22.4759 -22.4175 -22.3816  -7.0223  -6.4049  -6.2024  -5.0353
    -4.9938  -4.9505  -4.7852  -4.6728   3.0136   5.9563   6.4933   6.8203
     7.1486   7.7019   8.0355   8.6524   8.8183   9.6803

          k = 0.1667 0.3333 0.2378 (  4159 PWs)   bands (ev):

   -45.7896 -22.4950 -22.4165 -22.3807  -6.9147  -6.3963  -6.1191  -5.0145
    -4.9912  -4.9321  -4.7709  -4.6350   2.8992   5.7819   5.9425   6.4647
     6.8974   7.5585   8.3304   8.6168   8.9551   9.4295

          k = 0.1667 0.3333-0.4756 (  4156 PWs)   bands (ev):

   -45.7893 -22.5141 -22.4155 -22.3799  -6.8392  -6.3778  -6.0002  -5.0147
    -4.9678  -4.8965  -4.7791  -4.5912   2.7449   5.4422   5.8417   6.2172
     6.4007   7.4151   8.4349   8.6612   8.9656   9.3867

          k = 0.1667-0.5000 0.0000 (  4176 PWs)   bands (ev):

   -45.7896 -22.4750 -22.4347 -22.3808  -6.8658  -6.3606  -6.2375  -5.0365
    -4.9860  -4.9320  -4.7322  -4.7280   2.8239   5.6214   6.6181   6.8191
     7.1789   7.4544   7.8380   8.7037   8.7979  10.0011

          k = 0.1667-0.5000 0.2378 (  4154 PWs)   bands (ev):

   -45.7893 -22.4940 -22.4336 -22.3799  -6.8149  -6.3324  -6.1408  -5.0126
    -4.9786  -4.9162  -4.7361  -4.6331   2.7889   5.5697   5.8437   6.2332
     6.8494   7.6933   8.1215   8.6153   8.9670   9.3991

          k = 0.1667-0.5000-0.4756 (  4164 PWs)   bands (ev):

   -45.7890 -22.5130 -22.4325 -22.3791  -6.8054  -6.3051  -5.9852  -5.0098
    -4.9402  -4.8989  -4.7479  -4.5429   2.7159   5.3269   5.6775   5.8682
     6.3005   7.5289   8.3196   8.5828   8.6421   9.5818

          k = 0.3333 0.3333 0.0000 (  4166 PWs)   bands (ev):

   -45.7892 -22.4743 -22.4159 -22.4156  -6.7663  -6.3561  -6.2698  -5.0159
    -4.9725  -4.8734  -4.7144  -4.6726   2.6149   5.9075   6.0878   6.8982
     7.0688   7.1944   7.8762   8.4881   9.2997   9.4290

          k = 0.3333 0.3333 0.2378 (  4164 PWs)   bands (ev):

   -45.7890 -22.4933 -22.4149 -22.4147  -6.6632  -6.3954  -6.2040  -4.9791
    -4.9684  -4.8304  -4.6687  -4.6043   2.7964   5.5534   5.6388   5.9048
     6.6201   7.0674   8.4134   8.9270   8.9666   9.3165

          k = 0.3333 0.3333-0.4756 (  4164 PWs)   bands (ev):

   -45.7887 -22.5122 -22.4139 -22.4138  -6.6143  -6.4324  -6.0732  -4.9637
    -4.9435  -4.7823  -4.6223  -4.5382   2.9679   5.1552   5.1934   5.6778
     6.3528   6.5388   7.7504   9.2701   9.2860   9.4574

          k = 0.3333-0.5000 0.0000 (  4150 PWs)   bands (ev):

   -45.7889 -22.4733 -22.4328 -22.4148  -6.6373  -6.3219  -6.3092  -5.0082
    -4.9501  -4.8016  -4.7152  -4.6762   2.4302   5.5926   6.1245   6.7369
     7.2450   7.3816   7.4709   8.4769   9.1324   9.4938

          k = 0.3333-0.5000 0.2378 (  4166 PWs)   bands (ev):

   -45.7886 -22.4923 -22.4318 -22.4140  -6.5532  -6.3599  -6.2600  -4.9716
    -4.9420  -4.7509  -4.6437  -4.5925   2.7120   5.4760   5.5484   5.6645
     6.3946   7.1386   7.9912   8.9337   8.9425   9.4697

          k = 0.3333-0.5000-0.4756 (  4172 PWs)   bands (ev):

   -45.7884 -22.5112 -22.4308 -22.4131  -6.5608  -6.3958  -6.1051  -4.9469
    -4.9227  -4.7087  -4.5719  -4.4988   3.0670   4.9188   5.1168   5.4485
     6.1429   6.5380   7.0299   9.3768   9.4399   9.6118

          k =-0.5000-0.5000 0.0000 (  4196 PWs)   bands (ev):

   -45.7886 -22.4724 -22.4318 -22.4318  -6.5535  -6.3057  -6.3057  -4.9985
    -4.9100  -4.7188  -4.7188  -4.6690   2.2362   5.4325   5.9909   6.9693
     6.9693   7.4797   7.4797   8.2499   8.6622   9.7458

          k =-0.5000-0.5000 0.2378 (  4152 PWs)   bands (ev):

   -45.7883 -22.4914 -22.4309 -22.4309  -6.3751  -6.3751  -6.3576  -4.9606
    -4.9082  -4.6425  -4.5989  -4.5989   2.6167   5.3913   5.6079   5.6079
     5.9972   7.0770   7.3826   8.9586   8.9586   9.7309

          k =-0.5000-0.5000-0.4756 (  4184 PWs)   bands (ev):

   -45.7881 -22.5103 -22.4300 -22.4300  -6.4371  -6.4371  -6.1557  -4.9227
    -4.9064  -4.6073  -4.4847  -4.4847   3.1951   4.9845   4.9845   5.2823
     6.0035   6.1112   6.2283   9.6275   9.6275   9.7161

     highest occupied level (ev):    10.3688

!    total energy              =    -380.57383674 Ry
     estimated scf accuracy    <          1.1E-11 Ry

     The total energy is the sum of the following terms:
     one-electron contribution =     -85.75028143 Ry
     hartree contribution      =      72.01981300 Ry
     xc contribution           =    -102.58593516 Ry
     ewald contribution        =    -264.25743316 Ry

     convergence has been achieved in   9 iterations

     negative rho (up, down):  1.558E-02 0.000E+00

     Forces acting on atoms (cartesian axes, Ry/au):

     atom    1 type  1   force =     0.00000000    0.00000000    0.00025520
     atom    2 type  2   force =     0.00000000    0.00000000   -0.00076389
     atom    3 type  3   force =     0.00000000    0.00000000   -0.00158476
     atom    4 type  3   force =     0.00000000    0.00000000    0.00104673
     atom    5 type  3   force =     0.00000000    0.00000000    0.00104673

     Total force =     0.002313     Total SCF correction =     0.000010


     Computing stress (Cartesian axis) and pressure


     negative rho (up, down):  1.558E-02 0.000E+00
          total   stress  (Ry/bohr**3)                   (kbar)     P=      -41.82
  -0.00033748   0.00000000   0.00000000          -49.65        0.00        0.00
   0.00000000  -0.00033748   0.00000000            0.00      -49.65        0.00
   0.00000000   0.00000000  -0.00017796            0.00        0.00      -26.18

     Energy error            =      1.9E-05 Ry
     Gradient error          =      1.6E-03 Ry/Bohr

     number of scf cycles    =   7
     number of bfgs steps    =   6

     energy             old  =    -380.5738180995 Ry
     energy             new  =    -380.5738367445 Ry

     CASE: energy            _new < energy            _old

     new trust radius        =       0.0032672666 bohr
     new conv_thr            =            1.0E-10 Ry


ATOMIC_POSITIONS (crystal)
Pb               0.0000000000        0.0000000000        0.9934088931
Ti               0.5000000000        0.5000000000        0.5384112546
O                0.5000000000        0.5000000000        0.1069590838
O                0.5000000000        0.0000000000        0.6142525282
O                0.0000000000        0.5000000000        0.6142525282



     Writing config-only to output data dir ./pto_70.save/ :
     XML data file
     NEW-OLD atomic charge density approx. for the potential

     Check: negative core charge=   -0.000002

     negative rho (up, down):  1.558E-02 0.000E+00

     total cpu time spent up to now is      110.7 secs

     Self-consistent Calculation

     iteration #  1     ecut=    70.00 Ry     beta= 0.70
     CG style diagonalization
     ethr =  1.00E-06,  avg # of iterations =  2.7

     Threshold (ethr) on eigenvalues was too large:
     Diagonalizing with lowered threshold

     CG style diagonalization
     c_bands:  1 eigenvalues not converged
     c_bands:  1 eigenvalues not converged
     c_bands:  1 eigenvalues not converged
     c_bands:  1 eigenvalues not converged
     c_bands:  1 eigenvalues not converged
     c_bands:  1 eigenvalues not converged
     ethr =  5.66E-09,  avg # of iterations =  5.9

     negative rho (up, down):  1.558E-02 0.000E+00

     total cpu time spent up to now is      113.3 secs

     total energy              =    -380.57383998 Ry
     estimated scf accuracy    <       0.00000456 Ry

     iteration #  2     ecut=    70.00 Ry     beta= 0.70
     CG style diagonalization
     ethr =  1.04E-08,  avg # of iterations =  4.7

     negative rho (up, down):  1.558E-02 0.000E+00

     total cpu time spent up to now is      114.7 secs

     total energy              =    -380.57383915 Ry
     estimated scf accuracy    <       0.00001743 Ry

     iteration #  3     ecut=    70.00 Ry     beta= 0.70
     CG style diagonalization
     ethr =  1.04E-08,  avg # of iterations =  4.3

     negative rho (up, down):  1.558E-02 0.000E+00

     total cpu time spent up to now is      115.9 secs

     total energy              =    -380.57384233 Ry
     estimated scf accuracy    <       0.00000075 Ry

     iteration #  4     ecut=    70.00 Ry     beta= 0.70
     CG style diagonalization
     ethr =  1.71E-09,  avg # of iterations =  3.6

     negative rho (up, down):  1.558E-02 0.000E+00

     total cpu time spent up to now is      117.0 secs

     total energy              =    -380.57384250 Ry
     estimated scf accuracy    <       0.00000007 Ry

     iteration #  5     ecut=    70.00 Ry     beta= 0.70
     CG style diagonalization
     ethr =  1.57E-10,  avg # of iterations =  4.1

     negative rho (up, down):  1.558E-02 0.000E+00

     total cpu time spent up to now is      118.2 secs

     total energy              =    -380.57384235 Ry
     estimated scf accuracy    <       0.00000001 Ry

     iteration #  6     ecut=    70.00 Ry     beta= 0.70
     CG style diagonalization
     ethr =  3.12E-11,  avg # of iterations =  3.9

     negative rho (up, down):  1.558E-02 0.000E+00

     total cpu time spent up to now is      119.3 secs

     total energy              =    -380.57384235 Ry
     estimated scf accuracy    <          2.0E-09 Ry

     iteration #  7     ecut=    70.00 Ry     beta= 0.70
     CG style diagonalization
     ethr =  4.51E-12,  avg # of iterations =  4.1

     negative rho (up, down):  1.558E-02 0.000E+00

     total cpu time spent up to now is      120.5 secs

     total energy              =    -380.57384235 Ry
     estimated scf accuracy    <          3.0E-10 Ry

     iteration #  8     ecut=    70.00 Ry     beta= 0.70
     CG style diagonalization
     ethr =  6.72E-13,  avg # of iterations =  5.1

     negative rho (up, down):  1.558E-02 0.000E+00

     total cpu time spent up to now is      122.0 secs

     End of self-consistent calculation

          k = 0.0000 0.0000 0.0000 (  4121 PWs)   bands (ev):

   -45.7953 -22.4807 -22.3706 -22.3706  -7.5744  -6.5140  -6.2034  -4.9916
    -4.9916  -4.9497  -4.8655  -4.6819   4.2121   6.2500   6.2500   6.8024
     8.1211   8.1211   8.4495   8.6298   8.8729   8.8729

          k = 0.0000 0.0000 0.2378 (  4149 PWs)   bands (ev):

   -45.7950 -22.5003 -22.3698 -22.3698  -7.3888  -6.4621  -6.1430  -5.0067
    -5.0067  -4.9484  -4.8515  -4.7459   3.4642   6.2914   6.2914   6.8767
     7.9150   7.9150   8.3650   8.7847   8.9711   8.9711

          k = 0.0000 0.0000-0.4756 (  4180 PWs)   bands (ev):

   -45.7948 -22.5198 -22.3691 -22.3691  -7.1889  -6.4060  -6.0876  -5.0216
    -5.0216  -4.9472  -4.8381  -4.8140   2.9568   6.2134   6.3134   6.3134
     7.7875   7.7875   8.2841   9.0354   9.0354   9.9892

          k = 0.0000 0.1667 0.0000 (  4159 PWs)   bands (ev):

   -45.7950 -22.4800 -22.3879 -22.3699  -7.4403  -6.4882  -6.1845  -5.0129
    -4.9902  -4.9624  -4.8553  -4.6716   3.7945   6.3065   6.3586   6.7342
     8.1340   8.1464   8.4254   8.5050   8.5736   8.9699

          k = 0.0000 0.1667 0.2378 (  4157 PWs)   bands (ev):

   -45.7947 -22.4994 -22.3871 -22.3691  -7.2705  -6.4496  -6.1176  -5.0059
    -5.0057  -4.9616  -4.8510  -4.7056   3.2597   6.0914   6.4086   6.9296
     7.6043   7.9023   8.2142   8.6225   8.6518   9.3531

          k = 0.0000 0.1667-0.4756 (  4152 PWs)   bands (ev):

   -45.7944 -22.5188 -22.3862 -22.3683  -7.0964  -6.4066  -6.0469  -5.0211
    -4.9966  -4.9608  -4.8518  -4.7395   2.8403   5.8000   6.4343   6.5861
     7.4358   7.7807   8.2529   8.6793   8.7266   9.9588

          k = 0.0000 0.3333 0.0000 (  4182 PWs)   bands (ev):

   -45.7943 -22.4784 -22.4224 -22.3685  -7.1484  -6.4316  -6.1648  -5.0406
    -4.9880  -4.9868  -4.8217  -4.6826   3.2261   5.9452   6.6431   6.6678
     7.8041   7.8387   8.2234   8.2886   8.6614   9.6378

          k = 0.0000 0.3333 0.2378 (  4170 PWs)   bands (ev):

   -45.7941 -22.4976 -22.4214 -22.3676  -7.0408  -6.3954  -6.0731  -5.0072
    -5.0038  -4.9877  -4.8246  -4.6546   2.9154   5.8098   6.5431   6.7194
     7.2358   7.6669   7.8438   8.3102   8.8659   9.7039

          k = 0.0000 0.3333-0.4756 (  4158 PWs)   bands (ev):

   -45.7938 -22.5167 -22.4203 -22.3668  -6.9604  -6.3411  -5.9535  -5.0201
    -4.9879  -4.9644  -4.8562  -4.6134   2.6343   5.4902   6.3287   6.7441
     7.1050   7.3570   7.6179   8.3542   9.2524   9.5723

          k = 0.0000-0.5000 0.0000 (  4188 PWs)   bands (ev):

   -45.7940 -22.4775 -22.4397 -22.3678  -6.9874  -6.3850  -6.1828  -5.0510
    -5.0000  -4.9858  -4.7513  -4.7475   3.0200   5.6039   6.9043   6.9094
     7.3303   7.4397   8.2044   8.2559   8.6914  10.3705

          k = 0.0000-0.5000 0.2378 (  4156 PWs)   bands (ev):

   -45.7937 -22.4966 -22.4385 -22.3669  -6.9411  -6.3227  -6.0725  -5.0161
    -5.0028  -5.0006  -4.7830  -4.6532   2.7777   5.5625   6.5536   6.7672
     7.0918   7.2398   7.9445   8.2798   8.8770   9.8846

          k = 0.0000-0.5000-0.4756 (  4164 PWs)   bands (ev):

   -45.7935 -22.5155 -22.4373 -22.3661  -6.9268  -6.2571  -5.9087  -5.0196
    -5.0013  -4.9739  -4.8287  -4.5629   2.5519   5.3584   6.0202   6.7891
     7.0652   7.2940   7.3965   8.2941   9.2211   9.5695

          k = 0.1667 0.1667 0.0000 (  4166 PWs)   bands (ev):

   -45.7947 -22.4792 -22.3874 -22.3870  -7.3085  -6.4616  -6.1846  -5.0167
    -5.0032  -4.9648  -4.8254  -4.6616   3.4915   6.2530   6.4871   6.7285
     7.6569   7.7893   8.4679   8.5358   8.8201   9.1856

          k = 0.1667 0.1667 0.2378 (  4159 PWs)   bands (ev):

   -45.7944 -22.4986 -22.3864 -22.3862  -7.1504  -6.4398  -6.1156  -5.0177
    -4.9938  -4.9594  -4.8188  -4.6755   3.1414   6.0446   6.1239   6.8487
     7.4932   7.5164   8.2769   8.6790   8.8996   9.3305

          k = 0.1667 0.1667-0.4756 (  4148 PWs)   bands (ev):

   -45.7941 -22.5178 -22.3855 -22.3854  -6.9945  -6.4178  -6.0341  -5.0285
    -4.9736  -4.9371  -4.8255  -4.6933   2.8130   5.8427   5.8587   6.5706
     7.3521   7.4684   8.2091   8.7424   8.9542   9.6807

          k = 0.1667 0.3333 0.0000 (  4162 PWs)   bands (ev):

   -45.7940 -22.4776 -22.4215 -22.3856  -7.0239  -6.4066  -6.2014  -5.0334
    -4.9919  -4.9483  -4.7831  -4.6704   3.0138   5.9558   6.4921   6.8215
     7.1478   7.7066   8.0364   8.6522   8.8183   9.6825

          k = 0.1667 0.3333 0.2378 (  4159 PWs)   bands (ev):

   -45.7937 -22.4968 -22.4205 -22.3848  -6.9164  -6.3980  -6.1180  -5.0125
    -4.9893  -4.9299  -4.7689  -4.6327   2.9000   5.7815   5.9425   6.4631
     6.8985   7.5607   8.3323   8.6169   8.9551   9.4309

          k = 0.1667 0.3333-0.4756 (  4156 PWs)   bands (ev):

   -45.7935 -22.5158 -22.4195 -22.3839  -6.8409  -6.3796  -5.9990  -5.0127
    -4.9658  -4.8944  -4.7770  -4.5891   2.7464   5.4418   5.8407   6.2163
     6.4016   7.4161   8.4379   8.6600   8.9676   9.3870

          k = 0.1667-0.5000 0.0000 (  4176 PWs)   bands (ev):

   -45.7937 -22.4767 -22.4387 -22.3849  -6.8672  -6.3628  -6.2366  -5.0346
    -4.9842  -4.9296  -4.7301  -4.7257   2.8239   5.6220   6.6198   6.8157
     7.1809   7.4549   7.8429   8.7019   8.7990  10.0026

          k = 0.1667-0.5000 0.2378 (  4154 PWs)   bands (ev):

   -45.7934 -22.4958 -22.4376 -22.3840  -6.8164  -6.3346  -6.1396  -5.0107
    -4.9768  -4.9139  -4.7341  -4.6310   2.7895   5.5699   5.8444   6.2327
     6.8490   7.6962   8.1226   8.6161   8.9669   9.4004

          k = 0.1667-0.5000-0.4756 (  4164 PWs)   bands (ev):

   -45.7932 -22.5147 -22.4365 -22.3831  -6.8067  -6.3074  -5.9841  -5.0079
    -4.9384  -4.8966  -4.7459  -4.5409   2.7170   5.3269   5.6770   5.8688
     6.3001   7.5302   8.3216   8.5842   8.6422   9.5827

          k = 0.3333 0.3333 0.0000 (  4166 PWs)   bands (ev):

   -45.7934 -22.4760 -22.4199 -22.4196  -6.7675  -6.3581  -6.2696  -5.0140
    -4.9704  -4.8712  -4.7121  -4.6703   2.6145   5.9068   6.0868   6.8989
     7.0711   7.1986   7.8764   8.4909   9.2981   9.4308

          k = 0.3333 0.3333 0.2378 (  4164 PWs)   bands (ev):

   -45.7931 -22.4950 -22.4189 -22.4187  -6.6650  -6.3972  -6.2032  -4.9773
    -4.9663  -4.8281  -4.6666  -4.6022   2.7962   5.5542   5.6387   5.9037
     6.6227   7.0690   8.4170   8.9275   8.9674   9.3152

          k = 0.3333 0.3333-0.4756 (  4164 PWs)   bands (ev):

   -45.7928 -22.5139 -22.4180 -22.4178  -6.6162  -6.4340  -6.0722  -4.9616
    -4.9416  -4.7800  -4.6203  -4.5363   2.9682   5.1554   5.1940   5.6751
     6.3553   6.5409   7.7541   9.2712   9.2842   9.4581

          k = 0.3333-0.5000 0.0000 (  4150 PWs)   bands (ev):

   -45.7930 -22.4750 -22.4368 -22.4188  -6.6379  -6.3242  -6.3097  -5.0064
    -4.9480  -4.7992  -4.7131  -4.6738   2.4295   5.5927   6.1239   6.7387
     7.2476   7.3834   7.4727   8.4786   9.1339   9.4922

          k = 0.3333-0.5000 0.2378 (  4166 PWs)   bands (ev):

   -45.7928 -22.4940 -22.4358 -22.4180  -6.5548  -6.3620  -6.2594  -4.9697
    -4.9400  -4.7485  -4.6418  -4.5904   2.7113   5.4775   5.5481   5.6645
     6.3963   7.1408   7.9937   8.9348   8.9437   9.4682

          k = 0.3333-0.5000-0.4756 (  4172 PWs)   bands (ev):

   -45.7925 -22.5129 -22.4348 -22.4171  -6.5625  -6.3977  -6.1042  -4.9449
    -4.9207  -4.7061  -4.5702  -4.4969   3.0665   4.9195   5.1183   5.4462
     6.1446   6.5408   7.0329   9.3777   9.4383   9.6128

          k =-0.5000-0.5000 0.0000 (  4196 PWs)   bands (ev):

   -45.7927 -22.4741 -22.4358 -22.4358  -6.5527  -6.3080  -6.3080  -4.9966
    -4.9078  -4.7166  -4.7166  -4.6664   2.2353   5.4326   5.9920   6.9710
     6.9710   7.4816   7.4816   8.2516   8.6638   9.7440

          k =-0.5000-0.5000 0.2378 (  4152 PWs)   bands (ev):

   -45.7925 -22.4931 -22.4349 -22.4349  -6.3771  -6.3771  -6.3568  -4.9587
    -4.9060  -4.6398  -4.5971  -4.5971   2.6154   5.3907   5.6100   5.6100
     5.9983   7.0788   7.3845   8.9600   8.9600   9.7292

          k =-0.5000-0.5000-0.4756 (  4184 PWs)   bands (ev):

   -45.7922 -22.5120 -22.4340 -22.4340  -6.4388  -6.4388  -6.1548  -4.9208
    -4.9042  -4.6044  -4.4831  -4.4831   3.1929   4.9867   4.9867   5.2802
     6.0046   6.1141   6.2314   9.6286   9.6286   9.7144

     highest occupied level (ev):    10.3705

!    total energy              =    -380.57384235 Ry
     estimated scf accuracy    <          1.7E-11 Ry

     The total energy is the sum of the following terms:
     one-electron contribution =     -85.73213842 Ry
     hartree contribution      =      72.01009547 Ry
     xc contribution           =    -102.58503281 Ry
     ewald contribution        =    -264.26676660 Ry

     convergence has been achieved in   8 iterations

     negative rho (up, down):  1.558E-02 0.000E+00

     Forces acting on atoms (cartesian axes, Ry/au):

     atom    1 type  1   force =     0.00000000    0.00000000    0.00032439
     atom    2 type  2   force =     0.00000000    0.00000000   -0.00125670
     atom    3 type  3   force =     0.00000000    0.00000000   -0.00014959
     atom    4 type  3   force =     0.00000000    0.00000000    0.00054095
     atom    5 type  3   force =     0.00000000    0.00000000    0.00054095

     Total force =     0.001514     Total SCF correction =     0.000014


     Computing stress (Cartesian axis) and pressure


     negative rho (up, down):  1.558E-02 0.000E+00
          total   stress  (Ry/bohr**3)                   (kbar)     P=      -42.40
  -0.00033932   0.00000000   0.00000000          -49.92        0.00        0.00
   0.00000000  -0.00033932   0.00000000            0.00      -49.92        0.00
   0.00000000   0.00000000  -0.00018597            0.00        0.00      -27.36

     Energy error            =      5.6E-06 Ry
     Gradient error          =      1.3E-03 Ry/Bohr

     number of scf cycles    =   8
     number of bfgs steps    =   7

     energy             old  =    -380.5738367445 Ry
     energy             new  =    -380.5738423533 Ry

     CASE: energy            _new < energy            _old

     new trust radius        =       0.0019578289 bohr
     new conv_thr            =            1.0E-10 Ry


ATOMIC_POSITIONS (crystal)
Pb               0.0000000000        0.0000000000        0.9934859067
Ti               0.5000000000        0.5000000000        0.5381771887
O                0.5000000000        0.5000000000        0.1067063915
O                0.5000000000        0.0000000000        0.6144574005
O                0.0000000000        0.5000000000        0.6144574005



     Writing config-only to output data dir ./pto_70.save/ :
     XML data file
     NEW-OLD atomic charge density approx. for the potential

     Check: negative core charge=   -0.000002

     negative rho (up, down):  1.557E-02 0.000E+00

     total cpu time spent up to now is      123.9 secs

     Self-consistent Calculation

     iteration #  1     ecut=    70.00 Ry     beta= 0.70
     CG style diagonalization
     ethr =  1.00E-06,  avg # of iterations =  3.0

     Threshold (ethr) on eigenvalues was too large:
     Diagonalizing with lowered threshold

     CG style diagonalization
     c_bands:  1 eigenvalues not converged
     c_bands:  2 eigenvalues not converged
     c_bands:  1 eigenvalues not converged
     c_bands:  1 eigenvalues not converged
     c_bands:  1 eigenvalues not converged
     c_bands:  3 eigenvalues not converged
     c_bands:  2 eigenvalues not converged
     c_bands:  1 eigenvalues not converged
     c_bands:  1 eigenvalues not converged
     c_bands:  2 eigenvalues not converged
     ethr =  2.04E-09,  avg # of iterations =  7.4

     negative rho (up, down):  1.557E-02 0.000E+00

     total cpu time spent up to now is      127.0 secs

     total energy              =    -380.57384505 Ry
     estimated scf accuracy    <       0.00000108 Ry

     iteration #  2     ecut=    70.00 Ry     beta= 0.70
     CG style diagonalization
     ethr =  2.47E-09,  avg # of iterations =  4.5

     negative rho (up, down):  1.557E-02 0.000E+00

     total cpu time spent up to now is      128.3 secs

     total energy              =    -380.57384485 Ry
     estimated scf accuracy    <       0.00000366 Ry

     iteration #  3     ecut=    70.00 Ry     beta= 0.70
     CG style diagonalization
     ethr =  2.47E-09,  avg # of iterations =  4.2

     negative rho (up, down):  1.557E-02 0.000E+00

     total cpu time spent up to now is      129.5 secs

     total energy              =    -380.57384554 Ry
     estimated scf accuracy    <       0.00000016 Ry

     iteration #  4     ecut=    70.00 Ry     beta= 0.70
     CG style diagonalization
     ethr =  3.69E-10,  avg # of iterations =  3.7

     negative rho (up, down):  1.557E-02 0.000E+00

     total cpu time spent up to now is      130.6 secs

     total energy              =    -380.57384557 Ry
     estimated scf accuracy    <       0.00000001 Ry

     iteration #  5     ecut=    70.00 Ry     beta= 0.70
     CG style diagonalization
     ethr =  3.08E-11,  avg # of iterations =  4.7

     negative rho (up, down):  1.557E-02 0.000E+00

     total cpu time spent up to now is      132.0 secs

     total energy              =    -380.57384558 Ry
     estimated scf accuracy    <          4.9E-09 Ry

     iteration #  6     ecut=    70.00 Ry     beta= 0.70
     CG style diagonalization
     ethr =  1.12E-11,  avg # of iterations =  4.0

     negative rho (up, down):  1.557E-02 0.000E+00

     total cpu time spent up to now is      133.1 secs

     total energy              =    -380.57384558 Ry
     estimated scf accuracy    <          1.0E-09 Ry

     iteration #  7     ecut=    70.00 Ry     beta= 0.70
     CG style diagonalization
     ethr =  2.36E-12,  avg # of iterations =  4.4

     negative rho (up, down):  1.557E-02 0.000E+00

     total cpu time spent up to now is      134.4 secs

     total energy              =    -380.57384558 Ry
     estimated scf accuracy    <          2.4E-10 Ry

     iteration #  8     ecut=    70.00 Ry     beta= 0.70
     CG style diagonalization
     ethr =  5.49E-13,  avg # of iterations =  4.8

     negative rho (up, down):  1.557E-02 0.000E+00

     total cpu time spent up to now is      135.8 secs

     End of self-consistent calculation

          k = 0.0000 0.0000 0.0000 (  4121 PWs)   bands (ev):

   -45.7961 -22.4813 -22.3712 -22.3712  -7.5746  -6.5131  -6.2032  -4.9907
    -4.9907  -4.9485  -4.8644  -4.6804   4.2140   6.2488   6.2488   6.8008
     8.1187   8.1187   8.4480   8.6294   8.8726   8.8726

          k = 0.0000 0.0000 0.2378 (  4149 PWs)   bands (ev):

   -45.7958 -22.5009 -22.3704 -22.3704  -7.3888  -6.4611  -6.1431  -5.0057
    -5.0057  -4.9473  -4.8504  -4.7443   3.4653   6.2886   6.2886   6.8754
     7.9151   7.9151   8.3634   8.7851   8.9711   8.9711

          k = 0.0000 0.0000-0.4756 (  4180 PWs)   bands (ev):

   -45.7956 -22.5204 -22.3696 -22.3696  -7.1886  -6.4050  -6.0880  -5.0207
    -5.0207  -4.9460  -4.8370  -4.8124   2.9576   6.2127   6.3090   6.3090
     7.7903   7.7903   8.2825   9.0356   9.0356   9.9900

          k = 0.0000 0.1667 0.0000 (  4159 PWs)   bands (ev):

   -45.7958 -22.4806 -22.3885 -22.3705  -7.4406  -6.4874  -6.1843  -5.0119
    -4.9892  -4.9612  -4.8543  -4.6701   3.7955   6.3067   6.3576   6.7327
     8.1339   8.1444   8.4241   8.5045   8.5728   8.9703

          k = 0.0000 0.1667 0.2378 (  4157 PWs)   bands (ev):

   -45.7955 -22.5000 -22.3876 -22.3697  -7.2706  -6.4489  -6.1177  -5.0049
    -5.0048  -4.9604  -4.8500  -4.7041   3.2605   6.0898   6.4061   6.9287
     7.6048   7.9023   8.2152   8.6210   8.6521   9.3539

          k = 0.0000 0.1667-0.4756 (  4152 PWs)   bands (ev):

   -45.7952 -22.5194 -22.3868 -22.3689  -7.0961  -6.4059  -6.0473  -5.0201
    -4.9956  -4.9597  -4.8508  -4.7380   2.8410   5.7978   6.4300   6.5852
     7.4381   7.7832   8.2532   8.6776   8.7272   9.9606

          k = 0.0000 0.3333 0.0000 (  4182 PWs)   bands (ev):

   -45.7951 -22.4790 -22.4230 -22.3691  -7.1486  -6.4314  -6.1647  -5.0396
    -4.9869  -4.9858  -4.8208  -4.6813   3.2264   5.9464   6.6428   6.6695
     7.8064   7.8383   8.2210   8.2875   8.6604   9.6374

          k = 0.0000 0.3333 0.2378 (  4170 PWs)   bands (ev):

   -45.7949 -22.4982 -22.4219 -22.3682  -7.0407  -6.3953  -6.0734  -5.0061
    -5.0028  -4.9865  -4.8236  -4.6533   2.9159   5.8101   6.5440   6.7175
     7.2380   7.6659   7.8434   8.3110   8.8658   9.7041

          k = 0.0000 0.3333-0.4756 (  4158 PWs)   bands (ev):

   -45.7946 -22.5173 -22.4208 -22.3674  -6.9598  -6.3411  -5.9541  -5.0191
    -4.9868  -4.9633  -4.8551  -4.6121   2.6349   5.4889   6.3319   6.7403
     7.1058   7.3569   7.6187   8.3564   9.2510   9.5746

          k = 0.0000-0.5000 0.0000 (  4188 PWs)   bands (ev):

   -45.7948 -22.4781 -22.4402 -22.3684  -6.9874  -6.3853  -6.1827  -5.0500
    -4.9989  -4.9849  -4.7501  -4.7464   3.0201   5.6066   6.9053   6.9131
     7.3311   7.4379   8.2032   8.2537   8.6903  10.3705

          k = 0.0000-0.5000 0.2378 (  4156 PWs)   bands (ev):

   -45.7945 -22.4972 -22.4390 -22.3675  -6.9407  -6.3231  -6.0729  -5.0151
    -5.0018  -4.9995  -4.7819  -4.6519   2.7781   5.5644   6.5548   6.7690
     7.0928   7.2360   7.9442   8.2808   8.8775   9.8845

          k = 0.0000-0.5000-0.4756 (  4164 PWs)   bands (ev):

   -45.7943 -22.5161 -22.4378 -22.3667  -6.9260  -6.2576  -5.9095  -5.0186
    -5.0002  -4.9728  -4.8275  -4.5616   2.5527   5.3580   6.0236   6.7899
     7.0604   7.2951   7.3964   8.2970   9.2227   9.5691

          k = 0.1667 0.1667 0.0000 (  4166 PWs)   bands (ev):

   -45.7955 -22.4798 -22.3879 -22.3876  -7.3089  -6.4610  -6.1844  -5.0157
    -5.0022  -4.9637  -4.8244  -4.6601   3.4922   6.2520   6.4879   6.7270
     7.6562   7.7894   8.4679   8.5347   8.8216   9.1848

          k = 0.1667 0.1667 0.2378 (  4159 PWs)   bands (ev):

   -45.7952 -22.4992 -22.3870 -22.3867  -7.1506  -6.4392  -6.1158  -5.0167
    -4.9928  -4.9583  -4.8177  -4.6740   3.1420   6.0425   6.1234   6.8474
     7.4936   7.5184   8.2769   8.6780   8.8998   9.3320

          k = 0.1667 0.1667-0.4756 (  4148 PWs)   bands (ev):

   -45.7949 -22.5184 -22.3861 -22.3859  -6.9944  -6.4172  -6.0346  -5.0275
    -4.9725  -4.9360  -4.8244  -4.6919   2.8136   5.8400   5.8569   6.5716
     7.3507   7.4718   8.2101   8.7418   8.9537   9.6828

          k = 0.1667 0.3333 0.0000 (  4162 PWs)   bands (ev):

   -45.7948 -22.4782 -22.4221 -22.3862  -7.0243  -6.4064  -6.2014  -5.0324
    -4.9909  -4.9471  -4.7821  -4.6690   3.0142   5.9570   6.4911   6.8234
     7.1476   7.7064   8.0383   8.6515   8.8186   9.6822

          k = 0.1667 0.3333 0.2378 (  4159 PWs)   bands (ev):

   -45.7946 -22.4974 -22.4210 -22.3853  -6.9165  -6.3979  -6.1183  -5.0115
    -4.9883  -4.9288  -4.7678  -4.6314   2.9005   5.7816   5.9428   6.4623
     6.8996   7.5627   8.3337   8.6164   8.9548   9.4312

          k = 0.1667 0.3333-0.4756 (  4156 PWs)   bands (ev):

   -45.7943 -22.5164 -22.4200 -22.3845  -6.8406  -6.3796  -5.9997  -5.0117
    -4.9648  -4.8934  -4.7759  -4.5877   2.7470   5.4407   5.8406   6.2157
     6.4041   7.4182   8.4383   8.6603   8.9686   9.3865

          k = 0.1667-0.5000 0.0000 (  4176 PWs)   bands (ev):

   -45.7945 -22.4773 -22.4392 -22.3854  -6.8675  -6.3631  -6.2365  -5.0336
    -4.9831  -4.9285  -4.7290  -4.7245   2.8241   5.6247   6.6203   6.8142
     7.1842   7.4566   7.8419   8.7013   8.7987  10.0029

          k = 0.1667-0.5000 0.2378 (  4154 PWs)   bands (ev):

   -45.7942 -22.4964 -22.4381 -22.3846  -6.8163  -6.3350  -6.1401  -5.0097
    -4.9758  -4.9127  -4.7330  -4.6297   2.7899   5.5718   5.8456   6.2321
     6.8487   7.6985   8.1246   8.6148   8.9674   9.3996

          k = 0.1667-0.5000-0.4756 (  4164 PWs)   bands (ev):

   -45.7940 -22.5153 -22.4370 -22.3837  -6.8062  -6.3078  -5.9849  -5.0069
    -4.9374  -4.8955  -4.7448  -4.5397   2.7178   5.3265   5.6780   5.8702
     6.3000   7.5328   8.3231   8.5833   8.6428   9.5821

          k = 0.3333 0.3333 0.0000 (  4166 PWs)   bands (ev):

   -45.7942 -22.4766 -22.4204 -22.4201  -6.7684  -6.3582  -6.2696  -5.0130
    -4.9694  -4.8700  -4.7110  -4.6690   2.6149   5.9074   6.0884   6.8981
     7.0736   7.1979   7.8793   8.4924   9.2983   9.4310

          k = 0.3333 0.3333 0.2378 (  4164 PWs)   bands (ev):

   -45.7939 -22.4956 -22.4195 -22.4192  -6.6654  -6.3972  -6.2036  -4.9763
    -4.9653  -4.8270  -4.6655  -4.6009   2.7966   5.5547   5.6386   5.9040
     6.6264   7.0703   8.4193   8.9276   8.9663   9.3153

          k = 0.3333 0.3333-0.4756 (  4164 PWs)   bands (ev):

   -45.7936 -22.5145 -22.4185 -22.4184  -6.6163  -6.4340  -6.0729  -4.9606
    -4.9406  -4.7790  -4.6192  -4.5351   2.9687   5.1563   5.1939   5.6733
     6.3581   6.5450   7.7559   9.2704   9.2845   9.4572

          k = 0.3333-0.5000 0.0000 (  4150 PWs)   bands (ev):

   -45.7938 -22.4756 -22.4373 -22.4194  -6.6387  -6.3246  -6.3098  -5.0053
    -4.9469  -4.7980  -4.7118  -4.6726   2.4299   5.5948   6.1259   6.7377
     7.2460   7.3868   7.4756   8.4798   9.1345   9.4926

          k = 0.3333-0.5000 0.2378 (  4166 PWs)   bands (ev):

   -45.7936 -22.4946 -22.4363 -22.4185  -6.5551  -6.3623  -6.2599  -4.9687
    -4.9389  -4.7473  -4.6407  -4.5892   2.7117   5.4785   5.5493   5.6648
     6.3995   7.1424   7.9953   8.9345   8.9434   9.4683

          k = 0.3333-0.5000-0.4756 (  4172 PWs)   bands (ev):

   -45.7933 -22.5135 -22.4353 -22.4176  -6.5625  -6.3980  -6.1050  -4.9438
    -4.9197  -4.7050  -4.5692  -4.4958   3.0670   4.9206   5.1185   5.4455
     6.1475   6.5448   7.0339   9.3767   9.4387   9.6122

          k =-0.5000-0.5000 0.0000 (  4196 PWs)   bands (ev):

   -45.7935 -22.4747 -22.4363 -22.4363  -6.5535  -6.3085  -6.3085  -4.9956
    -4.9067  -4.7153  -4.7153  -4.6652   2.2357   5.4345   5.9961   6.9688
     6.9688   7.4851   7.4851   8.2525   8.6657   9.7444

          k =-0.5000-0.5000 0.2378 (  4152 PWs)   bands (ev):

   -45.7933 -22.4937 -22.4354 -22.4354  -6.3774  -6.3774  -6.3576  -4.9577
    -4.9049  -4.6385  -4.5960  -4.5960   2.6158   5.3919   5.6108   5.6108
     6.0025   7.0800   7.3857   8.9601   8.9601   9.7296

          k =-0.5000-0.5000-0.4756 (  4184 PWs)   bands (ev):

   -45.7930 -22.5126 -22.4345 -22.4345  -6.4391  -6.4391  -6.1556  -4.9198
    -4.9031  -4.6032  -4.4821  -4.4821   3.1933   4.9878   4.9878   5.2798
     6.0088   6.1151   6.2341   9.6279   9.6279   9.7148

     highest occupied level (ev):    10.3705

!    total energy              =    -380.57384558 Ry
     estimated scf accuracy    <          6.0E-12 Ry

     The total energy is the sum of the following terms:
     one-electron contribution =     -85.71644694 Ry
     hartree contribution      =      72.00250675 Ry
     xc contribution           =    -102.58472082 Ry
     ewald contribution        =    -264.27518456 Ry

     convergence has been achieved in   8 iterations

     negative rho (up, down):  1.557E-02 0.000E+00

     Forces acting on atoms (cartesian axes, Ry/au):

     atom    1 type  1   force =     0.00000000    0.00000000    0.00015917
     atom    2 type  2   force =     0.00000000    0.00000000   -0.00086070
     atom    3 type  3   force =     0.00000000    0.00000000    0.00037526
     atom    4 type  3   force =     0.00000000    0.00000000    0.00016313
     atom    5 type  3   force =     0.00000000    0.00000000    0.00016313

     Total force =     0.000980     Total SCF correction =     0.000005


     Computing stress (Cartesian axis) and pressure


     negative rho (up, down):  1.557E-02 0.000E+00
          total   stress  (Ry/bohr**3)                   (kbar)     P=      -42.62
  -0.00034115   0.00000000   0.00000000          -50.18        0.00        0.00
   0.00000000  -0.00034115   0.00000000            0.00      -50.18        0.00
   0.00000000   0.00000000  -0.00018689            0.00        0.00      -27.49

     Energy error            =      3.2E-06 Ry
     Gradient error          =      8.6E-04 Ry/Bohr

     bfgs converged in   9 scf cycles and   8 bfgs steps
     (criteria: energy <  1.0E-04 Ry, force <  1.0E-03 Ry/Bohr)

     End of BFGS Geometry Optimization

     Final energy             =    -380.5738455809 Ry

     File ./pto_70.bfgs deleted, as requested
Begin final coordinates

ATOMIC_POSITIONS (crystal)
Pb               0.0000000000        0.0000000000        0.9934859067
Ti               0.5000000000        0.5000000000        0.5381771887
O                0.5000000000        0.5000000000        0.1067063915
O                0.5000000000        0.0000000000        0.6144574005
O                0.0000000000        0.5000000000        0.6144574005
End final coordinates



     Writing all to output data dir ./pto_70.save/ :
     XML data file, charge density, pseudopotentials, collected wavefunctions
 
     init_run     :      0.62s CPU      0.72s WALL (       1 calls)
     electrons    :    113.42s CPU    119.63s WALL (       9 calls)
     update_pot   :      0.04s CPU      0.05s WALL (       8 calls)
     forces       :      1.40s CPU      1.56s WALL (       9 calls)
     stress       :     14.33s CPU     14.52s WALL (       9 calls)

     Called by init_run:
     wfcinit      :      0.23s CPU      0.26s WALL (       1 calls)
     potinit      :      0.01s CPU      0.02s WALL (       1 calls)
     hinit0       :      0.13s CPU      0.16s WALL (       1 calls)

     Called by electrons:
     c_bands      :     94.70s CPU     98.84s WALL (      87 calls)
     sum_band     :     13.15s CPU     13.78s WALL (      87 calls)
     v_of_rho     :      0.22s CPU      0.23s WALL (      92 calls)
     newd         :      5.69s CPU      6.94s WALL (      92 calls)
     mix_rho      :      0.14s CPU      0.14s WALL (      87 calls)

     Called by c_bands:
     init_us_2    :      0.92s CPU      0.95s WALL (    5790 calls)
     init_us_2:cp :      0.91s CPU      0.94s WALL (    5790 calls)
     ccgdiagg     :     84.48s CPU     88.30s WALL (    2610 calls)
     wfcrot       :      9.76s CPU     10.08s WALL (    2250 calls)

     Called by *cgdiagg:
     h_psi        :     58.84s CPU     61.34s WALL (  224237 calls)
     s_psi        :      6.93s CPU      7.26s WALL (  446224 calls)

     Called by h_psi:
     h_psi:calbec :      9.01s CPU      9.40s WALL (  224237 calls)
     vloc_psi     :     43.81s CPU     45.68s WALL (  224237 calls)
     add_vuspsi   :      4.15s CPU      4.34s WALL (  224237 calls)
     hs_1psi      :     55.44s CPU     57.90s WALL (  221987 calls)
     s_1psi       :     10.31s CPU     10.76s WALL (  221987 calls)

     General routines
     calbec       :     15.15s CPU     15.83s WALL (  450184 calls)
     fft          :      0.27s CPU      0.29s WALL (     618 calls)
     ffts         :      0.02s CPU      0.03s WALL (     179 calls)
     fftw         :     36.62s CPU     38.11s WALL (  600934 calls)
     interpolate  :      0.05s CPU      0.06s WALL (      92 calls)
 
     Parallel routines
 
     PWSCF        :   2m10.61s CPU   2m17.98s WALL

 
   This run was terminated on:   0:22:54  13Nov2025            

=------------------------------------------------------------------------------=
   JOB DONE.
=------------------------------------------------------------------------------=
TACC:  Shutdown complete. Exiting. 
