TACC:  Starting up job 2410600 
TACC:  Starting parallel tasks... 

     Program PWSCF v.7.3 starts on 24Sep2025 at 20: 1:45 

     This program is part of the open-source Quantum ESPRESSO suite
     for quantum simulation of materials; please cite
         "P. Giannozzi et al., J. Phys.:Condens. Matter 21 395502 (2009);
         "P. Giannozzi et al., J. Phys.:Condens. Matter 29 465901 (2017);
         "P. Giannozzi et al., J. Chem. Phys. 152 154105 (2020);
          URL http://www.quantum-espresso.org", 
     in publications or presentations arising from this work. More details at
     http://www.quantum-espresso.org/quote

     Parallel version (MPI & OpenMP), running on      10 processor cores
     Number of MPI processes:                10
     Threads/MPI process:                     1

     MPI processes distributed on     1 nodes
     189146 MiB available memory on the printing compute node when the environment starts
 
     Waiting for input...
     Reading input from standard input
Warning: card &CELL ignored
Warning: card  CELL_DYNAMICS = 'BFGS', ignored
Warning: card  PRESS=0.D0, ignored
Warning: card / ignored
     Message from routine read_cards :
     DEPRECATED: no units specified in ATOMIC_POSITIONS card
     Message from routine read_cards :
     ATOMIC_POSITIONS: units set to alat

     Current dimensions of program PWSCF are:
     Max number of different atomic species (ntypx) = 10
     Max number of k-points (npk) =  40000
     Max angular momentum in pseudopotentials (lmaxx) =  4
 
     R & G space division:  proc/nbgrp/npool/nimage =      10
     Subspace diagonalization in iterative solution of the eigenvalue problem:
     a serial algorithm will be used

 
     Parallelization info
     --------------------
     sticks:   dense  smooth     PW     G-vecs:    dense   smooth      PW
     Min         372     148     43                17090     4338     685
     Max         373     149     44                17091     4343     688
     Sum        3721    1481    437               170901    43387    6859
 
     Using Slab Decomposition
 


     bravais-lattice index     =            1
     lattice parameter (alat)  =       6.8414  a.u.
     unit-cell volume          =     320.2136 (a.u.)^3
     number of atoms/cell      =            5
     number of atomic types    =            3
     number of electrons       =        40.00
     number of Kohn-Sham states=           20
     kinetic-energy cutoff     =     100.0000  Ry
     charge density cutoff     =    1000.0000  Ry
     scf convergence threshold =      1.0E-08
     mixing beta               =       0.7000
     number of iterations used =            8  plain     mixing
     Exchange-correlation= SLA  PZ   NOGX NOGC
                           (   1   1   0   0   0   0   0)

     celldm(1)=   6.841425  celldm(2)=   0.000000  celldm(3)=   0.000000
     celldm(4)=   0.000000  celldm(5)=   0.000000  celldm(6)=   0.000000

     crystal axes: (cart. coord. in units of alat)
               a(1) = (   1.000000   0.000000   0.000000 )  
               a(2) = (   0.000000   1.000000   0.000000 )  
               a(3) = (   0.000000   0.000000   1.000000 )  

     reciprocal axes: (cart. coord. in units 2 pi/alat)
               b(1) = (  1.000000  0.000000  0.000000 )  
               b(2) = (  0.000000  1.000000  0.000000 )  
               b(3) = (  0.000000  0.000000  1.000000 )  


     PseudoPot. # 1 for Ca read from file:
     /scratch/11018/zhc/assisgnment1/CaTiO3/Ca_LDA.UPF
     MD5 check sum: d2d4e7693e10d071152e9eeb7dd009f3
     Pseudo is Ultrasoft + core correction, Zval = 10.0
     Generated by new atomic code, or converted to UPF format
     Using radial grid of  845 points,  6 beta functions with: 
                l(1) =   0
                l(2) =   0
                l(3) =   1
                l(4) =   1
                l(5) =   2
                l(6) =   2
     Q(r) pseudized with  8 coefficients,  rinner =    1.500   1.500   1.500
                                                       1.500   1.500

     PseudoPot. # 2 for Ti read from file:
     /scratch/11018/zhc/assisgnment1/CaTiO3/Ti_LDA.UPF
     MD5 check sum: 0d9f225c038fe889ca2a701dcc8d72cb
     Pseudo is Ultrasoft + core correction, Zval = 12.0
     Generated by new atomic code, or converted to UPF format
     Using radial grid of  851 points,  6 beta functions with: 
                l(1) =   0
                l(2) =   0
                l(3) =   1
                l(4) =   1
                l(5) =   2
                l(6) =   2
     Q(r) pseudized with  6 coefficients,  rinner =    1.000   1.000   1.000
                                                       1.000   1.000

     PseudoPot. # 3 for O  read from file:
     /scratch/11018/zhc/assisgnment1/CaTiO3/O_LDA.UPF
     MD5 check sum: 194b818514d2a7dbb603bb78519a4f40
     Pseudo is Ultrasoft + core correction, Zval =  6.0
     Generated by new atomic code, or converted to UPF format
     Using radial grid of  737 points,  5 beta functions with: 
                l(1) =   0
                l(2) =   0
                l(3) =   1
                l(4) =   1
                l(5) =   2
     Q(r) pseudized with  8 coefficients,  rinner =    0.900   0.900   0.900
                                                       0.900   0.900

     atomic species   valence    mass     pseudopotential
     Ca               10.00    40.07800     Ca( 1.00)
     Ti               12.00    47.88000     Ti( 1.00)
     O                 6.00    16.00000     O ( 1.00)

     48 Sym. Ops., with inversion, found



   Cartesian axes

     site n.     atom                  positions (alat units)
         1        Ca     tau(   1) = (   0.0000000   0.0000000   0.0000000  )
         2        Ti     tau(   2) = (   0.5000000   0.5000000   0.5000000  )
         3        O      tau(   3) = (   0.5000000   0.5000000   0.0000000  )
         4        O      tau(   4) = (   0.5000000   0.0000000   0.5000000  )
         5        O      tau(   5) = (   0.0000000   0.5000000   0.5000000  )

     number of k points=    20
                       cart. coord. in units 2pi/alat
        k(    1) = (   0.0000000   0.0000000   0.0000000), wk =   0.0092593
        k(    2) = (   0.0000000   0.0000000   0.1666667), wk =   0.0555556
        k(    3) = (   0.0000000   0.0000000   0.3333333), wk =   0.0555556
        k(    4) = (   0.0000000   0.0000000  -0.5000000), wk =   0.0277778
        k(    5) = (   0.0000000   0.1666667   0.1666667), wk =   0.1111111
        k(    6) = (   0.0000000   0.1666667   0.3333333), wk =   0.2222222
        k(    7) = (   0.0000000   0.1666667  -0.5000000), wk =   0.1111111
        k(    8) = (   0.0000000   0.3333333   0.3333333), wk =   0.1111111
        k(    9) = (   0.0000000   0.3333333  -0.5000000), wk =   0.1111111
        k(   10) = (   0.0000000  -0.5000000  -0.5000000), wk =   0.0277778
        k(   11) = (   0.1666667   0.1666667   0.1666667), wk =   0.0740741
        k(   12) = (   0.1666667   0.1666667   0.3333333), wk =   0.2222222
        k(   13) = (   0.1666667   0.1666667  -0.5000000), wk =   0.1111111
        k(   14) = (   0.1666667   0.3333333   0.3333333), wk =   0.2222222
        k(   15) = (   0.1666667   0.3333333  -0.5000000), wk =   0.2222222
        k(   16) = (   0.1666667  -0.5000000  -0.5000000), wk =   0.0555556
        k(   17) = (   0.3333333   0.3333333   0.3333333), wk =   0.0740741
        k(   18) = (   0.3333333   0.3333333  -0.5000000), wk =   0.1111111
        k(   19) = (   0.3333333  -0.5000000  -0.5000000), wk =   0.0555556
        k(   20) = (  -0.5000000  -0.5000000  -0.5000000), wk =   0.0092593

     Dense  grid:   170901 G-vectors     FFT dimensions: (  72,  72,  72)

     Smooth grid:    43387 G-vectors     FFT dimensions: (  45,  45,  45)

     Estimated max dynamical RAM per process >      75.00 MB

     Estimated total dynamical RAM >     750.02 MB

     Check: negative core charge=   -0.000001

     Initial potential from superposition of free atoms

     starting charge      38.9952, renormalised to      40.0000

     negative rho (up, down):  7.183E-04 0.000E+00
     Starting wfcs are   32 randomized atomic wfcs

     total cpu time spent up to now is        1.1 secs

     Self-consistent Calculation

     iteration #  1     ecut=   100.00 Ry     beta= 0.70
     CG style diagonalization
     ethr =  1.00E-02,  avg # of iterations =  2.1

     negative rho (up, down):  1.305E-03 0.000E+00

     total cpu time spent up to now is        1.8 secs

     total energy              =    -291.26760933 Ry
     estimated scf accuracy    <       0.83877588 Ry

     iteration #  2     ecut=   100.00 Ry     beta= 0.70
     CG style diagonalization
     ethr =  2.10E-03,  avg # of iterations =  4.7

     negative rho (up, down):  5.623E-04 0.000E+00

     total cpu time spent up to now is        3.0 secs

     total energy              =    -291.14991815 Ry
     estimated scf accuracy    <       2.54924844 Ry

     iteration #  3     ecut=   100.00 Ry     beta= 0.70
     CG style diagonalization
     ethr =  2.10E-03,  avg # of iterations =  4.1

     negative rho (up, down):  7.576E-04 0.000E+00

     total cpu time spent up to now is        4.1 secs

     total energy              =    -291.68020468 Ry
     estimated scf accuracy    <       0.08032063 Ry

     iteration #  4     ecut=   100.00 Ry     beta= 0.70
     CG style diagonalization
     ethr =  2.01E-04,  avg # of iterations =  3.7

     negative rho (up, down):  8.656E-04 0.000E+00

     total cpu time spent up to now is        5.0 secs

     total energy              =    -291.69426440 Ry
     estimated scf accuracy    <       0.00714090 Ry

     iteration #  5     ecut=   100.00 Ry     beta= 0.70
     CG style diagonalization
     ethr =  1.79E-05,  avg # of iterations =  3.8

     negative rho (up, down):  8.691E-04 0.000E+00

     total cpu time spent up to now is        6.0 secs

     total energy              =    -291.69692120 Ry
     estimated scf accuracy    <       0.00027116 Ry

     iteration #  6     ecut=   100.00 Ry     beta= 0.70
     CG style diagonalization
     ethr =  6.78E-07,  avg # of iterations =  3.8

     negative rho (up, down):  8.616E-04 0.000E+00

     total cpu time spent up to now is        7.0 secs

     total energy              =    -291.69702618 Ry
     estimated scf accuracy    <       0.00006982 Ry

     iteration #  7     ecut=   100.00 Ry     beta= 0.70
     CG style diagonalization
     ethr =  1.75E-07,  avg # of iterations =  3.5

     negative rho (up, down):  8.597E-04 0.000E+00

     total cpu time spent up to now is        7.9 secs

     total energy              =    -291.69703788 Ry
     estimated scf accuracy    <       0.00000809 Ry

     iteration #  8     ecut=   100.00 Ry     beta= 0.70
     CG style diagonalization
     ethr =  2.02E-08,  avg # of iterations =  3.8

     negative rho (up, down):  8.587E-04 0.000E+00

     total cpu time spent up to now is        8.9 secs

     total energy              =    -291.69704016 Ry
     estimated scf accuracy    <       0.00000033 Ry

     iteration #  9     ecut=   100.00 Ry     beta= 0.70
     CG style diagonalization
     ethr =  8.14E-10,  avg # of iterations =  4.6

     negative rho (up, down):  8.588E-04 0.000E+00

     total cpu time spent up to now is       10.1 secs

     total energy              =    -291.69704051 Ry
     estimated scf accuracy    <       0.00000003 Ry

     iteration # 10     ecut=   100.00 Ry     beta= 0.70
     CG style diagonalization
     ethr =  6.49E-11,  avg # of iterations =  4.2

     negative rho (up, down):  8.589E-04 0.000E+00

     total cpu time spent up to now is       11.2 secs

     End of self-consistent calculation

          k = 0.0000 0.0000 0.0000 (  5449 PWs)   bands (ev):

   -43.0369 -26.3250 -19.8585 -19.8585 -19.8585  -7.5714  -7.5714  -7.5714
    -6.2291  -4.9342  -4.9342   8.5596   8.5596   8.5596  10.3225  10.3225
    10.3225  11.6451  11.6451  11.6451

          k = 0.0000 0.0000 0.1667 (  5398 PWs)   bands (ev):

   -43.0358 -26.3210 -19.9076 -19.8557 -19.8557  -7.8282  -7.5650  -7.5650
    -5.8563  -4.9151  -4.7228   8.1793   8.5157   8.5157   9.8577   9.8577
     9.9883  10.5941  11.4892  11.4892

          k = 0.0000 0.0000 0.3333 (  5394 PWs)   bands (ev):

   -43.0337 -26.3130 -20.0035 -19.8502 -19.8502  -8.1926  -7.5522  -7.5522
    -5.2201  -4.8765  -4.2816   7.2851   8.4699   8.4699   9.0972   9.0972
     9.1411   9.4253  11.3505  11.3505

          k = 0.0000 0.0000-0.5000 (  5406 PWs)   bands (ev):

   -43.0327 -26.3090 -20.0503 -19.8475 -19.8475  -8.3401  -7.5457  -7.5457
    -4.9331  -4.8569  -4.0264   6.7318   8.5909   8.5909   8.6349   8.6380
     8.6380   9.1798  11.3053  11.3053

          k = 0.0000 0.1667 0.1667 (  5397 PWs)   bands (ev):

   -43.0348 -26.3166 -19.9071 -19.9040 -19.8530  -7.8679  -7.6760  -7.5578
    -5.5861  -4.8106  -4.6100   7.8105   8.4029   8.4608   9.0643   9.5242
    10.3125  10.4614  10.7902  11.2463

          k = 0.0000 0.1667 0.3333 (  5406 PWs)   bands (ev):

   -43.0327 -26.3080 -20.0028 -19.9014 -19.8477  -8.1127  -7.6669  -7.5434
    -5.1396  -4.7048  -4.1934   7.1245   7.7046   8.3852   8.5000   8.9000
     9.3849  10.3738  10.5865  11.0343

          k = 0.0000 0.1667-0.5000 (  5394 PWs)   bands (ev):

   -43.0317 -26.3036 -20.0502 -19.8994 -19.8450  -8.2358  -7.6424  -7.5362
    -5.0023  -4.6102  -3.9210   6.7274   7.1706   8.4171   8.4617   8.5108
     9.0712  10.3683  10.4493  10.9749

          k = 0.0000 0.3333 0.3333 (  5410 PWs)   bands (ev):

   -43.0307 -26.2979 -20.0028 -19.9998 -19.8425  -7.9884  -7.8393  -7.5258
    -5.1671  -4.1850  -3.9624   6.4092   7.3865   7.4906   8.2332   8.4942
     9.4582   9.7056  10.7031  11.2602

          k = 0.0000 0.3333-0.5000 (  5400 PWs)   bands (ev):

   -43.0296 -26.2929 -20.0500 -20.0005 -19.8400  -8.0203  -7.8220  -7.5170
    -5.2139  -3.9849  -3.7201   6.0921   6.7221   7.4157   8.2174   8.2399
     9.3894   9.6721  10.6057  11.4411

          k = 0.0000-0.5000-0.5000 (  5440 PWs)   bands (ev):

   -43.0286 -26.2875 -20.0499 -20.0499 -19.8374  -7.9061  -7.9061  -7.5074
    -5.3304  -3.6233  -3.6233   5.7011   6.7120   6.7315   8.1014   8.1014
     9.5499   9.5499  10.4925  11.7693

          k = 0.1667 0.1667 0.1667 (  5383 PWs)   bands (ev):

   -43.0337 -26.3121 -19.9040 -19.9040 -19.9017  -7.8754  -7.6576  -7.6576
    -5.3562  -4.6180  -4.6180   7.5156   8.2507   8.2507   8.9550   8.9550
    10.1149  10.6803  10.7338  10.7338

          k = 0.1667 0.1667 0.3333 (  5421 PWs)   bands (ev):

   -43.0317 -26.3031 -20.0013 -19.8995 -19.8980  -8.0429  -7.6727  -7.6203
    -4.9457  -4.6349  -4.1559   6.9877   7.6805   7.7498   8.1330   8.6891
     9.7956  10.3973  10.6207  10.6569

          k = 0.1667 0.1667-0.5000 (  5422 PWs)   bands (ev):

   -43.0307 -26.2985 -20.0491 -19.8980 -19.8950  -8.1470  -7.6493  -7.6012
    -4.7766  -4.6439  -3.8597   6.7266   7.0353   7.5029   7.9587   8.6585
     9.9127  10.1661  10.5247  10.5798

          k = 0.1667 0.3333 0.3333 (  5395 PWs)   bands (ev):

   -43.0297 -26.2933 -19.9992 -19.9977 -19.8934  -7.9355  -7.8088  -7.6052
    -4.8787  -4.1905  -4.0139   6.4751   7.3623   7.3671   7.7787   7.8188
     9.3851  10.4218  10.4585  11.2888

          k = 0.1667 0.3333-0.5000 (  5410 PWs)   bands (ev):

   -43.0286 -26.2884 -20.0471 -19.9970 -19.8907  -7.9664  -7.7958  -7.5885
    -4.9120  -4.0610  -3.7465   6.2327   6.7296   7.3429   7.4252   7.7854
     9.4300  10.3451  10.4337  11.4674

          k = 0.1667-0.5000-0.5000 (  5420 PWs)   bands (ev):

   -43.0276 -26.2832 -20.0461 -20.0461 -19.8879  -7.8729  -7.8729  -7.5739
    -5.0133  -3.6940  -3.6940   5.8982   6.7183   6.7536   7.4476   7.4476
     9.4403  10.3915  10.3915  11.8041

          k = 0.3333 0.3333 0.3333 (  5424 PWs)   bands (ev):

   -43.0277 -26.2839 -19.9941 -19.9921 -19.9921  -7.8462  -7.7451  -7.7451
    -4.3213  -4.1200  -4.1200   6.4991   6.9855   6.9855   7.4804   7.4804
     7.9137  11.0704  11.0704  11.4704

          k = 0.3333 0.3333-0.5000 (  5428 PWs)   bands (ev):

   -43.0267 -26.2792 -20.0413 -19.9914 -19.9885  -7.8584  -7.7564  -7.7118
    -4.2791  -4.1747  -3.8057   6.4375   6.7414   6.7447   6.9406   7.4710
     7.8050  11.1731  11.3161  11.6100

          k = 0.3333-0.5000-0.5000 (  5432 PWs)   bands (ev):

   -43.0257 -26.2747 -20.0384 -20.0384 -19.9864  -7.8034  -7.8034  -7.7036
    -4.3105  -3.8384  -3.8384   6.3010   6.7310   6.7550   6.7550   6.7953
     7.6421  11.4677  11.4677  11.8756

          k =-0.5000-0.5000-0.5000 (  5400 PWs)   bands (ev):

   -43.0247 -26.2704 -20.0345 -20.0345 -20.0345  -7.7669  -7.7669  -7.7669
    -3.9122  -3.9122  -3.9122   6.5076   6.5076   6.5076   6.7373   6.7373
     6.8830  11.9123  11.9123  11.9123

     highest occupied level (ev):    11.9123

!    total energy              =    -291.69704052 Ry
     estimated scf accuracy    <          3.7E-09 Ry

     The total energy is the sum of the following terms:
     one-electron contribution =     -69.81638161 Ry
     hartree contribution      =      59.38173275 Ry
     xc contribution           =     -52.04574404 Ry
     ewald contribution        =    -229.21664763 Ry

     convergence has been achieved in  10 iterations

     negative rho (up, down):  8.589E-04 0.000E+00

     Forces acting on atoms (cartesian axes, Ry/au):

     atom    1 type  1   force =     0.00000000    0.00000000    0.00000000
     atom    2 type  2   force =     0.00000000    0.00000000    0.00000000
     atom    3 type  3   force =     0.00000000    0.00000000    0.00000000
     atom    4 type  3   force =     0.00000000    0.00000000    0.00000000
     atom    5 type  3   force =     0.00000000    0.00000000    0.00000000

     Total force =     0.000000     Total SCF correction =     0.000000


     Computing stress (Cartesian axis) and pressure


     negative rho (up, down):  8.589E-04 0.000E+00
          total   stress  (Ry/bohr**3)                   (kbar)     P=      428.62
   0.00291372   0.00000000   0.00000000          428.62        0.00        0.00
   0.00000000   0.00291372   0.00000000            0.00      428.62        0.00
   0.00000000   0.00000000   0.00291372            0.00        0.00      428.62


     Writing all to output data dir ./CTO_module_1.save/ :
     XML data file, charge density, pseudopotentials, collected wavefunctions
 
     init_run     :      0.72s CPU      0.82s WALL (       1 calls)
     electrons    :      9.52s CPU     10.12s WALL (       1 calls)
     forces       :      0.17s CPU      0.19s WALL (       1 calls)
     stress       :      1.43s CPU      1.47s WALL (       1 calls)

     Called by init_run:
     wfcinit      :      0.22s CPU      0.25s WALL (       1 calls)
     potinit      :      0.01s CPU      0.02s WALL (       1 calls)
     hinit0       :      0.14s CPU      0.18s WALL (       1 calls)

     Called by electrons:
     c_bands      :      6.98s CPU      7.22s WALL (      10 calls)
     sum_band     :      1.65s CPU      1.78s WALL (      10 calls)
     v_of_rho     :      0.03s CPU      0.03s WALL (      11 calls)
     newd         :      0.89s CPU      1.13s WALL (      11 calls)
     mix_rho      :      0.02s CPU      0.02s WALL (      10 calls)

     Called by c_bands:
     init_us_2    :      0.09s CPU      0.10s WALL (     460 calls)
     init_us_2:cp :      0.09s CPU      0.10s WALL (     460 calls)
     ccgdiagg     :      5.89s CPU      6.09s WALL (     200 calls)
     wfcrot       :      1.23s CPU      1.28s WALL (     200 calls)

     Called by *cgdiagg:
     h_psi        :      4.94s CPU      5.10s WALL (   11962 calls)
     s_psi        :      0.48s CPU      0.49s WALL (   23724 calls)

     Called by h_psi:
     h_psi:calbec :      0.61s CPU      0.63s WALL (   11962 calls)
     vloc_psi     :      3.93s CPU      4.05s WALL (   11962 calls)
     add_vuspsi   :      0.29s CPU      0.30s WALL (   11962 calls)
     hs_1psi      :      4.15s CPU      4.29s WALL (   11762 calls)
     s_1psi       :      0.67s CPU      0.69s WALL (   11762 calls)

     General routines
     calbec       :      1.04s CPU      1.08s WALL (   24024 calls)
     fft          :      0.04s CPU      0.05s WALL (      72 calls)
     ffts         :      0.00s CPU      0.01s WALL (      21 calls)
     fftw         :      3.51s CPU      3.61s WALL (   36004 calls)
     interpolate  :      0.01s CPU      0.01s WALL (      11 calls)
 
     Parallel routines
 
     PWSCF        :     12.06s CPU     13.21s WALL

 
   This run was terminated on:  20: 1:58  24Sep2025            

=------------------------------------------------------------------------------=
   JOB DONE.
=------------------------------------------------------------------------------=
TACC:  Shutdown complete. Exiting. 
