TACC:  Starting up job 2387926 
TACC:  Starting parallel tasks... 

     Program PWSCF v.7.3 starts on 19Sep2025 at 16:50:30 

     This program is part of the open-source Quantum ESPRESSO suite
     for quantum simulation of materials; please cite
         "P. Giannozzi et al., J. Phys.:Condens. Matter 21 395502 (2009);
         "P. Giannozzi et al., J. Phys.:Condens. Matter 29 465901 (2017);
         "P. Giannozzi et al., J. Chem. Phys. 152 154105 (2020);
          URL http://www.quantum-espresso.org", 
     in publications or presentations arising from this work. More details at
     http://www.quantum-espresso.org/quote

     Parallel version (MPI & OpenMP), running on      10 processor cores
     Number of MPI processes:                10
     Threads/MPI process:                     1

     MPI processes distributed on     1 nodes
     183842 MiB available memory on the printing compute node when the environment starts
 
     Waiting for input...
     Reading input from standard input
Warning: card &CELL ignored
Warning: card  CELL_DYNAMICS = 'BFGS', ignored
Warning: card  PRESS=0.D0, ignored
Warning: card / ignored
     Message from routine read_cards :
     DEPRECATED: no units specified in ATOMIC_POSITIONS card
     Message from routine read_cards :
     ATOMIC_POSITIONS: units set to alat
Warning: card   2 2 2 0 0 0 ignored

     Current dimensions of program PWSCF are:
     Max number of different atomic species (ntypx) = 10
     Max number of k-points (npk) =  40000
     Max angular momentum in pseudopotentials (lmaxx) =  4
 
     R & G space division:  proc/nbgrp/npool/nimage =      10
     Subspace diagonalization in iterative solution of the eigenvalue problem:
     a serial algorithm will be used

 
     Parallelization info
     --------------------
     sticks:   dense  smooth     PW     G-vecs:    dense   smooth      PW
     Min         215      86     25                 7503     1909     318
     Max         217      87     27                 7505     1911     321
     Sum        2161     869    261                75037    19093    3191
 
     Using Slab Decomposition
 


     bravais-lattice index     =            1
     lattice parameter (alat)  =       7.3573  a.u.
     unit-cell volume          =     398.2496 (a.u.)^3
     number of atoms/cell      =            5
     number of atomic types    =            3
     number of electrons       =        40.00
     number of Kohn-Sham states=           20
     kinetic-energy cutoff     =      50.0000  Ry
     charge density cutoff     =     500.0000  Ry
     scf convergence threshold =      1.0E-08
     mixing beta               =       0.7000
     number of iterations used =            8  plain     mixing
     Exchange-correlation= SLA  PZ   NOGX NOGC
                           (   1   1   0   0   0   0   0)

     celldm(1)=   7.357300  celldm(2)=   0.000000  celldm(3)=   0.000000
     celldm(4)=   0.000000  celldm(5)=   0.000000  celldm(6)=   0.000000

     crystal axes: (cart. coord. in units of alat)
               a(1) = (   1.000000   0.000000   0.000000 )  
               a(2) = (   0.000000   1.000000   0.000000 )  
               a(3) = (   0.000000   0.000000   1.000000 )  

     reciprocal axes: (cart. coord. in units 2 pi/alat)
               b(1) = (  1.000000  0.000000  0.000000 )  
               b(2) = (  0.000000  1.000000  0.000000 )  
               b(3) = (  0.000000  0.000000  1.000000 )  


     PseudoPot. # 1 for Ca read from file:
     /scratch/11018/zhc/assisgnment1/CaTiO3/Ca_LDA.UPF
     MD5 check sum: d2d4e7693e10d071152e9eeb7dd009f3
     Pseudo is Ultrasoft + core correction, Zval = 10.0
     Generated by new atomic code, or converted to UPF format
     Using radial grid of  845 points,  6 beta functions with: 
                l(1) =   0
                l(2) =   0
                l(3) =   1
                l(4) =   1
                l(5) =   2
                l(6) =   2
     Q(r) pseudized with  8 coefficients,  rinner =    1.500   1.500   1.500
                                                       1.500   1.500

     PseudoPot. # 2 for Ti read from file:
     /scratch/11018/zhc/assisgnment1/CaTiO3/Ti_LDA.UPF
     MD5 check sum: 0d9f225c038fe889ca2a701dcc8d72cb
     Pseudo is Ultrasoft + core correction, Zval = 12.0
     Generated by new atomic code, or converted to UPF format
     Using radial grid of  851 points,  6 beta functions with: 
                l(1) =   0
                l(2) =   0
                l(3) =   1
                l(4) =   1
                l(5) =   2
                l(6) =   2
     Q(r) pseudized with  6 coefficients,  rinner =    1.000   1.000   1.000
                                                       1.000   1.000

     PseudoPot. # 3 for O  read from file:
     /scratch/11018/zhc/assisgnment1/CaTiO3/O_LDA.UPF
     MD5 check sum: 194b818514d2a7dbb603bb78519a4f40
     Pseudo is Ultrasoft + core correction, Zval =  6.0
     Generated by new atomic code, or converted to UPF format
     Using radial grid of  737 points,  5 beta functions with: 
                l(1) =   0
                l(2) =   0
                l(3) =   1
                l(4) =   1
                l(5) =   2
     Q(r) pseudized with  8 coefficients,  rinner =    0.900   0.900   0.900
                                                       0.900   0.900

     atomic species   valence    mass     pseudopotential
     Ca               10.00    40.07800     Ca( 1.00)
     Ti               12.00    47.88000     Ti( 1.00)
     O                 6.00    16.00000     O ( 1.00)

     48 Sym. Ops., with inversion, found



   Cartesian axes

     site n.     atom                  positions (alat units)
         1        Ca     tau(   1) = (   0.0000000   0.0000000   0.0000000  )
         2        Ti     tau(   2) = (   0.5000000   0.5000000   0.5000000  )
         3        O      tau(   3) = (   0.5000000   0.5000000   0.0000000  )
         4        O      tau(   4) = (   0.5000000   0.0000000   0.5000000  )
         5        O      tau(   5) = (   0.0000000   0.5000000   0.5000000  )

     number of k points=    84
                       cart. coord. in units 2pi/alat
        k(    1) = (   0.0000000   0.0000000   0.0000000), wk =   0.0011574
        k(    2) = (   0.0000000   0.0000000   0.0833333), wk =   0.0069444
        k(    3) = (   0.0000000   0.0000000   0.1666667), wk =   0.0069444
        k(    4) = (   0.0000000   0.0000000   0.2500000), wk =   0.0069444
        k(    5) = (   0.0000000   0.0000000   0.3333333), wk =   0.0069444
        k(    6) = (   0.0000000   0.0000000   0.4166667), wk =   0.0069444
        k(    7) = (   0.0000000   0.0000000  -0.5000000), wk =   0.0034722
        k(    8) = (   0.0000000   0.0833333   0.0833333), wk =   0.0138889
        k(    9) = (   0.0000000   0.0833333   0.1666667), wk =   0.0277778
        k(   10) = (   0.0000000   0.0833333   0.2500000), wk =   0.0277778
        k(   11) = (   0.0000000   0.0833333   0.3333333), wk =   0.0277778
        k(   12) = (   0.0000000   0.0833333   0.4166667), wk =   0.0277778
        k(   13) = (   0.0000000   0.0833333  -0.5000000), wk =   0.0138889
        k(   14) = (   0.0000000   0.1666667   0.1666667), wk =   0.0138889
        k(   15) = (   0.0000000   0.1666667   0.2500000), wk =   0.0277778
        k(   16) = (   0.0000000   0.1666667   0.3333333), wk =   0.0277778
        k(   17) = (   0.0000000   0.1666667   0.4166667), wk =   0.0277778
        k(   18) = (   0.0000000   0.1666667  -0.5000000), wk =   0.0138889
        k(   19) = (   0.0000000   0.2500000   0.2500000), wk =   0.0138889
        k(   20) = (   0.0000000   0.2500000   0.3333333), wk =   0.0277778
        k(   21) = (   0.0000000   0.2500000   0.4166667), wk =   0.0277778
        k(   22) = (   0.0000000   0.2500000  -0.5000000), wk =   0.0138889
        k(   23) = (   0.0000000   0.3333333   0.3333333), wk =   0.0138889
        k(   24) = (   0.0000000   0.3333333   0.4166667), wk =   0.0277778
        k(   25) = (   0.0000000   0.3333333  -0.5000000), wk =   0.0138889
        k(   26) = (   0.0000000   0.4166667   0.4166667), wk =   0.0138889
        k(   27) = (   0.0000000   0.4166667  -0.5000000), wk =   0.0138889
        k(   28) = (   0.0000000  -0.5000000  -0.5000000), wk =   0.0034722
        k(   29) = (   0.0833333   0.0833333   0.0833333), wk =   0.0092593
        k(   30) = (   0.0833333   0.0833333   0.1666667), wk =   0.0277778
        k(   31) = (   0.0833333   0.0833333   0.2500000), wk =   0.0277778
        k(   32) = (   0.0833333   0.0833333   0.3333333), wk =   0.0277778
        k(   33) = (   0.0833333   0.0833333   0.4166667), wk =   0.0277778
        k(   34) = (   0.0833333   0.0833333  -0.5000000), wk =   0.0138889
        k(   35) = (   0.0833333   0.1666667   0.1666667), wk =   0.0277778
        k(   36) = (   0.0833333   0.1666667   0.2500000), wk =   0.0555556
        k(   37) = (   0.0833333   0.1666667   0.3333333), wk =   0.0555556
        k(   38) = (   0.0833333   0.1666667   0.4166667), wk =   0.0555556
        k(   39) = (   0.0833333   0.1666667  -0.5000000), wk =   0.0277778
        k(   40) = (   0.0833333   0.2500000   0.2500000), wk =   0.0277778
        k(   41) = (   0.0833333   0.2500000   0.3333333), wk =   0.0555556
        k(   42) = (   0.0833333   0.2500000   0.4166667), wk =   0.0555556
        k(   43) = (   0.0833333   0.2500000  -0.5000000), wk =   0.0277778
        k(   44) = (   0.0833333   0.3333333   0.3333333), wk =   0.0277778
        k(   45) = (   0.0833333   0.3333333   0.4166667), wk =   0.0555556
        k(   46) = (   0.0833333   0.3333333  -0.5000000), wk =   0.0277778
        k(   47) = (   0.0833333   0.4166667   0.4166667), wk =   0.0277778
        k(   48) = (   0.0833333   0.4166667  -0.5000000), wk =   0.0277778
        k(   49) = (   0.0833333  -0.5000000  -0.5000000), wk =   0.0069444
        k(   50) = (   0.1666667   0.1666667   0.1666667), wk =   0.0092593
        k(   51) = (   0.1666667   0.1666667   0.2500000), wk =   0.0277778
        k(   52) = (   0.1666667   0.1666667   0.3333333), wk =   0.0277778
        k(   53) = (   0.1666667   0.1666667   0.4166667), wk =   0.0277778
        k(   54) = (   0.1666667   0.1666667  -0.5000000), wk =   0.0138889
        k(   55) = (   0.1666667   0.2500000   0.2500000), wk =   0.0277778
        k(   56) = (   0.1666667   0.2500000   0.3333333), wk =   0.0555556
        k(   57) = (   0.1666667   0.2500000   0.4166667), wk =   0.0555556
        k(   58) = (   0.1666667   0.2500000  -0.5000000), wk =   0.0277778
        k(   59) = (   0.1666667   0.3333333   0.3333333), wk =   0.0277778
        k(   60) = (   0.1666667   0.3333333   0.4166667), wk =   0.0555556
        k(   61) = (   0.1666667   0.3333333  -0.5000000), wk =   0.0277778
        k(   62) = (   0.1666667   0.4166667   0.4166667), wk =   0.0277778
        k(   63) = (   0.1666667   0.4166667  -0.5000000), wk =   0.0277778
        k(   64) = (   0.1666667  -0.5000000  -0.5000000), wk =   0.0069444
        k(   65) = (   0.2500000   0.2500000   0.2500000), wk =   0.0092593
        k(   66) = (   0.2500000   0.2500000   0.3333333), wk =   0.0277778
        k(   67) = (   0.2500000   0.2500000   0.4166667), wk =   0.0277778
        k(   68) = (   0.2500000   0.2500000  -0.5000000), wk =   0.0138889
        k(   69) = (   0.2500000   0.3333333   0.3333333), wk =   0.0277778
        k(   70) = (   0.2500000   0.3333333   0.4166667), wk =   0.0555556
        k(   71) = (   0.2500000   0.3333333  -0.5000000), wk =   0.0277778
        k(   72) = (   0.2500000   0.4166667   0.4166667), wk =   0.0277778
        k(   73) = (   0.2500000   0.4166667  -0.5000000), wk =   0.0277778
        k(   74) = (   0.2500000  -0.5000000  -0.5000000), wk =   0.0069444
        k(   75) = (   0.3333333   0.3333333   0.3333333), wk =   0.0092593
        k(   76) = (   0.3333333   0.3333333   0.4166667), wk =   0.0277778
        k(   77) = (   0.3333333   0.3333333  -0.5000000), wk =   0.0138889
        k(   78) = (   0.3333333   0.4166667   0.4166667), wk =   0.0277778
        k(   79) = (   0.3333333   0.4166667  -0.5000000), wk =   0.0277778
        k(   80) = (   0.3333333  -0.5000000  -0.5000000), wk =   0.0069444
        k(   81) = (   0.4166667   0.4166667   0.4166667), wk =   0.0092593
        k(   82) = (   0.4166667   0.4166667  -0.5000000), wk =   0.0138889
        k(   83) = (   0.4166667  -0.5000000  -0.5000000), wk =   0.0069444
        k(   84) = (  -0.5000000  -0.5000000  -0.5000000), wk =   0.0011574

     Dense  grid:    75037 G-vectors     FFT dimensions: (  54,  54,  54)

     Smooth grid:    19093 G-vectors     FFT dimensions: (  36,  36,  36)

     Estimated max dynamical RAM per process >      39.56 MB

     Estimated total dynamical RAM >     395.58 MB

     Check: negative core charge=   -0.000005

     Initial potential from superposition of free atoms

     starting charge      38.9952, renormalised to      40.0000

     negative rho (up, down):  5.762E-04 0.000E+00
     Starting wfcs are   32 randomized atomic wfcs

     total cpu time spent up to now is        1.0 secs

     Self-consistent Calculation

     iteration #  1     ecut=    50.00 Ry     beta= 0.70
     CG style diagonalization
     ethr =  1.00E-02,  avg # of iterations =  2.2

     negative rho (up, down):  1.237E-03 0.000E+00

     total cpu time spent up to now is        2.2 secs

     total energy              =    -291.29996081 Ry
     estimated scf accuracy    <       0.82769625 Ry

     iteration #  2     ecut=    50.00 Ry     beta= 0.70
     CG style diagonalization
     ethr =  2.07E-03,  avg # of iterations =  5.4

     negative rho (up, down):  3.870E-04 0.000E+00

     total cpu time spent up to now is        4.7 secs

     total energy              =    -290.52675392 Ry
     estimated scf accuracy    <       7.17716639 Ry

     iteration #  3     ecut=    50.00 Ry     beta= 0.70
     CG style diagonalization
     ethr =  2.07E-03,  avg # of iterations =  4.7

     negative rho (up, down):  4.209E-04 0.000E+00

     total cpu time spent up to now is        6.9 secs

     total energy              =    -291.73013336 Ry
     estimated scf accuracy    <       0.20592620 Ry

     iteration #  4     ecut=    50.00 Ry     beta= 0.70
     CG style diagonalization
     ethr =  5.15E-04,  avg # of iterations =  3.4

     negative rho (up, down):  5.195E-04 0.000E+00

     total cpu time spent up to now is        8.5 secs

     total energy              =    -291.73835445 Ry
     estimated scf accuracy    <       0.06023052 Ry

     iteration #  5     ecut=    50.00 Ry     beta= 0.70
     CG style diagonalization
     ethr =  1.51E-04,  avg # of iterations =  3.6

     negative rho (up, down):  6.209E-04 0.000E+00

     total cpu time spent up to now is       10.1 secs

     total energy              =    -291.74855766 Ry
     estimated scf accuracy    <       0.00085313 Ry

     iteration #  6     ecut=    50.00 Ry     beta= 0.70
     CG style diagonalization
     ethr =  2.13E-06,  avg # of iterations =  4.8

     negative rho (up, down):  6.115E-04 0.000E+00

     total cpu time spent up to now is       12.3 secs

     total energy              =    -291.74993329 Ry
     estimated scf accuracy    <       0.00101551 Ry

     iteration #  7     ecut=    50.00 Ry     beta= 0.70
     CG style diagonalization
     ethr =  2.13E-06,  avg # of iterations =  3.4

     negative rho (up, down):  6.012E-04 0.000E+00

     total cpu time spent up to now is       13.9 secs

     total energy              =    -291.74997808 Ry
     estimated scf accuracy    <       0.00015646 Ry

     iteration #  8     ecut=    50.00 Ry     beta= 0.70
     CG style diagonalization
     ethr =  3.91E-07,  avg # of iterations =  3.7

     negative rho (up, down):  5.993E-04 0.000E+00

     total cpu time spent up to now is       15.6 secs

     total energy              =    -291.75001492 Ry
     estimated scf accuracy    <       0.00000237 Ry

     iteration #  9     ecut=    50.00 Ry     beta= 0.70
     CG style diagonalization
     ethr =  5.91E-09,  avg # of iterations =  4.6

     negative rho (up, down):  6.001E-04 0.000E+00

     total cpu time spent up to now is       17.7 secs

     total energy              =    -291.75001996 Ry
     estimated scf accuracy    <       0.00000158 Ry

     iteration # 10     ecut=    50.00 Ry     beta= 0.70
     CG style diagonalization
     ethr =  3.96E-09,  avg # of iterations =  3.4

     negative rho (up, down):  6.005E-04 0.000E+00

     total cpu time spent up to now is       19.3 secs

     total energy              =    -291.75002011 Ry
     estimated scf accuracy    <       0.00000010 Ry

     iteration # 11     ecut=    50.00 Ry     beta= 0.70
     CG style diagonalization
     ethr =  2.59E-10,  avg # of iterations =  4.1

     negative rho (up, down):  6.003E-04 0.000E+00

     total cpu time spent up to now is       21.2 secs

     End of self-consistent calculation

          k = 0.0000 0.0000 0.0000 (  2373 PWs)   bands (ev):

   -47.1532 -30.2098 -23.7449 -23.7449 -23.7449 -11.4050 -11.4050 -11.4050
    -8.5598  -7.4461  -7.4461   5.5757   5.5757   5.5757   7.5037   7.5037
     7.5037   8.2050   8.2050   8.2050

          k = 0.0000 0.0000 0.0833 (  2381 PWs)   bands (ev):

   -47.1531 -30.2094 -23.7498 -23.7447 -23.7447 -11.4218 -11.4042 -11.4042
    -8.5173  -7.4434  -7.4258   5.4944   5.5790   5.5790   7.4041   7.4041
     7.4407   7.9620   8.1579   8.1579

          k = 0.0000 0.0000 0.1667 (  2401 PWs)   bands (ev):

   -47.1529 -30.2084 -23.7630 -23.7440 -23.7440 -11.4667 -11.4022 -11.4022
    -8.4007  -7.4360  -7.3699   5.2696   5.5914   5.5914   7.1401   7.1401
     7.2776   7.4008   8.0764   8.0764

          k = 0.0000 0.0000 0.2500 (  2373 PWs)   bands (ev):

   -47.1526 -30.2069 -23.7810 -23.7432 -23.7432 -11.5255 -11.3995 -11.3995
    -8.2404  -7.4258  -7.2917   4.9500   5.6205   5.6205   6.7927   6.8058
     6.8058   7.0730   8.0095   8.0095

          k = 0.0000 0.0000 0.3333 (  2376 PWs)   bands (ev):

   -47.1523 -30.2054 -23.7989 -23.7423 -23.7423 -11.5816 -11.3967 -11.3967
    -8.0791  -7.4156  -7.2101   4.6086   5.6758   5.6758   6.3080   6.4829
     6.4829   6.8846   7.9608   7.9608

          k = 0.0000 0.0000 0.4167 (  2396 PWs)   bands (ev):

   -47.1521 -30.2044 -23.8119 -23.7417 -23.7417 -11.6214 -11.3947 -11.3947
    -7.9609  -7.4081  -7.1471   4.3426   5.7624   5.7624   6.0121   6.2187
     6.2187   6.7552   7.9306   7.9306

          k = 0.0000 0.0000-0.5000 (  2392 PWs)   bands (ev):

   -47.1520 -30.2040 -23.8166 -23.7415 -23.7415 -11.6356 -11.3940 -11.3940
    -7.9178  -7.4053  -7.1232   4.2419   5.8331   5.8331   5.9141   6.0861
     6.0861   6.7096   7.9203   7.9203

          k = 0.0000 0.0833 0.0833 (  2403 PWs)   bands (ev):

   -47.1531 -30.2090 -23.7496 -23.7495 -23.7444 -11.4268 -11.4143 -11.4035
    -8.4758  -7.4323  -7.4144   5.4370   5.5563   5.5820   7.1864   7.3184
     7.5076   7.8763   7.9955   8.0995

          k = 0.0000 0.0833 0.1667 (  2399 PWs)   bands (ev):

   -47.1528 -30.2079 -23.7628 -23.7489 -23.7438 -11.4664 -11.4149 -11.4015
    -8.3623  -7.4222  -7.3619   5.2319   5.5417   5.5937   6.8395   7.0811
     7.3581   7.5093   7.8924   7.9972

          k = 0.0000 0.0833 0.2500 (  2376 PWs)   bands (ev):

   -47.1525 -30.2065 -23.7808 -23.7481 -23.7430 -11.5225 -11.4113 -11.3987
    -8.2065  -7.4125  -7.2838   4.9280   5.5347   5.6215   6.4255   6.7669
     6.8969   7.3379   7.8258   7.9165

          k = 0.0000 0.0833 0.3333 (  2371 PWs)   bands (ev):

   -47.1522 -30.2050 -23.7987 -23.7473 -23.7421 -11.5766 -11.4075 -11.3959
    -8.0504  -7.4029  -7.2011   4.5993   5.5229   5.6752   6.0423   6.4558
     6.5593   7.1689   7.7797   7.8614

          k = 0.0000 0.0833 0.4167 (  2385 PWs)   bands (ev):

   -47.1520 -30.2039 -23.8118 -23.7467 -23.7415 -11.6150 -11.4046 -11.3938
    -7.9368  -7.3957  -7.1366   4.3397   5.4894   5.7604   5.8216   6.1978
     6.3584   7.0431   7.7517   7.8286

          k = 0.0000 0.0833-0.5000 (  2378 PWs)   bands (ev):

   -47.1520 -30.2035 -23.8165 -23.7465 -23.7413 -11.6288 -11.4036 -11.3930
    -7.8954  -7.3930  -7.1118   4.2407   5.4615   5.7662   5.8320   6.0659
     6.2897   6.9972   7.7422   7.8177

          k = 0.0000 0.1667 0.1667 (  2378 PWs)   bands (ev):

   -47.1526 -30.2068 -23.7624 -23.7620 -23.7432 -11.4750 -11.4392 -11.3993
    -8.2576  -7.3962  -7.3270   5.0905   5.4447   5.6032   6.4197   6.9067
     7.3029   7.4188   7.7204   7.8445

          k = 0.0000 0.1667 0.2500 (  2371 PWs)   bands (ev):

   -47.1523 -30.2053 -23.7803 -23.7615 -23.7424 -11.5158 -11.4419 -11.3964
    -8.1158  -7.3774  -7.2573   4.8429   5.3439   5.6271   5.9874   6.6504
     6.9241   7.3818   7.6982   7.7187

          k = 0.0000 0.1667 0.3333 (  2383 PWs)   bands (ev):

   -47.1520 -30.2038 -23.7983 -23.7607 -23.7415 -11.5631 -11.4364 -11.3935
    -7.9773  -7.3624  -7.1749   4.5607   5.1802   5.6753   5.6837   6.3770
     6.6287   7.3719   7.6257   7.6381

          k = 0.0000 0.1667 0.4167 (  2380 PWs)   bands (ev):

   -47.1518 -30.2027 -23.8114 -23.7602 -23.7409 -11.5976 -11.4316 -11.3913
    -7.8801  -7.3505  -7.1074   4.3283   4.9923   5.5704   5.7554   6.1400
     6.4606   7.3656   7.5526   7.5935

          k = 0.0000 0.1667-0.5000 (  2368 PWs)   bands (ev):

   -47.1517 -30.2023 -23.8162 -23.7600 -23.7407 -11.6101 -11.4297 -11.3906
    -7.8457  -7.3457  -7.0809   4.2366   4.9174   5.5452   5.8282   6.0115
     6.4062   7.3642   7.5223   7.5792

          k = 0.0000 0.2500 0.2500 (  2352 PWs)   bands (ev):

   -47.1520 -30.2038 -23.7799 -23.7794 -23.7415 -11.5172 -11.4720 -11.3933
    -7.9987  -7.3330  -7.2059   4.6636   5.1671   5.5239   5.6438   6.4679
     6.8735   7.0885   7.5341   7.8866

          k = 0.0000 0.2500 0.3333 (  2376 PWs)   bands (ev):

   -47.1517 -30.2023 -23.7977 -23.7790 -23.7407 -11.5457 -11.4741 -11.3903
    -7.8937  -7.2905  -7.1341   4.4475   4.8941   5.2390   5.6818   6.2551
     6.6861   7.0397   7.4082   7.9716

          k = 0.0000 0.2500 0.4167 (  2371 PWs)   bands (ev):

   -47.1515 -30.2011 -23.8109 -23.7785 -23.7401 -11.5739 -11.4677 -11.3880
    -7.8273  -7.2589  -7.0669   4.2863   4.5707   5.1765   5.7503   6.0572
     6.5587   7.0376   7.3391   7.9929

          k = 0.0000 0.2500-0.5000 (  2366 PWs)   bands (ev):

   -47.1514 -30.2007 -23.8157 -23.7783 -23.7399 -11.5846 -11.4649 -11.3872
    -7.8055  -7.2470  -7.0390   4.2272   4.4461   5.1637   5.8214   5.9389
     6.5173   7.0376   7.3173   7.9945

          k = 0.0000 0.3333 0.3333 (  2390 PWs)   bands (ev):

   -47.1515 -30.2007 -23.7974 -23.7970 -23.7399 -11.5361 -11.5034 -11.3870
    -7.8320  -7.2003  -7.0824   4.2543   4.7356   4.7971   5.7039   6.1085
     6.6957   6.8691   7.2350   8.1927

          k = 0.0000 0.3333 0.4167 (  2370 PWs)   bands (ev):

   -47.1512 -30.1995 -23.8104 -23.7968 -23.7393 -11.5505 -11.5030 -11.3846
    -7.8004  -7.1347  -7.0253   4.1136   4.3683   4.7453   5.7516   5.9647
     6.6467   6.8442   7.1343   8.3010

          k = 0.0000 0.3333-0.5000 (  2380 PWs)   bands (ev):

   -47.1512 -30.1991 -23.8152 -23.7966 -23.7391 -11.5591 -11.4995 -11.3838
    -7.7913  -7.1142  -6.9973   4.0874   4.2026   4.7365   5.8119   5.8682
     6.6230   6.8467   7.1018   8.3318

          k = 0.0000 0.4167 0.4167 (  2384 PWs)   bands (ev):

   -47.1510 -30.1983 -23.8101 -23.8100 -23.7387 -11.5363 -11.5256 -11.3822
    -7.7926  -7.0312  -6.9900   3.9283   4.2299   4.5001   5.7685   5.8782
     6.6995   6.7608   7.0075   8.4695

          k = 0.0000 0.4167-0.5000 (  2384 PWs)   bands (ev):

   -47.1509 -30.1979 -23.8149 -23.8099 -23.7385 -11.5404 -11.5245 -11.3813
    -7.7917  -7.0004  -6.9669   3.8636   4.1331   4.4577   5.8030   5.8176
     6.7002   6.7554   6.9653   8.5214

          k = 0.0000-0.5000-0.5000 (  2408 PWs)   bands (ev):

   -47.1509 -30.1975 -23.8148 -23.8148 -23.7383 -11.5336 -11.5336 -11.3804
    -7.7934  -6.9558  -6.9558   3.7875   4.0726   4.3891   5.7992   5.7992
     6.7285   6.7285   6.9189   8.5808

          k = 0.0833 0.0833 0.0833 (  2397 PWs)   bands (ev):

   -47.1530 -30.2086 -23.7494 -23.7494 -23.7492 -11.4313 -11.4134 -11.4134
    -8.4353  -7.4123  -7.4123   5.3803   5.5580   5.5580   7.1157   7.1157
     7.5743   7.7433   7.9720   7.9720

          k = 0.0833 0.0833 0.1667 (  2388 PWs)   bands (ev):

   -47.1528 -30.2075 -23.7626 -23.7487 -23.7487 -11.4661 -11.4167 -11.4107
    -8.3244  -7.4066  -7.3567   5.1911   5.5250   5.5645   6.7797   6.8521
     7.3973   7.5579   7.7893   7.9117

          k = 0.0833 0.0833 0.2500 (  2373 PWs)   bands (ev):

   -47.1525 -30.2061 -23.7806 -23.7479 -23.7479 -11.5196 -11.4132 -11.4071
    -8.1723  -7.3988  -7.2777   4.9044   5.4935   5.5802   6.3948   6.4425
     7.0867   7.4375   7.6676   7.8490

          k = 0.0833 0.0833 0.3333 (  2377 PWs)   bands (ev):

   -47.1522 -30.2046 -23.7986 -23.7471 -23.7470 -11.5717 -11.4092 -11.4035
    -8.0205  -7.3909  -7.1935   4.5896   5.4493   5.6110   5.9781   6.1551
     6.8599   7.2817   7.5938   7.8028

          k = 0.0833 0.0833 0.4167 (  2379 PWs)   bands (ev):

   -47.1520 -30.2035 -23.8116 -23.7465 -23.7464 -11.6088 -11.4062 -11.4009
    -7.9103  -7.3852  -7.1272   4.3370   5.3831   5.6630   5.7531   5.9411
     6.7138   7.1601   7.5529   7.7741

          k = 0.0833 0.0833-0.5000 (  2372 PWs)   bands (ev):

   -47.1519 -30.2031 -23.8164 -23.7463 -23.7461 -11.6221 -11.4051 -11.3999
    -7.8704  -7.3831  -7.1016   4.2397   5.3443   5.6955   5.7139   5.8352
     6.6629   7.1148   7.5397   7.7644

          k = 0.0833 0.1667 0.1667 (  2381 PWs)   bands (ev):

   -47.1525 -30.2064 -23.7622 -23.7619 -23.7481 -11.4744 -11.4377 -11.4101
    -8.2209  -7.3778  -7.3266   5.0513   5.4420   5.5512   6.4101   6.6832
     7.1581   7.5685   7.7178   7.7719

          k = 0.0833 0.1667 0.2500 (  2371 PWs)   bands (ev):

   -47.1522 -30.2049 -23.7801 -23.7613 -23.7473 -11.5131 -11.4407 -11.4064
    -8.0807  -7.3631  -7.2556   4.8181   5.3344   5.5511   5.9908   6.3747
     6.9713   7.4174   7.6768   7.7114

          k = 0.0833 0.1667 0.3333 (  2379 PWs)   bands (ev):

   -47.1520 -30.2034 -23.7981 -23.7605 -23.7465 -11.5586 -11.4354 -11.4027
    -7.9438  -7.3530  -7.1710   4.5506   5.1687   5.5531   5.6806   6.0758
     6.8875   7.2750   7.6258   7.6431

          k = 0.0833 0.1667 0.4167 (  2383 PWs)   bands (ev):

   -47.1517 -30.2023 -23.8112 -23.7600 -23.7458 -11.5920 -11.4306 -11.3999
    -7.8475  -7.3453  -7.1013   4.3260   4.9829   5.5210   5.6028   5.8780
     6.8415   7.1826   7.5727   7.5972

          k = 0.0833 0.1667-0.5000 (  2380 PWs)   bands (ev):

   -47.1517 -30.2019 -23.8160 -23.7597 -23.7456 -11.6041 -11.4289 -11.3988
    -7.8134  -7.3422  -7.0738   4.2362   4.9087   5.4988   5.6099   5.8030
     6.8254   7.1518   7.5440   7.5877

          k = 0.0833 0.2500 0.2500 (  2374 PWs)   bands (ev):

   -47.1520 -30.2034 -23.7797 -23.7792 -23.7465 -11.5144 -11.4698 -11.4027
    -7.9620  -7.3206  -7.2077   4.6469   5.1640   5.4994   5.5782   6.2240
     6.7627   7.3018   7.5061   7.8976

          k = 0.0833 0.2500 0.3333 (  2378 PWs)   bands (ev):

   -47.1517 -30.2019 -23.7975 -23.7788 -23.7456 -11.5418 -11.4720 -11.3989
    -7.8553  -7.2846  -7.1349   4.4424   4.8999   5.2352   5.5478   5.9963
     6.7173   7.1629   7.4158   7.9804

          k = 0.0833 0.2500 0.4167 (  2371 PWs)   bands (ev):

   -47.1514 -30.2007 -23.8107 -23.7783 -23.7450 -11.5691 -11.4658 -11.3961
    -7.7876  -7.2593  -7.0652   4.2866   4.5822   5.1650   5.5671   5.8124
     6.7652   7.0051   7.3847   8.0007

          k = 0.0833 0.2500-0.5000 (  2382 PWs)   bands (ev):

   -47.1514 -30.2003 -23.8155 -23.7781 -23.7448 -11.5795 -11.4631 -11.3951
    -7.7654  -7.2500  -7.0362   4.2277   4.4602   5.1502   5.5918   5.7303
     6.8466   6.8865   7.3765   8.0019

          k = 0.0833 0.3333 0.3333 (  2368 PWs)   bands (ev):

   -47.1514 -30.2003 -23.7971 -23.7968 -23.7448 -11.5325 -11.5006 -11.3951
    -7.7899  -7.1983  -7.0863   4.2620   4.7457   4.7972   5.5349   5.8582
     6.6432   7.1259   7.2422   8.1987

          k = 0.0833 0.3333 0.4167 (  2374 PWs)   bands (ev):

   -47.1512 -30.1991 -23.8102 -23.7965 -23.7442 -11.5465 -11.5003 -11.3923
    -7.7566  -7.1379  -7.0281   4.1305   4.3757   4.7455   5.5486   5.7211
     6.6749   7.0143   7.1925   8.3064

          k = 0.0833 0.3333-0.5000 (  2386 PWs)   bands (ev):

   -47.1511 -30.1987 -23.8150 -23.7963 -23.7440 -11.5549 -11.4969 -11.3912
    -7.7471  -7.1199  -6.9988   4.1123   4.2042   4.7361   5.5776   5.6463
     6.7150   6.9401   7.1888   8.3372

          k = 0.0833 0.4167 0.4167 (  2380 PWs)   bands (ev):

   -47.1509 -30.1979 -23.8098 -23.8097 -23.7436 -11.5328 -11.5224 -11.3894
    -7.7474  -7.0354  -6.9954   3.9558   4.2344   4.5012   5.5466   5.6341
     6.6730   7.0302   7.0562   8.4751

          k = 0.0833 0.4167-0.5000 (  2388 PWs)   bands (ev):

   -47.1509 -30.1975 -23.8146 -23.8096 -23.7434 -11.5369 -11.5214 -11.3884
    -7.7461  -7.0064  -6.9717   3.8945   4.1361   4.4589   5.5645   5.5825
     6.6894   6.9831   7.0532   8.5273

          k = 0.0833-0.5000-0.5000 (  2388 PWs)   bands (ev):

   -47.1508 -30.1971 -23.8145 -23.8145 -23.7431 -11.5303 -11.5303 -11.3873
    -7.7475  -6.9617  -6.9617   3.8205   4.0759   4.3903   5.5590   5.5590
     6.6936   6.9999   6.9999   8.5871

          k = 0.1667 0.1667 0.1667 (  2364 PWs)   bands (ev):

   -47.1523 -30.2053 -23.7615 -23.7615 -23.7613 -11.4787 -11.4335 -11.4335
    -8.1209  -7.3255  -7.3255   4.9299   5.4308   5.4308   6.3259   6.3259
     6.7922   7.6549   7.6549   7.7725

          k = 0.1667 0.1667 0.2500 (  2367 PWs)   bands (ev):

   -47.1520 -30.2038 -23.7796 -23.7607 -23.7606 -11.5069 -11.4420 -11.4277
    -7.9863  -7.3240  -7.2474   4.7367   5.2872   5.3997   5.9484   6.0183
     6.6247   7.5349   7.6295   7.8101

          k = 0.1667 0.1667 0.3333 (  2386 PWs)   bands (ev):

   -47.1517 -30.2023 -23.7976 -23.7600 -23.7597 -11.5466 -11.4380 -11.4220
    -7.8563  -7.3226  -7.1585   4.5129   5.0958   5.3338   5.5589   5.8237
     6.6356   7.4087   7.5996   7.7695

          k = 0.1667 0.1667 0.4167 (  2380 PWs)   bands (ev):

   -47.1515 -30.2012 -23.8108 -23.7596 -23.7591 -11.5767 -11.4334 -11.4177
    -7.7658  -7.3215  -7.0842   4.3166   4.8871   5.2553   5.3934   5.7409
     6.6773   7.3017   7.5810   7.7098

          k = 0.1667 0.1667-0.5000 (  2388 PWs)   bands (ev):

   -47.1515 -30.2008 -23.8156 -23.7594 -23.7588 -11.5878 -11.4316 -11.4162
    -7.7339  -7.3211  -7.0547   4.2343   4.8053   5.2209   5.3534   5.7208
     6.6995   7.2569   7.5761   7.6825

          k = 0.1667 0.2500 0.2500 (  2378 PWs)   bands (ev):

   -47.1517 -30.2023 -23.7790 -23.7788 -23.7599 -11.5075 -11.4637 -11.4274
    -7.8634  -7.2831  -7.2127   4.5929   5.1493   5.3062   5.5824   5.8485
     6.3188   7.5634   7.5696   7.9514

          k = 0.1667 0.2500 0.3333 (  2385 PWs)   bands (ev):

   -47.1515 -30.2007 -23.7970 -23.7781 -23.7590 -11.5312 -11.4666 -11.4219
    -7.7522  -7.2653  -7.1361   4.4220   4.9120   5.1842   5.2929   5.6500
     6.2851   7.4928   7.5615   8.0207

          k = 0.1667 0.2500 0.4167 (  2378 PWs)   bands (ev):

   -47.1512 -30.1996 -23.8101 -23.7776 -23.7584 -11.5560 -11.4611 -11.4177
    -7.6814  -7.2565  -7.0603   4.2842   4.6075   5.1060   5.1782   5.5621
     6.3127   7.4278   7.5524   8.0349

          k = 0.1667 0.2500-0.5000 (  2380 PWs)   bands (ev):

   -47.1512 -30.1992 -23.8149 -23.7774 -23.7582 -11.5655 -11.4586 -11.4161
    -7.6581  -7.2533  -7.0288   4.2283   4.4885   5.0927   5.1308   5.5411
     6.3276   7.4013   7.5485   8.0341

          k = 0.1667 0.3333 0.3333 (  2360 PWs)   bands (ev):

   -47.1512 -30.1992 -23.7964 -23.7962 -23.7582 -11.5227 -11.4928 -11.4169
    -7.6743  -7.1910  -7.0970   4.2779   4.7738   4.7949   5.2169   5.4606
     6.1787   7.4920   7.5309   8.2201

          k = 0.1667 0.3333 0.4167 (  2375 PWs)   bands (ev):

   -47.1509 -30.1980 -23.8095 -23.7958 -23.7576 -11.5356 -11.4929 -11.4129
    -7.6355  -7.1462  -7.0353   4.1708   4.4001   4.7429   5.1654   5.3577
     6.1747   7.4620   7.5204   8.3238

          k = 0.1667 0.3333-0.5000 (  2370 PWs)   bands (ev):

   -47.1509 -30.1976 -23.8143 -23.7956 -23.7574 -11.5433 -11.4899 -11.4114
    -7.6247  -7.1346  -7.0032   4.1797   4.2079   4.7314   5.1387   5.3326
     6.1805   7.4479   7.5172   8.3539

          k = 0.1667 0.4167 0.4167 (  2376 PWs)   bands (ev):

   -47.1507 -30.1969 -23.8091 -23.8090 -23.7570 -11.5232 -11.5136 -11.4091
    -7.6214  -7.0469  -7.0103   4.0291   4.2477   4.5039   5.1644   5.2330
     6.1442   7.4743   7.4978   8.4911

          k = 0.1667 0.4167-0.5000 (  2374 PWs)   bands (ev):

   -47.1507 -30.1964 -23.8139 -23.8089 -23.7567 -11.5271 -11.5128 -11.4077
    -7.6191  -7.0228  -6.9848   3.9799   4.1431   4.4621   5.1536   5.2025
     6.1403   7.4743   7.4930   8.5437

          k = 0.1667-0.5000-0.5000 (  2384 PWs)   bands (ev):

   -47.1506 -30.1960 -23.8137 -23.8137 -23.7565 -11.5211 -11.5211 -11.4063
    -7.6196  -6.9780  -6.9780   3.9115   4.0838   4.3935   5.1595   5.1595
     6.1325   7.4839   7.4839   8.6043

          k = 0.2500 0.2500 0.2500 (  2383 PWs)   bands (ev):

   -47.1515 -30.2007 -23.7782 -23.7780 -23.7780 -11.5034 -11.4553 -11.4553
    -7.7353  -7.2195  -7.2195   4.4953   5.0986   5.0986   5.5490   5.5490
     5.7718   7.6768   7.6768   8.0562

          k = 0.2500 0.2500 0.3333 (  2372 PWs)   bands (ev):

   -47.1512 -30.1992 -23.7962 -23.7775 -23.7771 -11.5177 -11.4645 -11.4469
    -7.6217  -7.2264  -7.1340   4.3710   4.8974   4.9828   5.1327   5.3985
     5.7189   7.7092   7.7441   8.1294

          k = 0.2500 0.2500 0.4167 (  2377 PWs)   bands (ev):

   -47.1509 -30.1981 -23.8094 -23.7770 -23.7764 -11.5382 -11.4608 -11.4407
    -7.5517  -7.2315  -7.0530   4.2671   4.5882   4.8636   4.9766   5.3529
     5.7510   7.7218   7.7698   8.1497

          k = 0.2500 0.2500-0.5000 (  2386 PWs)   bands (ev):

   -47.1509 -30.1977 -23.8142 -23.7768 -23.7761 -11.5466 -11.4586 -11.4384
    -7.5292  -7.2333  -7.0190   4.2257   4.4553   4.8172   4.9482   5.3436
     5.7646   7.7261   7.7748   8.1504

          k = 0.2500 0.3333 0.3333 (  2380 PWs)   bands (ev):

   -47.1509 -30.1977 -23.7954 -23.7954 -23.7764 -11.5098 -11.4822 -11.4459
    -7.5185  -7.1727  -7.1117   4.2826   4.7785   4.7985   4.9461   5.1204
     5.5190   7.7988   7.8556   8.2699

          k = 0.2500 0.3333 0.4167 (  2385 PWs)   bands (ev):

   -47.1507 -30.1965 -23.8086 -23.7948 -23.7758 -11.5206 -11.4831 -11.4405
    -7.4682  -7.1534  -7.0446   4.2067   4.4434   4.7187   4.8134   5.0560
     5.5112   7.8414   7.8992   8.3590

          k = 0.2500 0.3333-0.5000 (  2374 PWs)   bands (ev):

   -47.1506 -30.1961 -23.8134 -23.7946 -23.7755 -11.5275 -11.4805 -11.4384
    -7.4549  -7.1504  -7.0095   4.2090   4.2660   4.7034   4.7623   5.0513
     5.5154   7.8574   7.9070   8.3865

          k = 0.2500 0.4167 0.4167 (  2379 PWs)   bands (ev):

   -47.1504 -30.1954 -23.8080 -23.8080 -23.7751 -11.5100 -11.5015 -11.4357
    -7.4429  -7.0624  -7.0306   4.1183   4.2730   4.5063   4.8167   4.8741
     5.4718   7.9074   7.9407   8.5149

          k = 0.2500 0.4167-0.5000 (  2370 PWs)   bands (ev):

   -47.1504 -30.1950 -23.8128 -23.8078 -23.7749 -11.5136 -11.5009 -11.4338
    -7.4388  -7.0452  -7.0028   4.0981   4.1480   4.4651   4.7866   4.8565
     5.4662   7.9332   7.9467   8.5671

          k = 0.2500-0.5000-0.5000 (  2356 PWs)   bands (ev):

   -47.1503 -30.1946 -23.8126 -23.8126 -23.7746 -11.5085 -11.5085 -11.4320
    -7.4378  -7.0004  -7.0004   4.0381   4.0896   4.3979   4.7994   4.7994
     5.4573   7.9576   7.9576   8.6282

          k = 0.3333 0.3333 0.3333 (  2365 PWs)   bands (ev):

   -47.1506 -30.1961 -23.7948 -23.7944 -23.7944 -11.5002 -11.4715 -11.4715
    -7.3822  -7.1266  -7.1266   4.2541   4.6998   4.6998   4.8824   4.9291
     4.9291   8.0340   8.0340   8.3568

          k = 0.3333 0.3333 0.4167 (  2376 PWs)   bands (ev):

   -47.1504 -30.1950 -23.8077 -23.7941 -23.7936 -11.5058 -11.4773 -11.4635
    -7.3164  -7.1376  -7.0530   4.2070   4.4719   4.5777   4.6241   4.8843
     4.9425   8.1045   8.1714   8.4345

          k = 0.3333 0.3333-0.5000 (  2380 PWs)   bands (ev):

   -47.1503 -30.1946 -23.8125 -23.7939 -23.7934 -11.5117 -11.4756 -11.4606
    -7.3010  -7.1416  -7.0161   4.1949   4.3067   4.5280   4.6044   4.8777
     4.9575   8.1235   8.2155   8.4619

          k = 0.3333 0.4167 0.4167 (  2373 PWs)   bands (ev):

   -47.1502 -30.1939 -23.8071 -23.8070 -23.7931 -11.4969 -11.4893 -11.4621
    -7.2578  -7.0756  -7.0511   4.1642   4.3236   4.4978   4.5561   4.6129
     4.8754   8.2536   8.2822   8.5446

          k = 0.3333 0.4167-0.5000 (  2382 PWs)   bands (ev):

   -47.1501 -30.1935 -23.8118 -23.8068 -23.7929 -11.5000 -11.4890 -11.4597
    -7.2504  -7.0668  -7.0211   4.1353   4.2172   4.4605   4.5099   4.6011
     4.8713   8.2874   8.3220   8.5930

          k = 0.3333-0.5000-0.5000 (  2368 PWs)   bands (ev):

   -47.1500 -30.1931 -23.8116 -23.8116 -23.7926 -11.4958 -11.4958 -11.4575
    -7.2469  -7.0229  -7.0229   4.0775   4.1672   4.4023   4.5259   4.5259
     4.8635   8.3423   8.3423   8.6523

          k = 0.4167 0.4167 0.4167 (  2371 PWs)   bands (ev):

   -47.1500 -30.1929 -23.8064 -23.8062 -23.8062 -11.4882 -11.4802 -11.4802
    -7.1351  -7.0662  -7.0662   4.1269   4.3493   4.4084   4.4084   4.5356
     4.5356   8.4720   8.4720   8.5889

          k = 0.4167 0.4167-0.5000 (  2376 PWs)   bands (ev):

   -47.1499 -30.1925 -23.8111 -23.8061 -23.8059 -11.4900 -11.4819 -11.4769
    -7.1169  -7.0718  -7.0345   4.0758   4.2889   4.3561   4.4035   4.4784
     4.5317   8.5136   8.5461   8.6267

          k = 0.4167-0.5000-0.5000 (  2372 PWs)   bands (ev):

   -47.1498 -30.1921 -23.8108 -23.8108 -23.8057 -11.4864 -11.4864 -11.4761
    -7.1007  -7.0395  -7.0395   4.0207   4.2636   4.3565   4.3565   4.4055
     4.5037   8.5910   8.5910   8.6702

          k =-0.5000-0.5000-0.5000 (  2320 PWs)   bands (ev):

   -47.1497 -30.1917 -23.8105 -23.8105 -23.8105 -11.4829 -11.4829 -11.4829
    -7.0456  -7.0456  -7.0456   3.9695   4.2994   4.2994   4.2994   4.4068
     4.4068   8.6769   8.6769   8.6769

     highest occupied level (ev):     8.6769

!    total energy              =    -291.75002016 Ry
     estimated scf accuracy    <          4.0E-09 Ry

     The total energy is the sum of the following terms:
     one-electron contribution =     -93.22291379 Ry
     hartree contribution      =      65.82751952 Ry
     xc contribution           =     -51.21006151 Ry
     ewald contribution        =    -213.14456438 Ry

     convergence has been achieved in  11 iterations

     negative rho (up, down):  6.003E-04 0.000E+00

     Forces acting on atoms (cartesian axes, Ry/au):

     atom    1 type  1   force =     0.00000000    0.00000000    0.00000000
     atom    2 type  2   force =     0.00000000    0.00000000    0.00000000
     atom    3 type  3   force =     0.00000000    0.00000000    0.00000000
     atom    4 type  3   force =     0.00000000    0.00000000    0.00000000
     atom    5 type  3   force =     0.00000000    0.00000000    0.00000000

     Total force =     0.000000     Total SCF correction =     0.000000


     Computing stress (Cartesian axis) and pressure


     negative rho (up, down):  6.003E-04 0.000E+00
          total   stress  (Ry/bohr**3)                   (kbar)     P=     -120.87
  -0.00082163   0.00000000   0.00000000         -120.87        0.00        0.00
   0.00000000  -0.00082163   0.00000000            0.00     -120.87        0.00
   0.00000000   0.00000000  -0.00082163            0.00        0.00     -120.87


     Writing all to output data dir ./CTO.save/ :
     XML data file, charge density, pseudopotentials, collected wavefunctions
 
     init_run     :      0.65s CPU      0.74s WALL (       1 calls)
     electrons    :     18.98s CPU     20.22s WALL (       1 calls)
     forces       :      0.17s CPU      0.18s WALL (       1 calls)
     stress       :      2.02s CPU      2.05s WALL (       1 calls)

     Called by init_run:
     wfcinit      :      0.44s CPU      0.47s WALL (       1 calls)
     potinit      :      0.01s CPU      0.01s WALL (       1 calls)
     hinit0       :      0.10s CPU      0.14s WALL (       1 calls)

     Called by electrons:
     c_bands      :     16.70s CPU     17.75s WALL (      11 calls)
     sum_band     :      1.79s CPU      1.89s WALL (      11 calls)
     v_of_rho     :      0.02s CPU      0.02s WALL (      12 calls)
     newd         :      0.47s CPU      0.55s WALL (      12 calls)
     mix_rho      :      0.01s CPU      0.02s WALL (      11 calls)

     Called by c_bands:
     init_us_2    :      0.19s CPU      0.20s WALL (    2100 calls)
     init_us_2:cp :      0.19s CPU      0.20s WALL (    2100 calls)
     ccgdiagg     :     14.49s CPU     15.43s WALL (     924 calls)
     wfcrot       :      2.44s CPU      2.58s WALL (     924 calls)

     Called by *cgdiagg:
     h_psi        :      9.82s CPU     10.43s WALL (   57010 calls)
     s_psi        :      1.23s CPU      1.31s WALL (  113096 calls)

     Called by h_psi:
     h_psi:calbec :      1.48s CPU      1.57s WALL (   57010 calls)
     vloc_psi     :      7.21s CPU      7.65s WALL (   57010 calls)
     add_vuspsi   :      0.69s CPU      0.74s WALL (   57010 calls)
     hs_1psi      :      8.76s CPU      9.32s WALL (   56086 calls)
     s_1psi       :      2.05s CPU      2.18s WALL (   56086 calls)

     General routines
     calbec       :      2.70s CPU      2.87s WALL (  114440 calls)
     fft          :      0.02s CPU      0.04s WALL (      78 calls)
     ffts         :      0.00s CPU      0.00s WALL (      23 calls)
     fftw         :      6.23s CPU      6.61s WALL (  169628 calls)
     interpolate  :      0.00s CPU      0.01s WALL (      12 calls)
 
     Parallel routines
 
     PWSCF        :     22.14s CPU     24.19s WALL

 
   This run was terminated on:  16:50:54  19Sep2025            

=------------------------------------------------------------------------------=
   JOB DONE.
=------------------------------------------------------------------------------=
TACC:  Shutdown complete. Exiting. 
