TACC:  Starting up job 2388104 
TACC:  Starting parallel tasks... 

     Program PWSCF v.7.3 starts on 19Sep2025 at 17:27:54 

     This program is part of the open-source Quantum ESPRESSO suite
     for quantum simulation of materials; please cite
         "P. Giannozzi et al., J. Phys.:Condens. Matter 21 395502 (2009);
         "P. Giannozzi et al., J. Phys.:Condens. Matter 29 465901 (2017);
         "P. Giannozzi et al., J. Chem. Phys. 152 154105 (2020);
          URL http://www.quantum-espresso.org", 
     in publications or presentations arising from this work. More details at
     http://www.quantum-espresso.org/quote

     Parallel version (MPI & OpenMP), running on      10 processor cores
     Number of MPI processes:                10
     Threads/MPI process:                     1

     MPI processes distributed on     1 nodes
     188204 MiB available memory on the printing compute node when the environment starts
 
     Waiting for input...
     Reading input from standard input
Warning: card &CELL ignored
Warning: card  CELL_DYNAMICS = 'BFGS', ignored
Warning: card  PRESS=0.D0, ignored
Warning: card / ignored
     Message from routine read_cards :
     DEPRECATED: no units specified in ATOMIC_POSITIONS card
     Message from routine read_cards :
     ATOMIC_POSITIONS: units set to alat

     Current dimensions of program PWSCF are:
     Max number of different atomic species (ntypx) = 10
     Max number of k-points (npk) =  40000
     Max angular momentum in pseudopotentials (lmaxx) =  4
 
     R & G space division:  proc/nbgrp/npool/nimage =      10
     Subspace diagonalization in iterative solution of the eigenvalue problem:
     a serial algorithm will be used

 
     Parallelization info
     --------------------
     sticks:   dense  smooth     PW     G-vecs:    dense   smooth      PW
     Min         344     136     40                15177     3848     604
     Max         345     137     42                15178     3851     605
     Sum        3441    1369    405               151779    38497    6043
 
     Using Slab Decomposition
 


     bravais-lattice index     =            1
     lattice parameter (alat)  =       7.3573  a.u.
     unit-cell volume          =     398.2496 (a.u.)^3
     number of atoms/cell      =            5
     number of atomic types    =            3
     number of electrons       =        40.00
     number of Kohn-Sham states=           20
     kinetic-energy cutoff     =      80.0000  Ry
     charge density cutoff     =     800.0000  Ry
     scf convergence threshold =      1.0E-08
     mixing beta               =       0.7000
     number of iterations used =            8  plain     mixing
     Exchange-correlation= SLA  PZ   NOGX NOGC
                           (   1   1   0   0   0   0   0)

     celldm(1)=   7.357300  celldm(2)=   0.000000  celldm(3)=   0.000000
     celldm(4)=   0.000000  celldm(5)=   0.000000  celldm(6)=   0.000000

     crystal axes: (cart. coord. in units of alat)
               a(1) = (   1.000000   0.000000   0.000000 )  
               a(2) = (   0.000000   1.000000   0.000000 )  
               a(3) = (   0.000000   0.000000   1.000000 )  

     reciprocal axes: (cart. coord. in units 2 pi/alat)
               b(1) = (  1.000000  0.000000  0.000000 )  
               b(2) = (  0.000000  1.000000  0.000000 )  
               b(3) = (  0.000000  0.000000  1.000000 )  


     PseudoPot. # 1 for Ca read from file:
     /scratch/11018/zhc/assisgnment1/CaTiO3/Ca_LDA.UPF
     MD5 check sum: d2d4e7693e10d071152e9eeb7dd009f3
     Pseudo is Ultrasoft + core correction, Zval = 10.0
     Generated by new atomic code, or converted to UPF format
     Using radial grid of  845 points,  6 beta functions with: 
                l(1) =   0
                l(2) =   0
                l(3) =   1
                l(4) =   1
                l(5) =   2
                l(6) =   2
     Q(r) pseudized with  8 coefficients,  rinner =    1.500   1.500   1.500
                                                       1.500   1.500

     PseudoPot. # 2 for Ti read from file:
     /scratch/11018/zhc/assisgnment1/CaTiO3/Ti_LDA.UPF
     MD5 check sum: 0d9f225c038fe889ca2a701dcc8d72cb
     Pseudo is Ultrasoft + core correction, Zval = 12.0
     Generated by new atomic code, or converted to UPF format
     Using radial grid of  851 points,  6 beta functions with: 
                l(1) =   0
                l(2) =   0
                l(3) =   1
                l(4) =   1
                l(5) =   2
                l(6) =   2
     Q(r) pseudized with  6 coefficients,  rinner =    1.000   1.000   1.000
                                                       1.000   1.000

     PseudoPot. # 3 for O  read from file:
     /scratch/11018/zhc/assisgnment1/CaTiO3/O_LDA.UPF
     MD5 check sum: 194b818514d2a7dbb603bb78519a4f40
     Pseudo is Ultrasoft + core correction, Zval =  6.0
     Generated by new atomic code, or converted to UPF format
     Using radial grid of  737 points,  5 beta functions with: 
                l(1) =   0
                l(2) =   0
                l(3) =   1
                l(4) =   1
                l(5) =   2
     Q(r) pseudized with  8 coefficients,  rinner =    0.900   0.900   0.900
                                                       0.900   0.900

     atomic species   valence    mass     pseudopotential
     Ca               10.00    40.07800     Ca( 1.00)
     Ti               12.00    47.88000     Ti( 1.00)
     O                 6.00    16.00000     O ( 1.00)

      8 Sym. Ops. (no inversion) found



   Cartesian axes

     site n.     atom                  positions (alat units)
         1        Ca     tau(   1) = (   0.0000000   0.0000000   0.0500000  )
         2        Ti     tau(   2) = (   0.5000000   0.5000000   0.5000000  )
         3        O      tau(   3) = (   0.5000000   0.5000000   0.0000000  )
         4        O      tau(   4) = (   0.5000000   0.0000000   0.5000000  )
         5        O      tau(   5) = (   0.0000000   0.5000000   0.5000000  )

     number of k points=    40
                       cart. coord. in units 2pi/alat
        k(    1) = (   0.0000000   0.0000000   0.0000000), wk =   0.0092593
        k(    2) = (   0.0000000   0.0000000   0.1666667), wk =   0.0185185
        k(    3) = (   0.0000000   0.0000000   0.3333333), wk =   0.0185185
        k(    4) = (   0.0000000   0.0000000  -0.5000000), wk =   0.0092593
        k(    5) = (   0.0000000   0.1666667   0.1666667), wk =   0.0740741
        k(    6) = (   0.0000000   0.1666667   0.3333333), wk =   0.0740741
        k(    7) = (   0.0000000   0.1666667  -0.5000000), wk =   0.0370370
        k(    8) = (   0.0000000   0.3333333   0.3333333), wk =   0.0740741
        k(    9) = (   0.0000000   0.3333333  -0.5000000), wk =   0.0370370
        k(   10) = (   0.0000000  -0.5000000  -0.5000000), wk =   0.0185185
        k(   11) = (   0.1666667   0.1666667   0.1666667), wk =   0.0740741
        k(   12) = (   0.1666667   0.1666667   0.3333333), wk =   0.0740741
        k(   13) = (   0.1666667   0.1666667  -0.5000000), wk =   0.0370370
        k(   14) = (   0.1666667   0.3333333   0.3333333), wk =   0.1481481
        k(   15) = (   0.1666667   0.3333333  -0.5000000), wk =   0.0740741
        k(   16) = (   0.1666667  -0.5000000  -0.5000000), wk =   0.0370370
        k(   17) = (   0.3333333   0.3333333   0.3333333), wk =   0.0740741
        k(   18) = (   0.3333333   0.3333333  -0.5000000), wk =   0.0370370
        k(   19) = (   0.3333333  -0.5000000  -0.5000000), wk =   0.0370370
        k(   20) = (  -0.5000000  -0.5000000  -0.5000000), wk =   0.0092593
        k(   21) = (   0.1666667   0.0000000   0.0000000), wk =   0.0370370
        k(   22) = (   0.3333333   0.0000000   0.0000000), wk =   0.0370370
        k(   23) = (  -0.5000000   0.0000000   0.0000000), wk =   0.0185185
        k(   24) = (   0.1666667  -0.1666667   0.0000000), wk =   0.0370370
        k(   25) = (   0.3333333  -0.1666667   0.0000000), wk =   0.0740741
        k(   26) = (   0.0000000   0.3333333   0.1666667), wk =   0.0740741
        k(   27) = (  -0.5000000  -0.1666667   0.0000000), wk =   0.0370370
        k(   28) = (   0.0000000  -0.5000000   0.1666667), wk =   0.0370370
        k(   29) = (   0.3333333  -0.3333333   0.0000000), wk =   0.0370370
        k(   30) = (  -0.5000000  -0.3333333   0.0000000), wk =   0.0370370
        k(   31) = (   0.0000000  -0.5000000   0.3333333), wk =   0.0370370
        k(   32) = (  -0.5000000   0.5000000   0.0000000), wk =   0.0092593
        k(   33) = (   0.3333333  -0.1666667   0.1666667), wk =   0.1481481
        k(   34) = (  -0.5000000  -0.1666667   0.1666667), wk =   0.0740741
        k(   35) = (   0.3333333  -0.3333333   0.1666667), wk =   0.0740741
        k(   36) = (  -0.5000000  -0.3333333   0.1666667), wk =   0.0740741
        k(   37) = (  -0.1666667  -0.5000000   0.3333333), wk =   0.0740741
        k(   38) = (  -0.5000000   0.5000000   0.1666667), wk =   0.0185185
        k(   39) = (  -0.5000000  -0.3333333   0.3333333), wk =   0.0740741
        k(   40) = (  -0.5000000   0.5000000   0.3333333), wk =   0.0185185

     Dense  grid:   151779 G-vectors     FFT dimensions: (  72,  72,  72)

     Smooth grid:    38497 G-vectors     FFT dimensions: (  45,  45,  45)

     Estimated max dynamical RAM per process >      69.92 MB

     Estimated total dynamical RAM >     699.25 MB

     Check: negative core charge=   -0.000002

     Initial potential from superposition of free atoms

     starting charge      38.9952, renormalised to      40.0000

     negative rho (up, down):  7.212E-04 0.000E+00
     Starting wfcs are   32 randomized atomic wfcs

     total cpu time spent up to now is        1.3 secs

     Self-consistent Calculation

     iteration #  1     ecut=    80.00 Ry     beta= 0.70
     CG style diagonalization
     ethr =  1.00E-02,  avg # of iterations =  2.2

     negative rho (up, down):  1.338E-03 0.000E+00

     total cpu time spent up to now is        2.5 secs

     total energy              =    -291.29827736 Ry
     estimated scf accuracy    <       0.83097592 Ry

     iteration #  2     ecut=    80.00 Ry     beta= 0.70
     CG style diagonalization
     ethr =  2.08E-03,  avg # of iterations =  5.3

     negative rho (up, down):  5.177E-04 0.000E+00

     total cpu time spent up to now is        4.8 secs

     total energy              =    -290.53084231 Ry
     estimated scf accuracy    <       7.07017535 Ry

     iteration #  3     ecut=    80.00 Ry     beta= 0.70
     CG style diagonalization
     ethr =  2.08E-03,  avg # of iterations =  4.6

     negative rho (up, down):  6.217E-04 0.000E+00

     total cpu time spent up to now is        6.8 secs

     total energy              =    -291.73017431 Ry
     estimated scf accuracy    <       0.18440307 Ry

     iteration #  4     ecut=    80.00 Ry     beta= 0.70
     CG style diagonalization
     ethr =  4.61E-04,  avg # of iterations =  3.5

     negative rho (up, down):  6.927E-04 0.000E+00

     total cpu time spent up to now is        8.4 secs

     total energy              =    -291.74059709 Ry
     estimated scf accuracy    <       0.06039186 Ry

     iteration #  5     ecut=    80.00 Ry     beta= 0.70
     CG style diagonalization
     ethr =  1.51E-04,  avg # of iterations =  3.6

     negative rho (up, down):  7.195E-04 0.000E+00

     total cpu time spent up to now is       10.0 secs

     total energy              =    -291.75044187 Ry
     estimated scf accuracy    <       0.00161526 Ry

     iteration #  6     ecut=    80.00 Ry     beta= 0.70
     CG style diagonalization
     ethr =  4.04E-06,  avg # of iterations =  4.3

     negative rho (up, down):  7.382E-04 0.000E+00

     total cpu time spent up to now is       11.9 secs

     total energy              =    -291.75185788 Ry
     estimated scf accuracy    <       0.00032418 Ry

     iteration #  7     ecut=    80.00 Ry     beta= 0.70
     CG style diagonalization
     ethr =  8.10E-07,  avg # of iterations =  4.0

     negative rho (up, down):  7.310E-04 0.000E+00

     total cpu time spent up to now is       13.7 secs

     total energy              =    -291.75183032 Ry
     estimated scf accuracy    <       0.00055646 Ry

     iteration #  8     ecut=    80.00 Ry     beta= 0.70
     CG style diagonalization
     ethr =  8.10E-07,  avg # of iterations =  3.5

     negative rho (up, down):  7.289E-04 0.000E+00

     total cpu time spent up to now is       15.2 secs

     total energy              =    -291.75185473 Ry
     estimated scf accuracy    <       0.00007893 Ry

     iteration #  9     ecut=    80.00 Ry     beta= 0.70
     CG style diagonalization
     ethr =  1.97E-07,  avg # of iterations =  3.7

     negative rho (up, down):  7.278E-04 0.000E+00

     total cpu time spent up to now is       16.8 secs

     total energy              =    -291.75186879 Ry
     estimated scf accuracy    <       0.00000147 Ry

     iteration # 10     ecut=    80.00 Ry     beta= 0.70
     CG style diagonalization
     ethr =  3.67E-09,  avg # of iterations =  4.9

     negative rho (up, down):  7.281E-04 0.000E+00

     total cpu time spent up to now is       18.9 secs

     total energy              =    -291.75187222 Ry
     estimated scf accuracy    <       0.00000216 Ry

     iteration # 11     ecut=    80.00 Ry     beta= 0.70
     CG style diagonalization
     ethr =  3.67E-09,  avg # of iterations =  3.5

     negative rho (up, down):  7.283E-04 0.000E+00

     total cpu time spent up to now is       20.5 secs

     total energy              =    -291.75187237 Ry
     estimated scf accuracy    <       0.00000021 Ry

     iteration # 12     ecut=    80.00 Ry     beta= 0.70
     CG style diagonalization
     ethr =  5.32E-10,  avg # of iterations =  3.8

     negative rho (up, down):  7.283E-04 0.000E+00

     total cpu time spent up to now is       22.2 secs

     End of self-consistent calculation

          k = 0.0000 0.0000 0.0000 (  4801 PWs)   bands (ev):

   -47.1761 -30.1513 -23.7717 -23.7717 -23.7630 -11.3741 -11.3521 -11.3521
    -8.5679  -7.4908  -7.4410   5.5459   5.5505   5.5505   7.4450   7.4512
     7.4512   8.1756   8.1756   8.1911

          k = 0.0000 0.0000 0.1667 (  4817 PWs)   bands (ev):

   -47.1758 -30.1498 -23.7810 -23.7709 -23.7709 -11.4356 -11.3494 -11.3494
    -8.4107  -7.4809  -7.3641   5.2484   5.5659   5.5659   7.1062   7.1062
     7.2283   7.3857   8.0351   8.0351

          k = 0.0000 0.0000 0.3333 (  4837 PWs)   bands (ev):

   -47.1752 -30.1469 -23.8168 -23.7692 -23.7692 -11.5501 -11.3438 -11.3438
    -8.0947  -7.4608  -7.2010   4.5995   5.6466   5.6466   6.2928   6.4670
     6.4670   6.8483   7.9129   7.9129

          k = 0.0000 0.0000-0.5000 (  4828 PWs)   bands (ev):

   -47.1749 -30.1454 -23.8345 -23.7683 -23.7683 -11.6039 -11.3411 -11.3411
    -7.9373  -7.4507  -7.1113   4.2362   5.7857   5.7857   5.9008   6.0920
     6.0920   6.6782   7.8718   7.8718

          k = 0.0000 0.1667 0.1667 (  4811 PWs)   bands (ev):

   -47.1755 -30.1483 -23.7891 -23.7803 -23.7700 -11.4391 -11.3925 -11.3465
    -8.2662  -7.4313  -7.3318   5.0711   5.4188   5.5780   6.4002   6.8684
     7.2684   7.3778   7.7059   7.8127

          k = 0.0000 0.1667 0.3333 (  4814 PWs)   bands (ev):

   -47.1749 -30.1453 -23.8163 -23.7876 -23.7683 -11.5302 -11.3860 -11.3407
    -7.9928  -7.4043  -7.1684   4.5533   5.1696   5.6471   5.6490   6.3594
     6.6107   7.3219   7.5937   7.6089

          k = 0.0000 0.1667-0.5000 (  4834 PWs)   bands (ev):

   -47.1746 -30.1438 -23.8341 -23.7868 -23.7675 -11.5770 -11.3794 -11.3377
    -7.8656  -7.3882  -7.0704   4.2327   4.9122   5.5039   5.7800   6.0188
     6.3904   7.3153   7.5078   7.5322

          k = 0.0000 0.3333 0.3333 (  4817 PWs)   bands (ev):

   -47.1743 -30.1421 -23.8241 -23.8152 -23.7667 -11.5002 -11.4581 -11.3344
    -7.8505  -7.2238  -7.0899   4.2457   4.7157   4.7836   5.6786   6.0854
     6.6681   6.8393   7.1985   8.1880

          k = 0.0000 0.3333-0.5000 (  4792 PWs)   bands (ev):

   -47.1740 -30.1405 -23.8332 -23.8235 -23.7659 -11.5232 -11.4540 -11.3311
    -7.8143  -7.1509  -6.9878   4.0835   4.2022   4.6995   5.7616   5.8780
     6.6082   6.8018   7.0587   8.3278

          k = 0.0000-0.5000-0.5000 (  4812 PWs)   bands (ev):

   -47.1737 -30.1388 -23.8417 -23.8327 -23.7651 -11.4939 -11.4927 -11.3278
    -7.8179  -6.9891  -6.9476   3.7853   4.0566   4.3689   5.7476   5.8102
     6.6869   6.7154   6.8781   8.5830

          k = 0.1667 0.1667 0.1667 (  4836 PWs)   bands (ev):

   -47.1752 -30.1468 -23.7885 -23.7882 -23.7796 -11.4407 -11.3868 -11.3839
    -8.1281  -7.3653  -7.3265   4.9089   5.4040   5.4082   6.3007   6.3053
     6.7710   7.6106   7.6505   7.7277

          k = 0.1667 0.1667 0.3333 (  4808 PWs)   bands (ev):

   -47.1746 -30.1437 -23.8156 -23.7868 -23.7867 -11.5127 -11.3868 -11.3722
    -7.8715  -7.3625  -7.1532   4.5075   5.0817   5.3238   5.5297   5.7885
     6.5956   7.4073   7.5468   7.7389

          k = 0.1667 0.1667-0.5000 (  4832 PWs)   bands (ev):

   -47.1743 -30.1422 -23.8335 -23.7862 -23.7858 -11.5536 -11.3805 -11.3663
    -7.7540  -7.3612  -7.0453   4.2316   4.8034   5.2166   5.3116   5.6801
     6.6544   7.2604   7.5195   7.6604

          k = 0.1667 0.3333 0.3333 (  4816 PWs)   bands (ev):

   -47.1740 -30.1405 -23.8232 -23.8143 -23.7851 -11.4863 -11.4468 -11.3664
    -7.6924  -7.2134  -7.1046   4.2691   4.7469   4.7880   5.1956   5.4431
     6.1411   7.4449   7.5160   8.2064

          k = 0.1667 0.3333-0.5000 (  4796 PWs)   bands (ev):

   -47.1737 -30.1389 -23.8323 -23.8226 -23.7842 -11.5068 -11.4436 -11.3610
    -7.6483  -7.1685  -6.9942   4.1777   4.2055   4.6939   5.1405   5.2936
     6.1381   7.4385   7.4620   8.3440

          k = 0.1667-0.5000-0.5000 (  4768 PWs)   bands (ev):

   -47.1734 -30.1373 -23.8407 -23.8316 -23.7834 -11.4807 -11.4799 -11.3556
    -7.6448  -7.0094  -6.9689   3.9099   4.0643   4.3734   5.1230   5.1639
     6.0902   7.4246   7.4772   8.6002

          k = 0.3333 0.3333 0.3333 (  4821 PWs)   bands (ev):

   -47.1734 -30.1374 -23.8217 -23.8215 -23.8125 -11.4625 -11.4270 -11.4224
    -7.3943  -7.1571  -7.1291   4.2377   4.6821   4.6896   4.8454   4.9023
     4.9277   7.9846   8.0336   8.3148

          k = 0.3333 0.3333-0.5000 (  4794 PWs)   bands (ev):

   -47.1731 -30.1358 -23.8304 -23.8209 -23.8205 -11.4739 -11.4265 -11.4161
    -7.3256  -7.1721  -7.0061   4.1833   4.3106   4.5273   4.5737   4.8410
     4.9201   8.0511   8.2123   8.4396

          k = 0.3333-0.5000-0.5000 (  4804 PWs)   bands (ev):

   -47.1728 -30.1343 -23.8387 -23.8295 -23.8197 -11.4540 -11.4537 -11.4106
    -7.2735  -7.0507  -7.0120   4.0494   4.1672   4.3822   4.4999   4.5286
     4.8249   8.2670   8.3263   8.6354

          k =-0.5000-0.5000-0.5000 (  4776 PWs)   bands (ev):

   -47.1725 -30.1328 -23.8377 -23.8377 -23.8285 -11.4406 -11.4406 -11.4376
    -7.0717  -7.0717  -7.0349   3.9323   4.2768   4.3007   4.3007   4.3704
     4.3915   8.5965   8.6519   8.6519

          k = 0.1667 0.0000 0.0000 (  4817 PWs)   bands (ev):

   -47.1758 -30.1498 -23.7898 -23.7709 -23.7622 -11.4207 -11.3658 -11.3495
    -8.4068  -7.4530  -7.3942   5.2420   5.5647   5.5664   7.0872   7.0972
     7.2459   7.3807   8.0561   8.0636

          k = 0.3333 0.0000 0.0000 (  4837 PWs)   bands (ev):

   -47.1752 -30.1468 -23.8258 -23.7691 -23.7605 -11.5406 -11.3574 -11.3441
    -8.0805  -7.4323  -7.2394   4.5740   5.6516   5.6572   6.2915   6.4327
     6.4492   6.9020   7.9489   7.9502

          k =-0.5000 0.0000 0.0000 (  4828 PWs)   bands (ev):

   -47.1749 -30.1453 -23.8436 -23.7683 -23.7597 -11.5969 -11.3529 -11.3414
    -7.9161  -7.4243  -7.1536   4.2034   5.8231   5.8497   5.8990   6.0236
     6.0244   6.7464   7.9108   7.9116

          k = 0.1667-0.1667 0.0000 (  4811 PWs)   bands (ev):

   -47.1755 -30.1483 -23.7893 -23.7888 -23.7614 -11.4300 -11.3897 -11.3599
    -8.2618  -7.3993  -7.3667   5.0577   5.4193   5.5794   6.3918   6.8762
     7.3031   7.4025   7.6547   7.8339

          k = 0.3333-0.1667 0.0000 (  4814 PWs)   bands (ev):

   -47.1749 -30.1452 -23.8253 -23.7876 -23.7597 -11.5214 -11.3885 -11.3510
    -7.9758  -7.3795  -7.2059   4.5246   5.1418   5.6268   5.7018   6.3605
     6.6475   7.3662   7.5592   7.6320

          k = 0.0000 0.3333 0.1667 (  4814 PWs)   bands (ev):

   -47.1749 -30.1452 -23.8252 -23.7789 -23.7683 -11.5223 -11.3965 -11.3409
    -7.9840  -7.3779  -7.2010   4.5310   5.1570   5.6514   5.6908   6.3348
     6.5894   7.3553   7.6171   7.6275

          k =-0.5000-0.1667 0.0000 (  4834 PWs)   bands (ev):

   -47.1746 -30.1437 -23.8432 -23.7869 -23.7589 -11.5705 -11.3821 -11.3464
    -7.8400  -7.3686  -7.1102   4.1971   4.8821   5.5206   5.8425   5.9818
     6.4313   7.3645   7.4622   7.5708

          k = 0.0000-0.5000 0.1667 (  4834 PWs)   bands (ev):

   -47.1746 -30.1437 -23.8431 -23.7781 -23.7675 -11.5711 -11.3888 -11.3380
    -7.8530  -7.3555  -7.1120   4.1986   4.9050   5.5570   5.8221   5.9519
     6.3698   7.3539   7.5303   7.5614

          k = 0.3333-0.3333 0.0000 (  4817 PWs)   bands (ev):

   -47.1743 -30.1419 -23.8245 -23.8240 -23.7581 -11.4938 -11.4594 -11.3431
    -7.8242  -7.2223  -7.1131   4.2250   4.6984   4.7633   5.7067   6.1029
     6.7108   6.8730   7.2286   8.1140

          k =-0.5000-0.3333 0.0000 (  4792 PWs)   bands (ev):

   -47.1740 -30.1403 -23.8423 -23.8237 -23.7573 -11.5181 -11.4559 -11.3389
    -7.7815  -7.1407  -7.0247   4.0699   4.1598   4.6996   5.8181   5.8644
     6.6322   6.8535   7.0967   8.2553

          k = 0.0000-0.5000 0.3333 (  4792 PWs)   bands (ev):

   -47.1740 -30.1405 -23.8421 -23.8146 -23.7659 -11.5196 -11.4586 -11.3312
    -7.8124  -7.1097  -7.0298   4.0827   4.1683   4.7369   5.8140   5.8161
     6.5842   6.8353   7.0691   8.3338

          k =-0.5000 0.5000 0.0000 (  4812 PWs)   bands (ev):

   -47.1737 -30.1386 -23.8419 -23.8419 -23.7565 -11.4919 -11.4919 -11.3351
    -7.7831  -6.9825  -6.9825   3.7771   4.0264   4.3529   5.8010   5.8010
     6.7330   6.7330   6.9163   8.5048

          k = 0.3333-0.1667 0.1667 (  4808 PWs)   bands (ev):

   -47.1746 -30.1436 -23.8246 -23.7868 -23.7780 -11.5052 -11.3966 -11.3725
    -7.8599  -7.3372  -7.1873   4.4824   5.0664   5.3145   5.5470   5.8157
     6.6219   7.3779   7.5958   7.7307

          k =-0.5000-0.1667 0.1667 (  4832 PWs)   bands (ev):

   -47.1743 -30.1421 -23.8425 -23.7860 -23.7773 -11.5480 -11.3902 -11.3657
    -7.7359  -7.3361  -7.0845   4.1952   4.7800   5.2065   5.3516   5.7112
     6.6869   7.2272   7.5743   7.6516

          k = 0.3333-0.3333 0.1667 (  4816 PWs)   bands (ev):

   -47.1740 -30.1404 -23.8235 -23.8232 -23.7763 -11.4807 -11.4487 -11.3724
    -7.6689  -7.2108  -7.1276   4.2493   4.7379   4.7626   5.2156   5.4563
     6.1802   7.4952   7.5255   8.1429

          k =-0.5000-0.3333 0.1667 (  4796 PWs)   bands (ev):

   -47.1737 -30.1388 -23.8414 -23.8227 -23.7755 -11.5022 -11.4464 -11.3662
    -7.6159  -7.1598  -7.0308   4.1605   4.1651   4.6970   5.1393   5.3335
     6.1789   7.4477   7.5170   8.2776

          k =-0.1667-0.5000 0.3333 (  4796 PWs)   bands (ev):

   -47.1737 -30.1389 -23.8413 -23.8136 -23.7842 -11.5031 -11.4488 -11.3606
    -7.6457  -7.1299  -7.0341   4.1715   4.1756   4.7308   5.1047   5.3316
     6.1445   7.3905   7.5130   8.3482

          k =-0.5000 0.5000 0.1667 (  4768 PWs)   bands (ev):

   -47.1734 -30.1371 -23.8409 -23.8409 -23.7746 -11.4793 -11.4793 -11.3610
    -7.6092  -7.0046  -7.0046   3.8984   4.0370   4.3573   5.1622   5.1622
     6.1292   7.4819   7.4819   8.5273

          k =-0.5000-0.3333 0.3333 (  4794 PWs)   bands (ev):

   -47.1731 -30.1358 -23.8396 -23.8207 -23.8116 -11.4701 -11.4356 -11.4118
    -7.3100  -7.1486  -7.0438   4.1533   4.2935   4.5181   4.5942   4.8551
     4.9493   8.1139   8.1739   8.4166

          k =-0.5000 0.5000 0.3333 (  4804 PWs)   bands (ev):

   -47.1728 -30.1342 -23.8388 -23.8388 -23.8106 -11.4536 -11.4536 -11.4123
    -7.2364  -7.0492  -7.0492   4.0303   4.1481   4.3660   4.5277   4.5277
     4.8591   8.3264   8.3264   8.5731

     highest occupied level (ev):     8.6519

!    total energy              =    -291.75187243 Ry
     estimated scf accuracy    <          1.9E-09 Ry

     The total energy is the sum of the following terms:
     one-electron contribution =     -94.04492875 Ry
     hartree contribution      =      66.23643342 Ry
     xc contribution           =     -51.22346074 Ry
     ewald contribution        =    -212.71991636 Ry

     convergence has been achieved in  12 iterations

     negative rho (up, down):  7.283E-04 0.000E+00

     Forces acting on atoms (cartesian axes, Ry/au):

     atom    1 type  1   force =     0.00000000    0.00000000   -0.00151407
     atom    2 type  2   force =     0.00000000    0.00000000    0.01672129
     atom    3 type  3   force =     0.00000000    0.00000000    0.00789046
     atom    4 type  3   force =     0.00000000    0.00000000   -0.01154884
     atom    5 type  3   force =     0.00000000    0.00000000   -0.01154884

     Total force =     0.024716     Total SCF correction =     0.000035


     Computing stress (Cartesian axis) and pressure


     negative rho (up, down):  7.283E-04 0.000E+00
          total   stress  (Ry/bohr**3)                   (kbar)     P=     -114.47
  -0.00077923   0.00000000   0.00000000         -114.63        0.00        0.00
   0.00000000  -0.00077923   0.00000000            0.00     -114.63        0.00
   0.00000000   0.00000000  -0.00077595            0.00        0.00     -114.15


     Writing all to output data dir ./CTO.save/ :
     XML data file, charge density, pseudopotentials, collected wavefunctions
 
     init_run     :      0.89s CPU      1.00s WALL (       1 calls)
     electrons    :     20.15s CPU     20.94s WALL (       1 calls)
     forces       :      0.21s CPU      0.22s WALL (       1 calls)
     stress       :      2.12s CPU      2.15s WALL (       1 calls)

     Called by init_run:
     wfcinit      :      0.43s CPU      0.46s WALL (       1 calls)
     potinit      :      0.01s CPU      0.02s WALL (       1 calls)
     hinit0       :      0.13s CPU      0.16s WALL (       1 calls)

     Called by electrons:
     c_bands      :     16.55s CPU     17.13s WALL (      12 calls)
     sum_band     :      2.62s CPU      2.70s WALL (      12 calls)
     v_of_rho     :      0.04s CPU      0.04s WALL (      13 calls)
     newd         :      0.97s CPU      1.10s WALL (      13 calls)
     mix_rho      :      0.03s CPU      0.03s WALL (      12 calls)

     Called by c_bands:
     init_us_2    :      0.21s CPU      0.21s WALL (    1080 calls)
     init_us_2:cp :      0.20s CPU      0.21s WALL (    1080 calls)
     ccgdiagg     :     13.94s CPU     14.45s WALL (     480 calls)
     wfcrot       :      2.86s CPU      2.94s WALL (     480 calls)

     Called by *cgdiagg:
     h_psi        :     11.81s CPU     12.21s WALL (   29090 calls)
     s_psi        :      1.42s CPU      1.47s WALL (   57700 calls)

     Called by h_psi:
     h_psi:calbec :      1.43s CPU      1.48s WALL (   29090 calls)
     vloc_psi     :      9.33s CPU      9.64s WALL (   29090 calls)
     add_vuspsi   :      0.80s CPU      0.83s WALL (   29090 calls)
     hs_1psi      :     10.13s CPU     10.50s WALL (   28610 calls)
     s_1psi       :      1.71s CPU      1.77s WALL (   28610 calls)

     General routines
     calbec       :      2.37s CPU      2.46s WALL (   58380 calls)
     fft          :      0.04s CPU      0.06s WALL (      84 calls)
     ffts         :      0.00s CPU      0.01s WALL (      25 calls)
     fftw         :      8.36s CPU      8.62s WALL (   86980 calls)
     interpolate  :      0.01s CPU      0.02s WALL (      13 calls)
 
     Parallel routines
 
     PWSCF        :     23.64s CPU     25.07s WALL

 
   This run was terminated on:  17:28:19  19Sep2025            

=------------------------------------------------------------------------------=
   JOB DONE.
=------------------------------------------------------------------------------=
TACC:  Shutdown complete. Exiting. 
