TACC:  Starting up job 2387925 
TACC:  Starting parallel tasks... 

     Program PWSCF v.7.3 starts on 19Sep2025 at 16:50:14 

     This program is part of the open-source Quantum ESPRESSO suite
     for quantum simulation of materials; please cite
         "P. Giannozzi et al., J. Phys.:Condens. Matter 21 395502 (2009);
         "P. Giannozzi et al., J. Phys.:Condens. Matter 29 465901 (2017);
         "P. Giannozzi et al., J. Chem. Phys. 152 154105 (2020);
          URL http://www.quantum-espresso.org", 
     in publications or presentations arising from this work. More details at
     http://www.quantum-espresso.org/quote

     Parallel version (MPI & OpenMP), running on      10 processor cores
     Number of MPI processes:                10
     Threads/MPI process:                     1

     MPI processes distributed on     1 nodes
     187590 MiB available memory on the printing compute node when the environment starts
 
     Waiting for input...
     Reading input from standard input
Warning: card &CELL ignored
Warning: card  CELL_DYNAMICS = 'BFGS', ignored
Warning: card  PRESS=0.D0, ignored
Warning: card / ignored
     Message from routine read_cards :
     DEPRECATED: no units specified in ATOMIC_POSITIONS card
     Message from routine read_cards :
     ATOMIC_POSITIONS: units set to alat
Warning: card   2 2 2 0 0 0 ignored

     Current dimensions of program PWSCF are:
     Max number of different atomic species (ntypx) = 10
     Max number of k-points (npk) =  40000
     Max angular momentum in pseudopotentials (lmaxx) =  4
 
     R & G space division:  proc/nbgrp/npool/nimage =      10
     Subspace diagonalization in iterative solution of the eigenvalue problem:
     a serial algorithm will be used

 
     Parallelization info
     --------------------
     sticks:   dense  smooth     PW     G-vecs:    dense   smooth      PW
     Min         215      86     26                 7503     1909     311
     Max         217      87     27                 7505     1911     312
     Sum        2161     869    261                75037    19093    3119
 
     Using Slab Decomposition
 


     bravais-lattice index     =            1
     lattice parameter (alat)  =       7.3573  a.u.
     unit-cell volume          =     398.2496 (a.u.)^3
     number of atoms/cell      =            5
     number of atomic types    =            3
     number of electrons       =        40.00
     number of Kohn-Sham states=           20
     kinetic-energy cutoff     =      50.0000  Ry
     charge density cutoff     =     500.0000  Ry
     scf convergence threshold =      1.0E-08
     mixing beta               =       0.7000
     number of iterations used =            8  plain     mixing
     Exchange-correlation= SLA  PZ   NOGX NOGC
                           (   1   1   0   0   0   0   0)

     celldm(1)=   7.357300  celldm(2)=   0.000000  celldm(3)=   0.000000
     celldm(4)=   0.000000  celldm(5)=   0.000000  celldm(6)=   0.000000

     crystal axes: (cart. coord. in units of alat)
               a(1) = (   1.000000   0.000000   0.000000 )  
               a(2) = (   0.000000   1.000000   0.000000 )  
               a(3) = (   0.000000   0.000000   1.000000 )  

     reciprocal axes: (cart. coord. in units 2 pi/alat)
               b(1) = (  1.000000  0.000000  0.000000 )  
               b(2) = (  0.000000  1.000000  0.000000 )  
               b(3) = (  0.000000  0.000000  1.000000 )  


     PseudoPot. # 1 for Ca read from file:
     /scratch/11018/zhc/assisgnment1/CaTiO3/Ca_LDA.UPF
     MD5 check sum: d2d4e7693e10d071152e9eeb7dd009f3
     Pseudo is Ultrasoft + core correction, Zval = 10.0
     Generated by new atomic code, or converted to UPF format
     Using radial grid of  845 points,  6 beta functions with: 
                l(1) =   0
                l(2) =   0
                l(3) =   1
                l(4) =   1
                l(5) =   2
                l(6) =   2
     Q(r) pseudized with  8 coefficients,  rinner =    1.500   1.500   1.500
                                                       1.500   1.500

     PseudoPot. # 2 for Ti read from file:
     /scratch/11018/zhc/assisgnment1/CaTiO3/Ti_LDA.UPF
     MD5 check sum: 0d9f225c038fe889ca2a701dcc8d72cb
     Pseudo is Ultrasoft + core correction, Zval = 12.0
     Generated by new atomic code, or converted to UPF format
     Using radial grid of  851 points,  6 beta functions with: 
                l(1) =   0
                l(2) =   0
                l(3) =   1
                l(4) =   1
                l(5) =   2
                l(6) =   2
     Q(r) pseudized with  6 coefficients,  rinner =    1.000   1.000   1.000
                                                       1.000   1.000

     PseudoPot. # 3 for O  read from file:
     /scratch/11018/zhc/assisgnment1/CaTiO3/O_LDA.UPF
     MD5 check sum: 194b818514d2a7dbb603bb78519a4f40
     Pseudo is Ultrasoft + core correction, Zval =  6.0
     Generated by new atomic code, or converted to UPF format
     Using radial grid of  737 points,  5 beta functions with: 
                l(1) =   0
                l(2) =   0
                l(3) =   1
                l(4) =   1
                l(5) =   2
     Q(r) pseudized with  8 coefficients,  rinner =    0.900   0.900   0.900
                                                       0.900   0.900

     atomic species   valence    mass     pseudopotential
     Ca               10.00    40.07800     Ca( 1.00)
     Ti               12.00    47.88000     Ti( 1.00)
     O                 6.00    16.00000     O ( 1.00)

     48 Sym. Ops., with inversion, found



   Cartesian axes

     site n.     atom                  positions (alat units)
         1        Ca     tau(   1) = (   0.0000000   0.0000000   0.0000000  )
         2        Ti     tau(   2) = (   0.5000000   0.5000000   0.5000000  )
         3        O      tau(   3) = (   0.5000000   0.5000000   0.0000000  )
         4        O      tau(   4) = (   0.5000000   0.0000000   0.5000000  )
         5        O      tau(   5) = (   0.0000000   0.5000000   0.5000000  )

     number of k points=    56
                       cart. coord. in units 2pi/alat
        k(    1) = (   0.0000000   0.0000000   0.0000000), wk =   0.0015026
        k(    2) = (   0.0000000   0.0000000   0.0909091), wk =   0.0090158
        k(    3) = (   0.0000000   0.0000000   0.1818182), wk =   0.0090158
        k(    4) = (   0.0000000   0.0000000   0.2727273), wk =   0.0090158
        k(    5) = (   0.0000000   0.0000000   0.3636364), wk =   0.0090158
        k(    6) = (   0.0000000   0.0000000   0.4545455), wk =   0.0090158
        k(    7) = (   0.0000000   0.0909091   0.0909091), wk =   0.0180316
        k(    8) = (   0.0000000   0.0909091   0.1818182), wk =   0.0360631
        k(    9) = (   0.0000000   0.0909091   0.2727273), wk =   0.0360631
        k(   10) = (   0.0000000   0.0909091   0.3636364), wk =   0.0360631
        k(   11) = (   0.0000000   0.0909091   0.4545455), wk =   0.0360631
        k(   12) = (   0.0000000   0.1818182   0.1818182), wk =   0.0180316
        k(   13) = (   0.0000000   0.1818182   0.2727273), wk =   0.0360631
        k(   14) = (   0.0000000   0.1818182   0.3636364), wk =   0.0360631
        k(   15) = (   0.0000000   0.1818182   0.4545455), wk =   0.0360631
        k(   16) = (   0.0000000   0.2727273   0.2727273), wk =   0.0180316
        k(   17) = (   0.0000000   0.2727273   0.3636364), wk =   0.0360631
        k(   18) = (   0.0000000   0.2727273   0.4545455), wk =   0.0360631
        k(   19) = (   0.0000000   0.3636364   0.3636364), wk =   0.0180316
        k(   20) = (   0.0000000   0.3636364   0.4545455), wk =   0.0360631
        k(   21) = (   0.0000000   0.4545455   0.4545455), wk =   0.0180316
        k(   22) = (   0.0909091   0.0909091   0.0909091), wk =   0.0120210
        k(   23) = (   0.0909091   0.0909091   0.1818182), wk =   0.0360631
        k(   24) = (   0.0909091   0.0909091   0.2727273), wk =   0.0360631
        k(   25) = (   0.0909091   0.0909091   0.3636364), wk =   0.0360631
        k(   26) = (   0.0909091   0.0909091   0.4545455), wk =   0.0360631
        k(   27) = (   0.0909091   0.1818182   0.1818182), wk =   0.0360631
        k(   28) = (   0.0909091   0.1818182   0.2727273), wk =   0.0721262
        k(   29) = (   0.0909091   0.1818182   0.3636364), wk =   0.0721262
        k(   30) = (   0.0909091   0.1818182   0.4545455), wk =   0.0721262
        k(   31) = (   0.0909091   0.2727273   0.2727273), wk =   0.0360631
        k(   32) = (   0.0909091   0.2727273   0.3636364), wk =   0.0721262
        k(   33) = (   0.0909091   0.2727273   0.4545455), wk =   0.0721262
        k(   34) = (   0.0909091   0.3636364   0.3636364), wk =   0.0360631
        k(   35) = (   0.0909091   0.3636364   0.4545455), wk =   0.0721262
        k(   36) = (   0.0909091   0.4545455   0.4545455), wk =   0.0360631
        k(   37) = (   0.1818182   0.1818182   0.1818182), wk =   0.0120210
        k(   38) = (   0.1818182   0.1818182   0.2727273), wk =   0.0360631
        k(   39) = (   0.1818182   0.1818182   0.3636364), wk =   0.0360631
        k(   40) = (   0.1818182   0.1818182   0.4545455), wk =   0.0360631
        k(   41) = (   0.1818182   0.2727273   0.2727273), wk =   0.0360631
        k(   42) = (   0.1818182   0.2727273   0.3636364), wk =   0.0721262
        k(   43) = (   0.1818182   0.2727273   0.4545455), wk =   0.0721262
        k(   44) = (   0.1818182   0.3636364   0.3636364), wk =   0.0360631
        k(   45) = (   0.1818182   0.3636364   0.4545455), wk =   0.0721262
        k(   46) = (   0.1818182   0.4545455   0.4545455), wk =   0.0360631
        k(   47) = (   0.2727273   0.2727273   0.2727273), wk =   0.0120210
        k(   48) = (   0.2727273   0.2727273   0.3636364), wk =   0.0360631
        k(   49) = (   0.2727273   0.2727273   0.4545455), wk =   0.0360631
        k(   50) = (   0.2727273   0.3636364   0.3636364), wk =   0.0360631
        k(   51) = (   0.2727273   0.3636364   0.4545455), wk =   0.0721262
        k(   52) = (   0.2727273   0.4545455   0.4545455), wk =   0.0360631
        k(   53) = (   0.3636364   0.3636364   0.3636364), wk =   0.0120210
        k(   54) = (   0.3636364   0.3636364   0.4545455), wk =   0.0360631
        k(   55) = (   0.3636364   0.4545455   0.4545455), wk =   0.0360631
        k(   56) = (   0.4545455   0.4545455   0.4545455), wk =   0.0120210

     Dense  grid:    75037 G-vectors     FFT dimensions: (  54,  54,  54)

     Smooth grid:    19093 G-vectors     FFT dimensions: (  36,  36,  36)

     Estimated max dynamical RAM per process >      37.53 MB

     Estimated total dynamical RAM >     375.32 MB

     Check: negative core charge=   -0.000005

     Initial potential from superposition of free atoms

     starting charge      38.9952, renormalised to      40.0000

     negative rho (up, down):  5.762E-04 0.000E+00
     Starting wfcs are   32 randomized atomic wfcs

     total cpu time spent up to now is        0.8 secs

     Self-consistent Calculation

     iteration #  1     ecut=    50.00 Ry     beta= 0.70
     CG style diagonalization
     ethr =  1.00E-02,  avg # of iterations =  2.2

     negative rho (up, down):  1.235E-03 0.000E+00

     total cpu time spent up to now is        1.7 secs

     total energy              =    -291.30205515 Ry
     estimated scf accuracy    <       0.82538464 Ry

     iteration #  2     ecut=    50.00 Ry     beta= 0.70
     CG style diagonalization
     ethr =  2.06E-03,  avg # of iterations =  5.4

     negative rho (up, down):  3.878E-04 0.000E+00

     total cpu time spent up to now is        3.4 secs

     total energy              =    -290.54304847 Ry
     estimated scf accuracy    <       7.05747950 Ry

     iteration #  3     ecut=    50.00 Ry     beta= 0.70
     CG style diagonalization
     ethr =  2.06E-03,  avg # of iterations =  4.7

     negative rho (up, down):  4.216E-04 0.000E+00

     total cpu time spent up to now is        4.9 secs

     total energy              =    -291.73041267 Ry
     estimated scf accuracy    <       0.20140870 Ry

     iteration #  4     ecut=    50.00 Ry     beta= 0.70
     CG style diagonalization
     ethr =  5.04E-04,  avg # of iterations =  3.4

     negative rho (up, down):  5.207E-04 0.000E+00

     total cpu time spent up to now is        6.0 secs

     total energy              =    -291.73838530 Ry
     estimated scf accuracy    <       0.05982718 Ry

     iteration #  5     ecut=    50.00 Ry     beta= 0.70
     CG style diagonalization
     ethr =  1.50E-04,  avg # of iterations =  3.6

     negative rho (up, down):  6.201E-04 0.000E+00

     total cpu time spent up to now is        7.1 secs

     total energy              =    -291.74856420 Ry
     estimated scf accuracy    <       0.00081077 Ry

     iteration #  6     ecut=    50.00 Ry     beta= 0.70
     CG style diagonalization
     ethr =  2.03E-06,  avg # of iterations =  4.9

     negative rho (up, down):  6.115E-04 0.000E+00

     total cpu time spent up to now is        8.7 secs

     total energy              =    -291.74993168 Ry
     estimated scf accuracy    <       0.00105371 Ry

     iteration #  7     ecut=    50.00 Ry     beta= 0.70
     CG style diagonalization
     ethr =  2.03E-06,  avg # of iterations =  3.5

     negative rho (up, down):  6.016E-04 0.000E+00

     total cpu time spent up to now is        9.8 secs

     total energy              =    -291.74998228 Ry
     estimated scf accuracy    <       0.00015332 Ry

     iteration #  8     ecut=    50.00 Ry     beta= 0.70
     CG style diagonalization
     ethr =  3.83E-07,  avg # of iterations =  3.7

     negative rho (up, down):  5.991E-04 0.000E+00

     total cpu time spent up to now is       10.9 secs

     total energy              =    -291.75001453 Ry
     estimated scf accuracy    <       0.00000319 Ry

     iteration #  9     ecut=    50.00 Ry     beta= 0.70
     CG style diagonalization
     ethr =  7.97E-09,  avg # of iterations =  4.7

     negative rho (up, down):  6.000E-04 0.000E+00

     total cpu time spent up to now is       12.4 secs

     total energy              =    -291.75001999 Ry
     estimated scf accuracy    <       0.00000141 Ry

     iteration # 10     ecut=    50.00 Ry     beta= 0.70
     CG style diagonalization
     ethr =  3.53E-09,  avg # of iterations =  3.4

     negative rho (up, down):  6.005E-04 0.000E+00

     total cpu time spent up to now is       13.5 secs

     total energy              =    -291.75002014 Ry
     estimated scf accuracy    <       0.00000012 Ry

     iteration # 11     ecut=    50.00 Ry     beta= 0.70
     CG style diagonalization
     ethr =  2.99E-10,  avg # of iterations =  4.1

     negative rho (up, down):  6.003E-04 0.000E+00

     total cpu time spent up to now is       14.8 secs

     End of self-consistent calculation

          k = 0.0000 0.0000 0.0000 (  2373 PWs)   bands (ev):

   -47.1533 -30.2097 -23.7450 -23.7450 -23.7450 -11.4049 -11.4049 -11.4049
    -8.5599  -7.4461  -7.4461   5.5757   5.5757   5.5757   7.5037   7.5037
     7.5037   8.2050   8.2050   8.2050

          k = 0.0000 0.0000 0.0909 (  2381 PWs)   bands (ev):

   -47.1533 -30.2093 -23.7508 -23.7448 -23.7448 -11.4249 -11.4040 -11.4040
    -8.5094  -7.4429  -7.4221   5.4793   5.5796   5.5796   7.3858   7.3858
     7.4292   7.9197   8.1505   8.1505

          k = 0.0000 0.0000 0.1818 (  2393 PWs)   bands (ev):

   -47.1530 -30.2080 -23.7662 -23.7440 -23.7440 -11.4768 -11.4017 -11.4017
    -8.3736  -7.4343  -7.3569   5.2167   5.5952   5.5952   7.0815   7.0815
     7.2417   7.2871   8.0628   8.0628

          k = 0.0000 0.0000 0.2727 (  2389 PWs)   bands (ev):

   -47.1527 -30.2064 -23.7862 -23.7431 -23.7431 -11.5416 -11.3986 -11.3986
    -8.1946  -7.4229  -7.2689   4.8553   5.6325   5.6325   6.6439   6.7142
     6.7142   7.0178   7.9944   7.9944

          k = 0.0000 0.0000 0.3636 (  2376 PWs)   bands (ev):

   -47.1524 -30.2049 -23.8045 -23.7422 -23.7422 -11.5985 -11.3958 -11.3958
    -8.0291  -7.4124  -7.1839   4.4977   5.7039   5.7039   6.1774   6.3780
     6.3780   6.8291   7.9476   7.9476

          k = 0.0000 0.0000 0.4545 (  2384 PWs)   bands (ev):

   -47.1522 -30.2040 -23.8153 -23.7417 -23.7417 -11.6313 -11.3941 -11.3941
    -7.9308  -7.4062  -7.1305   4.2725   5.8055   5.8055   5.9432   6.1322
     6.1322   6.7233   7.9234   7.9234

          k = 0.0000 0.0909 0.0909 (  2403 PWs)   bands (ev):

   -47.1532 -30.2088 -23.7506 -23.7505 -23.7445 -11.4306 -11.4160 -11.4032
    -8.4606  -7.4298  -7.4085   5.4122   5.5514   5.5832   7.1302   7.2867
     7.5081   7.8256   7.9618   8.0809

          k = 0.0000 0.0909 0.1818 (  2387 PWs)   bands (ev):

   -47.1529 -30.2076 -23.7660 -23.7498 -23.7438 -11.4758 -11.4165 -11.4008
    -8.3290  -7.4182  -7.3474   5.1748   5.5310   5.5978   6.7307   7.0165
     7.2752   7.4914   7.8494   7.9669

          k = 0.0000 0.0909 0.2727 (  2377 PWs)   bands (ev):

   -47.1526 -30.2059 -23.7860 -23.7489 -23.7428 -11.5374 -11.4123 -11.3976
    -8.1561  -7.4073  -7.2593   4.8335   5.5150   5.6333   6.2740   6.6724
     6.7941   7.3241   7.7808   7.8828

          k = 0.0000 0.0909 0.3636 (  2378 PWs)   bands (ev):

   -47.1523 -30.2044 -23.8043 -23.7481 -23.7420 -11.5919 -11.4081 -11.3948
    -7.9974  -7.3974  -7.1726   4.4901   5.4806   5.7025   5.9131   6.3492
     6.4792   7.1572   7.7368   7.8295

          k = 0.0000 0.0909 0.4545 (  2369 PWs)   bands (ev):

   -47.1521 -30.2035 -23.8152 -23.7476 -23.7414 -11.6233 -11.4056 -11.3930
    -7.9039  -7.3913  -7.1173   4.2705   5.4224   5.7667   5.8034   6.1085
     6.3222   7.0558   7.7147   7.8030

          k = 0.0000 0.1818 0.1818 (  2378 PWs)   bands (ev):

   -47.1527 -30.2063 -23.7655 -23.7651 -23.7431 -11.4838 -11.4448 -11.3983
    -8.2099  -7.3875  -7.3067   5.0155   5.4070   5.6090   6.2582   6.8246
     7.2081   7.3604   7.7278   7.7898

          k = 0.0000 0.1818 0.2727 (  2371 PWs)   bands (ev):

   -47.1523 -30.2046 -23.7855 -23.7645 -23.7421 -11.5273 -11.4471 -11.3950
    -8.0567  -7.3645  -7.2280   4.7438   5.2672   5.6389   5.8013   6.5489
     6.8351   7.3114   7.6533   7.7312

          k = 0.0000 0.1818 0.3636 (  2380 PWs)   bands (ev):

   -47.1520 -30.2030 -23.8039 -23.7637 -23.7413 -11.5742 -11.4407 -11.3920
    -7.9219  -7.3460  -7.1407   4.4565   5.0324   5.5580   5.7005   6.2674
     6.5683   7.3020   7.5725   7.6732

          k = 0.0000 0.1818 0.4545 (  2374 PWs)   bands (ev):

   -47.1519 -30.2021 -23.8148 -23.7633 -23.7407 -11.6020 -11.4363 -11.3902
    -7.8464  -7.3335  -7.0820   4.2627   4.8493   5.4925   5.7970   6.0457
     6.4416   7.2964   7.5351   7.6231

          k = 0.0000 0.2727 0.2727 (  2364 PWs)   bands (ev):

   -47.1520 -30.2029 -23.7850 -23.7845 -23.7412 -11.5248 -11.4810 -11.3915
    -7.9390  -7.3055  -7.1711   4.5470   5.0684   5.2901   5.6585   6.3592
     6.8002   7.0151   7.4489   7.9641

          k = 0.0000 0.2727 0.3636 (  2370 PWs)   bands (ev):

   -47.1517 -30.2013 -23.8033 -23.7841 -23.7403 -11.5518 -11.4819 -11.3883
    -7.8486  -7.2494  -7.0951   4.3350   4.7030   5.0780   5.7052   6.1463
     6.6471   6.9718   7.3191   8.0683

          k = 0.0000 0.2727 0.4545 (  2368 PWs)   bands (ev):

   -47.1515 -30.2003 -23.8142 -23.7837 -23.7398 -11.5742 -11.4757 -11.3864
    -7.8046  -7.2166  -7.0358   4.2296   4.3858   5.0467   5.7877   5.9633
     6.5585   6.9724   7.2592   8.0987

          k = 0.0000 0.3636 0.3636 (  2384 PWs)   bands (ev):

   -47.1514 -30.1996 -23.8029 -23.8026 -23.7395 -11.5375 -11.5128 -11.3849
    -7.8072  -7.1361  -7.0435   4.1229   4.5115   4.6730   5.7284   6.0082
     6.6839   6.8192   7.1405   8.3048

          k = 0.0000 0.3636 0.4545 (  2384 PWs)   bands (ev):

   -47.1512 -30.1986 -23.8138 -23.8024 -23.7390 -11.5487 -11.5113 -11.3829
    -7.7921  -7.0743  -6.9934   4.0017   4.2291   4.6123   5.7814   5.8833
     6.6610   6.8030   7.0529   8.4056

          k = 0.0000 0.4545 0.4545 (  2392 PWs)   bands (ev):

   -47.1511 -30.1977 -23.8135 -23.8134 -23.7385 -11.5345 -11.5312 -11.3809
    -7.7925  -6.9793  -6.9662   3.8318   4.1181   4.4227   5.7894   5.8228
     6.7181   6.7379   6.9462   8.5466

          k = 0.0909 0.0909 0.0909 (  2394 PWs)   bands (ev):

   -47.1531 -30.2083 -23.7503 -23.7503 -23.7501 -11.4355 -11.4148 -11.4148
    -8.4130  -7.4062  -7.4062   5.3460   5.5531   5.5531   7.0517   7.0517
     7.5875   7.6678   7.9380   7.9380

          k = 0.0909 0.0909 0.1818 (  2386 PWs)   bands (ev):

   -47.1528 -30.2071 -23.7657 -23.7496 -23.7495 -11.4750 -11.4185 -11.4116
    -8.2849  -7.3999  -7.3413   5.1291   5.5086   5.5597   6.6765   6.7375
     7.3114   7.5695   7.7312   7.8741

          k = 0.0909 0.0909 0.2727 (  2382 PWs)   bands (ev):

   -47.1525 -30.2054 -23.7858 -23.7487 -23.7486 -11.5333 -11.4144 -11.4074
    -8.1169  -7.3917  -7.2519   4.8101   5.4604   5.5761   6.2279   6.3197
     7.0328   7.4366   7.5940   7.8103

          k = 0.0909 0.0909 0.3636 (  2375 PWs)   bands (ev):

   -47.1522 -30.2039 -23.8042 -23.7479 -23.7477 -11.5855 -11.4100 -11.4035
    -7.9634  -7.3841  -7.1630   4.4824   5.3867   5.6080   5.8398   6.0382
     6.8382   7.2796   7.5159   7.7666

          k = 0.0909 0.0909 0.4545 (  2373 PWs)   bands (ev):

   -47.1520 -30.2030 -23.8150 -23.7474 -23.7472 -11.6157 -11.4074 -11.4012
    -7.8734  -7.3796  -7.1058   4.2687   5.3036   5.6548   5.6861   5.8620
     6.7333   7.1805   7.4797   7.7439

          k = 0.0909 0.1818 0.1818 (  2380 PWs)   bands (ev):

   -47.1526 -30.2058 -23.7653 -23.7649 -23.7489 -11.4826 -11.4428 -11.4108
    -8.1670  -7.3665  -7.3067   4.9730   5.4029   5.5393   6.2550   6.5657
     7.0375   7.5358   7.7181   7.7358

          k = 0.0909 0.1818 0.2727 (  2371 PWs)   bands (ev):

   -47.1522 -30.2041 -23.7853 -23.7642 -23.7479 -11.5235 -11.4455 -11.4064
    -8.0152  -7.3493  -7.2264   4.7200   5.2578   5.5315   5.8084   6.2370
     6.8863   7.3614   7.6227   7.7496

          k = 0.0909 0.1818 0.3636 (  2381 PWs)   bands (ev):

   -47.1519 -30.2025 -23.8037 -23.7635 -23.7471 -11.5684 -11.4394 -11.4024
    -7.8815  -7.3376  -7.1359   4.4490   5.0262   5.4984   5.5786   5.9551
     6.8615   7.1874   7.5760   7.6939

          k = 0.0909 0.1818 0.4545 (  2387 PWs)   bands (ev):

   -47.1518 -30.2016 -23.8146 -23.7630 -23.7466 -11.5952 -11.4350 -11.4000
    -7.8064  -7.3301  -7.0749   4.2618   4.8451   5.4449   5.5604   5.8053
     6.8800   7.0673   7.5544   7.6440

          k = 0.0909 0.2727 0.2727 (  2378 PWs)   bands (ev):

   -47.1519 -30.2024 -23.7847 -23.7843 -23.7470 -11.5210 -11.4782 -11.4021
    -7.8942  -7.2939  -7.1739   4.5351   5.0657   5.2970   5.5267   6.0769
     6.6804   7.2753   7.4340   7.9753

          k = 0.0909 0.2727 0.3636 (  2371 PWs)   bands (ev):

   -47.1516 -30.2008 -23.8030 -23.7838 -23.7462 -11.5469 -11.4792 -11.3981
    -7.8009  -7.2466  -7.0965   4.3361   4.7141   5.0742   5.5193   5.8600
     6.6707   7.1284   7.3565   8.0769

          k = 0.0909 0.2727 0.4545 (  2377 PWs)   bands (ev):

   -47.1514 -30.1998 -23.8140 -23.7834 -23.7457 -11.5685 -11.4733 -11.3957
    -7.7555  -7.2205  -7.0344   4.2325   4.4037   5.0376   5.5383   5.7121
     6.7390   6.9783   7.3391   8.1063

          k = 0.0909 0.3636 0.3636 (  2379 PWs)   bands (ev):

   -47.1513 -30.1991 -23.8026 -23.8023 -23.7453 -11.5332 -11.5093 -11.3940
    -7.7554  -7.1372  -7.0489   4.1417   4.5215   4.6737   5.5068   5.7240
     6.6210   7.1210   7.1796   8.3113

          k = 0.0909 0.3636 0.4545 (  2383 PWs)   bands (ev):

   -47.1511 -30.1982 -23.8135 -23.8021 -23.7448 -11.5441 -11.5079 -11.3916
    -7.7391  -7.0804  -6.9973   4.0317   4.2336   4.6133   5.5237   5.6130
     6.6533   7.0207   7.1596   8.4121

          k = 0.0909 0.4545 0.4545 (  2377 PWs)   bands (ev):

   -47.1510 -30.1972 -23.8132 -23.8131 -23.7443 -11.5305 -11.5272 -11.3892
    -7.7383  -6.9857  -6.9731   3.8694   4.1221   4.4240   5.5202   5.5462
     6.6501   7.0494   7.0527   8.5538

          k = 0.1818 0.1818 0.1818 (  2367 PWs)   bands (ev):

   -47.1523 -30.2045 -23.7645 -23.7645 -23.7643 -11.4855 -11.4376 -11.4376
    -8.0527  -7.3066  -7.3066   4.8422   5.3850   5.3850   6.1771   6.1771
     6.6047   7.6277   7.6277   7.8194

          k = 0.1818 0.1818 0.2727 (  2376 PWs)   bands (ev):

   -47.1520 -30.2028 -23.7846 -23.7636 -23.7635 -11.5145 -11.4464 -11.4306
    -7.9068  -7.3066  -7.2180   4.6393   5.2063   5.3322   5.7450   5.8753
     6.4596   7.5367   7.6096   7.8649

          k = 0.1818 0.1818 0.3636 (  2376 PWs)   bands (ev):

   -47.1517 -30.2012 -23.8031 -23.7629 -23.7625 -11.5532 -11.4416 -11.4242
    -7.7802  -7.3065  -7.1217   4.4186   4.9551   5.2330   5.3975   5.7227
     6.4881   7.4372   7.5867   7.8294

          k = 0.1818 0.1818 0.4545 (  2394 PWs)   bands (ev):

   -47.1515 -30.2003 -23.8140 -23.7625 -23.7620 -11.5771 -11.4374 -11.4204
    -7.7099  -7.3066  -7.0557   4.2572   4.7528   5.1513   5.2909   5.6752
     6.5233   7.3669   7.5759   7.7848

          k = 0.1818 0.2727 0.2727 (  2388 PWs)   bands (ev):

   -47.1517 -30.2011 -23.7839 -23.7837 -23.7626 -11.5117 -11.4705 -11.4298
    -7.7760  -7.2578  -7.1816   4.4928   5.0503   5.2069   5.3814   5.6637
     6.1491   7.5758   7.5976   8.0291

          k = 0.1818 0.2727 0.3636 (  2371 PWs)   bands (ev):

   -47.1514 -30.1995 -23.8023 -23.7831 -23.7618 -11.5339 -11.4723 -11.4238
    -7.6744  -7.2354  -7.0991   4.3315   4.7426   5.0388   5.1650   5.4957
     6.1296   7.5392   7.5941   8.1145

          k = 0.1818 0.2727 0.4545 (  2371 PWs)   bands (ev):

   -47.1512 -30.1985 -23.8133 -23.7826 -23.7613 -11.5534 -11.4671 -11.4200
    -7.6249  -7.2263  -7.0306   4.2364   4.4465   4.9902   5.0689   5.4437
     6.1513   7.5092   7.5849   8.1384

          k = 0.1818 0.3636 0.3636 (  2375 PWs)   bands (ev):

   -47.1511 -30.1979 -23.8017 -23.8016 -23.7609 -11.5216 -11.4997 -11.4183
    -7.6142  -7.1390  -7.0634   4.1857   4.5514   4.6739   5.1251   5.2892
     6.0447   7.5467   7.5942   8.3323

          k = 0.1818 0.3636 0.4545 (  2372 PWs)   bands (ev):

   -47.1509 -30.1969 -23.8126 -23.8012 -23.7604 -11.5317 -11.4987 -11.4148
    -7.5936  -7.0966  -7.0077   4.1077   4.2491   4.6139   5.0795   5.2183
     6.0394   7.5488   7.5827   8.4311

          k = 0.1818 0.4545 0.4545 (  2377 PWs)   bands (ev):

   -47.1507 -30.1960 -23.8123 -23.8122 -23.7598 -11.5197 -11.5167 -11.4115
    -7.5893  -7.0031  -6.9915   3.9706   4.1316   4.4277   5.0902   5.1107
     6.0159   7.5674   7.5767   8.5732

          k = 0.2727 0.2727 0.2727 (  2374 PWs)   bands (ev):

   -47.1513 -30.1993 -23.7831 -23.7828 -23.7828 -11.5046 -11.4604 -11.4604
    -7.6322  -7.1918  -7.1918   4.4075   4.9869   4.9869   5.3612   5.3612
     5.5090   7.7497   7.7497   8.1399

          k = 0.2727 0.2727 0.3636 (  2373 PWs)   bands (ev):

   -47.1510 -30.1978 -23.8014 -23.7823 -23.7818 -11.5174 -11.4688 -11.4510
    -7.5232  -7.2012  -7.0994   4.2981   4.7535   4.8472   4.9357   5.2428
     5.4894   7.7995   7.8559   8.2224

          k = 0.2727 0.2727 0.4545 (  2380 PWs)   bands (ev):

   -47.1509 -30.1968 -23.8124 -23.7819 -23.7812 -11.5336 -11.4651 -11.4454
    -7.4727  -7.2069  -7.0257   4.2289   4.4424   4.7411   4.8508   5.2165
     5.5196   7.8185   7.8984   8.2491

          k = 0.2727 0.3636 0.3636 (  2387 PWs)   bands (ev):

   -47.1508 -30.1962 -23.8007 -23.8006 -23.7812 -11.5069 -11.4871 -11.4495
    -7.4273  -7.1350  -7.0826   4.2219   4.5955   4.6624   4.8020   4.9305
     5.3175   7.9282   7.9823   8.3752

          k = 0.2727 0.3636 0.4545 (  2379 PWs)   bands (ev):

   -47.1506 -30.1953 -23.8116 -23.8001 -23.7806 -11.5154 -11.4869 -11.4447
    -7.3972  -7.1154  -7.0213   4.1764   4.2910   4.6001   4.6998   4.8916
     5.3112   7.9782   8.0307   8.4633

          k = 0.2727 0.4545 0.4545 (  2370 PWs)   bands (ev):

   -47.1504 -30.1944 -23.8111 -23.8111 -23.7800 -11.5053 -11.5028 -11.4404
    -7.3852  -7.0260  -7.0158   4.0971   4.1449   4.4320   4.7198   4.7372
     5.2844   8.0545   8.0662   8.5995

          k = 0.3636 0.3636 0.3636 (  2374 PWs)   bands (ev):

   -47.1505 -30.1947 -23.7999 -23.7995 -23.7995 -11.4957 -11.4754 -11.4754
    -7.2770  -7.1003  -7.1003   4.2125   4.5762   4.5762   4.6279   4.7565
     4.7565   8.1999   8.1999   8.4536

          k = 0.3636 0.3636 0.4545 (  2378 PWs)   bands (ev):

   -47.1503 -30.1938 -23.8106 -23.7993 -23.7989 -11.5004 -11.4794 -11.4684
    -7.2287  -7.1110  -7.0338   4.1729   4.3347   4.4673   4.5203   4.7293
     4.7322   8.2717   8.3354   8.5265

          k = 0.3636 0.4545 0.4545 (  2380 PWs)   bands (ev):

   -47.1501 -30.1929 -23.8100 -23.8100 -23.7985 -11.4921 -11.4898 -11.4668
    -7.1877  -7.0469  -7.0383   4.1023   4.2408   4.4286   4.4593   4.4813
     4.7032   8.4189   8.4297   8.6250

          k = 0.4545 0.4545 0.4545 (  2374 PWs)   bands (ev):

   -47.1499 -30.1920 -23.8094 -23.8093 -23.8093 -11.4845 -11.4821 -11.4821
    -7.0727  -7.0518  -7.0518   4.0252   4.3042   4.3327   4.3327   4.4445
     4.4445   8.6118   8.6118   8.6500

     highest occupied level (ev):     8.6500

!    total energy              =    -291.75002018 Ry
     estimated scf accuracy    <          7.9E-09 Ry

     The total energy is the sum of the following terms:
     one-electron contribution =     -93.22300515 Ry
     hartree contribution      =      65.82760736 Ry
     xc contribution           =     -51.21005802 Ry
     ewald contribution        =    -213.14456438 Ry

     convergence has been achieved in  11 iterations

     negative rho (up, down):  6.003E-04 0.000E+00

     Forces acting on atoms (cartesian axes, Ry/au):

     atom    1 type  1   force =     0.00000000    0.00000000    0.00000000
     atom    2 type  2   force =     0.00000000    0.00000000    0.00000000
     atom    3 type  3   force =     0.00000000    0.00000000    0.00000000
     atom    4 type  3   force =     0.00000000    0.00000000    0.00000000
     atom    5 type  3   force =     0.00000000    0.00000000    0.00000000

     Total force =     0.000000     Total SCF correction =     0.000000


     Computing stress (Cartesian axis) and pressure


     negative rho (up, down):  6.003E-04 0.000E+00
          total   stress  (Ry/bohr**3)                   (kbar)     P=     -120.82
  -0.00082129   0.00000000   0.00000000         -120.82        0.00        0.00
   0.00000000  -0.00082129   0.00000000            0.00     -120.82        0.00
   0.00000000   0.00000000  -0.00082129            0.00        0.00     -120.82


     Writing all to output data dir ./CTO.save/ :
     XML data file, charge density, pseudopotentials, collected wavefunctions
 
     init_run     :      0.49s CPU      0.58s WALL (       1 calls)
     electrons    :     13.13s CPU     13.98s WALL (       1 calls)
     forces       :      0.13s CPU      0.14s WALL (       1 calls)
     stress       :      1.41s CPU      1.43s WALL (       1 calls)

     Called by init_run:
     wfcinit      :      0.29s CPU      0.32s WALL (       1 calls)
     potinit      :      0.01s CPU      0.01s WALL (       1 calls)
     hinit0       :      0.10s CPU      0.13s WALL (       1 calls)

     Called by electrons:
     c_bands      :     11.32s CPU     11.97s WALL (      11 calls)
     sum_band     :      1.38s CPU      1.45s WALL (      11 calls)
     v_of_rho     :      0.02s CPU      0.02s WALL (      12 calls)
     newd         :      0.43s CPU      0.54s WALL (      12 calls)
     mix_rho      :      0.01s CPU      0.02s WALL (      11 calls)

     Called by c_bands:
     init_us_2    :      0.13s CPU      0.14s WALL (    1400 calls)
     init_us_2:cp :      0.13s CPU      0.14s WALL (    1400 calls)
     ccgdiagg     :      9.84s CPU     10.41s WALL (     616 calls)
     wfcrot       :      1.63s CPU      1.73s WALL (     616 calls)

     Called by *cgdiagg:
     h_psi        :      6.63s CPU      7.00s WALL (   38201 calls)
     s_psi        :      0.85s CPU      0.90s WALL (   75786 calls)

     Called by h_psi:
     h_psi:calbec :      1.00s CPU      1.06s WALL (   38201 calls)
     vloc_psi     :      4.85s CPU      5.12s WALL (   38201 calls)
     add_vuspsi   :      0.48s CPU      0.51s WALL (   38201 calls)
     hs_1psi      :      5.94s CPU      6.28s WALL (   37585 calls)
     s_1psi       :      1.39s CPU      1.47s WALL (   37585 calls)

     General routines
     calbec       :      1.81s CPU      1.92s WALL (   76682 calls)
     fft          :      0.02s CPU      0.04s WALL (      78 calls)
     ffts         :      0.00s CPU      0.00s WALL (      23 calls)
     fftw         :      4.20s CPU      4.42s WALL (  113474 calls)
     interpolate  :      0.01s CPU      0.01s WALL (      12 calls)
 
     Parallel routines
 
     PWSCF        :     15.47s CPU     16.93s WALL

 
   This run was terminated on:  16:50:31  19Sep2025            

=------------------------------------------------------------------------------=
   JOB DONE.
=------------------------------------------------------------------------------=
TACC:  Shutdown complete. Exiting. 
