TACC:  Starting up job 2476657 
TACC:  Starting parallel tasks... 

     Program PWSCF v.7.3 starts on 18Oct2025 at 16:24:15 

     This program is part of the open-source Quantum ESPRESSO suite
     for quantum simulation of materials; please cite
         "P. Giannozzi et al., J. Phys.:Condens. Matter 21 395502 (2009);
         "P. Giannozzi et al., J. Phys.:Condens. Matter 29 465901 (2017);
         "P. Giannozzi et al., J. Chem. Phys. 152 154105 (2020);
          URL http://www.quantum-espresso.org", 
     in publications or presentations arising from this work. More details at
     http://www.quantum-espresso.org/quote

     Parallel version (MPI & OpenMP), running on      10 processor cores
     Number of MPI processes:                10
     Threads/MPI process:                     1

     MPI processes distributed on     1 nodes
     187436 MiB available memory on the printing compute node when the environment starts
 
     Waiting for input...
     Reading input from standard input

     Current dimensions of program PWSCF are:
     Max number of different atomic species (ntypx) = 10
     Max number of k-points (npk) =  40000
     Max angular momentum in pseudopotentials (lmaxx) =  4
     Message from routine setup:
     using ibrav=0 with symmetry is DISCOURAGED, use correct ibrav instead
 
     R & G space division:  proc/nbgrp/npool/nimage =      10
     Subspace diagonalization in iterative solution of the eigenvalue problem:
     a serial algorithm will be used

 
     Parallelization info
     --------------------
     sticks:   dense  smooth     PW     G-vecs:    dense   smooth      PW
     Min         163      43     15                 4340      595     113
     Max         165      44     16                 4341      598     114
     Sum        1639     433    151                43407     5961    1139
 
     Using Slab Decomposition
 


     bravais-lattice index     =            0
     lattice parameter (alat)  =      10.2000  a.u.
     unit-cell volume          =     268.4984 (a.u.)^3
     number of atoms/cell      =            2
     number of atomic types    =            1
     number of electrons       =         8.00
     number of Kohn-Sham states=            8
     kinetic-energy cutoff     =      30.0000  Ry
     charge density cutoff     =     450.0000  Ry
     scf convergence threshold =      1.0E-08
     mixing beta               =       0.7000
     number of iterations used =            8  plain     mixing
     Exchange-correlation= SLA  PZ   NOGX NOGC
                           (   1   1   0   0   0   0   0)

     celldm(1)=  10.200000  celldm(2)=   0.000000  celldm(3)=   0.000000
     celldm(4)=   0.000000  celldm(5)=   0.000000  celldm(6)=   0.000000

     crystal axes: (cart. coord. in units of alat)
               a(1) = (  -0.502000   0.000000   0.502000 )  
               a(2) = (   0.000000   0.502000   0.502000 )  
               a(3) = (  -0.502000   0.502000   0.000000 )  

     reciprocal axes: (cart. coord. in units 2 pi/alat)
               b(1) = ( -0.996016 -0.996016  0.996016 )  
               b(2) = (  0.996016  0.996016  0.996016 )  
               b(3) = ( -0.996016  0.996016 -0.996016 )  


     PseudoPot. # 1 for Si read from file:
     /scratch/11018/zhc/Assisgnment2/Q1/1A/energy_cutoff_test/Si_LDA.UPF
     MD5 check sum: b5ade7b37ee992b02096e360e546dc2d
     Pseudo is Ultrasoft + core correction, Zval =  4.0
     Generated by new atomic code, or converted to UPF format
     Using radial grid of  899 points,  6 beta functions with: 
                l(1) =   0
                l(2) =   0
                l(3) =   1
                l(4) =   1
                l(5) =   2
                l(6) =   2
     Q(r) pseudized with  8 coefficients,  rinner =    0.900   0.900   0.900
                                                       0.900   0.900

     atomic species   valence    mass     pseudopotential
     Si                4.00    28.08550     Si( 1.00)

     48 Sym. Ops., with inversion, found (24 have fractional translation)



   Cartesian axes

     site n.     atom                  positions (alat units)
         1        Si     tau(   1) = (   0.0000000   0.0000000   0.0000000  )
         2        Si     tau(   2) = (  -0.2510000   0.2510000   0.2510000  )

     number of k points=    72
                       cart. coord. in units 2pi/alat
        k(    1) = (   0.0000000   0.0000000   0.0000000), wk =   0.0011574
        k(    2) = (  -0.0830013   0.0830013  -0.0830013), wk =   0.0092593
        k(    3) = (  -0.1660027   0.1660027  -0.1660027), wk =   0.0092593
        k(    4) = (  -0.2490040   0.2490040  -0.2490040), wk =   0.0092593
        k(    5) = (  -0.3320053   0.3320053  -0.3320053), wk =   0.0092593
        k(    6) = (  -0.4150066   0.4150066  -0.4150066), wk =   0.0092593
        k(    7) = (   0.4980080  -0.4980080   0.4980080), wk =   0.0046296
        k(    8) = (   0.0000000   0.1660027   0.0000000), wk =   0.0069444
        k(    9) = (  -0.0830013   0.2490040  -0.0830013), wk =   0.0277778
        k(   10) = (  -0.1660027   0.3320053  -0.1660027), wk =   0.0277778
        k(   11) = (  -0.2490040   0.4150066  -0.2490040), wk =   0.0277778
        k(   12) = (  -0.3320053   0.4980080  -0.3320053), wk =   0.0277778
        k(   13) = (   0.5810093  -0.4150066   0.5810093), wk =   0.0277778
        k(   14) = (   0.4980080  -0.3320053   0.4980080), wk =   0.0277778
        k(   15) = (   0.4150066  -0.2490040   0.4150066), wk =   0.0277778
        k(   16) = (   0.3320053  -0.1660027   0.3320053), wk =   0.0277778
        k(   17) = (   0.2490040  -0.0830013   0.2490040), wk =   0.0277778
        k(   18) = (   0.1660027  -0.0000000   0.1660027), wk =   0.0138889
        k(   19) = (   0.0000000   0.3320053   0.0000000), wk =   0.0069444
        k(   20) = (  -0.0830013   0.4150066  -0.0830013), wk =   0.0277778
        k(   21) = (  -0.1660027   0.4980080  -0.1660027), wk =   0.0277778
        k(   22) = (  -0.2490040   0.5810093  -0.2490040), wk =   0.0277778
        k(   23) = (   0.6640106  -0.3320053   0.6640106), wk =   0.0277778
        k(   24) = (   0.5810093  -0.2490040   0.5810093), wk =   0.0277778
        k(   25) = (   0.4980080  -0.1660027   0.4980080), wk =   0.0277778
        k(   26) = (   0.4150066  -0.0830013   0.4150066), wk =   0.0277778
        k(   27) = (   0.3320053   0.0000000   0.3320053), wk =   0.0138889
        k(   28) = (   0.0000000   0.4980080   0.0000000), wk =   0.0069444
        k(   29) = (  -0.0830013   0.5810093  -0.0830013), wk =   0.0277778
        k(   30) = (  -0.1660027   0.6640106  -0.1660027), wk =   0.0277778
        k(   31) = (   0.7470120  -0.2490040   0.7470120), wk =   0.0277778
        k(   32) = (   0.6640106  -0.1660027   0.6640106), wk =   0.0277778
        k(   33) = (   0.5810093  -0.0830013   0.5810093), wk =   0.0277778
        k(   34) = (   0.4980080   0.0000000   0.4980080), wk =   0.0138889
        k(   35) = (   0.0000000   0.6640106   0.0000000), wk =   0.0069444
        k(   36) = (  -0.0830013   0.7470120  -0.0830013), wk =   0.0277778
        k(   37) = (   0.8300133  -0.1660027   0.8300133), wk =   0.0277778
        k(   38) = (   0.7470120  -0.0830013   0.7470120), wk =   0.0277778
        k(   39) = (   0.6640106  -0.0000000   0.6640106), wk =   0.0138889
        k(   40) = (   0.0000000   0.8300133   0.0000000), wk =   0.0069444
        k(   41) = (   0.9130146  -0.0830013   0.9130146), wk =   0.0277778
        k(   42) = (   0.8300133   0.0000000   0.8300133), wk =   0.0138889
        k(   43) = (   0.0000000  -0.9960159   0.0000000), wk =   0.0034722
        k(   44) = (  -0.1660027   0.3320053   0.0000000), wk =   0.0277778
        k(   45) = (  -0.2490040   0.4150066  -0.0830013), wk =   0.0555556
        k(   46) = (  -0.3320053   0.4980080  -0.1660027), wk =   0.0555556
        k(   47) = (   0.5810093  -0.4150066   0.7470120), wk =   0.0555556
        k(   48) = (   0.4980080  -0.3320053   0.6640106), wk =   0.0277778
        k(   49) = (  -0.1660027   0.4980080   0.0000000), wk =   0.0277778
        k(   50) = (  -0.2490040   0.5810093  -0.0830013), wk =   0.0555556
        k(   51) = (   0.6640106  -0.3320053   0.8300133), wk =   0.0555556
        k(   52) = (   0.5810093  -0.2490040   0.7470120), wk =   0.0555556
        k(   53) = (   0.4980080  -0.1660027   0.6640106), wk =   0.0555556
        k(   54) = (   0.4150066  -0.0830013   0.5810093), wk =   0.0555556
        k(   55) = (   0.3320053   0.0000000   0.4980080), wk =   0.0277778
        k(   56) = (  -0.1660027   0.6640106  -0.0000000), wk =   0.0277778
        k(   57) = (   0.7470120  -0.2490040   0.9130146), wk =   0.0555556
        k(   58) = (   0.6640106  -0.1660027   0.8300133), wk =   0.0555556
        k(   59) = (   0.5810093  -0.0830013   0.7470120), wk =   0.0555556
        k(   60) = (   0.4980080   0.0000000   0.6640106), wk =   0.0277778
        k(   61) = (   0.8300133  -0.1660027   0.9960159), wk =   0.0277778
        k(   62) = (   0.7470120  -0.0830013   0.9130146), wk =   0.0555556
        k(   63) = (   0.6640106   0.0000000   0.8300133), wk =   0.0277778
        k(   64) = (  -0.1660027  -0.9960159  -0.0000000), wk =   0.0138889
        k(   65) = (   0.6640106  -0.3320053   0.9960159), wk =   0.0277778
        k(   66) = (   0.5810093  -0.2490040   0.9130146), wk =   0.0555556
        k(   67) = (   0.4980080  -0.1660027   0.8300133), wk =   0.0277778
        k(   68) = (   0.6640106  -0.1660027   0.9960159), wk =   0.0277778
        k(   69) = (   0.5810093  -0.0830013   0.9130146), wk =   0.0555556
        k(   70) = (   0.4980080   0.0000000   0.8300133), wk =   0.0277778
        k(   71) = (  -0.3320053  -0.9960159   0.0000000), wk =   0.0138889
        k(   72) = (  -0.4980080  -0.9960159   0.0000000), wk =   0.0069444

     Dense  grid:    43407 G-vectors     FFT dimensions: (  50,  50,  50)

     Smooth grid:     5961 G-vectors     FFT dimensions: (  25,  25,  25)

     Estimated max dynamical RAM per process >      18.35 MB

     Estimated total dynamical RAM >     183.51 MB

     Initial potential from superposition of free atoms

     starting charge       7.9988, renormalised to       8.0000
     Starting wfcs are    8 randomized atomic wfcs

     total cpu time spent up to now is        0.3 secs

     Self-consistent Calculation

     iteration #  1     ecut=    30.00 Ry     beta= 0.70
     CG style diagonalization
     ethr =  1.00E-02,  avg # of iterations =  3.6

     Threshold (ethr) on eigenvalues was too large:
     Diagonalizing with lowered threshold

     CG style diagonalization
     ethr =  7.17E-04,  avg # of iterations =  2.0

     total cpu time spent up to now is        1.1 secs

     total energy              =     -19.25694253 Ry
     estimated scf accuracy    <       0.05817580 Ry

     iteration #  2     ecut=    30.00 Ry     beta= 0.70
     CG style diagonalization
     ethr =  7.27E-04,  avg # of iterations =  3.0

     total cpu time spent up to now is        1.4 secs

     total energy              =     -19.26020221 Ry
     estimated scf accuracy    <       0.00170680 Ry

     iteration #  3     ecut=    30.00 Ry     beta= 0.70
     CG style diagonalization
     ethr =  2.13E-05,  avg # of iterations =  3.8

     total cpu time spent up to now is        1.9 secs

     total energy              =     -19.26041407 Ry
     estimated scf accuracy    <       0.00003758 Ry

     iteration #  4     ecut=    30.00 Ry     beta= 0.70
     CG style diagonalization
     ethr =  4.70E-07,  avg # of iterations =  4.3

     total cpu time spent up to now is        2.4 secs

     total energy              =     -19.26044673 Ry
     estimated scf accuracy    <       0.00000011 Ry

     iteration #  5     ecut=    30.00 Ry     beta= 0.70
     CG style diagonalization
     ethr =  1.42E-09,  avg # of iterations =  4.2

     total cpu time spent up to now is        2.9 secs

     End of self-consistent calculation

          k = 0.0000 0.0000 0.0000 (   725 PWs)   bands (ev):

    -5.9333   6.0738   6.0738   6.0738   8.6048   8.6048   8.6048   9.3287

          k =-0.0830 0.0830-0.0830 (   737 PWs)   bands (ev):

    -5.8419   5.2029   5.9287   5.9287   8.6298   8.8176   8.8176  10.0083

          k =-0.1660 0.1660-0.1660 (   748 PWs)   bands (ev):

    -5.5702   3.6698   5.6202   5.6202   8.3513   9.2545   9.2545  11.4319

          k =-0.2490 0.2490-0.2490 (   754 PWs)   bands (ev):

    -5.1290   2.1155   5.3102   5.3102   8.0181   9.5473   9.5473  12.8789

          k =-0.3320 0.3320-0.3320 (   751 PWs)   bands (ev):

    -4.5476   0.7006   5.0696   5.0696   7.7470   9.5439   9.5439  13.7772

          k =-0.4150 0.4150-0.4150 (   760 PWs)   bands (ev):

    -3.9205  -0.4378   4.9215   4.9215   7.5764   9.4279   9.4279  13.6897

          k = 0.4980-0.4980 0.4980 (   754 PWs)   bands (ev):

    -3.5809  -0.9495   4.8718   4.8718   7.5187   9.3722   9.3722  13.6030

          k = 0.0000 0.1660 0.0000 (   733 PWs)   bands (ev):

    -5.8112   5.3702   5.6385   5.6385   8.3154   9.1878   9.1878   9.9782

          k =-0.0830 0.2490-0.0830 (   747 PWs)   bands (ev):

    -5.5991   4.1280   5.2721   5.4623   8.3299   9.2524   9.7269  10.8935

          k =-0.1660 0.3320-0.1660 (   749 PWs)   bands (ev):

    -5.2129   2.6176   4.9581   5.1348   8.4438   9.2450  10.1109  11.4019

          k =-0.2490 0.4150-0.2490 (   752 PWs)   bands (ev):

    -4.6733   1.1733   4.7485   4.7790   8.2913   9.3260  10.1305  11.9744

          k =-0.3320 0.4980-0.3320 (   748 PWs)   bands (ev):

    -4.0420  -0.0654   4.4810   4.6597   8.1227   9.2867   9.9312  13.0120

          k = 0.5810-0.4150 0.5810 (   749 PWs)   bands (ev):

    -3.5441  -0.8436   4.2747   4.6921   8.0415   9.2848   9.7286  13.8399

          k = 0.4980-0.3320 0.4980 (   752 PWs)   bands (ev):

    -3.6670  -0.6635   4.1782   4.8369   8.0689   9.4015   9.6170  13.9355

          k = 0.4150-0.2490 0.4150 (   747 PWs)   bands (ev):

    -4.2561   0.3177   4.2045   5.0781   8.2037   9.5867   9.6148  13.4479

          k = 0.3320-0.1660 0.3320 (   752 PWs)   bands (ev):

    -4.8690   1.6404   4.3640   5.3897   8.4335   9.5095   9.7738  12.5010

          k = 0.2490-0.0830 0.2490 (   750 PWs)   bands (ev):

    -5.3609   3.1075   4.6691   5.7205   8.7245   9.2122   9.5623  11.7277

          k = 0.1660-0.0000 0.1660 (   739 PWs)   bands (ev):

    -5.6901   4.4685   5.1967   5.9566   8.8544   8.9569   8.9932  10.8165

          k = 0.0000 0.3320 0.0000 (   737 PWs)   bands (ev):

    -5.4467   4.0207   4.8701   4.8701   7.7070  10.2901  10.3914  10.3914

          k =-0.0830 0.4150-0.0830 (   745 PWs)   bands (ev):

    -5.1177   2.9297   4.5164   4.5342   7.7242   9.8916  10.7127  10.9527

          k =-0.1660 0.4980-0.1660 (   750 PWs)   bands (ev):

    -4.6265   1.6118   4.0562   4.3154   7.9621  10.0695  10.5378  11.1182

          k =-0.2490 0.5810-0.2490 (   747 PWs)   bands (ev):

    -4.0139   0.3688   3.6124   4.2321   8.0016  10.2738  10.9356  11.0525

          k = 0.6640-0.3320 0.6640 (   752 PWs)   bands (ev):

    -3.4235  -0.5744   3.2648   4.2873   8.0317  10.1231  10.6605  12.4258

          k = 0.5810-0.2490 0.5810 (   745 PWs)   bands (ev):

    -3.3069  -0.7367   3.0485   4.4733   8.1794  10.0710  10.4328  13.9717

          k = 0.4980-0.1660 0.4980 (   745 PWs)   bands (ev):

    -3.8130   0.0307   2.9900   4.7709   8.4508  10.1233  10.2675  13.2708

          k = 0.4150-0.0830 0.4150 (   746 PWs)   bands (ev):

    -4.4429   1.1868   3.1332   5.1419   8.7921  10.0419  10.1810  12.1138

          k = 0.3320 0.0000 0.3320 (   748 PWs)   bands (ev):

    -4.9785   2.3351   3.6268   5.5085   9.0589   9.6002   9.8550  11.6496

          k = 0.0000 0.4980 0.0000 (   729 PWs)   bands (ev):

    -4.8457   2.5413   4.1697   4.1697   7.1147   9.1143  11.7985  11.7985

          k =-0.0830 0.5810-0.0830 (   741 PWs)   bands (ev):

    -4.4066   1.6294   3.6943   3.9224   7.1990   8.7579  12.0747  12.2788

          k =-0.1660 0.6640-0.1660 (   748 PWs)   bands (ev):

    -3.8275   0.5956   3.0496   3.8154   7.4129   9.2402  11.9296  12.2373

          k = 0.7470-0.2490 0.7470 (   748 PWs)   bands (ev):

    -3.1974  -0.3381   2.4956   3.8550   7.4976  10.4453  11.7562  11.9595

          k = 0.6640-0.1660 0.6640 (   743 PWs)   bands (ev):

    -2.8683  -0.7585   2.1279   4.0368   7.6791  11.4498  11.6617  12.1808

          k = 0.5810-0.0830 0.5810 (   744 PWs)   bands (ev):

    -3.2488  -0.2586   2.0053   4.3441   8.0098  11.3618  11.4351  13.1660

          k = 0.4980 0.0000 0.4980 (   754 PWs)   bands (ev):

    -3.8766   0.5700   2.2705   4.7397   8.4463  10.8305  11.1324  12.1269

          k = 0.0000 0.6640 0.0000 (   749 PWs)   bands (ev):

    -4.0192   1.0461   3.6398   3.6398   6.7000   7.9610  13.2964  13.2964

          k =-0.0830 0.7470-0.0830 (   748 PWs)   bands (ev):

    -3.4814   0.2588   3.1412   3.4968   6.8631   7.8345  13.6088  13.6673

          k = 0.8300-0.1660 0.8300 (   749 PWs)   bands (ev):

    -2.8476  -0.5121   2.3960   3.5034   7.0326   8.7065  13.4884  13.4894

          k = 0.7470-0.0830 0.7470 (   740 PWs)   bands (ev):

    -2.3721  -1.0077   1.8062   3.6585   7.2107  10.1617  13.1370  13.3153

          k = 0.6640-0.0000 0.6640 (   740 PWs)   bands (ev):

    -2.6459  -0.7213   1.6006   3.9493   7.5433  11.7980  12.5149  13.4163

          k = 0.0000 0.8300 0.0000 (   749 PWs)   bands (ev):

    -2.9846  -0.4085   3.3135   3.3135   6.5374   7.1389  14.8472  14.8472

          k = 0.9130-0.0830 0.9130 (   747 PWs)   bands (ev):

    -2.3675  -1.0984   2.8680   3.2798   6.7378   7.3158  15.0960  15.1795

          k = 0.8300 0.0000 0.8300 (   740 PWs)   bands (ev):

    -1.9056  -1.5056   2.1793   3.3978   6.8983   8.5328  14.5513  15.0442

          k = 0.0000-0.9960 0.0000 (   740 PWs)   bands (ev):

    -1.7684  -1.7684   3.2035   3.2035   6.6721   6.6721  16.1010  16.1011

          k =-0.1660 0.3320 0.0000 (   752 PWs)   bands (ev):

    -5.3289   3.3282   4.4175   5.3627   8.3526   9.5726  10.1939  10.9130

          k =-0.2490 0.4150-0.0830 (   750 PWs)   bands (ev):

    -4.8898   2.0807   3.8798   5.0856   8.6293   9.5401  10.5964  10.8954

          k =-0.3320 0.4980-0.1660 (   747 PWs)   bands (ev):

    -4.3104   0.7703   3.6095   4.7557   8.6639   9.4091  10.6543  11.5487

          k = 0.5810-0.4150 0.7470 (   748 PWs)   bands (ev):

    -3.6823  -0.3286   3.4822   4.5075   8.6065   9.2101  10.5724  12.7649

          k = 0.4980-0.3320 0.6640 (   748 PWs)   bands (ev):

    -3.3385  -0.8332   3.4467   4.4152   8.5853   9.1213  10.5268  14.0395

          k =-0.1660 0.4980 0.0000 (   746 PWs)   bands (ev):

    -4.7344   2.1357   3.7165   4.4338   7.7889   9.5158  10.8484  11.6745

          k =-0.2490 0.5810-0.0830 (   745 PWs)   bands (ev):

    -4.1983   1.0808   3.1718   4.1411   8.1203   9.7392  10.5842  12.0570

          k = 0.6640-0.3320 0.8300 (   740 PWs)   bands (ev):

    -3.5675   0.0179   2.8119   3.9280   8.2367  10.2199  10.8180  12.0366

          k = 0.5810-0.2490 0.7470 (   741 PWs)   bands (ev):

    -3.0639  -0.6969   2.5639   3.9098   8.3651   9.9451  11.9256  12.2876

          k = 0.4980-0.1660 0.6640 (   742 PWs)   bands (ev):

    -3.2015  -0.5074   2.4433   4.0845   8.6190   9.7544  11.8408  12.6734

          k = 0.4150-0.0830 0.5810 (   751 PWs)   bands (ev):

    -3.7983   0.3789   2.5155   4.4050   8.9862   9.6151  11.2975  11.7919

          k = 0.3320 0.0000 0.4980 (   756 PWs)   bands (ev):

    -4.4056   1.3642   2.9332   4.7915   9.2274   9.3766  10.6673  11.3645

          k =-0.1660 0.6640-0.0000 (   747 PWs)   bands (ev):

    -3.9195   0.8704   3.2037   3.6407   7.3802   8.4558  12.0905  13.2441

          k = 0.7470-0.2490 0.9130 (   744 PWs)   bands (ev):

    -3.3096   0.0324   2.6039   3.4195   7.7119   8.9977  11.7844  13.6101

          k = 0.6640-0.1660 0.8300 (   740 PWs)   bands (ev):

    -2.7139  -0.6881   2.0739   3.4275   7.8642  10.2993  11.4876  13.5398

          k = 0.5810-0.0830 0.7470 (   739 PWs)   bands (ev):

    -2.6406  -0.7608   1.7802   3.6283   8.1243  11.0657  12.0620  12.7485

          k = 0.4980 0.0000 0.6640 (   743 PWs)   bands (ev):

    -3.1837  -0.1664   1.8672   3.9774   8.5230  10.6594  11.5093  12.8595

          k = 0.8300-0.1660 0.9960 (   743 PWs)   bands (ev):

    -2.9060  -0.4441   2.9187   3.1193   7.2019   7.7078  13.4628  14.8424

          k = 0.7470-0.0830 0.9130 (   741 PWs)   bands (ev):

    -2.2720  -1.0888   2.2740   3.0739   7.4921   8.6306  13.1393  14.6147

          k = 0.6640 0.0000 0.8300 (   735 PWs)   bands (ev):

    -2.1123  -1.2051   1.7654   3.2731   7.7322  10.1685  12.6812  13.0635

          k =-0.1660-0.9960-0.0000 (   754 PWs)   bands (ev):

    -1.7291  -1.7291   2.8841   2.8841   7.2991   7.2991  14.9265  14.9265

          k = 0.6640-0.3320 0.9960 (   748 PWs)   bands (ev):

    -3.6302   0.4102   2.4580   3.7535   8.8573   9.7019  10.2541  13.0943

          k = 0.5810-0.2490 0.9130 (   740 PWs)   bands (ev):

    -3.0005  -0.3639   2.1069   3.4107   9.2260   9.7710  10.7627  13.5215

          k = 0.4980-0.1660 0.8300 (   738 PWs)   bands (ev):

    -2.6353  -0.7982   2.0135   3.2793   9.3486   9.5671  12.1051  12.5343

          k = 0.6640-0.1660 0.9960 (   746 PWs)   bands (ev):

    -2.6888  -0.5876   2.2574   2.8852   8.6791   9.0741  11.4011  14.3249

          k = 0.5810-0.0830 0.9130 (   743 PWs)   bands (ev):

    -2.1604  -1.0964   1.9349   2.7280   9.0179  10.2823  11.1267  12.5091

          k = 0.4980 0.0000 0.8300 (   741 PWs)   bands (ev):

    -2.3929  -0.8664   1.8078   2.9564   9.3215  10.4800  11.0082  12.2567

          k =-0.3320-0.9960 0.0000 (   738 PWs)   bands (ev):

    -1.6445  -1.6445   2.3826   2.3826   8.7404   8.7404  12.7790  12.7791

          k =-0.4980-0.9960 0.0000 (   744 PWs)   bands (ev):

    -1.5987  -1.5987   2.1691   2.1691  10.2622  10.2622  11.0211  11.0211

     highest occupied, lowest unoccupied level (ev):     6.0738    6.5374

!    total energy              =     -19.26044725 Ry
     estimated scf accuracy    <          9.0E-10 Ry

     The total energy is the sum of the following terms:
     one-electron contribution =       5.09146279 Ry
     hartree contribution      =       1.10862397 Ry
     xc contribution           =      -8.62810515 Ry
     ewald contribution        =     -16.83242885 Ry

     convergence has been achieved in   5 iterations

     Forces acting on atoms (cartesian axes, Ry/au):

     atom    1 type  1   force =     0.00000000   -0.00000000    0.00000000
     atom    2 type  1   force =     0.00000000    0.00000000   -0.00000000

     Total force =     0.000000     Total SCF correction =     0.000000


     Computing stress (Cartesian axis) and pressure

          total   stress  (Ry/bohr**3)                   (kbar)     P=       -9.89
  -0.00006723   0.00000000   0.00000000           -9.89        0.00        0.00
   0.00000000  -0.00006723  -0.00000000            0.00       -9.89       -0.00
   0.00000000  -0.00000000  -0.00006723            0.00       -0.00       -9.89


     Writing all to output data dir ./Si_isotropic_eta0p004.save/ :
     XML data file, charge density, pseudopotentials, collected wavefunctions
 
     init_run     :      0.13s CPU      0.21s WALL (       1 calls)
     electrons    :      2.34s CPU      2.54s WALL (       1 calls)
     forces       :      0.04s CPU      0.04s WALL (       1 calls)
     stress       :      0.19s CPU      0.20s WALL (       1 calls)

     Called by init_run:
     wfcinit      :      0.06s CPU      0.08s WALL (       1 calls)
     potinit      :      0.00s CPU      0.01s WALL (       1 calls)
     hinit0       :      0.04s CPU      0.07s WALL (       1 calls)

     Called by electrons:
     c_bands      :      2.01s CPU      2.16s WALL (       6 calls)
     sum_band     :      0.26s CPU      0.28s WALL (       6 calls)
     v_of_rho     :      0.01s CPU      0.01s WALL (       6 calls)
     newd         :      0.06s CPU      0.07s WALL (       6 calls)
     mix_rho      :      0.00s CPU      0.01s WALL (       6 calls)

     Called by c_bands:
     init_us_2    :      0.03s CPU      0.03s WALL (    1080 calls)
     init_us_2:cp :      0.02s CPU      0.03s WALL (    1080 calls)
     ccgdiagg     :      1.78s CPU      1.91s WALL (     432 calls)
     wfcrot       :      0.25s CPU      0.29s WALL (     360 calls)

     Called by *cgdiagg:
     h_psi        :      1.17s CPU      1.26s WALL (   10155 calls)
     s_psi        :      0.08s CPU      0.09s WALL (   19950 calls)

     Called by h_psi:
     h_psi:calbec :      0.17s CPU      0.19s WALL (   10155 calls)
     vloc_psi     :      0.88s CPU      0.95s WALL (   10155 calls)
     add_vuspsi   :      0.04s CPU      0.05s WALL (   10155 calls)
     hs_1psi      :      1.06s CPU      1.14s WALL (    9795 calls)
     s_1psi       :      0.22s CPU      0.24s WALL (    9795 calls)

     General routines
     calbec       :      0.30s CPU      0.33s WALL (   20742 calls)
     fft          :      0.01s CPU      0.03s WALL (      43 calls)
     ffts         :      0.00s CPU      0.00s WALL (      12 calls)
     fftw         :      0.79s CPU      0.85s WALL (   28806 calls)
     interpolate  :      0.00s CPU      0.01s WALL (       6 calls)
 
     Parallel routines
 
     PWSCF        :      2.82s CPU      3.47s WALL

 
   This run was terminated on:  16:24:19  18Oct2025            

=------------------------------------------------------------------------------=
   JOB DONE.
=------------------------------------------------------------------------------=
TACC:  Shutdown complete. Exiting. 
