TACC:  Starting up job 2483044 
TACC:  Starting parallel tasks... 

     Program PWSCF v.7.3 starts on 20Oct2025 at 22:27:15 

     This program is part of the open-source Quantum ESPRESSO suite
     for quantum simulation of materials; please cite
         "P. Giannozzi et al., J. Phys.:Condens. Matter 21 395502 (2009);
         "P. Giannozzi et al., J. Phys.:Condens. Matter 29 465901 (2017);
         "P. Giannozzi et al., J. Chem. Phys. 152 154105 (2020);
          URL http://www.quantum-espresso.org", 
     in publications or presentations arising from this work. More details at
     http://www.quantum-espresso.org/quote

     Parallel version (MPI & OpenMP), running on      10 processor cores
     Number of MPI processes:                10
     Threads/MPI process:                     1

     MPI processes distributed on     1 nodes
     186941 MiB available memory on the printing compute node when the environment starts
 
     Waiting for input...
     Reading input from standard input
Warning: card &CELL ignored
Warning: card  CELL_DYNAMICS = 'BFGS', ignored
Warning: card  PRESS=0.D0, ignored
Warning: card / ignored
     Message from routine read_cards :
     DEPRECATED: no units specified in ATOMIC_POSITIONS card
     Message from routine read_cards :
     ATOMIC_POSITIONS: units set to alat

     Current dimensions of program PWSCF are:
     Max number of different atomic species (ntypx) = 10
     Max number of k-points (npk) =  40000
     Max angular momentum in pseudopotentials (lmaxx) =  4
     Message from routine setup:
     using ibrav=0 with symmetry is DISCOURAGED, use correct ibrav instead
 
     R & G space division:  proc/nbgrp/npool/nimage =      10
     Subspace diagonalization in iterative solution of the eigenvalue problem:
     a serial algorithm will be used

 
     Parallelization info
     --------------------
     sticks:   dense  smooth     PW     G-vecs:    dense   smooth      PW
     Min         376     100     34                14620     2016     399
     Max         377     101     35                14622     2019     400
     Sum        3763    1007    341               146205    20177    3997
 
     Using Slab Decomposition
 


     bravais-lattice index     =            0
     lattice parameter (alat)  =       6.6800  a.u.
     unit-cell volume          =     149.0387 (a.u.)^3
     number of atoms/cell      =            2
     number of atomic types    =            1
     number of electrons       =         8.00
     number of Kohn-Sham states=            4
     kinetic-energy cutoff     =     100.0000  Ry
     charge density cutoff     =    1500.0000  Ry
     scf convergence threshold =      1.0E-08
     mixing beta               =       0.7000
     number of iterations used =            8  plain     mixing
     Exchange-correlation= SLA  PZ   NOGX NOGC
                           (   1   1   0   0   0   0   0)

     celldm(1)=   6.680000  celldm(2)=   0.000000  celldm(3)=   0.000000
     celldm(4)=   0.000000  celldm(5)=   0.000000  celldm(6)=   0.000000

     crystal axes: (cart. coord. in units of alat)
               a(1) = (  -0.499500   0.499500   0.500000 )  
               a(2) = (   0.499500  -0.499500   0.500000 )  
               a(3) = (   0.500500   0.500500  -0.500000 )  

     reciprocal axes: (cart. coord. in units 2 pi/alat)
               b(1) = ( -0.001000  1.000001  1.000000 )  
               b(2) = (  1.000001 -0.001000  1.000000 )  
               b(3) = (  0.999001  0.999001  0.000000 )  


     PseudoPot. # 1 for C  read from file:
     /scratch/11018/zhc/Assisgnment2/Q2/Diamond/Diamond/C_LDA.UPF
     MD5 check sum: 407c1fe918d93b14b177d5600f28733c
     Pseudo is Ultrasoft + core correction, Zval =  4.0
     Generated by new atomic code, or converted to UPF format
     Using radial grid of  721 points,  4 beta functions with: 
                l(1) =   0
                l(2) =   0
                l(3) =   1
                l(4) =   1
     Q(r) pseudized with  8 coefficients,  rinner =    1.100   1.100   1.100


     atomic species   valence    mass     pseudopotential
     C                 4.00    12.01100     C ( 1.00)

      2 Sym. Ops. (no inversion) found



   Cartesian axes

     site n.     atom                  positions (alat units)
         1        C      tau(   1) = (   0.0000000   0.0000000   0.0000000  )
         2        C      tau(   2) = (   0.2492943   0.2492943   0.2492943  )

     number of k points=    68
                       cart. coord. in units 2pi/alat
        k(    1) = (   0.0000000   0.0000000   0.0000000), wk =   0.0092593
        k(    2) = (   0.1665002   0.1665002   0.0000000), wk =   0.0185185
        k(    3) = (   0.3330003   0.3330003   0.0000000), wk =   0.0185185
        k(    4) = (  -0.4995005  -0.4995005   0.0000000), wk =   0.0092593
        k(    5) = (   0.1666668  -0.0001667   0.1666667), wk =   0.0370370
        k(    6) = (   0.3331670   0.1663335   0.1666667), wk =   0.0370370
        k(    7) = (   0.4996672   0.3328337   0.1666667), wk =   0.0370370
        k(    8) = (   0.3333337  -0.0003333   0.3333333), wk =   0.0370370
        k(    9) = (   0.4998338   0.1661668   0.3333333), wk =   0.0370370
        k(   10) = (   0.6663340   0.3326670   0.3333333), wk =   0.0370370
        k(   11) = (   0.1668335  -0.1668335   0.3333333), wk =   0.0370370
        k(   12) = (  -0.5000005   0.0005000  -0.5000000), wk =   0.0185185
        k(   13) = (  -0.3335003   0.1670002  -0.5000000), wk =   0.0370370
        k(   14) = (   0.1665002   0.1665002   0.3333333), wk =   0.0185185
        k(   15) = (   0.3330003   0.3330003   0.3333333), wk =   0.0185185
        k(   16) = (   0.4995005   0.4995005   0.3333333), wk =   0.0185185
        k(   17) = (   0.0000000   0.0000000   0.3333333), wk =   0.0185185
        k(   18) = (   0.3331670   0.1663335   0.5000000), wk =   0.0370370
        k(   19) = (   0.4996672   0.3328337   0.5000000), wk =   0.0370370
        k(   20) = (   0.0001667  -0.1666668   0.5000000), wk =   0.0370370
        k(   21) = (  -0.5001672   0.1671668  -0.3333333), wk =   0.0370370
        k(   22) = (  -0.3336670   0.3336670  -0.3333333), wk =   0.0370370
        k(   23) = (  -0.9996677  -0.3323337  -0.3333333), wk =   0.0370370
        k(   24) = (  -0.8331675  -0.1658335  -0.3333333), wk =   0.0370370
        k(   25) = (  -0.3335003   0.1670002  -0.1666667), wk =   0.0370370
        k(   26) = (  -0.0005000   0.5000005  -0.1666667), wk =   0.0370370
        k(   27) = (  -0.8330008  -0.3325003  -0.1666667), wk =   0.0370370
        k(   28) = (  -0.1668335   0.1668335   0.0000000), wk =   0.0185185
        k(   29) = (  -0.0003333   0.3333337   0.0000000), wk =   0.0370370
        k(   30) = (   0.1661668   0.4998338   0.0000000), wk =   0.0370370
        k(   31) = (  -0.6663340  -0.3326670   0.0000000), wk =   0.0185185
        k(   32) = (   0.3330003   0.3330003   0.6666667), wk =   0.0185185
        k(   33) = (   0.4995005   0.4995005   0.6666667), wk =   0.0185185
        k(   34) = (  -0.1665002  -0.1665002   0.6666667), wk =   0.0185185
        k(   35) = (  -0.0000000  -0.0000000   0.6666667), wk =   0.0185185
        k(   36) = (  -0.5003338   0.3338337  -0.1666667), wk =   0.0370370
        k(   37) = (  -0.1673335   0.6668340  -0.1666667), wk =   0.0370370
        k(   38) = (  -0.9998343  -0.1656668  -0.1666667), wk =   0.0370370
        k(   39) = (  -0.3336670   0.3336670  -0.0000000), wk =   0.0185185
        k(   40) = (  -0.1671668   0.5001672  -0.0000000), wk =   0.0370370
        k(   41) = (  -0.0006667   0.6666673  -0.0000000), wk =   0.0370370
        k(   42) = (  -0.8331675  -0.1658335  -0.0000000), wk =   0.0185185
        k(   43) = (  -0.4995005  -0.4995005  -1.0000000), wk =   0.0092593
        k(   44) = (  -0.3330003  -0.3330003  -1.0000000), wk =   0.0185185
        k(   45) = (  -0.1665002  -0.1665002  -1.0000000), wk =   0.0185185
        k(   46) = (  -0.9990010  -0.9990010  -1.0000000), wk =   0.0092593
        k(   47) = (  -0.0001667   0.1666668  -0.1666667), wk =   0.0370370
        k(   48) = (   0.1663335   0.3331670  -0.1666667), wk =   0.0370370
        k(   49) = (   0.3328337   0.4996672  -0.1666667), wk =   0.0370370
        k(   50) = (  -0.0003333   0.3333337  -0.3333333), wk =   0.0370370
        k(   51) = (   0.1661668   0.4998338  -0.3333333), wk =   0.0370370
        k(   52) = (   0.0005000  -0.5000005   0.5000000), wk =   0.0185185
        k(   53) = (   0.1670002  -0.3335003   0.5000000), wk =   0.0370370
        k(   54) = (   0.1665002   0.1665002  -0.3333333), wk =   0.0185185
        k(   55) = (   0.3330003   0.3330003  -0.3333333), wk =   0.0185185
        k(   56) = (   0.1663335   0.3331670  -0.5000000), wk =   0.0370370
        k(   57) = (   0.3328337   0.4996672  -0.5000000), wk =   0.0370370
        k(   58) = (  -0.1666668   0.0001667  -0.5000000), wk =   0.0370370
        k(   59) = (   0.1671668  -0.5001672   0.3333333), wk =   0.0370370
        k(   60) = (  -0.3323337  -0.9996677   0.3333333), wk =   0.0370370
        k(   61) = (   0.1670002  -0.3335003   0.1666667), wk =   0.0370370
        k(   62) = (   0.5000005  -0.0005000   0.1666667), wk =   0.0370370
        k(   63) = (  -0.3325003  -0.8330008   0.1666667), wk =   0.0370370
        k(   64) = (   0.3330003   0.3330003  -0.6666667), wk =   0.0185185
        k(   65) = (  -0.1665002  -0.1665002  -0.6666667), wk =   0.0185185
        k(   66) = (   0.3338337  -0.5003338   0.1666667), wk =   0.0370370
        k(   67) = (   0.6668340  -0.1673335   0.1666667), wk =   0.0370370
        k(   68) = (  -0.1656668  -0.9998343   0.1666667), wk =   0.0370370

     Dense  grid:   146205 G-vectors     FFT dimensions: (  72,  72,  72)

     Smooth grid:    20177 G-vectors     FFT dimensions: (  40,  40,  40)

     Estimated max dynamical RAM per process >      21.99 MB

     Estimated total dynamical RAM >     219.93 MB

     Initial potential from superposition of free atoms

     starting charge       7.9999, renormalised to       8.0000
     Starting wfcs are    8 randomized atomic wfcs

     total cpu time spent up to now is        0.4 secs

     Self-consistent Calculation

     iteration #  1     ecut=   100.00 Ry     beta= 0.70
     CG style diagonalization
     ethr =  1.00E-02,  avg # of iterations =  2.7

     Threshold (ethr) on eigenvalues was too large:
     Diagonalizing with lowered threshold

     CG style diagonalization
     ethr =  5.40E-04,  avg # of iterations =  2.0

     total cpu time spent up to now is        0.9 secs

     total energy              =     -22.62952761 Ry
     estimated scf accuracy    <       0.04160333 Ry

     iteration #  2     ecut=   100.00 Ry     beta= 0.70
     CG style diagonalization
     ethr =  5.20E-04,  avg # of iterations =  3.7

     total cpu time spent up to now is        1.2 secs

     total energy              =     -22.63397191 Ry
     estimated scf accuracy    <       0.00099435 Ry

     iteration #  3     ecut=   100.00 Ry     beta= 0.70
     CG style diagonalization
     ethr =  1.24E-05,  avg # of iterations =  3.6

     total cpu time spent up to now is        1.5 secs

     total energy              =     -22.63409935 Ry
     estimated scf accuracy    <       0.00004807 Ry

     iteration #  4     ecut=   100.00 Ry     beta= 0.70
     CG style diagonalization
     ethr =  6.01E-07,  avg # of iterations =  4.2

     total cpu time spent up to now is        1.9 secs

     total energy              =     -22.63412305 Ry
     estimated scf accuracy    <       0.00001236 Ry

     iteration #  5     ecut=   100.00 Ry     beta= 0.70
     CG style diagonalization
     ethr =  1.55E-07,  avg # of iterations =  3.6

     total cpu time spent up to now is        2.2 secs

     total energy              =     -22.63412523 Ry
     estimated scf accuracy    <       0.00000088 Ry

     iteration #  6     ecut=   100.00 Ry     beta= 0.70
     CG style diagonalization
     ethr =  1.10E-08,  avg # of iterations =  4.8

     total cpu time spent up to now is        2.6 secs

     total energy              =     -22.63412566 Ry
     estimated scf accuracy    <       0.00000071 Ry

     iteration #  7     ecut=   100.00 Ry     beta= 0.70
     CG style diagonalization
     ethr =  8.89E-09,  avg # of iterations =  3.2

     total cpu time spent up to now is        2.8 secs

     total energy              =     -22.63412567 Ry
     estimated scf accuracy    <       0.00000014 Ry

     iteration #  8     ecut=   100.00 Ry     beta= 0.70
     CG style diagonalization
     c_bands:  1 eigenvalues not converged
     ethr =  1.69E-09,  avg # of iterations =  4.3

     total cpu time spent up to now is        3.2 secs

     total energy              =     -22.63412573 Ry
     estimated scf accuracy    <       0.00000014 Ry

     iteration #  9     ecut=   100.00 Ry     beta= 0.70
     CG style diagonalization
     ethr =  1.69E-09,  avg # of iterations =  3.0

     total cpu time spent up to now is        3.4 secs

     total energy              =     -22.63412569 Ry
     estimated scf accuracy    <       0.00000013 Ry

     iteration # 10     ecut=   100.00 Ry     beta= 0.70
     CG style diagonalization
     ethr =  1.61E-09,  avg # of iterations =  4.8

     total cpu time spent up to now is        3.8 secs

     total energy              =     -22.63412569 Ry
     estimated scf accuracy    <       0.00000068 Ry

     iteration # 11     ecut=   100.00 Ry     beta= 0.70
     CG style diagonalization
     ethr =  1.61E-09,  avg # of iterations =  3.9

     total cpu time spent up to now is        4.2 secs

     total energy              =     -22.63412572 Ry
     estimated scf accuracy    <       0.00000004 Ry

     iteration # 12     ecut=   100.00 Ry     beta= 0.70
     CG style diagonalization
     ethr =  5.62E-10,  avg # of iterations =  3.0

     total cpu time spent up to now is        4.4 secs

     total energy              =     -22.63412573 Ry
     estimated scf accuracy    <       0.00000004 Ry

     iteration # 13     ecut=   100.00 Ry     beta= 0.70
     CG style diagonalization
     ethr =  5.32E-10,  avg # of iterations =  3.0

     total cpu time spent up to now is        4.7 secs

     total energy              =     -22.63412573 Ry
     estimated scf accuracy    <       0.00000004 Ry

     iteration # 14     ecut=   100.00 Ry     beta= 0.70
     CG style diagonalization
     ethr =  5.32E-10,  avg # of iterations =  3.2

     total cpu time spent up to now is        4.9 secs

     End of self-consistent calculation

          k = 0.0000 0.0000 0.0000 (  2491 PWs)   bands (ev):

   -11.3775  -2.8401   3.2302   3.2383

          k = 0.1665 0.1665 0.0000 (  2513 PWs)   bands (ev):

   -10.9384  -3.6925   3.0515   3.4875

          k = 0.3330 0.3330 0.0000 (  2511 PWs)   bands (ev):

    -9.6758  -5.6048   2.9098   4.2095

          k =-0.4995-0.4995 0.0000 (  2528 PWs)   bands (ev):

    -7.7974  -7.7569   3.4252   3.4714

          k = 0.1667-0.0002 0.1667 (  2515 PWs)   bands (ev):

   -10.9375  -3.6904   3.0533   3.4823

          k = 0.3332 0.1663 0.1667 (  2510 PWs)   bands (ev):

   -10.0154  -5.3196   4.1365   4.5724

          k = 0.4997 0.3328 0.1667 (  2516 PWs)   bands (ev):

    -8.3218  -7.1147   2.1191   4.5056

          k = 0.3333-0.0003 0.3333 (  2514 PWs)   bands (ev):

    -9.6728  -5.5998   2.9039   4.2056

          k = 0.4998 0.1662 0.3333 (  2517 PWs)   bands (ev):

    -8.3196  -7.1114   2.1115   4.5065

          k = 0.6663 0.3327 0.3333 (  2526 PWs)   bands (ev):

    -8.3330  -6.3356  -0.2685   3.0784

          k = 0.1668-0.1668 0.3333 (  2513 PWs)   bands (ev):

   -10.2513  -3.9413   0.8046   2.9201

          k =-0.5000 0.0005-0.5000 (  2528 PWs)   bands (ev):

    -7.7918  -7.7520   3.4108   3.4645

          k =-0.3335 0.1670-0.5000 (  2515 PWs)   bands (ev):

    -8.8519  -6.1050   0.7926   3.4255

          k = 0.1665 0.1665 0.3333 (  2511 PWs)   bands (ev):

   -10.0148  -5.3168   4.1288   4.5761

          k = 0.3330 0.3330 0.3333 (  2508 PWs)   bands (ev):

    -8.6399  -6.8727   2.8213   2.8255

          k = 0.4995 0.4995 0.3333 (  2502 PWs)   bands (ev):

    -8.2576  -6.5955   0.4172   1.7573

          k = 0.0000 0.0000 0.3333 (  2511 PWs)   bands (ev):

   -10.5792  -3.7317   1.8086   3.1063

          k = 0.3332 0.1663 0.5000 (  2518 PWs)   bands (ev):

    -8.3194  -7.1089   2.1170   4.4936

          k = 0.4997 0.3328 0.5000 (  2506 PWs)   bands (ev):

    -8.2539  -6.5938   0.4118   1.7560

          k = 0.0002-0.1667 0.5000 (  2523 PWs)   bands (ev):

    -9.7054  -3.8264  -0.3613   2.2932

          k =-0.5002 0.1672-0.3333 (  2516 PWs)   bands (ev):

    -8.8500  -6.1053   0.7989   3.4137

          k =-0.3337 0.3337-0.3333 (  2512 PWs)   bands (ev):

    -9.4763  -4.3287  -0.4667   1.5497

          k =-0.9997-0.3323-0.3333 (  2514 PWs)   bands (ev):

    -9.1370  -3.8793  -1.4866   1.9398

          k =-0.8332-0.1658-0.3333 (  2520 PWs)   bands (ev):

    -8.5288  -5.7453  -0.0670   3.5472

          k =-0.3335 0.1670-0.1667 (  2512 PWs)   bands (ev):

   -10.2499  -3.9419   0.8110   2.9099

          k =-0.0005 0.5000-0.1667 (  2523 PWs)   bands (ev):

    -9.7047  -3.8291  -0.3637   2.2978

          k =-0.8330-0.3325-0.1667 (  2521 PWs)   bands (ev):

    -8.5298  -5.7478  -0.0654   3.5492

          k =-0.1668 0.1668 0.0000 (  2521 PWs)   bands (ev):

   -11.0032  -2.9144   1.7577   2.9189

          k =-0.0003 0.3333 0.0000 (  2511 PWs)   bands (ev):

   -10.5787  -3.7344   1.8109   3.1055

          k = 0.1662 0.4998 0.0000 (  2523 PWs)   bands (ev):

    -9.3658  -5.5325   1.9282   4.0327

          k =-0.6663-0.3327 0.0000 (  2512 PWs)   bands (ev):

    -7.5857  -7.5442   2.6448   2.6653

          k = 0.3330 0.3330 0.6667 (  2526 PWs)   bands (ev):

    -8.3273  -6.3340  -0.2668   3.0639

          k = 0.4995 0.4995 0.6667 (  2506 PWs)   bands (ev):

    -8.9983  -4.5089  -1.0350   0.7395

          k =-0.1665-0.1665 0.6667 (  2520 PWs)   bands (ev):

    -9.0556  -3.7187  -0.7796   0.5754

          k =-0.0000-0.0000 0.6667 (  2526 PWs)   bands (ev):

    -8.6439  -5.4022   0.7057   2.7065

          k =-0.5003 0.3338-0.1667 (  2520 PWs)   bands (ev):

    -9.3468  -4.1831  -1.2674   2.4090

          k =-0.1673 0.6668-0.1667 (  2522 PWs)   bands (ev):

    -9.0533  -3.7195  -0.7857   0.5799

          k =-0.9998-0.1657-0.1667 (  2520 PWs)   bands (ev):

    -8.2078  -5.3517   0.1794   1.9213

          k =-0.3337 0.3337-0.0000 (  2511 PWs)   bands (ev):

   -10.0788  -3.0634  -0.7837   2.3612

          k =-0.1672 0.5002-0.0000 (  2523 PWs)   bands (ev):

    -9.7019  -3.8278  -0.3612   2.2889

          k =-0.0007 0.6667-0.0000 (  2521 PWs)   bands (ev):

    -8.6424  -5.4054   0.7016   2.7128

          k =-0.8332-0.1658-0.0000 (  2524 PWs)   bands (ev):

    -7.1347  -7.0913   2.1165   2.1239

          k =-0.4995-0.4995-1.0000 (  2528 PWs)   bands (ev):

    -9.4635  -3.1380  -2.0509   2.1083

          k =-0.3330-0.3330-1.0000 (  2512 PWs)   bands (ev):

    -9.1316  -3.8788  -1.4866   1.9310

          k =-0.1665-0.1665-1.0000 (  2516 PWs)   bands (ev):

    -8.2052  -5.3522   0.1768   1.9214

          k =-0.9990-0.9990-1.0000 (  2518 PWs)   bands (ev):

    -6.8951  -6.8507   2.8020   2.8128

          k =-0.0002 0.1667-0.1667 (  2515 PWs)   bands (ev):

   -11.0043  -2.9147   1.7523   2.9273

          k = 0.1663 0.3332-0.1667 (  2510 PWs)   bands (ev):

   -10.2535  -3.9451   0.8106   2.9191

          k = 0.3328 0.4997-0.1667 (  2516 PWs)   bands (ev):

    -8.8559  -6.1093   0.8026   3.4237

          k =-0.0003 0.3333-0.3333 (  2514 PWs)   bands (ev):

   -10.0829  -3.0642  -0.7868   2.3733

          k = 0.1662 0.4998-0.3333 (  2517 PWs)   bands (ev):

    -9.3532  -4.1854  -1.2674   2.4221

          k = 0.0005-0.5000 0.5000 (  2528 PWs)   bands (ev):

    -9.4701  -3.1390  -2.0518   2.1220

          k = 0.1670-0.3335 0.5000 (  2515 PWs)   bands (ev):

    -9.3517  -4.1836  -1.2707   2.4231

          k = 0.1665 0.1665-0.3333 (  2511 PWs)   bands (ev):

   -10.3482  -3.0283   0.1231   2.0574

          k = 0.3330 0.3330-0.3333 (  2508 PWs)   bands (ev):

    -9.4810  -4.3316  -0.4585   1.5490

          k = 0.1663 0.3332-0.5000 (  2518 PWs)   bands (ev):

    -9.5034  -3.1439  -1.4375   1.1105

          k = 0.3328 0.4997-0.5000 (  2506 PWs)   bands (ev):

    -9.0020  -4.5100  -1.0359   0.7468

          k =-0.1667 0.0002-0.5000 (  2523 PWs)   bands (ev):

    -9.3644  -5.5271   1.9242   4.0292

          k = 0.1672-0.5002 0.3333 (  2516 PWs)   bands (ev):

    -9.5015  -3.1435  -1.4423   1.1137

          k =-0.3323-0.9997 0.3333 (  2514 PWs)   bands (ev):

    -7.5813  -7.5404   2.6371   2.6635

          k = 0.1670-0.3335 0.1667 (  2512 PWs)   bands (ev):

   -10.3455  -3.0276   0.1186   2.0586

          k = 0.5000-0.0005 0.1667 (  2523 PWs)   bands (ev):

    -9.3633  -5.5300   1.9298   4.0236

          k =-0.3325-0.8330 0.1667 (  2521 PWs)   bands (ev):

    -7.7745  -7.0937   1.5771   3.4397

          k = 0.3330 0.3330-0.6667 (  2526 PWs)   bands (ev):

    -9.1828  -3.1866  -0.7282  -0.7262

          k =-0.1665-0.1665-0.6667 (  2520 PWs)   bands (ev):

    -7.7740  -7.0883   1.5778   3.4375

          k = 0.3338-0.5003 0.1667 (  2520 PWs)   bands (ev):

    -9.4983  -3.1430  -1.4398   1.1051

          k = 0.6668-0.1673 0.1667 (  2522 PWs)   bands (ev):

    -8.5243  -5.7460  -0.0654   3.5383

          k =-0.1657-0.9998 0.1667 (  2520 PWs)   bands (ev):

    -7.1332  -7.0899   2.1139   2.1261

     highest occupied level (ev):     4.5761

!    total energy              =     -22.63412572 Ry
     estimated scf accuracy    <          3.1E-09 Ry

     The total energy is the sum of the following terms:
     one-electron contribution =      -0.12292392 Ry
     hartree contribution      =       3.42547682 Ry
     xc contribution           =      -6.57347494 Ry
     ewald contribution        =     -19.36320368 Ry

     convergence has been achieved in  14 iterations

     Forces acting on atoms (cartesian axes, Ry/au):

     atom    1 type  1   force =     0.00981705    0.00981705    0.00988041
     atom    2 type  1   force =    -0.00981705   -0.00981705   -0.00988041

     Total force =     0.024099     Total SCF correction =     0.000001


     Computing stress (Cartesian axis) and pressure

          total   stress  (Ry/bohr**3)                   (kbar)     P=     -637.21
  -0.00433447  -0.00550707  -0.00549611         -637.62     -810.12     -808.51
  -0.00550707  -0.00433447  -0.00549611         -810.12     -637.62     -808.51
  -0.00549611  -0.00549611  -0.00432610         -808.51     -808.51     -636.39


     Writing all to output data dir ./diamond_trigonal_eta0p002.save/ :
     XML data file, charge density, pseudopotentials, collected wavefunctions
 
     init_run     :      0.28s CPU      0.34s WALL (       1 calls)
     electrons    :      4.22s CPU      4.54s WALL (       1 calls)
     forces       :      0.03s CPU      0.04s WALL (       1 calls)
     stress       :      0.16s CPU      0.17s WALL (       1 calls)

     Called by init_run:
     wfcinit      :      0.11s CPU      0.13s WALL (       1 calls)
     potinit      :      0.01s CPU      0.01s WALL (       1 calls)
     hinit0       :      0.03s CPU      0.05s WALL (       1 calls)

     Called by electrons:
     c_bands      :      3.40s CPU      3.62s WALL (      15 calls)
     sum_band     :      0.62s CPU      0.67s WALL (      15 calls)
     v_of_rho     :      0.04s CPU      0.04s WALL (      15 calls)
     newd         :      0.12s CPU      0.14s WALL (      15 calls)
     mix_rho      :      0.03s CPU      0.03s WALL (      15 calls)

     Called by c_bands:
     init_us_2    :      0.09s CPU      0.09s WALL (    2244 calls)
     init_us_2:cp :      0.08s CPU      0.09s WALL (    2244 calls)
     ccgdiagg     :      2.73s CPU      2.91s WALL (    1020 calls)
     wfcrot       :      0.68s CPU      0.74s WALL (     952 calls)

     Called by *cgdiagg:
     h_psi        :      2.38s CPU      2.53s WALL (   11867 calls)
     s_psi        :      0.08s CPU      0.09s WALL (   22782 calls)

     Called by h_psi:
     h_psi:calbec :      0.22s CPU      0.24s WALL (   11867 calls)
     vloc_psi     :      2.01s CPU      2.14s WALL (   11867 calls)
     add_vuspsi   :      0.05s CPU      0.06s WALL (   11867 calls)
     hs_1psi      :      1.91s CPU      2.03s WALL (   10915 calls)
     s_1psi       :      0.24s CPU      0.26s WALL (   10915 calls)

     General routines
     calbec       :      0.37s CPU      0.40s WALL (   24142 calls)
     fft          :      0.05s CPU      0.07s WALL (      97 calls)
     ffts         :      0.00s CPU      0.00s WALL (      30 calls)
     fftw         :      1.62s CPU      1.72s WALL (   34070 calls)
     interpolate  :      0.01s CPU      0.01s WALL (      15 calls)
 
     Parallel routines
 
     PWSCF        :      4.77s CPU      5.58s WALL

 
   This run was terminated on:  22:27:21  20Oct2025            

=------------------------------------------------------------------------------=
   JOB DONE.
=------------------------------------------------------------------------------=
TACC:  Shutdown complete. Exiting. 
