TACC:  Starting up job 2406191 
TACC:  Starting parallel tasks... 

     Program PWSCF v.7.3 starts on 23Sep2025 at 23:53: 0 

     This program is part of the open-source Quantum ESPRESSO suite
     for quantum simulation of materials; please cite
         "P. Giannozzi et al., J. Phys.:Condens. Matter 21 395502 (2009);
         "P. Giannozzi et al., J. Phys.:Condens. Matter 29 465901 (2017);
         "P. Giannozzi et al., J. Chem. Phys. 152 154105 (2020);
          URL http://www.quantum-espresso.org", 
     in publications or presentations arising from this work. More details at
     http://www.quantum-espresso.org/quote

     Parallel version (MPI & OpenMP), running on      10 processor cores
     Number of MPI processes:                10
     Threads/MPI process:                     1

     MPI processes distributed on     1 nodes
     187203 MiB available memory on the printing compute node when the environment starts
 
     Waiting for input...
     Reading input from standard input
Warning: card &CELL ignored
Warning: card  CELL_DYNAMICS = 'BFGS', ignored
Warning: card  PRESS=0.D0, ignored
Warning: card / ignored
     Message from routine read_cards :
     DEPRECATED: no units specified in ATOMIC_POSITIONS card
     Message from routine read_cards :
     ATOMIC_POSITIONS: units set to alat

     Current dimensions of program PWSCF are:
     Max number of different atomic species (ntypx) = 10
     Max number of k-points (npk) =  40000
     Max angular momentum in pseudopotentials (lmaxx) =  4
 
     R & G space division:  proc/nbgrp/npool/nimage =      10
     Subspace diagonalization in iterative solution of the eigenvalue problem:
     a serial algorithm will be used

 
     Parallelization info
     --------------------
     sticks:   dense  smooth     PW     G-vecs:    dense   smooth      PW
     Min         273     109     32                10695     2707     438
     Max         274     111     33                10697     2709     439
     Sum        2733    1093    325               106959    27081    4385
 
     Using Slab Decomposition
 


     bravais-lattice index     =            1
     lattice parameter (alat)  =       6.9894  a.u.
     unit-cell volume          =     341.4493 (a.u.)^3
     number of atoms/cell      =            5
     number of atomic types    =            3
     number of electrons       =        40.00
     number of Kohn-Sham states=           20
     kinetic-energy cutoff     =      70.0000  Ry
     charge density cutoff     =     700.0000  Ry
     scf convergence threshold =      1.0E-08
     mixing beta               =       0.7000
     number of iterations used =            8  plain     mixing
     Exchange-correlation= SLA  PZ   NOGX NOGC
                           (   1   1   0   0   0   0   0)

     celldm(1)=   6.989435  celldm(2)=   0.000000  celldm(3)=   0.000000
     celldm(4)=   0.000000  celldm(5)=   0.000000  celldm(6)=   0.000000

     crystal axes: (cart. coord. in units of alat)
               a(1) = (   1.000000   0.000000   0.000000 )  
               a(2) = (   0.000000   1.000000   0.000000 )  
               a(3) = (   0.000000   0.000000   1.000000 )  

     reciprocal axes: (cart. coord. in units 2 pi/alat)
               b(1) = (  1.000000  0.000000  0.000000 )  
               b(2) = (  0.000000  1.000000  0.000000 )  
               b(3) = (  0.000000  0.000000  1.000000 )  


     PseudoPot. # 1 for Ca read from file:
     /scratch/11018/zhc/assisgnment1/CaTiO3/Ca_LDA.UPF
     MD5 check sum: d2d4e7693e10d071152e9eeb7dd009f3
     Pseudo is Ultrasoft + core correction, Zval = 10.0
     Generated by new atomic code, or converted to UPF format
     Using radial grid of  845 points,  6 beta functions with: 
                l(1) =   0
                l(2) =   0
                l(3) =   1
                l(4) =   1
                l(5) =   2
                l(6) =   2
     Q(r) pseudized with  8 coefficients,  rinner =    1.500   1.500   1.500
                                                       1.500   1.500

     PseudoPot. # 2 for Ti read from file:
     /scratch/11018/zhc/assisgnment1/CaTiO3/Ti_LDA.UPF
     MD5 check sum: 0d9f225c038fe889ca2a701dcc8d72cb
     Pseudo is Ultrasoft + core correction, Zval = 12.0
     Generated by new atomic code, or converted to UPF format
     Using radial grid of  851 points,  6 beta functions with: 
                l(1) =   0
                l(2) =   0
                l(3) =   1
                l(4) =   1
                l(5) =   2
                l(6) =   2
     Q(r) pseudized with  6 coefficients,  rinner =    1.000   1.000   1.000
                                                       1.000   1.000

     PseudoPot. # 3 for O  read from file:
     /scratch/11018/zhc/assisgnment1/CaTiO3/O_LDA.UPF
     MD5 check sum: 194b818514d2a7dbb603bb78519a4f40
     Pseudo is Ultrasoft + core correction, Zval =  6.0
     Generated by new atomic code, or converted to UPF format
     Using radial grid of  737 points,  5 beta functions with: 
                l(1) =   0
                l(2) =   0
                l(3) =   1
                l(4) =   1
                l(5) =   2
     Q(r) pseudized with  8 coefficients,  rinner =    0.900   0.900   0.900
                                                       0.900   0.900

     atomic species   valence    mass     pseudopotential
     Ca               10.00    40.07800     Ca( 1.00)
     Ti               12.00    47.88000     Ti( 1.00)
     O                 6.00    16.00000     O ( 1.00)

     48 Sym. Ops., with inversion, found



   Cartesian axes

     site n.     atom                  positions (alat units)
         1        Ca     tau(   1) = (   0.0000000   0.0000000   0.0000000  )
         2        Ti     tau(   2) = (   0.5000000   0.5000000   0.5000000  )
         3        O      tau(   3) = (   0.5000000   0.5000000   0.0000000  )
         4        O      tau(   4) = (   0.5000000   0.0000000   0.5000000  )
         5        O      tau(   5) = (   0.0000000   0.5000000   0.5000000  )

     number of k points=    20
                       cart. coord. in units 2pi/alat
        k(    1) = (   0.0000000   0.0000000   0.0000000), wk =   0.0092593
        k(    2) = (   0.0000000   0.0000000   0.1666667), wk =   0.0555556
        k(    3) = (   0.0000000   0.0000000   0.3333333), wk =   0.0555556
        k(    4) = (   0.0000000   0.0000000  -0.5000000), wk =   0.0277778
        k(    5) = (   0.0000000   0.1666667   0.1666667), wk =   0.1111111
        k(    6) = (   0.0000000   0.1666667   0.3333333), wk =   0.2222222
        k(    7) = (   0.0000000   0.1666667  -0.5000000), wk =   0.1111111
        k(    8) = (   0.0000000   0.3333333   0.3333333), wk =   0.1111111
        k(    9) = (   0.0000000   0.3333333  -0.5000000), wk =   0.1111111
        k(   10) = (   0.0000000  -0.5000000  -0.5000000), wk =   0.0277778
        k(   11) = (   0.1666667   0.1666667   0.1666667), wk =   0.0740741
        k(   12) = (   0.1666667   0.1666667   0.3333333), wk =   0.2222222
        k(   13) = (   0.1666667   0.1666667  -0.5000000), wk =   0.1111111
        k(   14) = (   0.1666667   0.3333333   0.3333333), wk =   0.2222222
        k(   15) = (   0.1666667   0.3333333  -0.5000000), wk =   0.2222222
        k(   16) = (   0.1666667  -0.5000000  -0.5000000), wk =   0.0555556
        k(   17) = (   0.3333333   0.3333333   0.3333333), wk =   0.0740741
        k(   18) = (   0.3333333   0.3333333  -0.5000000), wk =   0.1111111
        k(   19) = (   0.3333333  -0.5000000  -0.5000000), wk =   0.0555556
        k(   20) = (  -0.5000000  -0.5000000  -0.5000000), wk =   0.0092593

     Dense  grid:   106959 G-vectors     FFT dimensions: (  60,  60,  60)

     Smooth grid:    27081 G-vectors     FFT dimensions: (  40,  40,  40)

     Estimated max dynamical RAM per process >      48.24 MB

     Estimated total dynamical RAM >     482.42 MB

     Check: negative core charge=   -0.000003

     Initial potential from superposition of free atoms

     starting charge      38.9952, renormalised to      40.0000

     negative rho (up, down):  7.673E-04 0.000E+00
     Starting wfcs are   32 randomized atomic wfcs

     total cpu time spent up to now is        0.8 secs

     Self-consistent Calculation

     iteration #  1     ecut=    70.00 Ry     beta= 0.70
     CG style diagonalization
     ethr =  1.00E-02,  avg # of iterations =  2.2

     negative rho (up, down):  1.163E-03 0.000E+00

     total cpu time spent up to now is        1.2 secs

     total energy              =    -291.30806965 Ry
     estimated scf accuracy    <       0.82890167 Ry

     iteration #  2     ecut=    70.00 Ry     beta= 0.70
     CG style diagonalization
     ethr =  2.07E-03,  avg # of iterations =  4.8

     negative rho (up, down):  5.977E-04 0.000E+00

     total cpu time spent up to now is        2.0 secs

     total energy              =    -291.04202635 Ry
     estimated scf accuracy    <       3.39127901 Ry

     iteration #  3     ecut=    70.00 Ry     beta= 0.70
     CG style diagonalization
     ethr =  2.07E-03,  avg # of iterations =  4.1

     negative rho (up, down):  7.443E-04 0.000E+00

     total cpu time spent up to now is        2.7 secs

     total energy              =    -291.72446059 Ry
     estimated scf accuracy    <       0.11009769 Ry

     iteration #  4     ecut=    70.00 Ry     beta= 0.70
     CG style diagonalization
     ethr =  2.75E-04,  avg # of iterations =  3.6

     negative rho (up, down):  8.409E-04 0.000E+00

     total cpu time spent up to now is        3.3 secs

     total energy              =    -291.73612576 Ry
     estimated scf accuracy    <       0.01611926 Ry

     iteration #  5     ecut=    70.00 Ry     beta= 0.70
     CG style diagonalization
     ethr =  4.03E-05,  avg # of iterations =  3.7

     negative rho (up, down):  8.507E-04 0.000E+00

     total cpu time spent up to now is        3.9 secs

     total energy              =    -291.74108275 Ry
     estimated scf accuracy    <       0.00053644 Ry

     iteration #  6     ecut=    70.00 Ry     beta= 0.70
     CG style diagonalization
     ethr =  1.34E-06,  avg # of iterations =  3.8

     negative rho (up, down):  8.412E-04 0.000E+00

     total cpu time spent up to now is        4.5 secs

     total energy              =    -291.74127881 Ry
     estimated scf accuracy    <       0.00019774 Ry

     iteration #  7     ecut=    70.00 Ry     beta= 0.70
     CG style diagonalization
     ethr =  4.94E-07,  avg # of iterations =  3.5

     negative rho (up, down):  8.378E-04 0.000E+00

     total cpu time spent up to now is        5.1 secs

     total energy              =    -291.74130956 Ry
     estimated scf accuracy    <       0.00001785 Ry

     iteration #  8     ecut=    70.00 Ry     beta= 0.70
     CG style diagonalization
     ethr =  4.46E-08,  avg # of iterations =  3.9

     negative rho (up, down):  8.374E-04 0.000E+00

     total cpu time spent up to now is        5.8 secs

     total energy              =    -291.74131670 Ry
     estimated scf accuracy    <       0.00000055 Ry

     iteration #  9     ecut=    70.00 Ry     beta= 0.70
     CG style diagonalization
     ethr =  1.38E-09,  avg # of iterations =  4.4

     negative rho (up, down):  8.378E-04 0.000E+00

     total cpu time spent up to now is        6.5 secs

     total energy              =    -291.74131725 Ry
     estimated scf accuracy    <       0.00000017 Ry

     iteration # 10     ecut=    70.00 Ry     beta= 0.70
     CG style diagonalization
     ethr =  4.22E-10,  avg # of iterations =  3.7

     negative rho (up, down):  8.378E-04 0.000E+00

     total cpu time spent up to now is        7.1 secs

     End of self-consistent calculation

          k = 0.0000 0.0000 0.0000 (  3407 PWs)   bands (ev):

   -44.3184 -27.5217 -21.0586 -21.0586 -21.0586  -8.7523  -8.7523  -8.7523
    -6.9847  -5.7241  -5.7241   7.5939   7.5939   7.5939   9.4342   9.4342
     9.4342  10.5354  10.5354  10.5354

          k = 0.0000 0.0000 0.1667 (  3367 PWs)   bands (ev):

   -44.3176 -27.5187 -21.0956 -21.0566 -21.0566  -8.9202  -8.7473  -8.7473
    -6.7033  -5.7082  -5.5647   7.2363   7.5738   7.5738   9.0025   9.0025
     9.1360   9.5683  10.3858  10.3858

          k = 0.0000 0.0000 0.3333 (  3382 PWs)   bands (ev):

   -44.3162 -27.5127 -21.1684 -21.0527 -21.0527  -9.1889  -8.7370  -8.7370
    -6.1825  -5.6761  -5.2285   6.4202   7.5817   7.5817   8.2355   8.2699
     8.2699   8.6288  10.2499  10.2499

          k = 0.0000 0.0000-0.5000 (  3394 PWs)   bands (ev):

   -44.3155 -27.5096 -21.2040 -21.0507 -21.0507  -9.3035  -8.7319  -8.7319
    -5.9381  -5.6598  -5.0375   5.9346   7.7500   7.7500   7.7643   7.7976
     7.7976   8.4063  10.2045  10.2045

          k = 0.0000 0.1667 0.1667 (  3381 PWs)   bands (ev):

   -44.3169 -27.5155 -21.0949 -21.0932 -21.0547  -8.9473  -8.8278  -8.7417
    -6.4804  -5.6280  -5.4785   6.9410   7.4427   7.5449   8.2310   8.7017
     9.4044   9.4361   9.8042  10.1437

          k = 0.0000 0.1667 0.3333 (  3375 PWs)   bands (ev):

   -44.3155 -27.5091 -21.1675 -21.0909 -21.0508  -9.1351  -8.8220  -8.7305
    -6.0807  -5.5569  -5.1605   6.3112   6.8945   7.5276   7.5976   8.1056
     8.5051   9.4253   9.6305   9.9271

          k = 0.0000 0.1667-0.5000 (  3386 PWs)   bands (ev):

   -44.3148 -27.5059 -21.2036 -21.0893 -21.0489  -9.2315  -8.8052  -8.7248
    -5.9242  -5.5074  -4.9560   5.9312   6.4559   7.4988   7.6683   7.6877
     8.2260   9.4530   9.4679   9.8651

          k = 0.0000 0.3333 0.3333 (  3387 PWs)   bands (ev):

   -44.3141 -27.5019 -21.1668 -21.1651 -21.0472  -9.0533  -8.9551  -8.7173
    -6.0261  -5.1768  -4.9808   5.7339   6.5539   6.5911   7.4387   7.7456
     8.5776   8.8031   9.5686  10.2908

          k = 0.0000 0.3333-0.5000 (  3368 PWs)   bands (ev):

   -44.3133 -27.4983 -21.2027 -21.1651 -21.0453  -9.0852  -8.9440  -8.7106
    -6.0389  -5.0137  -4.7984   5.4557   5.9246   6.5422   7.4787   7.4815
     8.5084   8.7719   9.4590  10.4588

          k = 0.0000-0.5000-0.5000 (  3388 PWs)   bands (ev):

   -44.3126 -27.4945 -21.2023 -21.2023 -21.0435  -9.0100  -9.0100  -8.7035
    -6.1121  -4.7216  -4.7216   5.0939   5.8731   5.9754   7.3791   7.3791
     8.6495   8.6495   9.3277  10.7622

          k = 0.1667 0.1667 0.1667 (  3380 PWs)   bands (ev):

   -44.3162 -27.5122 -21.0928 -21.0928 -21.0916  -8.9553  -8.8146  -8.8146
    -6.2816  -5.4821  -5.4821   6.6928   7.3550   7.3550   8.1080   8.1080
     9.0312   9.7499   9.7499   9.7635

          k = 0.1667 0.1667 0.3333 (  3380 PWs)   bands (ev):

   -44.3148 -27.5056 -21.1663 -21.0895 -21.0885  -9.0883  -8.8264  -8.7880
    -5.9164  -5.4898  -5.1312   6.2085   6.8432   6.9926   7.3240   7.7585
     8.7624   9.4400   9.6552   9.7473

          k = 0.1667 0.1667-0.5000 (  3378 PWs)   bands (ev):

   -44.3141 -27.5023 -21.2026 -21.0882 -21.0864  -9.1701  -8.8104  -8.7745
    -5.7604  -5.4938  -4.9079   5.9312   6.3285   6.7775   7.1390   7.7165
     8.8564   9.2415   9.6188   9.6306

          k = 0.1667 0.3333 0.3333 (  3375 PWs)   bands (ev):

   -44.3134 -27.4985 -21.1643 -21.1635 -21.0852  -9.0175  -8.9319  -8.7772
    -5.7825  -5.1756  -5.0178   5.7874   6.5392   6.5529   6.9317   7.0698
     8.3404   9.4883   9.5309  10.3197

          k = 0.1667 0.3333-0.5000 (  3370 PWs)   bands (ev):

   -44.3126 -27.4950 -21.2006 -21.1627 -21.0833  -9.0467  -8.9237  -8.7650
    -5.7832  -5.0681  -4.8168   5.5793   5.9327   6.5063   6.6984   6.9950
     8.3691   9.4275   9.5074  10.4840

          k = 0.1667-0.5000-0.5000 (  3392 PWs)   bands (ev):

   -44.3119 -27.4914 -21.1997 -21.1997 -21.0812  -8.9839  -8.9839  -8.7541
    -5.8453  -4.7736  -4.7736   5.2645   5.8938   5.9811   6.7210   6.7210
     8.3604   9.4699   9.4699  10.7932

          k = 0.3333 0.3333 0.3333 (  3368 PWs)   bands (ev):

   -44.3119 -27.4918 -21.1607 -21.1594 -21.1594  -8.9566  -8.8841  -8.8841
    -5.3284  -5.0936  -5.0936   5.7975   6.2595   6.2595   6.6562   6.6562
     6.9073  10.1106  10.1106  10.4871

          k = 0.3333 0.3333-0.5000 (  3366 PWs)   bands (ev):

   -44.3112 -27.4884 -21.1965 -21.1587 -21.1569  -8.9692  -8.8934  -8.8595
    -5.2660  -5.1324  -4.8575   5.7563   5.9484   6.0301   6.2023   6.6393
     6.8457  10.2098  10.3354  10.6158

          k = 0.3333-0.5000-0.5000 (  3376 PWs)   bands (ev):

   -44.3105 -27.4851 -21.1944 -21.1944 -21.1553  -8.9299  -8.9299  -8.8532
    -5.2599  -4.8796  -4.8796   5.6145   5.9352   5.9924   6.0384   6.0384
     6.7231  10.4798  10.4798  10.8567

          k =-0.5000-0.5000-0.5000 (  3328 PWs)   bands (ev):

   -44.3099 -27.4820 -21.1917 -21.1917 -21.1917  -8.9019  -8.9019  -8.9019
    -4.9335  -4.9335  -4.9335   5.7945   5.7945   5.7945   5.9300   5.9981
     5.9981  10.8893  10.8893  10.8893

     highest occupied level (ev):    10.8893

!    total energy              =    -291.74131729 Ry
     estimated scf accuracy    <          2.8E-09 Ry

     The total energy is the sum of the following terms:
     one-electron contribution =     -76.83578792 Ry
     hartree contribution      =      61.23538971 Ry
     xc contribution           =     -51.77821974 Ry
     ewald contribution        =    -224.36269934 Ry

     convergence has been achieved in  10 iterations

     negative rho (up, down):  8.378E-04 0.000E+00

     Forces acting on atoms (cartesian axes, Ry/au):

     atom    1 type  1   force =     0.00000000    0.00000000    0.00000000
     atom    2 type  2   force =     0.00000000    0.00000000    0.00000000
     atom    3 type  3   force =     0.00000000    0.00000000    0.00000000
     atom    4 type  3   force =     0.00000000    0.00000000    0.00000000
     atom    5 type  3   force =     0.00000000    0.00000000    0.00000000

     Total force =     0.000000     Total SCF correction =     0.000000


     Computing stress (Cartesian axis) and pressure


     negative rho (up, down):  8.378E-04 0.000E+00
          total   stress  (Ry/bohr**3)                   (kbar)     P=      215.06
   0.00146195   0.00000000   0.00000000          215.06        0.00        0.00
   0.00000000   0.00146195   0.00000000            0.00      215.06        0.00
   0.00000000   0.00000000   0.00146195            0.00        0.00      215.06


     Writing all to output data dir ./CTO_CELLDM_1.save/ :
     XML data file, charge density, pseudopotentials, collected wavefunctions
 
     init_run     :      0.41s CPU      0.50s WALL (       1 calls)
     electrons    :      5.88s CPU      6.39s WALL (       1 calls)
     forces       :      0.11s CPU      0.12s WALL (       1 calls)
     stress       :      0.92s CPU      0.94s WALL (       1 calls)

     Called by init_run:
     wfcinit      :      0.13s CPU      0.16s WALL (       1 calls)
     potinit      :      0.01s CPU      0.01s WALL (       1 calls)
     hinit0       :      0.12s CPU      0.15s WALL (       1 calls)

     Called by electrons:
     c_bands      :      4.34s CPU      4.59s WALL (      10 calls)
     sum_band     :      0.99s CPU      1.08s WALL (      10 calls)
     v_of_rho     :      0.02s CPU      0.02s WALL (      11 calls)
     newd         :      0.55s CPU      0.72s WALL (      11 calls)
     mix_rho      :      0.01s CPU      0.02s WALL (      10 calls)

     Called by c_bands:
     init_us_2    :      0.06s CPU      0.06s WALL (     460 calls)
     init_us_2:cp :      0.06s CPU      0.06s WALL (     460 calls)
     ccgdiagg     :      3.73s CPU      3.95s WALL (     200 calls)
     wfcrot       :      0.68s CPU      0.73s WALL (     200 calls)

     Called by *cgdiagg:
     h_psi        :      2.66s CPU      2.81s WALL (   11648 calls)
     s_psi        :      0.32s CPU      0.34s WALL (   23096 calls)

     Called by h_psi:
     h_psi:calbec :      0.43s CPU      0.46s WALL (   11648 calls)
     vloc_psi     :      1.94s CPU      2.05s WALL (   11648 calls)
     add_vuspsi   :      0.19s CPU      0.20s WALL (   11648 calls)
     hs_1psi      :      2.32s CPU      2.45s WALL (   11448 calls)
     s_1psi       :      0.51s CPU      0.54s WALL (   11448 calls)

     General routines
     calbec       :      0.75s CPU      0.80s WALL (   23396 calls)
     fft          :      0.02s CPU      0.03s WALL (      72 calls)
     ffts         :      0.00s CPU      0.00s WALL (      21 calls)
     fftw         :      1.70s CPU      1.79s WALL (   35376 calls)
     interpolate  :      0.00s CPU      0.01s WALL (      11 calls)
 
     Parallel routines
 
     PWSCF        :      7.54s CPU      8.54s WALL

 
   This run was terminated on:  23:53: 9  23Sep2025            

=------------------------------------------------------------------------------=
   JOB DONE.
=------------------------------------------------------------------------------=
TACC:  Shutdown complete. Exiting. 
