TACC:  Starting up job 2476728 
TACC:  Starting parallel tasks... 

     Program PWSCF v.7.3 starts on 18Oct2025 at 16:50:47 

     This program is part of the open-source Quantum ESPRESSO suite
     for quantum simulation of materials; please cite
         "P. Giannozzi et al., J. Phys.:Condens. Matter 21 395502 (2009);
         "P. Giannozzi et al., J. Phys.:Condens. Matter 29 465901 (2017);
         "P. Giannozzi et al., J. Chem. Phys. 152 154105 (2020);
          URL http://www.quantum-espresso.org", 
     in publications or presentations arising from this work. More details at
     http://www.quantum-espresso.org/quote

     Parallel version (MPI & OpenMP), running on      10 processor cores
     Number of MPI processes:                10
     Threads/MPI process:                     1

     MPI processes distributed on     1 nodes
     185236 MiB available memory on the printing compute node when the environment starts
 
     Waiting for input...
     Reading input from standard input
Warning: card &CELL ignored
Warning: card  CELL_DYNAMICS = 'BFGS', ignored
Warning: card  PRESS=0.D0, ignored
Warning: card / ignored
     Message from routine read_cards :
     DEPRECATED: no units specified in ATOMIC_POSITIONS card
     Message from routine read_cards :
     ATOMIC_POSITIONS: units set to alat

     Current dimensions of program PWSCF are:
     Max number of different atomic species (ntypx) = 10
     Max number of k-points (npk) =  40000
     Max angular momentum in pseudopotentials (lmaxx) =  4
     Message from routine setup:
     using ibrav=0 with symmetry is DISCOURAGED, use correct ibrav instead
 
     R & G space division:  proc/nbgrp/npool/nimage =      10
     Subspace diagonalization in iterative solution of the eigenvalue problem:
     a serial algorithm will be used

 
     Parallelization info
     --------------------
     sticks:   dense  smooth     PW     G-vecs:    dense   smooth      PW
     Min         125      48     18                 2797      699     159
     Max         126      49     19                 2799      704     161
     Sum        1255     487    181                27979     7011    1601
 
     Using Slab Decomposition
 


     bravais-lattice index     =            0
     lattice parameter (alat)  =       6.7000  a.u.
     unit-cell volume          =     148.5841 (a.u.)^3
     number of atoms/cell      =            2
     number of atomic types    =            1
     number of electrons       =         8.00
     number of Kohn-Sham states=            4
     kinetic-energy cutoff     =      50.0000  Ry
     charge density cutoff     =     500.0000  Ry
     scf convergence threshold =      1.0E-08
     mixing beta               =       0.7000
     number of iterations used =            8  plain     mixing
     Exchange-correlation= SLA  PZ   NOGX NOGC
                           (   1   1   0   0   0   0   0)

     celldm(1)=   6.700000  celldm(2)=   0.000000  celldm(3)=   0.000000
     celldm(4)=   0.000000  celldm(5)=   0.000000  celldm(6)=   0.000000

     crystal axes: (cart. coord. in units of alat)
               a(1) = (  -0.498000   0.498000   0.498000 )  
               a(2) = (   0.498000  -0.498000   0.498000 )  
               a(3) = (   0.498000   0.498000  -0.498000 )  

     reciprocal axes: (cart. coord. in units 2 pi/alat)
               b(1) = (  0.000000  1.004016  1.004016 )  
               b(2) = (  1.004016  0.000000  1.004016 )  
               b(3) = (  1.004016  1.004016  0.000000 )  


     PseudoPot. # 1 for C  read from file:
     /scratch/11018/zhc/Assisgnment2/Q2/Diamond/Diamond/C_LDA.UPF
     MD5 check sum: 407c1fe918d93b14b177d5600f28733c
     Pseudo is Ultrasoft + core correction, Zval =  4.0
     Generated by new atomic code, or converted to UPF format
     Using radial grid of  721 points,  4 beta functions with: 
                l(1) =   0
                l(2) =   0
                l(3) =   1
                l(4) =   1
     Q(r) pseudized with  8 coefficients,  rinner =    1.100   1.100   1.100


     atomic species   valence    mass     pseudopotential
     C                 4.00    12.01100     C ( 1.00)

      6 Sym. Ops. (no inversion) found



   Cartesian axes

     site n.     atom                  positions (alat units)
         1        C      tau(   1) = (   0.0000000   0.0000000   0.0000000  )
         2        C      tau(   2) = (   0.2500000   0.2500000   0.2500000  )

     number of k points=    13
                       cart. coord. in units 2pi/alat
        k(    1) = (   0.0000000   0.0000000   0.0000000), wk =   0.0312500
        k(    2) = (   0.2510040   0.2510040   0.0000000), wk =   0.1875000
        k(    3) = (  -0.5020080  -0.5020080   0.0000000), wk =   0.0937500
        k(    4) = (   0.5020080   0.2510040   0.2510040), wk =   0.1875000
        k(    5) = (   0.5020080   0.5020080   0.5020080), wk =   0.0625000
        k(    6) = (   0.0000000   0.0000000   0.5020080), wk =   0.1875000
        k(    7) = (  -1.0040161  -0.2510040  -0.2510040), wk =   0.1875000
        k(    8) = (  -1.0040161  -1.0040161  -1.0040161), wk =   0.0312500
        k(    9) = (   0.2510040  -0.2510040   0.0000000), wk =   0.1875000
        k(   10) = (  -0.5020080   0.5020080   0.0000000), wk =   0.0937500
        k(   11) = (   0.2510040  -0.5020080   0.2510040), wk =   0.1875000
        k(   12) = (  -0.2510040   0.5020080   0.2510040), wk =   0.3750000
        k(   13) = (   0.2510040  -1.0040161  -0.2510040), wk =   0.1875000

     Dense  grid:    27979 G-vectors     FFT dimensions: (  45,  45,  45)

     Smooth grid:     7011 G-vectors     FFT dimensions: (  25,  25,  25)

     Estimated max dynamical RAM per process >       4.59 MB

     Estimated total dynamical RAM >      45.88 MB

     Initial potential from superposition of free atoms

     starting charge       7.9999, renormalised to       8.0000
     Starting wfcs are    8 randomized atomic wfcs

     total cpu time spent up to now is        0.2 secs

     Self-consistent Calculation

     iteration #  1     ecut=    50.00 Ry     beta= 0.70
     CG style diagonalization
     ethr =  1.00E-02,  avg # of iterations =  2.8

     Threshold (ethr) on eigenvalues was too large:
     Diagonalizing with lowered threshold

     CG style diagonalization
     ethr =  5.21E-04,  avg # of iterations =  2.0

     total cpu time spent up to now is        0.3 secs

     total energy              =     -22.64035793 Ry
     estimated scf accuracy    <       0.04025727 Ry

     iteration #  2     ecut=    50.00 Ry     beta= 0.70
     CG style diagonalization
     ethr =  5.03E-04,  avg # of iterations =  3.6

     total cpu time spent up to now is        0.3 secs

     total energy              =     -22.64450547 Ry
     estimated scf accuracy    <       0.00104750 Ry

     iteration #  3     ecut=    50.00 Ry     beta= 0.70
     CG style diagonalization
     ethr =  1.31E-05,  avg # of iterations =  3.5

     total cpu time spent up to now is        0.4 secs

     total energy              =     -22.64463981 Ry
     estimated scf accuracy    <       0.00004277 Ry

     iteration #  4     ecut=    50.00 Ry     beta= 0.70
     CG style diagonalization
     ethr =  5.35E-07,  avg # of iterations =  4.3

     total cpu time spent up to now is        0.4 secs

     total energy              =     -22.64465990 Ry
     estimated scf accuracy    <       0.00000284 Ry

     iteration #  5     ecut=    50.00 Ry     beta= 0.70
     CG style diagonalization
     c_bands:  1 eigenvalues not converged
     ethr =  3.54E-08,  avg # of iterations =  4.9

     total cpu time spent up to now is        0.5 secs

     total energy              =     -22.64466145 Ry
     estimated scf accuracy    <       0.00000168 Ry

     iteration #  6     ecut=    50.00 Ry     beta= 0.70
     CG style diagonalization
     ethr =  2.10E-08,  avg # of iterations =  3.7

     total cpu time spent up to now is        0.5 secs

     total energy              =     -22.64466170 Ry
     estimated scf accuracy    <       0.00000033 Ry

     iteration #  7     ecut=    50.00 Ry     beta= 0.70
     CG style diagonalization
     ethr =  4.12E-09,  avg # of iterations =  4.0

     total cpu time spent up to now is        0.5 secs

     total energy              =     -22.64466175 Ry
     estimated scf accuracy    <       0.00000005 Ry

     iteration #  8     ecut=    50.00 Ry     beta= 0.70
     CG style diagonalization
     ethr =  6.08E-10,  avg # of iterations =  4.1

     total cpu time spent up to now is        0.6 secs

     total energy              =     -22.64466177 Ry
     estimated scf accuracy    <       0.00000002 Ry

     iteration #  9     ecut=    50.00 Ry     beta= 0.70
     CG style diagonalization
     ethr =  2.08E-10,  avg # of iterations =  3.3

     total cpu time spent up to now is        0.6 secs

     End of self-consistent calculation

          k = 0.0000 0.0000 0.0000 (   935 PWs)   bands (ev):

   -11.4098  -2.8839   3.2127   3.2127

          k = 0.2510 0.2510 0.0000 (   889 PWs)   bands (ev):

   -10.4322  -4.6088   2.9147   3.7716

          k =-0.5020-0.5020 0.0000 (   870 PWs)   bands (ev):

    -7.8260  -7.7832   3.4059   3.4641

          k = 0.5020 0.2510 0.2510 (   892 PWs)   bands (ev):

    -8.4272  -7.0275   1.8996   4.3716

          k = 0.5020 0.5020 0.5020 (   868 PWs)   bands (ev):

    -8.6193  -5.6481   0.1641   0.1641

          k = 0.0000 0.0000 0.5020 (   900 PWs)   bands (ev):

    -9.7142  -4.6035   0.9554   2.9005

          k =-1.0040-0.2510-0.2510 (   882 PWs)   bands (ev):

    -8.7693  -4.6209  -0.8008   1.8380

          k =-1.0040-1.0040-1.0040 (   856 PWs)   bands (ev):

    -6.9301  -6.8826   2.7993   2.7993

          k = 0.2510-0.2510 0.0000 (   889 PWs)   bands (ev):

   -10.6117  -3.0321   0.4351   2.6166

          k =-0.5020 0.5020 0.0000 (   870 PWs)   bands (ev):

    -9.5016  -3.1807  -2.0683   2.0970

          k = 0.2510-0.5020 0.2510 (   892 PWs)   bands (ev):

    -9.5455  -3.1869  -1.1349   0.6513

          k =-0.2510 0.5020 0.2510 (   892 PWs)   bands (ev):

    -9.1974  -5.1667  -0.3736   2.8016

          k = 0.2510-1.0040-0.2510 (   882 PWs)   bands (ev):

    -7.3964  -7.3512   2.2415   2.2596

     highest occupied level (ev):     4.3716

!    total energy              =     -22.64466177 Ry
     estimated scf accuracy    <          3.8E-09 Ry

     The total energy is the sum of the following terms:
     one-electron contribution =      -0.10396388 Ry
     hartree contribution      =       3.40298373 Ry
     xc contribution           =      -6.57007003 Ry
     ewald contribution        =     -19.37361161 Ry

     convergence has been achieved in   9 iterations

     Forces acting on atoms (cartesian axes, Ry/au):

     atom    1 type  1   force =    -0.01169030   -0.01169030   -0.01169030
     atom    2 type  1   force =     0.01169030    0.01169030    0.01169030

     Total force =     0.028635     Total SCF correction =     0.000002


     Computing stress (Cartesian axis) and pressure

          total   stress  (Ry/bohr**3)                   (kbar)     P=     -655.63
  -0.00445686  -0.00522052  -0.00522052         -655.63     -767.96     -767.96
  -0.00522052  -0.00445686  -0.00522052         -767.96     -655.63     -767.96
  -0.00522052  -0.00522052  -0.00445686         -767.96     -767.96     -655.63


     Writing all to output data dir ./diamond_isotropic_etam0p004.save/ :
     XML data file, charge density, pseudopotentials, collected wavefunctions
 
     init_run     :      0.06s CPU      0.12s WALL (       1 calls)
     electrons    :      0.38s CPU      0.44s WALL (       1 calls)
     forces       :      0.01s CPU      0.01s WALL (       1 calls)
     stress       :      0.02s CPU      0.02s WALL (       1 calls)

     Called by init_run:
     wfcinit      :      0.01s CPU      0.04s WALL (       1 calls)
     potinit      :      0.00s CPU      0.01s WALL (       1 calls)
     hinit0       :      0.02s CPU      0.04s WALL (       1 calls)

     Called by electrons:
     c_bands      :      0.30s CPU      0.33s WALL (      10 calls)
     sum_band     :      0.05s CPU      0.05s WALL (      10 calls)
     v_of_rho     :      0.01s CPU      0.01s WALL (      10 calls)
     newd         :      0.02s CPU      0.02s WALL (      10 calls)
     mix_rho      :      0.01s CPU      0.01s WALL (      10 calls)

     Called by c_bands:
     init_us_2    :      0.01s CPU      0.01s WALL (     299 calls)
     init_us_2:cp :      0.00s CPU      0.01s WALL (     299 calls)
     ccgdiagg     :      0.25s CPU      0.28s WALL (     130 calls)
     wfcrot       :      0.05s CPU      0.08s WALL (     117 calls)

     Called by *cgdiagg:
     h_psi        :      0.18s CPU      0.20s WALL (    1580 calls)
     s_psi        :      0.01s CPU      0.01s WALL (    3043 calls)

     Called by h_psi:
     h_psi:calbec :      0.02s CPU      0.03s WALL (    1580 calls)
     vloc_psi     :      0.14s CPU      0.15s WALL (    1580 calls)
     add_vuspsi   :      0.01s CPU      0.01s WALL (    1580 calls)
     hs_1psi      :      0.15s CPU      0.17s WALL (    1463 calls)
     s_1psi       :      0.03s CPU      0.03s WALL (    1463 calls)

     General routines
     calbec       :      0.04s CPU      0.05s WALL (    3238 calls)
     fft          :      0.01s CPU      0.03s WALL (      67 calls)
     ffts         :      0.00s CPU      0.00s WALL (      20 calls)
     fftw         :      0.13s CPU      0.14s WALL (    4486 calls)
     interpolate  :      0.00s CPU      0.01s WALL (      10 calls)
 
     Parallel routines
 
     PWSCF        :      0.51s CPU      0.79s WALL

 
   This run was terminated on:  16:50:48  18Oct2025            

=------------------------------------------------------------------------------=
   JOB DONE.
=------------------------------------------------------------------------------=
TACC:  Shutdown complete. Exiting. 
