TACC:  Starting up job 2476726 
TACC:  Starting parallel tasks... 

     Program PWSCF v.7.3 starts on 18Oct2025 at 16:50:37 

     This program is part of the open-source Quantum ESPRESSO suite
     for quantum simulation of materials; please cite
         "P. Giannozzi et al., J. Phys.:Condens. Matter 21 395502 (2009);
         "P. Giannozzi et al., J. Phys.:Condens. Matter 29 465901 (2017);
         "P. Giannozzi et al., J. Chem. Phys. 152 154105 (2020);
          URL http://www.quantum-espresso.org", 
     in publications or presentations arising from this work. More details at
     http://www.quantum-espresso.org/quote

     Parallel version (MPI & OpenMP), running on      10 processor cores
     Number of MPI processes:                10
     Threads/MPI process:                     1

     MPI processes distributed on     1 nodes
     185170 MiB available memory on the printing compute node when the environment starts
 
     Waiting for input...
     Reading input from standard input
Warning: card &CELL ignored
Warning: card  CELL_DYNAMICS = 'BFGS', ignored
Warning: card  PRESS=0.D0, ignored
Warning: card / ignored
     Message from routine read_cards :
     DEPRECATED: no units specified in ATOMIC_POSITIONS card
     Message from routine read_cards :
     ATOMIC_POSITIONS: units set to alat

     Current dimensions of program PWSCF are:
     Max number of different atomic species (ntypx) = 10
     Max number of k-points (npk) =  40000
     Max angular momentum in pseudopotentials (lmaxx) =  4
     Message from routine setup:
     using ibrav=0 with symmetry is DISCOURAGED, use correct ibrav instead
 
     R & G space division:  proc/nbgrp/npool/nimage =      10
     Subspace diagonalization in iterative solution of the eigenvalue problem:
     a serial algorithm will be used

 
     Parallelization info
     --------------------
     sticks:   dense  smooth     PW     G-vecs:    dense   smooth      PW
     Min         124      48     18                 2786      699     159
     Max         125      49     19                 2790      704     161
     Sum        1247     487    181                27883     7011    1601
 
     Using Slab Decomposition
 


     bravais-lattice index     =            0
     lattice parameter (alat)  =       6.7000  a.u.
     unit-cell volume          =     147.6908 (a.u.)^3
     number of atoms/cell      =            2
     number of atomic types    =            1
     number of electrons       =         8.00
     number of Kohn-Sham states=            4
     kinetic-energy cutoff     =      50.0000  Ry
     charge density cutoff     =     500.0000  Ry
     scf convergence threshold =      1.0E-08
     mixing beta               =       0.7000
     number of iterations used =            8  plain     mixing
     Exchange-correlation= SLA  PZ   NOGX NOGC
                           (   1   1   0   0   0   0   0)

     celldm(1)=   6.700000  celldm(2)=   0.000000  celldm(3)=   0.000000
     celldm(4)=   0.000000  celldm(5)=   0.000000  celldm(6)=   0.000000

     crystal axes: (cart. coord. in units of alat)
               a(1) = (  -0.497000   0.497000   0.497000 )  
               a(2) = (   0.497000  -0.497000   0.497000 )  
               a(3) = (   0.497000   0.497000  -0.497000 )  

     reciprocal axes: (cart. coord. in units 2 pi/alat)
               b(1) = (  0.000000  1.006036  1.006036 )  
               b(2) = (  1.006036  0.000000  1.006036 )  
               b(3) = (  1.006036  1.006036  0.000000 )  


     PseudoPot. # 1 for C  read from file:
     /scratch/11018/zhc/Assisgnment2/Q2/Diamond/Diamond/C_LDA.UPF
     MD5 check sum: 407c1fe918d93b14b177d5600f28733c
     Pseudo is Ultrasoft + core correction, Zval =  4.0
     Generated by new atomic code, or converted to UPF format
     Using radial grid of  721 points,  4 beta functions with: 
                l(1) =   0
                l(2) =   0
                l(3) =   1
                l(4) =   1
     Q(r) pseudized with  8 coefficients,  rinner =    1.100   1.100   1.100


     atomic species   valence    mass     pseudopotential
     C                 4.00    12.01100     C ( 1.00)

      6 Sym. Ops. (no inversion) found



   Cartesian axes

     site n.     atom                  positions (alat units)
         1        C      tau(   1) = (   0.0000000   0.0000000   0.0000000  )
         2        C      tau(   2) = (   0.2500000   0.2500000   0.2500000  )

     number of k points=    13
                       cart. coord. in units 2pi/alat
        k(    1) = (   0.0000000   0.0000000   0.0000000), wk =   0.0312500
        k(    2) = (   0.2515091   0.2515091   0.0000000), wk =   0.1875000
        k(    3) = (  -0.5030181  -0.5030181   0.0000000), wk =   0.0937500
        k(    4) = (   0.5030181   0.2515091   0.2515091), wk =   0.1875000
        k(    5) = (   0.5030181   0.5030181   0.5030181), wk =   0.0625000
        k(    6) = (   0.0000000   0.0000000   0.5030181), wk =   0.1875000
        k(    7) = (  -1.0060362  -0.2515091  -0.2515091), wk =   0.1875000
        k(    8) = (  -1.0060362  -1.0060362  -1.0060362), wk =   0.0312500
        k(    9) = (   0.2515091  -0.2515091   0.0000000), wk =   0.1875000
        k(   10) = (  -0.5030181   0.5030181   0.0000000), wk =   0.0937500
        k(   11) = (   0.2515091  -0.5030181   0.2515091), wk =   0.1875000
        k(   12) = (  -0.2515091   0.5030181   0.2515091), wk =   0.3750000
        k(   13) = (   0.2515091  -1.0060362  -0.2515091), wk =   0.1875000

     Dense  grid:    27883 G-vectors     FFT dimensions: (  45,  45,  45)

     Smooth grid:     7011 G-vectors     FFT dimensions: (  25,  25,  25)

     Estimated max dynamical RAM per process >       4.58 MB

     Estimated total dynamical RAM >      45.77 MB

     Initial potential from superposition of free atoms

     starting charge       7.9999, renormalised to       8.0000
     Starting wfcs are    8 randomized atomic wfcs

     total cpu time spent up to now is        0.2 secs

     Self-consistent Calculation

     iteration #  1     ecut=    50.00 Ry     beta= 0.70
     CG style diagonalization
     ethr =  1.00E-02,  avg # of iterations =  2.8

     Threshold (ethr) on eigenvalues was too large:
     Diagonalizing with lowered threshold

     CG style diagonalization
     ethr =  5.35E-04,  avg # of iterations =  2.0

     total cpu time spent up to now is        0.3 secs

     total energy              =     -22.64428219 Ry
     estimated scf accuracy    <       0.04142139 Ry

     iteration #  2     ecut=    50.00 Ry     beta= 0.70
     CG style diagonalization
     ethr =  5.18E-04,  avg # of iterations =  3.6

     total cpu time spent up to now is        0.3 secs

     total energy              =     -22.64858819 Ry
     estimated scf accuracy    <       0.00105121 Ry

     iteration #  3     ecut=    50.00 Ry     beta= 0.70
     CG style diagonalization
     ethr =  1.31E-05,  avg # of iterations =  3.5

     total cpu time spent up to now is        0.4 secs

     total energy              =     -22.64873583 Ry
     estimated scf accuracy    <       0.00004200 Ry

     iteration #  4     ecut=    50.00 Ry     beta= 0.70
     CG style diagonalization
     ethr =  5.25E-07,  avg # of iterations =  4.3

     total cpu time spent up to now is        0.4 secs

     total energy              =     -22.64875525 Ry
     estimated scf accuracy    <       0.00000318 Ry

     iteration #  5     ecut=    50.00 Ry     beta= 0.70
     CG style diagonalization
     ethr =  3.97E-08,  avg # of iterations =  4.3

     total cpu time spent up to now is        0.5 secs

     total energy              =     -22.64875599 Ry
     estimated scf accuracy    <       0.00000045 Ry

     iteration #  6     ecut=    50.00 Ry     beta= 0.70
     CG style diagonalization
     ethr =  5.58E-09,  avg # of iterations =  4.8

     total cpu time spent up to now is        0.5 secs

     total energy              =     -22.64875603 Ry
     estimated scf accuracy    <       0.00000077 Ry

     iteration #  7     ecut=    50.00 Ry     beta= 0.70
     CG style diagonalization
     ethr =  5.58E-09,  avg # of iterations =  4.3

     total cpu time spent up to now is        0.6 secs

     total energy              =     -22.64875616 Ry
     estimated scf accuracy    <       0.00000006 Ry

     iteration #  8     ecut=    50.00 Ry     beta= 0.70
     CG style diagonalization
     ethr =  7.40E-10,  avg # of iterations =  3.8

     total cpu time spent up to now is        0.6 secs

     End of self-consistent calculation

          k = 0.0000 0.0000 0.0000 (   935 PWs)   bands (ev):

   -11.3913  -2.8457   3.2733   3.2733

          k = 0.2515 0.2515 0.0000 (   889 PWs)   bands (ev):

   -10.4090  -4.5661   2.9716   3.8339

          k =-0.5030-0.5030 0.0000 (   870 PWs)   bands (ev):

    -7.8108  -7.7280   3.4431   3.5357

          k = 0.5030 0.2515 0.2515 (   878 PWs)   bands (ev):

    -8.3986  -6.9830   1.9405   4.4294

          k = 0.5030 0.5030 0.5030 (   868 PWs)   bands (ev):

    -8.5767  -5.6135   0.1981   0.1981

          k = 0.0000 0.0000 0.5030 (   875 PWs)   bands (ev):

    -9.6843  -4.5607   0.9990   2.9550

          k =-1.0060-0.2515-0.2515 (   882 PWs)   bands (ev):

    -8.7283  -4.5783  -0.7730   1.8844

          k =-1.0060-1.0060-1.0060 (   856 PWs)   bands (ev):

    -6.9072  -6.8156   2.8279   2.8279

          k = 0.2515-0.2515 0.0000 (   889 PWs)   bands (ev):

   -10.5861  -2.9952   0.4773   2.6723

          k =-0.5030 0.5030 0.0000 (   870 PWs)   bands (ev):

    -9.4631  -3.1449  -2.0469   2.1488

          k = 0.2515-0.5030 0.2515 (   878 PWs)   bands (ev):

    -9.5080  -3.1512  -1.1057   0.6907

          k =-0.2515 0.5030 0.2515 (   878 PWs)   bands (ev):

    -9.1618  -5.1285  -0.3409   2.8560

          k = 0.2515-1.0060-0.2515 (   882 PWs)   bands (ev):

    -7.3777  -7.2905   2.2805   2.3093

     highest occupied level (ev):     4.4294

!    total energy              =     -22.64875617 Ry
     estimated scf accuracy    <          4.7E-09 Ry

     The total energy is the sum of the following terms:
     one-electron contribution =      -0.05429116 Ry
     hartree contribution      =       3.39496864 Ry
     xc contribution           =      -6.57730620 Ry
     ewald contribution        =     -19.41212745 Ry

     convergence has been achieved in   8 iterations

     Forces acting on atoms (cartesian axes, Ry/au):

     atom    1 type  1   force =    -0.01319756   -0.01319756   -0.01319756
     atom    2 type  1   force =     0.01319756    0.01319756    0.01319756

     Total force =     0.032327     Total SCF correction =     0.000050


     Computing stress (Cartesian axis) and pressure

          total   stress  (Ry/bohr**3)                   (kbar)     P=     -653.08
  -0.00443955  -0.00523093  -0.00523093         -653.08     -769.50     -769.50
  -0.00523093  -0.00443955  -0.00523093         -769.50     -653.08     -769.50
  -0.00523093  -0.00523093  -0.00443955         -769.50     -769.50     -653.08


     Writing all to output data dir ./diamond_isotropic_etam0p006.save/ :
     XML data file, charge density, pseudopotentials, collected wavefunctions
 
     init_run     :      0.05s CPU      0.12s WALL (       1 calls)
     electrons    :      0.35s CPU      0.40s WALL (       1 calls)
     forces       :      0.01s CPU      0.01s WALL (       1 calls)
     stress       :      0.02s CPU      0.02s WALL (       1 calls)

     Called by init_run:
     wfcinit      :      0.01s CPU      0.04s WALL (       1 calls)
     potinit      :      0.00s CPU      0.01s WALL (       1 calls)
     hinit0       :      0.02s CPU      0.04s WALL (       1 calls)

     Called by electrons:
     c_bands      :      0.28s CPU      0.31s WALL (       9 calls)
     sum_band     :      0.04s CPU      0.05s WALL (       9 calls)
     v_of_rho     :      0.01s CPU      0.01s WALL (       9 calls)
     newd         :      0.01s CPU      0.02s WALL (       9 calls)
     mix_rho      :      0.00s CPU      0.01s WALL (       9 calls)

     Called by c_bands:
     init_us_2    :      0.00s CPU      0.01s WALL (     273 calls)
     init_us_2:cp :      0.00s CPU      0.01s WALL (     273 calls)
     ccgdiagg     :      0.24s CPU      0.26s WALL (     117 calls)
     wfcrot       :      0.05s CPU      0.07s WALL (     104 calls)

     Called by *cgdiagg:
     h_psi        :      0.17s CPU      0.19s WALL (    1480 calls)
     s_psi        :      0.01s CPU      0.01s WALL (    2856 calls)

     Called by h_psi:
     h_psi:calbec :      0.02s CPU      0.03s WALL (    1480 calls)
     vloc_psi     :      0.13s CPU      0.14s WALL (    1480 calls)
     add_vuspsi   :      0.00s CPU      0.01s WALL (    1480 calls)
     hs_1psi      :      0.14s CPU      0.16s WALL (    1376 calls)
     s_1psi       :      0.03s CPU      0.03s WALL (    1376 calls)

     General routines
     calbec       :      0.04s CPU      0.05s WALL (    3038 calls)
     fft          :      0.01s CPU      0.03s WALL (      61 calls)
     ffts         :      0.00s CPU      0.00s WALL (      18 calls)
     fftw         :      0.12s CPU      0.13s WALL (    4156 calls)
     interpolate  :      0.00s CPU      0.01s WALL (       9 calls)
 
     Parallel routines
 
     PWSCF        :      0.48s CPU      0.75s WALL

 
   This run was terminated on:  16:50:38  18Oct2025            

=------------------------------------------------------------------------------=
   JOB DONE.
=------------------------------------------------------------------------------=
TACC:  Shutdown complete. Exiting. 
