TACC:  Starting up job 2406343 
TACC:  Starting parallel tasks... 

     Program PWSCF v.7.3 starts on 24Sep2025 at  0:33:55 

     This program is part of the open-source Quantum ESPRESSO suite
     for quantum simulation of materials; please cite
         "P. Giannozzi et al., J. Phys.:Condens. Matter 21 395502 (2009);
         "P. Giannozzi et al., J. Phys.:Condens. Matter 29 465901 (2017);
         "P. Giannozzi et al., J. Chem. Phys. 152 154105 (2020);
          URL http://www.quantum-espresso.org", 
     in publications or presentations arising from this work. More details at
     http://www.quantum-espresso.org/quote

     Parallel version (MPI & OpenMP), running on      10 processor cores
     Number of MPI processes:                10
     Threads/MPI process:                     1

     MPI processes distributed on     1 nodes
     184880 MiB available memory on the printing compute node when the environment starts
 
     Waiting for input...
     Reading input from standard input
Warning: card &CELL ignored
Warning: card  CELL_DYNAMICS = 'BFGS', ignored
Warning: card  PRESS=0.D0, ignored
Warning: card / ignored
     Message from routine read_cards :
     DEPRECATED: no units specified in ATOMIC_POSITIONS card
     Message from routine read_cards :
     ATOMIC_POSITIONS: units set to alat

     Current dimensions of program PWSCF are:
     Max number of different atomic species (ntypx) = 10
     Max number of k-points (npk) =  40000
     Max angular momentum in pseudopotentials (lmaxx) =  4
 
     R & G space division:  proc/nbgrp/npool/nimage =      10
     Subspace diagonalization in iterative solution of the eigenvalue problem:
     a serial algorithm will be used

 
     Parallelization info
     --------------------
     sticks:   dense  smooth     PW     G-vecs:    dense   smooth      PW
     Min         397     158     46                18775     4738     744
     Max         399     159     48                18776     4743     745
     Sum        3985    1581    465               187751    47401    7441
 
     Using Slab Decomposition
 


     bravais-lattice index     =            1
     lattice parameter (alat)  =       7.0563  a.u.
     unit-cell volume          =     351.3458 (a.u.)^3
     number of atoms/cell      =            5
     number of atomic types    =            3
     number of electrons       =        40.00
     number of Kohn-Sham states=           20
     kinetic-energy cutoff     =     100.0000  Ry
     charge density cutoff     =    1000.0000  Ry
     scf convergence threshold =      1.0E-08
     mixing beta               =       0.7000
     number of iterations used =            8  plain     mixing
     Exchange-correlation= SLA  PZ   NOGX NOGC
                           (   1   1   0   0   0   0   0)

     celldm(1)=   7.056319  celldm(2)=   0.000000  celldm(3)=   0.000000
     celldm(4)=   0.000000  celldm(5)=   0.000000  celldm(6)=   0.000000

     crystal axes: (cart. coord. in units of alat)
               a(1) = (   1.000000   0.000000   0.000000 )  
               a(2) = (   0.000000   1.000000   0.000000 )  
               a(3) = (   0.000000   0.000000   1.000000 )  

     reciprocal axes: (cart. coord. in units 2 pi/alat)
               b(1) = (  1.000000  0.000000  0.000000 )  
               b(2) = (  0.000000  1.000000  0.000000 )  
               b(3) = (  0.000000  0.000000  1.000000 )  


     PseudoPot. # 1 for Ca read from file:
     /scratch/11018/zhc/assisgnment1/CaTiO3/Ca_LDA.UPF
     MD5 check sum: d2d4e7693e10d071152e9eeb7dd009f3
     Pseudo is Ultrasoft + core correction, Zval = 10.0
     Generated by new atomic code, or converted to UPF format
     Using radial grid of  845 points,  6 beta functions with: 
                l(1) =   0
                l(2) =   0
                l(3) =   1
                l(4) =   1
                l(5) =   2
                l(6) =   2
     Q(r) pseudized with  8 coefficients,  rinner =    1.500   1.500   1.500
                                                       1.500   1.500

     PseudoPot. # 2 for Ti read from file:
     /scratch/11018/zhc/assisgnment1/CaTiO3/Ti_LDA.UPF
     MD5 check sum: 0d9f225c038fe889ca2a701dcc8d72cb
     Pseudo is Ultrasoft + core correction, Zval = 12.0
     Generated by new atomic code, or converted to UPF format
     Using radial grid of  851 points,  6 beta functions with: 
                l(1) =   0
                l(2) =   0
                l(3) =   1
                l(4) =   1
                l(5) =   2
                l(6) =   2
     Q(r) pseudized with  6 coefficients,  rinner =    1.000   1.000   1.000
                                                       1.000   1.000

     PseudoPot. # 3 for O  read from file:
     /scratch/11018/zhc/assisgnment1/CaTiO3/O_LDA.UPF
     MD5 check sum: 194b818514d2a7dbb603bb78519a4f40
     Pseudo is Ultrasoft + core correction, Zval =  6.0
     Generated by new atomic code, or converted to UPF format
     Using radial grid of  737 points,  5 beta functions with: 
                l(1) =   0
                l(2) =   0
                l(3) =   1
                l(4) =   1
                l(5) =   2
     Q(r) pseudized with  8 coefficients,  rinner =    0.900   0.900   0.900
                                                       0.900   0.900

     atomic species   valence    mass     pseudopotential
     Ca               10.00    40.07800     Ca( 1.00)
     Ti               12.00    47.88000     Ti( 1.00)
     O                 6.00    16.00000     O ( 1.00)

     48 Sym. Ops., with inversion, found



   Cartesian axes

     site n.     atom                  positions (alat units)
         1        Ca     tau(   1) = (   0.0000000   0.0000000   0.0000000  )
         2        Ti     tau(   2) = (   0.5000000   0.5000000   0.5000000  )
         3        O      tau(   3) = (   0.5000000   0.5000000   0.0000000  )
         4        O      tau(   4) = (   0.5000000   0.0000000   0.5000000  )
         5        O      tau(   5) = (   0.0000000   0.5000000   0.5000000  )

     number of k points=    20
                       cart. coord. in units 2pi/alat
        k(    1) = (   0.0000000   0.0000000   0.0000000), wk =   0.0092593
        k(    2) = (   0.0000000   0.0000000   0.1666667), wk =   0.0555556
        k(    3) = (   0.0000000   0.0000000   0.3333333), wk =   0.0555556
        k(    4) = (   0.0000000   0.0000000  -0.5000000), wk =   0.0277778
        k(    5) = (   0.0000000   0.1666667   0.1666667), wk =   0.1111111
        k(    6) = (   0.0000000   0.1666667   0.3333333), wk =   0.2222222
        k(    7) = (   0.0000000   0.1666667  -0.5000000), wk =   0.1111111
        k(    8) = (   0.0000000   0.3333333   0.3333333), wk =   0.1111111
        k(    9) = (   0.0000000   0.3333333  -0.5000000), wk =   0.1111111
        k(   10) = (   0.0000000  -0.5000000  -0.5000000), wk =   0.0277778
        k(   11) = (   0.1666667   0.1666667   0.1666667), wk =   0.0740741
        k(   12) = (   0.1666667   0.1666667   0.3333333), wk =   0.2222222
        k(   13) = (   0.1666667   0.1666667  -0.5000000), wk =   0.1111111
        k(   14) = (   0.1666667   0.3333333   0.3333333), wk =   0.2222222
        k(   15) = (   0.1666667   0.3333333  -0.5000000), wk =   0.2222222
        k(   16) = (   0.1666667  -0.5000000  -0.5000000), wk =   0.0555556
        k(   17) = (   0.3333333   0.3333333   0.3333333), wk =   0.0740741
        k(   18) = (   0.3333333   0.3333333  -0.5000000), wk =   0.1111111
        k(   19) = (   0.3333333  -0.5000000  -0.5000000), wk =   0.0555556
        k(   20) = (  -0.5000000  -0.5000000  -0.5000000), wk =   0.0092593

     Dense  grid:   187751 G-vectors     FFT dimensions: (  72,  72,  72)

     Smooth grid:    47401 G-vectors     FFT dimensions: (  45,  45,  45)

     Estimated max dynamical RAM per process >      81.37 MB

     Estimated total dynamical RAM >     813.68 MB

     Check: negative core charge=   -0.000001

     Initial potential from superposition of free atoms

     starting charge      38.9952, renormalised to      40.0000

     negative rho (up, down):  6.697E-04 0.000E+00
     Starting wfcs are   32 randomized atomic wfcs

     total cpu time spent up to now is        1.5 secs

     Self-consistent Calculation

     iteration #  1     ecut=   100.00 Ry     beta= 0.70
     CG style diagonalization
     ethr =  1.00E-02,  avg # of iterations =  2.2

     negative rho (up, down):  1.335E-03 0.000E+00

     total cpu time spent up to now is        2.3 secs

     total energy              =    -291.31750543 Ry
     estimated scf accuracy    <       0.82760937 Ry

     iteration #  2     ecut=   100.00 Ry     beta= 0.70
     CG style diagonalization
     ethr =  2.07E-03,  avg # of iterations =  4.8

     negative rho (up, down):  5.572E-04 0.000E+00

     total cpu time spent up to now is        3.6 secs

     total energy              =    -291.01576472 Ry
     estimated scf accuracy    <       3.68256294 Ry

     iteration #  3     ecut=   100.00 Ry     beta= 0.70
     CG style diagonalization
     ethr =  2.07E-03,  avg # of iterations =  4.4

     negative rho (up, down):  6.404E-04 0.000E+00

     total cpu time spent up to now is        4.7 secs

     total energy              =    -291.73727733 Ry
     estimated scf accuracy    <       0.11397863 Ry

     iteration #  4     ecut=   100.00 Ry     beta= 0.70
     CG style diagonalization
     ethr =  2.85E-04,  avg # of iterations =  3.7

     negative rho (up, down):  7.671E-04 0.000E+00

     total cpu time spent up to now is        5.8 secs

     total energy              =    -291.74903199 Ry
     estimated scf accuracy    <       0.01912024 Ry

     iteration #  5     ecut=   100.00 Ry     beta= 0.70
     CG style diagonalization
     ethr =  4.78E-05,  avg # of iterations =  3.6

     negative rho (up, down):  8.171E-04 0.000E+00

     total cpu time spent up to now is        6.8 secs

     total energy              =    -291.75419646 Ry
     estimated scf accuracy    <       0.00024096 Ry

     iteration #  6     ecut=   100.00 Ry     beta= 0.70
     CG style diagonalization
     ethr =  6.02E-07,  avg # of iterations =  4.8

     negative rho (up, down):  7.974E-04 0.000E+00

     total cpu time spent up to now is        8.0 secs

     total energy              =    -291.75461656 Ry
     estimated scf accuracy    <       0.00059765 Ry

     iteration #  7     ecut=   100.00 Ry     beta= 0.70
     CG style diagonalization
     ethr =  6.02E-07,  avg # of iterations =  3.6

     negative rho (up, down):  7.844E-04 0.000E+00

     total cpu time spent up to now is        9.0 secs

     total energy              =    -291.75460537 Ry
     estimated scf accuracy    <       0.00013388 Ry

     iteration #  8     ecut=   100.00 Ry     beta= 0.70
     CG style diagonalization
     ethr =  3.35E-07,  avg # of iterations =  3.6

     negative rho (up, down):  7.818E-04 0.000E+00

     total cpu time spent up to now is       10.0 secs

     total energy              =    -291.75462765 Ry
     estimated scf accuracy    <       0.00000211 Ry

     iteration #  9     ecut=   100.00 Ry     beta= 0.70
     CG style diagonalization
     ethr =  5.28E-09,  avg # of iterations =  4.3

     negative rho (up, down):  7.815E-04 0.000E+00

     total cpu time spent up to now is       11.2 secs

     total energy              =    -291.75462944 Ry
     estimated scf accuracy    <       0.00000014 Ry

     iteration # 10     ecut=   100.00 Ry     beta= 0.70
     CG style diagonalization
     ethr =  3.46E-10,  avg # of iterations =  4.2

     negative rho (up, down):  7.816E-04 0.000E+00

     total cpu time spent up to now is       12.3 secs

     total energy              =    -291.75462958 Ry
     estimated scf accuracy    <       0.00000002 Ry

     iteration # 11     ecut=   100.00 Ry     beta= 0.70
     CG style diagonalization
     ethr =  6.18E-11,  avg # of iterations =  4.0

     negative rho (up, down):  7.814E-04 0.000E+00

     total cpu time spent up to now is       13.4 secs

     End of self-consistent calculation

          k = 0.0000 0.0000 0.0000 (  6031 PWs)   bands (ev):

   -44.8706 -28.0397 -21.5791 -21.5791 -21.5791  -9.2636  -9.2636  -9.2636
    -7.3001  -6.0610  -6.0610   7.1881   7.1881   7.1881   9.0544   9.0544
     9.0544  10.0684  10.0684  10.0684

          k = 0.0000 0.0000 0.1667 (  5919 PWs)   bands (ev):

   -44.8700 -28.0370 -21.6117 -21.5774 -21.5774  -9.4024  -9.2590  -9.2590
    -7.0499  -6.0463  -5.9210   6.8405   7.1767   7.1767   8.6366   8.6366
     8.7713   9.1354   9.9221   9.9221

          k = 0.0000 0.0000 0.3333 (  5918 PWs)   bands (ev):

   -44.8687 -28.0317 -21.6757 -21.5741 -21.5741  -9.6341  -9.2498  -9.2498
    -6.5747  -6.0167  -5.6250   6.0566   7.2038   7.2038   7.8521   7.9174
     7.9174   8.2873   9.7888   9.7888

          k = 0.0000 0.0000-0.5000 (  5910 PWs)   bands (ev):

   -44.8681 -28.0290 -21.7073 -21.5724 -21.5724  -9.7352  -9.2452  -9.2452
    -6.3481  -6.0018  -5.4582   5.5974   7.3712   7.3712   7.3960   7.4598
     7.4598   8.0744   9.7438   9.7438

          k = 0.0000 0.1667 0.1667 (  5928 PWs)   bands (ev):

   -44.8693 -28.0342 -21.6109 -21.6096 -21.5758  -9.4246  -9.3287  -9.2540
    -6.8453  -5.9754  -5.8448   6.5725   7.0400   7.1574   7.8750   8.3495
     9.0065   9.0153   9.3881   9.6811

          k = 0.0000 0.1667 0.3333 (  5911 PWs)   bands (ev):

   -44.8681 -28.0286 -21.6750 -21.6075 -21.5725  -9.5896  -9.3238  -9.2440
    -6.4692  -5.9143  -5.5647   5.9643   6.5534   7.1618   7.2152   7.7659
     8.1324   9.0192   9.2303   9.4643

          k = 0.0000 0.1667-0.5000 (  5932 PWs)   bands (ev):

   -44.8675 -28.0258 -21.7068 -21.6062 -21.5708  -9.6750  -9.3097  -9.2390
    -6.3134  -5.8757  -5.3858   5.5939   6.1519   7.1096   7.3073   7.3574
     7.8662   9.0344   9.0842   9.4020

          k = 0.0000 0.3333 0.3333 (  5960 PWs)   bands (ev):

   -44.8669 -28.0225 -21.6740 -21.6727 -21.5693  -9.5225  -9.4417  -9.2324
    -6.3869  -5.5868  -5.4049   5.4452   6.2026   6.2145   7.0986   7.4247
     8.2043   8.4198   9.0951   9.8771

          k = 0.0000 0.3333-0.5000 (  5952 PWs)   bands (ev):

   -44.8663 -28.0194 -21.7058 -21.6726 -21.5677  -9.5534  -9.4327  -9.2266
    -6.3867  -5.4399  -5.2450   5.1851   5.5844   6.1771   7.1557   7.1626
     8.1344   8.3900   8.9805  10.0395

          k = 0.0000-0.5000-0.5000 (  5912 PWs)   bands (ev):

   -44.8657 -28.0161 -21.7053 -21.7053 -21.5661  -9.4915  -9.4915  -9.2204
    -6.4434  -5.1761  -5.1761   4.8357   5.5119   5.6616   7.0695   7.0695
     8.2679   8.2679   8.8405  10.3323

          k = 0.1667 0.1667 0.1667 (  5953 PWs)   bands (ev):

   -44.8687 -28.0314 -21.6091 -21.6091 -21.6082  -9.4321  -9.3174  -9.3174
    -6.6595  -5.8470  -5.8470   6.3433   6.9726   6.9726   7.7526   7.7526
     8.5784   9.3333   9.3333   9.3717

          k = 0.1667 0.1667 0.3333 (  5932 PWs)   bands (ev):

   -44.8675 -28.0256 -21.6738 -21.6063 -21.6055  -9.5508  -9.3276  -9.2945
    -6.3145  -5.8516  -5.5385   5.8750   6.4922   6.6685   6.9775   7.3675
     8.3306   9.0360   9.2465   9.3585

          k = 0.1667 0.1667-0.5000 (  5930 PWs)   bands (ev):

   -44.8669 -28.0227 -21.7058 -21.6052 -21.6037  -9.6236  -9.3141  -9.2830
    -6.1648  -5.8541  -5.3427   5.5939   6.0277   6.4694   6.7882   7.3180
     8.4173   8.8486   9.2125   9.2480

          k = 0.1667 0.3333 0.3333 (  5933 PWs)   bands (ev):

   -44.8663 -28.0196 -21.6719 -21.6713 -21.6026  -9.4925  -9.4214  -9.2852
    -6.1617  -5.5832  -5.4365   5.4933   6.1911   6.2008   6.5834   6.7516
     7.9028   9.0927   9.1358   9.9059

          k = 0.1667 0.3333-0.5000 (  5932 PWs)   bands (ev):

   -44.8657 -28.0165 -21.7040 -21.6705 -21.6009  -9.5205  -9.4148  -9.2746
    -6.1499  -5.4860  -5.2604   5.3020   5.5926   6.1512   6.3897   6.6636
     7.9256   9.0366   9.1138  10.0642

          k = 0.1667-0.5000-0.5000 (  5948 PWs)   bands (ev):

   -44.8651 -28.0134 -21.7030 -21.7030 -21.5992  -9.4684  -9.4684  -9.2651
    -6.1966  -5.2211  -5.2211   4.9960   5.5314   5.6670   6.4121   6.4121
     7.9093   9.0775   9.0775  10.3617

          k = 0.3333 0.3333 0.3333 (  5926 PWs)   bands (ev):

   -44.8651 -28.0137 -21.6689 -21.6678 -21.6678  -9.4416  -9.3798  -9.3798
    -5.7454  -5.5010  -5.5010   5.4974   5.9516   5.9516   6.3089   6.3089
     6.4904   9.7011   9.7011  10.0673

          k = 0.3333 0.3333-0.5000 (  5912 PWs)   bands (ev):

   -44.8645 -28.0108 -21.7004 -21.6671 -21.6657  -9.4543  -9.3881  -9.3585
    -5.6767  -5.5340  -5.2942   5.4681   5.6062   5.7303   5.8884   6.2878
     6.4522   9.7987   9.9172  10.1913

          k = 0.3333-0.5000-0.5000 (  5944 PWs)   bands (ev):

   -44.8639 -28.0080 -21.6986 -21.6986 -21.6643  -9.4207  -9.4207  -9.3530
    -5.6576  -5.3125  -5.3125   5.3254   5.5675   5.6779   5.7364   5.7364
     6.3435  10.0583  10.0583  10.4220

          k =-0.5000-0.5000-0.5000 (  5904 PWs)   bands (ev):

   -44.8633 -28.0052 -21.6964 -21.6964 -21.6964  -9.3962  -9.3962  -9.3962
    -5.3590  -5.3590  -5.3590   5.4949   5.4949   5.4949   5.5326   5.6833
     5.6833  10.4529  10.4529  10.4529

     highest occupied level (ev):    10.4529

!    total energy              =    -291.75462959 Ry
     estimated scf accuracy    <          5.3E-09 Ry

     The total energy is the sum of the following terms:
     one-electron contribution =     -79.92765636 Ry
     hartree contribution      =      62.07446226 Ry
     xc contribution           =     -51.66539538 Ry
     ewald contribution        =    -222.23604012 Ry

     convergence has been achieved in  11 iterations

     negative rho (up, down):  7.814E-04 0.000E+00

     Forces acting on atoms (cartesian axes, Ry/au):

     atom    1 type  1   force =     0.00000000    0.00000000    0.00000000
     atom    2 type  2   force =     0.00000000    0.00000000    0.00000000
     atom    3 type  3   force =     0.00000000    0.00000000    0.00000000
     atom    4 type  3   force =     0.00000000    0.00000000    0.00000000
     atom    5 type  3   force =     0.00000000    0.00000000    0.00000000

     Total force =     0.000000     Total SCF correction =     0.000000


     Computing stress (Cartesian axis) and pressure


     negative rho (up, down):  7.814E-04 0.000E+00
          total   stress  (Ry/bohr**3)                   (kbar)     P=      135.96
   0.00092421   0.00000000   0.00000000          135.96        0.00        0.00
   0.00000000   0.00092421   0.00000000            0.00      135.96        0.00
   0.00000000   0.00000000   0.00092421            0.00        0.00      135.96


     Writing all to output data dir ./CTO_CELLDM_2.save/ :
     XML data file, charge density, pseudopotentials, collected wavefunctions
 
     init_run     :      0.78s CPU      0.89s WALL (       1 calls)
     electrons    :     11.25s CPU     12.10s WALL (       1 calls)
     forces       :      0.18s CPU      0.21s WALL (       1 calls)
     stress       :      1.55s CPU      1.60s WALL (       1 calls)

     Called by init_run:
     wfcinit      :      0.23s CPU      0.25s WALL (       1 calls)
     potinit      :      0.02s CPU      0.02s WALL (       1 calls)
     hinit0       :      0.14s CPU      0.17s WALL (       1 calls)

     Called by electrons:
     c_bands      :      8.24s CPU      8.51s WALL (      11 calls)
     sum_band     :      1.94s CPU      2.08s WALL (      11 calls)
     v_of_rho     :      0.04s CPU      0.04s WALL (      12 calls)
     newd         :      1.07s CPU      1.34s WALL (      12 calls)
     mix_rho      :      0.02s CPU      0.03s WALL (      11 calls)

     Called by c_bands:
     init_us_2    :      0.12s CPU      0.12s WALL (     500 calls)
     init_us_2:cp :      0.11s CPU      0.12s WALL (     500 calls)
     ccgdiagg     :      6.99s CPU      7.22s WALL (     220 calls)
     wfcrot       :      1.38s CPU      1.44s WALL (     220 calls)

     Called by *cgdiagg:
     h_psi        :      5.76s CPU      5.94s WALL (   13501 calls)
     s_psi        :      0.75s CPU      0.78s WALL (   26782 calls)

     Called by h_psi:
     h_psi:calbec :      0.74s CPU      0.77s WALL (   13501 calls)
     vloc_psi     :      4.46s CPU      4.60s WALL (   13501 calls)
     add_vuspsi   :      0.43s CPU      0.44s WALL (   13501 calls)
     hs_1psi      :      4.99s CPU      5.15s WALL (   13281 calls)
     s_1psi       :      0.91s CPU      0.94s WALL (   13281 calls)

     General routines
     calbec       :      1.25s CPU      1.30s WALL (   27102 calls)
     fft          :      0.04s CPU      0.06s WALL (      78 calls)
     ffts         :      0.01s CPU      0.01s WALL (      23 calls)
     fftw         :      3.98s CPU      4.09s WALL (   40242 calls)
     interpolate  :      0.01s CPU      0.02s WALL (      12 calls)
 
     Parallel routines
 
     PWSCF        :     14.00s CPU     17.12s WALL

 
   This run was terminated on:   0:34:12  24Sep2025            

=------------------------------------------------------------------------------=
   JOB DONE.
=------------------------------------------------------------------------------=
TACC:  Shutdown complete. Exiting. 
