TACC:  Starting up job 2406382 
TACC:  Starting parallel tasks... 

     Program PWSCF v.7.3 starts on 24Sep2025 at  0:43:54 

     This program is part of the open-source Quantum ESPRESSO suite
     for quantum simulation of materials; please cite
         "P. Giannozzi et al., J. Phys.:Condens. Matter 21 395502 (2009);
         "P. Giannozzi et al., J. Phys.:Condens. Matter 29 465901 (2017);
         "P. Giannozzi et al., J. Chem. Phys. 152 154105 (2020);
          URL http://www.quantum-espresso.org", 
     in publications or presentations arising from this work. More details at
     http://www.quantum-espresso.org/quote

     Parallel version (MPI & OpenMP), running on      10 processor cores
     Number of MPI processes:                10
     Threads/MPI process:                     1

     MPI processes distributed on     1 nodes
     183157 MiB available memory on the printing compute node when the environment starts
 
     Waiting for input...
     Reading input from standard input
Warning: card &CELL ignored
Warning: card  CELL_DYNAMICS = 'BFGS', ignored
Warning: card  PRESS=0.D0, ignored
Warning: card / ignored
     Message from routine read_cards :
     DEPRECATED: no units specified in ATOMIC_POSITIONS card
     Message from routine read_cards :
     ATOMIC_POSITIONS: units set to alat

     Current dimensions of program PWSCF are:
     Max number of different atomic species (ntypx) = 10
     Max number of k-points (npk) =  40000
     Max angular momentum in pseudopotentials (lmaxx) =  4
 
     R & G space division:  proc/nbgrp/npool/nimage =      10
     Subspace diagonalization in iterative solution of the eigenvalue problem:
     a serial algorithm will be used

 
     Parallelization info
     --------------------
     sticks:   dense  smooth     PW     G-vecs:    dense   smooth      PW
     Min         472     189     55                24582     6221     962
     Max         474     190     56                24585     6222     963
     Sum        4725    1893    553               245841    62213    9627
 
     Using Slab Decomposition
 


     bravais-lattice index     =            1
     lattice parameter (alat)  =       7.7252  a.u.
     unit-cell volume          =     461.0237 (a.u.)^3
     number of atoms/cell      =            5
     number of atomic types    =            3
     number of electrons       =        40.00
     number of Kohn-Sham states=           20
     kinetic-energy cutoff     =     100.0000  Ry
     charge density cutoff     =    1000.0000  Ry
     scf convergence threshold =      1.0E-08
     mixing beta               =       0.7000
     number of iterations used =            8  plain     mixing
     Exchange-correlation= SLA  PZ   NOGX NOGC
                           (   1   1   0   0   0   0   0)

     celldm(1)=   7.725165  celldm(2)=   0.000000  celldm(3)=   0.000000
     celldm(4)=   0.000000  celldm(5)=   0.000000  celldm(6)=   0.000000

     crystal axes: (cart. coord. in units of alat)
               a(1) = (   1.000000   0.000000   0.000000 )  
               a(2) = (   0.000000   1.000000   0.000000 )  
               a(3) = (   0.000000   0.000000   1.000000 )  

     reciprocal axes: (cart. coord. in units 2 pi/alat)
               b(1) = (  1.000000  0.000000  0.000000 )  
               b(2) = (  0.000000  1.000000  0.000000 )  
               b(3) = (  0.000000  0.000000  1.000000 )  


     PseudoPot. # 1 for Ca read from file:
     /scratch/11018/zhc/assisgnment1/CaTiO3/Ca_LDA.UPF
     MD5 check sum: d2d4e7693e10d071152e9eeb7dd009f3
     Pseudo is Ultrasoft + core correction, Zval = 10.0
     Generated by new atomic code, or converted to UPF format
     Using radial grid of  845 points,  6 beta functions with: 
                l(1) =   0
                l(2) =   0
                l(3) =   1
                l(4) =   1
                l(5) =   2
                l(6) =   2
     Q(r) pseudized with  8 coefficients,  rinner =    1.500   1.500   1.500
                                                       1.500   1.500

     PseudoPot. # 2 for Ti read from file:
     /scratch/11018/zhc/assisgnment1/CaTiO3/Ti_LDA.UPF
     MD5 check sum: 0d9f225c038fe889ca2a701dcc8d72cb
     Pseudo is Ultrasoft + core correction, Zval = 12.0
     Generated by new atomic code, or converted to UPF format
     Using radial grid of  851 points,  6 beta functions with: 
                l(1) =   0
                l(2) =   0
                l(3) =   1
                l(4) =   1
                l(5) =   2
                l(6) =   2
     Q(r) pseudized with  6 coefficients,  rinner =    1.000   1.000   1.000
                                                       1.000   1.000

     PseudoPot. # 3 for O  read from file:
     /scratch/11018/zhc/assisgnment1/CaTiO3/O_LDA.UPF
     MD5 check sum: 194b818514d2a7dbb603bb78519a4f40
     Pseudo is Ultrasoft + core correction, Zval =  6.0
     Generated by new atomic code, or converted to UPF format
     Using radial grid of  737 points,  5 beta functions with: 
                l(1) =   0
                l(2) =   0
                l(3) =   1
                l(4) =   1
                l(5) =   2
     Q(r) pseudized with  8 coefficients,  rinner =    0.900   0.900   0.900
                                                       0.900   0.900

     atomic species   valence    mass     pseudopotential
     Ca               10.00    40.07800     Ca( 1.00)
     Ti               12.00    47.88000     Ti( 1.00)
     O                 6.00    16.00000     O ( 1.00)

     48 Sym. Ops., with inversion, found



   Cartesian axes

     site n.     atom                  positions (alat units)
         1        Ca     tau(   1) = (   0.0000000   0.0000000   0.0000000  )
         2        Ti     tau(   2) = (   0.5000000   0.5000000   0.5000000  )
         3        O      tau(   3) = (   0.5000000   0.5000000   0.0000000  )
         4        O      tau(   4) = (   0.5000000   0.0000000   0.5000000  )
         5        O      tau(   5) = (   0.0000000   0.5000000   0.5000000  )

     number of k points=    20
                       cart. coord. in units 2pi/alat
        k(    1) = (   0.0000000   0.0000000   0.0000000), wk =   0.0092593
        k(    2) = (   0.0000000   0.0000000   0.1666667), wk =   0.0555556
        k(    3) = (   0.0000000   0.0000000   0.3333333), wk =   0.0555556
        k(    4) = (   0.0000000   0.0000000  -0.5000000), wk =   0.0277778
        k(    5) = (   0.0000000   0.1666667   0.1666667), wk =   0.1111111
        k(    6) = (   0.0000000   0.1666667   0.3333333), wk =   0.2222222
        k(    7) = (   0.0000000   0.1666667  -0.5000000), wk =   0.1111111
        k(    8) = (   0.0000000   0.3333333   0.3333333), wk =   0.1111111
        k(    9) = (   0.0000000   0.3333333  -0.5000000), wk =   0.1111111
        k(   10) = (   0.0000000  -0.5000000  -0.5000000), wk =   0.0277778
        k(   11) = (   0.1666667   0.1666667   0.1666667), wk =   0.0740741
        k(   12) = (   0.1666667   0.1666667   0.3333333), wk =   0.2222222
        k(   13) = (   0.1666667   0.1666667  -0.5000000), wk =   0.1111111
        k(   14) = (   0.1666667   0.3333333   0.3333333), wk =   0.2222222
        k(   15) = (   0.1666667   0.3333333  -0.5000000), wk =   0.2222222
        k(   16) = (   0.1666667  -0.5000000  -0.5000000), wk =   0.0555556
        k(   17) = (   0.3333333   0.3333333   0.3333333), wk =   0.0740741
        k(   18) = (   0.3333333   0.3333333  -0.5000000), wk =   0.1111111
        k(   19) = (   0.3333333  -0.5000000  -0.5000000), wk =   0.0555556
        k(   20) = (  -0.5000000  -0.5000000  -0.5000000), wk =   0.0092593

     Dense  grid:   245841 G-vectors     FFT dimensions: (  80,  80,  80)

     Smooth grid:    62213 G-vectors     FFT dimensions: (  50,  50,  50)

     Estimated max dynamical RAM per process >     103.98 MB

     Estimated total dynamical RAM >       1.02 GB

     Initial potential from superposition of free atoms

     starting charge      38.9952, renormalised to      40.0000

     negative rho (up, down):  7.624E-04 0.000E+00
     Starting wfcs are   32 randomized atomic wfcs

     total cpu time spent up to now is        1.0 secs

     Self-consistent Calculation

     iteration #  1     ecut=   100.00 Ry     beta= 0.70
     CG style diagonalization
     ethr =  1.00E-02,  avg # of iterations =  2.2

     negative rho (up, down):  1.430E-03 0.000E+00

     total cpu time spent up to now is        2.0 secs

     total energy              =    -291.17813807 Ry
     estimated scf accuracy    <       0.86434888 Ry

     iteration #  2     ecut=   100.00 Ry     beta= 0.70
     CG style diagonalization
     ethr =  2.16E-03,  avg # of iterations =  5.6

     negative rho (up, down):  4.292E-04 0.000E+00

     total cpu time spent up to now is        3.8 secs

     total energy              =    -289.58599360 Ry
     estimated scf accuracy    <      15.84400477 Ry

     iteration #  3     ecut=   100.00 Ry     beta= 0.70
     CG style diagonalization
     ethr =  2.16E-03,  avg # of iterations =  4.8

     negative rho (up, down):  5.203E-04 0.000E+00

     total cpu time spent up to now is        5.4 secs

     total energy              =    -291.62263017 Ry
     estimated scf accuracy    <       0.27897943 Ry

     iteration #  4     ecut=   100.00 Ry     beta= 0.70
     CG style diagonalization
     ethr =  6.97E-04,  avg # of iterations =  3.6

     negative rho (up, down):  5.624E-04 0.000E+00

     total cpu time spent up to now is        6.7 secs

     total energy              =    -291.65552997 Ry
     estimated scf accuracy    <       0.10946280 Ry

     iteration #  5     ecut=   100.00 Ry     beta= 0.70
     CG style diagonalization
     ethr =  2.74E-04,  avg # of iterations =  3.3

     negative rho (up, down):  6.166E-04 0.000E+00

     total cpu time spent up to now is        7.8 secs

     total energy              =    -291.65825830 Ry
     estimated scf accuracy    <       0.02847650 Ry

     iteration #  6     ecut=   100.00 Ry     beta= 0.70
     CG style diagonalization
     ethr =  7.12E-05,  avg # of iterations =  3.5

     negative rho (up, down):  6.917E-04 0.000E+00

     total cpu time spent up to now is        9.1 secs

     total energy              =    -291.66196963 Ry
     estimated scf accuracy    <       0.00204833 Ry

     iteration #  7     ecut=   100.00 Ry     beta= 0.70
     CG style diagonalization
     ethr =  5.12E-06,  avg # of iterations =  3.9

     negative rho (up, down):  7.197E-04 0.000E+00

     total cpu time spent up to now is       10.4 secs

     total energy              =    -291.66357835 Ry
     estimated scf accuracy    <       0.00011790 Ry

     iteration #  8     ecut=   100.00 Ry     beta= 0.70
     CG style diagonalization
     ethr =  2.95E-07,  avg # of iterations =  4.1

     negative rho (up, down):  7.155E-04 0.000E+00

     total cpu time spent up to now is       11.8 secs

     total energy              =    -291.66370110 Ry
     estimated scf accuracy    <       0.00009523 Ry

     iteration #  9     ecut=   100.00 Ry     beta= 0.70
     CG style diagonalization
     ethr =  2.38E-07,  avg # of iterations =  3.2

     negative rho (up, down):  7.113E-04 0.000E+00

     total cpu time spent up to now is       12.9 secs

     total energy              =    -291.66369910 Ry
     estimated scf accuracy    <       0.00004076 Ry

     iteration # 10     ecut=   100.00 Ry     beta= 0.70
     CG style diagonalization
     ethr =  1.02E-07,  avg # of iterations =  3.3

     negative rho (up, down):  7.075E-04 0.000E+00

     total cpu time spent up to now is       14.1 secs

     total energy              =    -291.66370161 Ry
     estimated scf accuracy    <       0.00000574 Ry

     iteration # 11     ecut=   100.00 Ry     beta= 0.70
     CG style diagonalization
     ethr =  1.43E-08,  avg # of iterations =  3.8

     negative rho (up, down):  7.076E-04 0.000E+00

     total cpu time spent up to now is       15.4 secs

     total energy              =    -291.66370377 Ry
     estimated scf accuracy    <       0.00000002 Ry

     iteration # 12     ecut=   100.00 Ry     beta= 0.70
     CG style diagonalization
     ethr =  5.33E-11,  avg # of iterations =  5.8

     negative rho (up, down):  7.079E-04 0.000E+00

     total cpu time spent up to now is       17.3 secs

     total energy              =    -291.66370410 Ry
     estimated scf accuracy    <       0.00000020 Ry

     iteration # 13     ecut=   100.00 Ry     beta= 0.70
     CG style diagonalization
     ethr =  5.33E-11,  avg # of iterations =  4.3

     negative rho (up, down):  7.079E-04 0.000E+00

     total cpu time spent up to now is       18.7 secs

     total energy              =    -291.66370412 Ry
     estimated scf accuracy    <       0.00000002 Ry

     iteration # 14     ecut=   100.00 Ry     beta= 0.70
     CG style diagonalization
     ethr =  3.87E-11,  avg # of iterations =  3.1

     negative rho (up, down):  7.081E-04 0.000E+00

     total cpu time spent up to now is       19.8 secs

     End of self-consistent calculation

          k = 0.0000 0.0000 0.0000 (  7809 PWs)   bands (ev):

   -49.5323 -32.5468 -26.0315 -26.0315 -26.0315 -13.7138 -13.7138 -13.7138
    -9.8082  -8.8755  -8.8755   3.9954   3.9954   3.9954   5.9066   5.9066
     5.9066   6.3525   6.3525   6.3525

          k = 0.0000 0.0000 0.1667 (  7801 PWs)   bands (ev):

   -49.5322 -32.5461 -26.0403 -26.0311 -26.0311 -13.7389 -13.7124 -13.7124
    -9.7049  -8.8691  -8.8427   3.7309   4.0270   4.0270   5.5947   5.5947
     5.6667   5.7334   6.2478   6.2478

          k = 0.0000 0.0000 0.3333 (  7796 PWs)   bands (ev):

   -49.5319 -32.5447 -26.0579 -26.0304 -26.0304 -13.7878 -13.7095 -13.7095
    -9.4902  -8.8561  -8.7777   3.1786   4.1389   4.1389   4.7568   5.0131
     5.0131   5.4264   6.1588   6.1588

          k = 0.0000 0.0000-0.5000 (  7752 PWs)   bands (ev):

   -49.5318 -32.5440 -26.0666 -26.0300 -26.0300 -13.8117 -13.7081 -13.7081
    -9.3782  -8.8496  -8.7456   2.8857   4.2766   4.2766   4.4282   4.6805
     4.6805   5.2879   6.1265   6.1265

          k = 0.0000 0.1667 0.1667 (  7805 PWs)   bands (ev):

   -49.5320 -32.5454 -26.0400 -26.0399 -26.0308 -13.7410 -13.7299 -13.7109
    -9.6071  -8.8513  -8.8225   3.6116   3.8843   4.0573   4.9188   5.4133
     5.6256   5.7686   6.0316   6.0484

          k = 0.0000 0.1667 0.3333 (  7788 PWs)   bands (ev):

   -49.5318 -32.5440 -26.0576 -26.0393 -26.0300 -13.7813 -13.7282 -13.7079
    -9.4077  -8.8339  -8.7592   3.1506   3.7798   4.1657   4.1783   4.9436
     5.1084   5.7085   5.8540   5.9970

          k = 0.0000 0.1667-0.5000 (  7778 PWs)   bands (ev):

   -49.5317 -32.5433 -26.0663 -26.0389 -26.0297 -13.8029 -13.7254 -13.7065
    -9.3074  -8.8254  -8.7234   2.8755   3.6588   3.9874   4.3081   4.6289
     4.9213   5.6984   5.8061   5.9198

          k = 0.0000 0.3333 0.3333 (  7754 PWs)   bands (ev):

   -49.5315 -32.5426 -26.0570 -26.0569 -26.0293 -13.7721 -13.7614 -13.7048
    -9.2603  -8.7712  -8.7134   2.9710   3.3533   3.3964   4.2591   4.7429
     5.1679   5.2983   5.4413   6.4653

          k = 0.0000 0.3333-0.5000 (  7772 PWs)   bands (ev):

   -49.5314 -32.5419 -26.0658 -26.0567 -26.0289 -13.7855 -13.7598 -13.7032
    -9.2011  -8.7312  -8.6792   2.8048   2.9688   3.3281   4.3996   4.5291
     5.0938   5.2849   5.3001   6.5802

          k = 0.0000-0.5000-0.5000 (  7788 PWs)   bands (ev):

   -49.5313 -32.5412 -26.0655 -26.0655 -26.0286 -13.7768 -13.7768 -13.7016
    -9.1691  -8.6571  -8.6571   2.6552   2.7188   3.0958   4.4807   4.4807
     5.0543   5.1757   5.1757   6.7843

          k = 0.1667 0.1667 0.1667 (  7763 PWs)   bands (ev):

   -49.5319 -32.5447 -26.0396 -26.0396 -26.0396 -13.7421 -13.7274 -13.7274
    -9.5114  -8.8199  -8.8199   3.5033   3.8960   3.8960   4.8797   4.8797
     5.0547   5.9604   5.9604   6.1272

          k = 0.1667 0.1667 0.3333 (  7768 PWs)   bands (ev):

   -49.5317 -32.5433 -26.0572 -26.0390 -26.0389 -13.7753 -13.7286 -13.7223
    -9.3186  -8.8147  -8.7499   3.1240   3.7024   3.9255   4.1071   4.3421
     5.0036   5.7630   5.9335   6.1312

          k = 0.1667 0.1667-0.5000 (  7798 PWs)   bands (ev):

   -49.5316 -32.5426 -26.0660 -26.0386 -26.0385 -13.7950 -13.7259 -13.7198
    -9.2233  -8.8121  -8.7089   2.8677   3.5594   3.8815   3.9494   4.1349
     5.0473   5.6398   5.9201   6.0652

          k = 0.1667 0.3333 0.3333 (  7780 PWs)   bands (ev):

   -49.5314 -32.5419 -26.0566 -26.0566 -26.0382 -13.7669 -13.7569 -13.7198
    -9.1568  -8.7630  -8.7182   2.9707   3.3995   3.4039   3.8515   4.1436
     4.5184   5.8615   5.8919   6.4897

          k = 0.1667 0.3333-0.5000 (  7790 PWs)   bands (ev):

   -49.5313 -32.5412 -26.0654 -26.0562 -26.0378 -13.7792 -13.7555 -13.7174
    -9.0927  -8.7373  -8.6799   2.8019   3.0405   3.3294   3.8661   3.9736
     4.5039   5.8245   5.8873   6.5990

          k = 0.1667-0.5000-0.5000 (  7772 PWs)   bands (ev):

   -49.5312 -32.5405 -26.0650 -26.0650 -26.0374 -13.7714 -13.7714 -13.7150
    -9.0557  -8.6655  -8.6655   2.6537   2.8134   3.0993   3.8840   3.8840
     4.4097   5.8568   5.8568   6.8025

          k = 0.3333 0.3333 0.3333 (  7766 PWs)   bands (ev):

   -49.5312 -32.5405 -26.0559 -26.0557 -26.0557 -13.7585 -13.7478 -13.7478
    -8.9579  -8.7279  -8.7279   2.9002   3.3919   3.3919   3.4319   3.5966
     3.5966   6.3256   6.3256   6.6014

          k = 0.3333 0.3333-0.5000 (  7812 PWs)   bands (ev):

   -49.5311 -32.5398 -26.0646 -26.0555 -26.0553 -13.7668 -13.7493 -13.7433
    -8.8811  -8.7328  -8.6815   2.7404   3.1356   3.2705   3.3233   3.4674
     3.5962   6.4050   6.4734   6.6874

          k = 0.3333-0.5000-0.5000 (  7772 PWs)   bands (ev):

   -49.5309 -32.5392 -26.0642 -26.0642 -26.0550 -13.7605 -13.7605 -13.7418
    -8.8170  -8.6824  -8.6824   2.5943   3.0091   3.1062   3.3142   3.3142
     3.4293   6.5836   6.5836   6.8393

          k =-0.5000-0.5000-0.5000 (  7784 PWs)   bands (ev):

   -49.5308 -32.5385 -26.0637 -26.0637 -26.0637 -13.7551 -13.7551 -13.7551
    -8.6909  -8.6909  -8.6909   2.4640   3.1096   3.1096   3.1104   3.1104
     3.1104   6.8581   6.8581   6.8581

     highest occupied level (ev):     6.8581

!    total energy              =    -291.66370411 Ry
     estimated scf accuracy    <          7.2E-09 Ry

     The total energy is the sum of the following terms:
     one-electron contribution =    -108.28807415 Ry
     hartree contribution      =      70.37717247 Ry
     xc contribution           =     -50.75797921 Ry
     ewald contribution        =    -202.99482322 Ry

     convergence has been achieved in  14 iterations

     negative rho (up, down):  7.081E-04 0.000E+00

     Forces acting on atoms (cartesian axes, Ry/au):

     atom    1 type  1   force =     0.00000000    0.00000000    0.00000000
     atom    2 type  2   force =     0.00000000    0.00000000    0.00000000
     atom    3 type  3   force =     0.00000000    0.00000000    0.00000000
     atom    4 type  3   force =     0.00000000    0.00000000    0.00000000
     atom    5 type  3   force =     0.00000000    0.00000000    0.00000000

     Total force =     0.000000     Total SCF correction =     0.000000


     Computing stress (Cartesian axis) and pressure


     negative rho (up, down):  7.081E-04 0.000E+00
          total   stress  (Ry/bohr**3)                   (kbar)     P=     -276.63
  -0.00188047   0.00000000   0.00000000         -276.63        0.00        0.00
   0.00000000  -0.00188047   0.00000000            0.00     -276.63        0.00
   0.00000000   0.00000000  -0.00188047            0.00        0.00     -276.63


     Writing all to output data dir ./CTO_CELLDM_12.save/ :
     XML data file, charge density, pseudopotentials, collected wavefunctions
 
     init_run     :      0.62s CPU      0.73s WALL (       1 calls)
     electrons    :     17.52s CPU     18.87s WALL (       1 calls)
     forces       :      0.24s CPU      0.28s WALL (       1 calls)
     stress       :      2.02s CPU      2.12s WALL (       1 calls)

     Called by init_run:
     wfcinit      :      0.28s CPU      0.31s WALL (       1 calls)
     potinit      :      0.02s CPU      0.03s WALL (       1 calls)
     hinit0       :      0.15s CPU      0.18s WALL (       1 calls)

     Called by electrons:
     c_bands      :     12.60s CPU     12.96s WALL (      14 calls)
     sum_band     :      3.20s CPU      3.70s WALL (      14 calls)
     v_of_rho     :      0.06s CPU      0.06s WALL (      15 calls)
     newd         :      1.71s CPU      2.20s WALL (      15 calls)
     mix_rho      :      0.04s CPU      0.05s WALL (      14 calls)

     Called by c_bands:
     init_us_2    :      0.19s CPU      0.19s WALL (     620 calls)
     init_us_2:cp :      0.18s CPU      0.19s WALL (     620 calls)
     ccgdiagg     :     10.65s CPU     10.97s WALL (     280 calls)
     wfcrot       :      2.06s CPU      2.12s WALL (     280 calls)

     Called by *cgdiagg:
     h_psi        :      8.60s CPU      8.83s WALL (   16880 calls)
     s_psi        :      1.33s CPU      1.38s WALL (   33480 calls)

     Called by h_psi:
     h_psi:calbec :      1.13s CPU      1.16s WALL (   16880 calls)
     vloc_psi     :      6.57s CPU      6.75s WALL (   16880 calls)
     add_vuspsi   :      0.73s CPU      0.75s WALL (   16880 calls)
     hs_1psi      :      7.53s CPU      7.74s WALL (   16600 calls)
     s_1psi       :      1.56s CPU      1.61s WALL (   16600 calls)

     General routines
     calbec       :      2.00s CPU      2.07s WALL (   33860 calls)
     fft          :      0.07s CPU      0.09s WALL (      96 calls)
     ffts         :      0.01s CPU      0.01s WALL (      29 calls)
     fftw         :      5.77s CPU      5.92s WALL (   50480 calls)
     interpolate  :      0.01s CPU      0.02s WALL (      15 calls)
 
     Parallel routines
 
     PWSCF        :     20.62s CPU     22.65s WALL

 
   This run was terminated on:   0:44:17  24Sep2025            

=------------------------------------------------------------------------------=
   JOB DONE.
=------------------------------------------------------------------------------=
TACC:  Shutdown complete. Exiting. 
