TACC:  Starting up job 2406339 
TACC:  Starting parallel tasks... 

     Program PWSCF v.7.3 starts on 24Sep2025 at  0:32:55 

     This program is part of the open-source Quantum ESPRESSO suite
     for quantum simulation of materials; please cite
         "P. Giannozzi et al., J. Phys.:Condens. Matter 21 395502 (2009);
         "P. Giannozzi et al., J. Phys.:Condens. Matter 29 465901 (2017);
         "P. Giannozzi et al., J. Chem. Phys. 152 154105 (2020);
          URL http://www.quantum-espresso.org", 
     in publications or presentations arising from this work. More details at
     http://www.quantum-espresso.org/quote

     Parallel version (MPI & OpenMP), running on      10 processor cores
     Number of MPI processes:                10
     Threads/MPI process:                     1

     MPI processes distributed on     1 nodes
     184003 MiB available memory on the printing compute node when the environment starts
 
     Waiting for input...
     Reading input from standard input
Warning: card &CELL ignored
Warning: card  CELL_DYNAMICS = 'BFGS', ignored
Warning: card  PRESS=0.D0, ignored
Warning: card / ignored
     Message from routine read_cards :
     DEPRECATED: no units specified in ATOMIC_POSITIONS card
     Message from routine read_cards :
     ATOMIC_POSITIONS: units set to alat

     Current dimensions of program PWSCF are:
     Max number of different atomic species (ntypx) = 10
     Max number of k-points (npk) =  40000
     Max angular momentum in pseudopotentials (lmaxx) =  4
 
     R & G space division:  proc/nbgrp/npool/nimage =      10
     Subspace diagonalization in iterative solution of the eigenvalue problem:
     a serial algorithm will be used

 
     Parallelization info
     --------------------
     sticks:   dense  smooth     PW     G-vecs:    dense   smooth      PW
     Min         389     156     43                18226     4628     709
     Max         390     157     44                18227     4631     714
     Sum        3893    1565    437               182267    46297    7123
 
     Using Slab Decomposition
 


     bravais-lattice index     =            1
     lattice parameter (alat)  =       6.9894  a.u.
     unit-cell volume          =     341.4493 (a.u.)^3
     number of atoms/cell      =            5
     number of atomic types    =            3
     number of electrons       =        40.00
     number of Kohn-Sham states=           20
     kinetic-energy cutoff     =     100.0000  Ry
     charge density cutoff     =    1000.0000  Ry
     scf convergence threshold =      1.0E-08
     mixing beta               =       0.7000
     number of iterations used =            8  plain     mixing
     Exchange-correlation= SLA  PZ   NOGX NOGC
                           (   1   1   0   0   0   0   0)

     celldm(1)=   6.989435  celldm(2)=   0.000000  celldm(3)=   0.000000
     celldm(4)=   0.000000  celldm(5)=   0.000000  celldm(6)=   0.000000

     crystal axes: (cart. coord. in units of alat)
               a(1) = (   1.000000   0.000000   0.000000 )  
               a(2) = (   0.000000   1.000000   0.000000 )  
               a(3) = (   0.000000   0.000000   1.000000 )  

     reciprocal axes: (cart. coord. in units 2 pi/alat)
               b(1) = (  1.000000  0.000000  0.000000 )  
               b(2) = (  0.000000  1.000000  0.000000 )  
               b(3) = (  0.000000  0.000000  1.000000 )  


     PseudoPot. # 1 for Ca read from file:
     /scratch/11018/zhc/assisgnment1/CaTiO3/Ca_LDA.UPF
     MD5 check sum: d2d4e7693e10d071152e9eeb7dd009f3
     Pseudo is Ultrasoft + core correction, Zval = 10.0
     Generated by new atomic code, or converted to UPF format
     Using radial grid of  845 points,  6 beta functions with: 
                l(1) =   0
                l(2) =   0
                l(3) =   1
                l(4) =   1
                l(5) =   2
                l(6) =   2
     Q(r) pseudized with  8 coefficients,  rinner =    1.500   1.500   1.500
                                                       1.500   1.500

     PseudoPot. # 2 for Ti read from file:
     /scratch/11018/zhc/assisgnment1/CaTiO3/Ti_LDA.UPF
     MD5 check sum: 0d9f225c038fe889ca2a701dcc8d72cb
     Pseudo is Ultrasoft + core correction, Zval = 12.0
     Generated by new atomic code, or converted to UPF format
     Using radial grid of  851 points,  6 beta functions with: 
                l(1) =   0
                l(2) =   0
                l(3) =   1
                l(4) =   1
                l(5) =   2
                l(6) =   2
     Q(r) pseudized with  6 coefficients,  rinner =    1.000   1.000   1.000
                                                       1.000   1.000

     PseudoPot. # 3 for O  read from file:
     /scratch/11018/zhc/assisgnment1/CaTiO3/O_LDA.UPF
     MD5 check sum: 194b818514d2a7dbb603bb78519a4f40
     Pseudo is Ultrasoft + core correction, Zval =  6.0
     Generated by new atomic code, or converted to UPF format
     Using radial grid of  737 points,  5 beta functions with: 
                l(1) =   0
                l(2) =   0
                l(3) =   1
                l(4) =   1
                l(5) =   2
     Q(r) pseudized with  8 coefficients,  rinner =    0.900   0.900   0.900
                                                       0.900   0.900

     atomic species   valence    mass     pseudopotential
     Ca               10.00    40.07800     Ca( 1.00)
     Ti               12.00    47.88000     Ti( 1.00)
     O                 6.00    16.00000     O ( 1.00)

     48 Sym. Ops., with inversion, found



   Cartesian axes

     site n.     atom                  positions (alat units)
         1        Ca     tau(   1) = (   0.0000000   0.0000000   0.0000000  )
         2        Ti     tau(   2) = (   0.5000000   0.5000000   0.5000000  )
         3        O      tau(   3) = (   0.5000000   0.5000000   0.0000000  )
         4        O      tau(   4) = (   0.5000000   0.0000000   0.5000000  )
         5        O      tau(   5) = (   0.0000000   0.5000000   0.5000000  )

     number of k points=    20
                       cart. coord. in units 2pi/alat
        k(    1) = (   0.0000000   0.0000000   0.0000000), wk =   0.0092593
        k(    2) = (   0.0000000   0.0000000   0.1666667), wk =   0.0555556
        k(    3) = (   0.0000000   0.0000000   0.3333333), wk =   0.0555556
        k(    4) = (   0.0000000   0.0000000  -0.5000000), wk =   0.0277778
        k(    5) = (   0.0000000   0.1666667   0.1666667), wk =   0.1111111
        k(    6) = (   0.0000000   0.1666667   0.3333333), wk =   0.2222222
        k(    7) = (   0.0000000   0.1666667  -0.5000000), wk =   0.1111111
        k(    8) = (   0.0000000   0.3333333   0.3333333), wk =   0.1111111
        k(    9) = (   0.0000000   0.3333333  -0.5000000), wk =   0.1111111
        k(   10) = (   0.0000000  -0.5000000  -0.5000000), wk =   0.0277778
        k(   11) = (   0.1666667   0.1666667   0.1666667), wk =   0.0740741
        k(   12) = (   0.1666667   0.1666667   0.3333333), wk =   0.2222222
        k(   13) = (   0.1666667   0.1666667  -0.5000000), wk =   0.1111111
        k(   14) = (   0.1666667   0.3333333   0.3333333), wk =   0.2222222
        k(   15) = (   0.1666667   0.3333333  -0.5000000), wk =   0.2222222
        k(   16) = (   0.1666667  -0.5000000  -0.5000000), wk =   0.0555556
        k(   17) = (   0.3333333   0.3333333   0.3333333), wk =   0.0740741
        k(   18) = (   0.3333333   0.3333333  -0.5000000), wk =   0.1111111
        k(   19) = (   0.3333333  -0.5000000  -0.5000000), wk =   0.0555556
        k(   20) = (  -0.5000000  -0.5000000  -0.5000000), wk =   0.0092593

     Dense  grid:   182267 G-vectors     FFT dimensions: (  72,  72,  72)

     Smooth grid:    46297 G-vectors     FFT dimensions: (  45,  45,  45)

     Estimated max dynamical RAM per process >      79.30 MB

     Estimated total dynamical RAM >     792.97 MB

     Check: negative core charge=   -0.000001

     Initial potential from superposition of free atoms

     starting charge      38.9952, renormalised to      40.0000

     negative rho (up, down):  6.860E-04 0.000E+00
     Starting wfcs are   32 randomized atomic wfcs

     total cpu time spent up to now is        1.5 secs

     Self-consistent Calculation

     iteration #  1     ecut=   100.00 Ry     beta= 0.70
     CG style diagonalization
     ethr =  1.00E-02,  avg # of iterations =  2.2

     negative rho (up, down):  1.326E-03 0.000E+00

     total cpu time spent up to now is        2.3 secs

     total energy              =    -291.30781567 Ry
     estimated scf accuracy    <       0.83060839 Ry

     iteration #  2     ecut=   100.00 Ry     beta= 0.70
     CG style diagonalization
     ethr =  2.08E-03,  avg # of iterations =  4.8

     negative rho (up, down):  5.600E-04 0.000E+00

     total cpu time spent up to now is        3.6 secs

     total energy              =    -291.06895550 Ry
     estimated scf accuracy    <       3.28020162 Ry

     iteration #  3     ecut=   100.00 Ry     beta= 0.70
     CG style diagonalization
     ethr =  2.08E-03,  avg # of iterations =  4.3

     negative rho (up, down):  6.761E-04 0.000E+00

     total cpu time spent up to now is        4.7 secs

     total energy              =    -291.72569902 Ry
     estimated scf accuracy    <       0.10184647 Ry

     iteration #  4     ecut=   100.00 Ry     beta= 0.70
     CG style diagonalization
     ethr =  2.55E-04,  avg # of iterations =  3.6

     negative rho (up, down):  8.064E-04 0.000E+00

     total cpu time spent up to now is        5.7 secs

     total energy              =    -291.73797219 Ry
     estimated scf accuracy    <       0.01472831 Ry

     iteration #  5     ecut=   100.00 Ry     beta= 0.70
     CG style diagonalization
     ethr =  3.68E-05,  avg # of iterations =  3.7

     negative rho (up, down):  8.352E-04 0.000E+00

     total cpu time spent up to now is        6.7 secs

     total energy              =    -291.74256710 Ry
     estimated scf accuracy    <       0.00030638 Ry

     iteration #  6     ecut=   100.00 Ry     beta= 0.70
     CG style diagonalization
     ethr =  7.66E-07,  avg # of iterations =  4.3

     negative rho (up, down):  8.190E-04 0.000E+00

     total cpu time spent up to now is        7.8 secs

     total energy              =    -291.74281335 Ry
     estimated scf accuracy    <       0.00036053 Ry

     iteration #  7     ecut=   100.00 Ry     beta= 0.70
     CG style diagonalization
     ethr =  7.66E-07,  avg # of iterations =  3.3

     negative rho (up, down):  8.125E-04 0.000E+00

     total cpu time spent up to now is        8.7 secs

     total energy              =    -291.74282297 Ry
     estimated scf accuracy    <       0.00006890 Ry

     iteration #  8     ecut=   100.00 Ry     beta= 0.70
     CG style diagonalization
     ethr =  1.72E-07,  avg # of iterations =  3.6

     negative rho (up, down):  8.096E-04 0.000E+00

     total cpu time spent up to now is        9.7 secs

     total energy              =    -291.74283543 Ry
     estimated scf accuracy    <       0.00000219 Ry

     iteration #  9     ecut=   100.00 Ry     beta= 0.70
     CG style diagonalization
     ethr =  5.48E-09,  avg # of iterations =  4.4

     negative rho (up, down):  8.097E-04 0.000E+00

     total cpu time spent up to now is       10.9 secs

     total energy              =    -291.74283803 Ry
     estimated scf accuracy    <       0.00000029 Ry

     iteration # 10     ecut=   100.00 Ry     beta= 0.70
     CG style diagonalization
     ethr =  7.34E-10,  avg # of iterations =  4.0

     negative rho (up, down):  8.097E-04 0.000E+00

     total cpu time spent up to now is       11.9 secs

     total energy              =    -291.74283819 Ry
     estimated scf accuracy    <       0.00000003 Ry

     iteration # 11     ecut=   100.00 Ry     beta= 0.70
     CG style diagonalization
     ethr =  7.12E-11,  avg # of iterations =  4.1

     negative rho (up, down):  8.094E-04 0.000E+00

     total cpu time spent up to now is       13.0 secs

     End of self-consistent calculation

          k = 0.0000 0.0000 0.0000 (  5743 PWs)   bands (ev):

   -44.3187 -27.5217 -21.0593 -21.0593 -21.0593  -8.7525  -8.7525  -8.7525
    -6.9842  -5.7236  -5.7236   7.5935   7.5935   7.5935   9.4337   9.4337
     9.4337  10.5347  10.5347  10.5347

          k = 0.0000 0.0000 0.1667 (  5766 PWs)   bands (ev):

   -44.3179 -27.5187 -21.0964 -21.0574 -21.0574  -8.9203  -8.7474  -8.7474
    -6.7029  -5.7077  -5.5642   7.2359   7.5734   7.5734   9.0021   9.0021
     9.1356   9.5678  10.3851  10.3851

          k = 0.0000 0.0000 0.3333 (  5730 PWs)   bands (ev):

   -44.3165 -27.5127 -21.1691 -21.0535 -21.0535  -9.1890  -8.7372  -8.7372
    -6.1821  -5.6756  -5.2280   6.4198   7.5813   7.5813   8.2352   8.2695
     8.2695   8.6285  10.2492  10.2492

          k = 0.0000 0.0000-0.5000 (  5750 PWs)   bands (ev):

   -44.3158 -27.5096 -21.2048 -21.0515 -21.0515  -9.3035  -8.7321  -8.7321
    -5.9377  -5.6593  -5.0371   5.9343   7.7496   7.7496   7.7640   7.7973
     7.7973   8.4060  10.2038  10.2038

          k = 0.0000 0.1667 0.1667 (  5768 PWs)   bands (ev):

   -44.3172 -27.5155 -21.0957 -21.0940 -21.0555  -8.9473  -8.8279  -8.7418
    -6.4800  -5.6275  -5.4781   6.9406   7.4422   7.5445   8.2307   8.7013
     9.4040   9.4355   9.8037  10.1430

          k = 0.0000 0.1667 0.3333 (  5759 PWs)   bands (ev):

   -44.3158 -27.5091 -21.1683 -21.0917 -21.0516  -9.1352  -8.8221  -8.7306
    -6.0802  -5.5564  -5.1601   6.3108   6.8942   7.5272   7.5971   8.1052
     8.5047   9.4248   9.6300   9.9264

          k = 0.0000 0.1667-0.5000 (  5770 PWs)   bands (ev):

   -44.3150 -27.5059 -21.2044 -21.0901 -21.0497  -9.2315  -8.8054  -8.7250
    -5.9237  -5.5070  -4.9556   5.9308   6.4556   7.4984   7.6680   7.6873
     8.2257   9.4525   9.4675   9.8645

          k = 0.0000 0.3333 0.3333 (  5768 PWs)   bands (ev):

   -44.3143 -27.5019 -21.1675 -21.1658 -21.0479  -9.0534  -8.9552  -8.7174
    -6.0257  -5.1763  -4.9804   5.7336   6.5534   6.5907   7.4384   7.7452
     8.5773   8.8027   9.5679  10.2903

          k = 0.0000 0.3333-0.5000 (  5778 PWs)   bands (ev):

   -44.3136 -27.4983 -21.2035 -21.1659 -21.0461  -9.0853  -8.9442  -8.7108
    -6.0384  -5.0133  -4.7980   5.4555   5.9242   6.5417   7.4784   7.4811
     8.5080   8.7715   9.4584  10.4582

          k = 0.0000-0.5000-0.5000 (  5824 PWs)   bands (ev):

   -44.3129 -27.4945 -21.2031 -21.2031 -21.0443  -9.0102  -9.0102  -8.7036
    -6.1116  -4.7212  -4.7212   5.0937   5.8727   5.9750   7.3788   7.3788
     8.6491   8.6491   9.3270  10.7617

          k = 0.1667 0.1667 0.1667 (  5773 PWs)   bands (ev):

   -44.3165 -27.5122 -21.0935 -21.0935 -21.0923  -8.9554  -8.8148  -8.8148
    -6.2811  -5.4816  -5.4816   6.6924   7.3546   7.3546   8.1076   8.1076
     9.0307   9.7494   9.7494   9.7630

          k = 0.1667 0.1667 0.3333 (  5758 PWs)   bands (ev):

   -44.3151 -27.5056 -21.1671 -21.0902 -21.0893  -9.0884  -8.8265  -8.7881
    -5.9160  -5.4893  -5.1308   6.2082   6.8428   6.9923   7.3236   7.7580
     8.7619   9.4396   9.6547   9.7469

          k = 0.1667 0.1667-0.5000 (  5770 PWs)   bands (ev):

   -44.3143 -27.5023 -21.2034 -21.0890 -21.0872  -9.1702  -8.8105  -8.7746
    -5.7600  -5.4934  -4.9075   5.9308   6.3283   6.7773   7.1386   7.7160
     8.8559   9.2411   9.6183   9.6302

          k = 0.1667 0.3333 0.3333 (  5767 PWs)   bands (ev):

   -44.3136 -27.4985 -21.1651 -21.1643 -21.0859  -9.0176  -8.9320  -8.7773
    -5.7821  -5.1752  -5.0174   5.7872   6.5387   6.5525   6.9314   7.0695
     8.3399   9.4879   9.5304  10.3191

          k = 0.1667 0.3333-0.5000 (  5782 PWs)   bands (ev):

   -44.3129 -27.4950 -21.2014 -21.1635 -21.0840  -9.0468  -8.9239  -8.7651
    -5.7828  -5.0676  -4.8164   5.5791   5.9323   6.5059   6.6982   6.9946
     8.3686   9.4271   9.5070  10.4835

          k = 0.1667-0.5000-0.5000 (  5748 PWs)   bands (ev):

   -44.3122 -27.4914 -21.2004 -21.2004 -21.0820  -8.9841  -8.9841  -8.7542
    -5.8448  -4.7732  -4.7732   5.2643   5.8935   5.9806   6.7207   6.7207
     8.3598   9.4695   9.4695  10.7926

          k = 0.3333 0.3333 0.3333 (  5794 PWs)   bands (ev):

   -44.3122 -27.4918 -21.1615 -21.1601 -21.1601  -8.9567  -8.8842  -8.8842
    -5.3280  -5.0932  -5.0932   5.7973   6.2592   6.2592   6.6557   6.6557
     6.9070  10.1101  10.1101  10.4866

          k = 0.3333 0.3333-0.5000 (  5764 PWs)   bands (ev):

   -44.3115 -27.4884 -21.1972 -21.1594 -21.1577  -8.9693  -8.8936  -8.8596
    -5.2656  -5.1319  -4.8570   5.7561   5.9481   6.0299   6.2020   6.6388
     6.8453  10.2094  10.3349  10.6153

          k = 0.3333-0.5000-0.5000 (  5776 PWs)   bands (ev):

   -44.3108 -27.4851 -21.1952 -21.1952 -21.1561  -8.9300  -8.9300  -8.8534
    -5.2595  -4.8791  -4.8791   5.6143   5.9348   5.9920   6.0382   6.0382
     6.7227  10.4793  10.4793  10.8561

          k =-0.5000-0.5000-0.5000 (  5832 PWs)   bands (ev):

   -44.3101 -27.4820 -21.1925 -21.1925 -21.1925  -8.9020  -8.9020  -8.9020
    -4.9331  -4.9331  -4.9331   5.7943   5.7943   5.7943   5.9297   5.9977
     5.9977  10.8887  10.8887  10.8887

     highest occupied level (ev):    10.8887

!    total energy              =    -291.74283819 Ry
     estimated scf accuracy    <          5.6E-09 Ry

     The total energy is the sum of the following terms:
     one-electron contribution =     -76.83889096 Ry
     hartree contribution      =      61.23721686 Ry
     xc contribution           =     -51.77846474 Ry
     ewald contribution        =    -224.36269934 Ry

     convergence has been achieved in  11 iterations

     negative rho (up, down):  8.094E-04 0.000E+00

     Forces acting on atoms (cartesian axes, Ry/au):

     atom    1 type  1   force =     0.00000000    0.00000000    0.00000000
     atom    2 type  2   force =     0.00000000    0.00000000    0.00000000
     atom    3 type  3   force =     0.00000000    0.00000000    0.00000000
     atom    4 type  3   force =     0.00000000    0.00000000    0.00000000
     atom    5 type  3   force =     0.00000000    0.00000000    0.00000000

     Total force =     0.000000     Total SCF correction =     0.000000


     Computing stress (Cartesian axis) and pressure


     negative rho (up, down):  8.094E-04 0.000E+00
          total   stress  (Ry/bohr**3)                   (kbar)     P=      215.31
   0.00146364   0.00000000   0.00000000          215.31        0.00        0.00
   0.00000000   0.00146364   0.00000000            0.00      215.31        0.00
   0.00000000   0.00000000   0.00146364            0.00        0.00      215.31


     Writing all to output data dir ./CTO_CELLDM_1.save/ :
     XML data file, charge density, pseudopotentials, collected wavefunctions
 
     init_run     :      0.75s CPU      0.86s WALL (       1 calls)
     electrons    :     10.81s CPU     11.75s WALL (       1 calls)
     forces       :      0.19s CPU      0.21s WALL (       1 calls)
     stress       :      1.51s CPU      1.56s WALL (       1 calls)

     Called by init_run:
     wfcinit      :      0.22s CPU      0.26s WALL (       1 calls)
     potinit      :      0.02s CPU      0.03s WALL (       1 calls)
     hinit0       :      0.14s CPU      0.17s WALL (       1 calls)

     Called by electrons:
     c_bands      :      7.87s CPU      8.14s WALL (      11 calls)
     sum_band     :      1.92s CPU      2.07s WALL (      11 calls)
     v_of_rho     :      0.04s CPU      0.04s WALL (      12 calls)
     newd         :      1.03s CPU      1.32s WALL (      12 calls)
     mix_rho      :      0.02s CPU      0.03s WALL (      11 calls)

     Called by c_bands:
     init_us_2    :      0.11s CPU      0.11s WALL (     500 calls)
     init_us_2:cp :      0.11s CPU      0.11s WALL (     500 calls)
     ccgdiagg     :      6.64s CPU      6.87s WALL (     220 calls)
     wfcrot       :      1.35s CPU      1.41s WALL (     220 calls)

     Called by *cgdiagg:
     h_psi        :      5.48s CPU      5.68s WALL (   13105 calls)
     s_psi        :      0.65s CPU      0.67s WALL (   25990 calls)

     Called by h_psi:
     h_psi:calbec :      0.69s CPU      0.72s WALL (   13105 calls)
     vloc_psi     :      4.29s CPU      4.44s WALL (   13105 calls)
     add_vuspsi   :      0.38s CPU      0.40s WALL (   13105 calls)
     hs_1psi      :      4.69s CPU      4.85s WALL (   12885 calls)
     s_1psi       :      0.84s CPU      0.87s WALL (   12885 calls)

     General routines
     calbec       :      1.19s CPU      1.23s WALL (   26310 calls)
     fft          :      0.05s CPU      0.06s WALL (      78 calls)
     ffts         :      0.01s CPU      0.01s WALL (      23 calls)
     fftw         :      3.84s CPU      3.97s WALL (   39450 calls)
     interpolate  :      0.01s CPU      0.02s WALL (      12 calls)
 
     Parallel routines
 
     PWSCF        :     13.47s CPU     16.80s WALL

 
   This run was terminated on:   0:33:12  24Sep2025            

=------------------------------------------------------------------------------=
   JOB DONE.
=------------------------------------------------------------------------------=
TACC:  Shutdown complete. Exiting. 
